
    -----------------------------------------------------------------------
          Psi4: An Open-Source Ab Initio Electronic Structure Package
                               Psi4 1.9.1 release

                         Git: Rev {} zzzzzzz 


    D. G. A. Smith, L. A. Burns, A. C. Simmonett, R. M. Parrish,
    M. C. Schieber, R. Galvelis, P. Kraus, H. Kruse, R. Di Remigio,
    A. Alenaizan, A. M. James, S. Lehtola, J. P. Misiewicz, M. Scheurer,
    R. A. Shaw, J. B. Schriber, Y. Xie, Z. L. Glick, D. A. Sirianni,
    J. S. O'Brien, J. M. Waldrop, A. Kumar, E. G. Hohenstein,
    B. P. Pritchard, B. R. Brooks, H. F. Schaefer III, A. Yu. Sokolov,
    K. Patkowski, A. E. DePrince III, U. Bozkaya, R. A. King,
    F. A. Evangelista, J. M. Turney, T. D. Crawford, C. D. Sherrill,
    J. Chem. Phys. 152(18) 184108 (2020). https://doi.org/10.1063/5.0006002

                            Additional Code Authors
    E. T. Seidl, C. L. Janssen, E. F. Valeev, M. L. Leininger,
    J. F. Gonthier, R. M. Richard, H. R. McAlexander, M. Saitow, X. Wang,
    P. Verma, M. H. Lechner, A. Jiang, S. Behnle, A. G. Heide,
    M. F. Herbst, and D. L. Poole

             Previous Authors, Complete List of Code Contributors,
                       and Citations for Specific Modules
    https://github.com/psi4/psi4/blob/master/codemeta.json
    https://github.com/psi4/psi4/graphs/contributors
    http://psicode.org/psi4manual/master/introduction.html#citing-psifour

    -----------------------------------------------------------------------


    Psi4 started on: Wednesday, 27 May 2026 10:45PM

    Process ID: 877824
    Host:       cos-4a12077.cos.gatech.edu
    PSIDATADIR: /home/vlita3/miniconda3/envs/p4_qcml/share/psi4
    Memory:     200.0 GiB
    Threads:    10
    
  ==> Input QCSchema <==

--------------------------------------------------------------------------
{'driver': 'energy',
 'extras': {},
 'id': '8',
 'keywords': {},
 'model': {'basis': 'aug-cc-pvtz', 'method': 'hf'},
 'molecule': {'extras': {},
              'fix_com': True,
              'fix_orientation': True,
              'fragment_charges': [0.0, 0.0],
              'fragment_multiplicities': [1, 1],
              'fragments': [[0, 1, 2, 3, 4, 5, 6, 7, 8, 9, 10, 11], [12, 13, 14, 15, 16, 17, 18, 19, 20, 21, 22, 23]],
              'geometry': [2.41674051, -2.29693754, 1.32090911, 2.41674051, -2.29693754, -1.32090911, 0.52865655,
                           -3.58904534, 2.64181823, 0.52865655, -3.58904534, -2.64181823, -1.35942929, -4.88115124,
                           1.32090911, -1.35942929, -4.88115124, -1.32090911, 3.88069244, -1.29508601, 2.34509343,
                           3.88069244, -1.29508601, -2.34509343, 0.52865655, -3.58904534, 4.69018686, 0.52865655,
                           -3.58904534, -4.69018686, -2.82338122, -5.88300278, 2.34509343, -2.82338122, -5.88300278,
                           -2.34509343, -2.41674051, 2.29693754, 1.32090911, -2.41674051, 2.29693754, -1.32090911,
                           -0.52865655, 3.58904534, 2.64181823, -0.52865655, 3.58904534, -2.64181823, 1.35942929,
                           4.88115124, 1.32090911, 1.35942929, 4.88115124, -1.32090911, -3.88069244, 1.29508601,
                           2.34509343, -3.88069244, 1.29508601, -2.34509343, -0.52865655, 3.58904534, 4.69018686,
                           -0.52865655, 3.58904534, -4.69018686, 2.82338122, 5.88300278, 2.34509343, 2.82338122,
                           5.88300278, -2.34509343],
              'id': 1,
              'identifiers': {'molecular_formula': 'C12H12',
                              'molecule_hash': 'bc9f9ed77060863a88f97b042fdae0acf269b0b8'},
              'molecular_charge': 0.0,
              'molecular_multiplicity': 1,
              'name': 'C12H12',
              'provenance': {'creator': 'QCElemental',
                             'routine': 'qcelemental.molparse.from_string',
                             'version': '0.29.0'},
              'schema_name': 'qcschema_molecule',
              'schema_version': 2,
              'symbols': ['C', 'C', 'C', 'C', 'C', 'C', 'H', 'H', 'H', 'H', 'H', 'H', 'C', 'C', 'C', 'C', 'C', 'C', 'H',
                          'H', 'H', 'H', 'H', 'H'],
              'validated': True},
 'protocols': {},
 'provenance': {'creator': 'QCElemental', 'routine': 'qcelemental.models.results', 'version': '0.29.0'},
 'schema_name': 'qcschema_input',
 'schema_version': 1}
--------------------------------------------------------------------------

Scratch directory: /fastscratch/vlita3/tmpht3i2sv4_psi_scratch/
   => Libint2 <=

    Primary   basis highest AM E, G, H:  6, 6, 3
    Auxiliary basis highest AM E, G, H:  7, 7, 4
    Onebody   basis highest AM E, G, H:  -, -, -
    Solid Harmonics ordering:            Gaussian

*** tstart() called on cos-4a12077.cos.gatech.edu
*** at Wed May 27 22:45:50 2026

   => Loading Basis Set <=

    Name: AUG-CC-PVTZ
    Role: ORBITAL
    Keyword: BASIS
    atoms 1-6, 13-18  entry C          line   239 file /home/vlita3/miniconda3/envs/p4_qcml/share/psi4/basis/aug-cc-pvtz.gbs 
    atoms 7-12, 19-24 entry H          line    40 file /home/vlita3/miniconda3/envs/p4_qcml/share/psi4/basis/aug-cc-pvtz.gbs 


         ---------------------------------------------------------
                                   SCF
               by Justin Turney, Rob Parrish, Andy Simmonett
                          and Daniel G. A. Smith
                              RHF Reference
                       10 Threads, 204800 MiB Core
         ---------------------------------------------------------

  ==> Geometry <==

    Molecular point group: c2h
    Full point group: C2h

    Geometry (in Bohr), charge = 0, multiplicity = 1:

       Center              X                  Y                   Z               Mass       
    ------------   -----------------  -----------------  -----------------  -----------------
         C            2.416740510000    -2.296937540000     1.320909110000    12.000000000000
         C            2.416740510000    -2.296937540000    -1.320909110000    12.000000000000
         C            0.528656550000    -3.589045340000     2.641818230000    12.000000000000
         C            0.528656550000    -3.589045340000    -2.641818230000    12.000000000000
         C           -1.359429290000    -4.881151240000     1.320909110000    12.000000000000
         C           -1.359429290000    -4.881151240000    -1.320909110000    12.000000000000
         H            3.880692440000    -1.295086010000     2.345093430000     1.007825032230
         H            3.880692440000    -1.295086010000    -2.345093430000     1.007825032230
         H            0.528656550000    -3.589045340000     4.690186860000     1.007825032230
         H            0.528656550000    -3.589045340000    -4.690186860000     1.007825032230
         H           -2.823381220000    -5.883002780000     2.345093430000     1.007825032230
         H           -2.823381220000    -5.883002780000    -2.345093430000     1.007825032230
         C           -2.416740510000     2.296937540000     1.320909110000    12.000000000000
         C           -2.416740510000     2.296937540000    -1.320909110000    12.000000000000
         C           -0.528656550000     3.589045340000     2.641818230000    12.000000000000
         C           -0.528656550000     3.589045340000    -2.641818230000    12.000000000000
         C            1.359429290000     4.881151240000     1.320909110000    12.000000000000
         C            1.359429290000     4.881151240000    -1.320909110000    12.000000000000
         H           -3.880692440000     1.295086010000     2.345093430000     1.007825032230
         H           -3.880692440000     1.295086010000    -2.345093430000     1.007825032230
         H           -0.528656550000     3.589045340000     4.690186860000     1.007825032230
         H           -0.528656550000     3.589045340000    -4.690186860000     1.007825032230
         H            2.823381220000     5.883002780000     2.345093430000     1.007825032230
         H            2.823381220000     5.883002780000    -2.345093430000     1.007825032230

  Running in c2h symmetry.

  Rotational constants: A =      0.05414  B =      0.02238  C =      0.02113 [cm^-1]
  Rotational constants: A =   1623.01711  B =    670.94972  C =    633.48501 [MHz]
  Nuclear repulsion =  623.800616799357044

  Charge       = 0
  Multiplicity = 1
  Electrons    = 84
  Nalpha       = 42
  Nbeta        = 42

  ==> Algorithm <==

  SCF Algorithm Type is DF.
  DIIS enabled.
  MOM disabled.
  Fractional occupation disabled.
  Guess Type is SAD.
  Energy threshold   = 1.00e-06
  Density threshold  = 1.00e-06
  Integral threshold = 1.00e-12

  ==> Primary Basis <==

  Basis Set: AUG-CC-PVTZ
    Blend: AUG-CC-PVTZ
    Number of shells: 276
    Number of basis functions: 828
    Number of Cartesian functions: 960
    Spherical Harmonics?: true
    Max angular momentum: 3

   => Loading Basis Set <=

    Name: (AUG-CC-PVTZ AUX)
    Role: JKFIT
    Keyword: DF_BASIS_SCF
    atoms 1-6, 13-18  entry C          line   162 file /home/vlita3/miniconda3/envs/p4_qcml/share/psi4/basis/aug-cc-pvtz-jkfit.gbs 
    atoms 7-12, 19-24 entry H          line    70 file /home/vlita3/miniconda3/envs/p4_qcml/share/psi4/basis/aug-cc-pvtz-jkfit.gbs 

  ==> Integral Setup <==

  DFHelper Memory: AOs need 8.917 GiB; user supplied 150.000 GiB. 
  Using in-core AOs.

  ==> MemDFJK: Density-Fitted J/K Matrices <==

    J tasked:                   Yes
    K tasked:                   Yes
    wK tasked:                   No
    OpenMP threads:              10
    Memory [MiB]:            153600
    Algorithm:                 Core
    Schwarz Cutoff:           1E-12
    Mask sparsity (%):       5.3321
    Fitting Condition:        1E-10

   => Auxiliary Basis Set <=

  Basis Set: (AUG-CC-PVTZ AUX)
    Blend: AUG-CC-PVTZ-JKFIT
    Number of shells: 528
    Number of basis functions: 1800
    Number of Cartesian functions: 2232
    Spherical Harmonics?: true
    Max angular momentum: 4

  Minimum eigenvalue in the overlap matrix is 2.6229682696E-07.
  Reciprocal condition number of the overlap matrix is 1.5125356328E-08.
    Using symmetric orthogonalization.

  ==> Pre-Iterations <==

  SCF Guess: Superposition of Atomic Densities via on-the-fly atomic UHF (no occupation information).

   -------------------------
    Irrep   Nso     Nmo    
   -------------------------
     Ag       207     207 
     Bg       207     207 
     Au       207     207 
     Bu       207     207 
   -------------------------
    Total     828     828
   -------------------------

  ==> Iterations <==

                           Total Energy        Delta E     RMS |[F,P]|

   @DF-RHF iter SAD:  -460.47182012587467   -4.60472e+02   0.00000e+00 
   @DF-RHF iter   1:  -461.19484792119187   -7.23028e-01   1.86295e-03 DIIS/ADIIS
   @DF-RHF iter   2:  -461.47061317888677   -2.75765e-01   9.64775e-04 DIIS/ADIIS
   @DF-RHF iter   3:  -461.55050034140299   -7.98872e-02   1.63750e-04 DIIS/ADIIS
   @DF-RHF iter   4:  -461.55391102550720   -3.41068e-03   4.24336e-05 DIIS
   @DF-RHF iter   5:  -461.55409047646305   -1.79451e-04   1.34765e-05 DIIS
   @DF-RHF iter   6:  -461.55410999477772   -1.95183e-05   2.49261e-06 DIIS
   @DF-RHF iter   7:  -461.55411081951604   -8.24738e-07   6.04129e-07 DIIS
  Energy and wave function converged.


  ==> Post-Iterations <==

    Orbital Energies [Eh]
    ---------------------

    Doubly Occupied:                                                      

       1Bu   -11.232787     1Ag   -11.232786     1Bg   -11.231980  
       1Au   -11.231979     2Bu   -11.231471     2Ag   -11.231469  
       2Bg   -11.230828     2Au   -11.230828     3Bu   -11.230339  
       3Ag   -11.230338     3Au   -11.229407     3Bg   -11.229406  
       4Ag    -1.144144     4Bu    -1.140564     4Au    -1.009630  
       5Bu    -1.007887     5Ag    -1.007692     4Bg    -1.006630  
       6Ag    -0.818136     5Bg    -0.818035     6Bu    -0.817863  
       5Au    -0.817769     7Ag    -0.703383     7Bu    -0.702115  
       6Bg    -0.639600     6Au    -0.639432     8Ag    -0.612286  
       8Bu    -0.611856     7Au    -0.582982     9Ag    -0.581990  
       9Bu    -0.581941     7Bg    -0.581626    10Ag    -0.511246  
      11Ag    -0.489857    10Bu    -0.489680     8Au    -0.489541  
       8Bg    -0.489274    11Bu    -0.480018     9Au    -0.344517  
      12Bu    -0.330537    12Ag    -0.328960     9Bg    -0.317690  

    Virtual:                                                              

      13Ag     0.028010    10Au     0.031715    13Bu     0.032022  
      14Bu     0.042041    10Bg     0.042859    14Ag     0.043035  
      11Bg     0.049243    15Ag     0.049882    11Au     0.057507  
      15Bu     0.060870    12Au     0.064224    12Bg     0.077342  
      16Ag     0.091923    16Bu     0.104018    17Ag     0.106164  
      13Au     0.106468    17Bu     0.106771    13Bg     0.107791  
      18Bu     0.110758    14Au     0.118528    18Ag     0.120487  
      14Bg     0.121028    19Bu     0.121117    19Ag     0.121635  
      15Au     0.122386    15Bg     0.127784    20Bu     0.129429  
      20Ag     0.134984    21Ag     0.138206    16Au     0.138554  
      21Bu     0.142496    16Bg     0.147235    22Ag     0.148082  
      17Bg     0.150695    22Bu     0.151718    17Au     0.154620  
      23Ag     0.155157    18Bg     0.160999    24Ag     0.163673  
      25Ag     0.165888    19Bg     0.169338    23Bu     0.171136  
      18Au     0.173908    19Au     0.174648    24Bu     0.184557  
      20Au     0.184895    21Au     0.187070    25Bu     0.187663  
      20Bg     0.206657    21Bg     0.215124    22Bg     0.228504  
      26Ag     0.232920    26Bu     0.238196    22Au     0.240073  
      27Bu     0.245459    23Au     0.248321    27Ag     0.256509  
      23Bg     0.258258    28Bu     0.271063    24Au     0.271339  
      29Bu     0.276754    28Ag     0.277263    24Bg     0.281675  
      29Ag     0.289078    30Bu     0.289877    25Au     0.297221  
      30Ag     0.301257    26Au     0.305529    31Ag     0.309058  
      25Bg     0.311118    26Bg     0.313505    27Au     0.316510  
      31Bu     0.317227    27Bg     0.319185    32Ag     0.322591  
      32Bu     0.323341    28Bg     0.335818    33Ag     0.339288  
      33Bu     0.342620    28Au     0.343689    29Au     0.346372  
      34Bu     0.346981    34Ag     0.348741    35Ag     0.353659  
      30Au     0.355685    35Bu     0.357650    29Bg     0.358552  
      36Bu     0.364620    30Bg     0.367827    36Ag     0.381422  
      31Bg     0.386649    31Au     0.392982    32Au     0.397786  
      32Bg     0.403445    37Ag     0.411169    38Ag     0.414649  
      37Bu     0.414913    33Bg     0.416927    38Bu     0.425928  
      33Au     0.431532    39Ag     0.433327    39Bu     0.446576  
      40Ag     0.448615    34Au     0.451480    41Ag     0.460282  
      35Au     0.468581    34Bg     0.470087    40Bu     0.471383  
      42Ag     0.474524    41Bu     0.483105    43Ag     0.486090  
      44Ag     0.489983    36Au     0.490555    35Bg     0.492324  
      42Bu     0.496127    36Bg     0.497820    37Au     0.499619  
      45Ag     0.501417    38Au     0.507021    46Ag     0.512385  
      43Bu     0.514006    37Bg     0.514611    38Bg     0.517624  
      44Bu     0.518436    39Au     0.521391    45Bu     0.525369  
      40Au     0.538602    46Bu     0.538938    47Bu     0.541396  
      39Bg     0.543727    47Ag     0.545259    41Au     0.549200  
      40Bg     0.551413    48Ag     0.555146    42Au     0.555952  
      48Bu     0.557085    49Bu     0.558392    41Bg     0.562193  
      42Bg     0.577945    43Au     0.582106    50Bu     0.584827  
      43Bg     0.589064    49Ag     0.590837    44Bg     0.598220  
      50Ag     0.599483    44Au     0.605997    51Bu     0.611255  
      51Ag     0.618921    45Au     0.631950    45Bg     0.633309  
      46Au     0.646606    52Bu     0.650810    46Bg     0.655111  
      47Au     0.660729    52Ag     0.661782    47Bg     0.665405  
      53Bu     0.668367    53Ag     0.671703    48Au     0.675522  
      54Ag     0.675677    48Bg     0.678886    49Au     0.683943  
      54Bu     0.687185    55Ag     0.692626    55Bu     0.697240  
      49Bg     0.700294    50Au     0.706645    50Bg     0.710653  
      56Ag     0.716275    56Bu     0.717051    51Au     0.720751  
      51Bg     0.730715    57Bu     0.734811    52Au     0.743604  
      57Ag     0.746015    53Au     0.757689    58Ag     0.758665  
      52Bg     0.759671    54Au     0.770184    59Ag     0.782697  
      53Bg     0.789317    54Bg     0.798157    58Bu     0.807936  
      55Au     0.808263    55Bg     0.814363    59Bu     0.815677  
      56Au     0.819892    60Ag     0.822959    56Bg     0.823298  
      60Bu     0.836397    61Bu     0.837748    61Ag     0.840786  
      57Au     0.843096    57Bg     0.847463    58Au     0.849961  
      62Ag     0.859216    58Bg     0.865406    62Bu     0.868622  
      59Au     0.870093    63Bu     0.876453    63Ag     0.878780  
      59Bg     0.889431    64Ag     0.891493    65Ag     0.898815  
      60Au     0.905329    61Au     0.907389    64Bu     0.910474  
      65Bu     0.917676    60Bg     0.918860    66Ag     0.919722  
      66Bu     0.925284    67Ag     0.930992    62Au     0.932169  
      68Ag     0.935396    67Bu     0.938063    61Bg     0.944395  
      68Bu     0.947530    62Bg     0.958252    63Au     0.972389  
      69Ag     0.975897    63Bg     0.976268    64Au     0.984680  
      70Ag     0.994230    69Bu     0.995176    64Bg     1.000279  
      70Bu     1.004905    65Bg     1.008016    71Ag     1.011579  
      65Au     1.012610    72Ag     1.020488    66Bg     1.025283  
      71Bu     1.036360    72Bu     1.053445    73Bu     1.064900  
      73Ag     1.064982    74Ag     1.073087    66Au     1.074297  
      74Bu     1.086161    67Au     1.090333    75Bu     1.095220  
      67Bg     1.095544    68Au     1.097018    75Ag     1.100093  
      69Au     1.107239    68Bg     1.110285    69Bg     1.116598  
      76Bu     1.120887    70Au     1.122470    77Bu     1.129278  
      70Bg     1.134058    71Au     1.134173    76Ag     1.137704  
      77Ag     1.145627    72Au     1.149587    71Bg     1.153111  
      72Bg     1.163611    78Ag     1.164670    79Ag     1.171169  
      78Bu     1.173445    73Au     1.184603    79Bu     1.187189  
      73Bg     1.187377    80Bu     1.187604    74Au     1.194194  
      80Ag     1.197370    81Bu     1.204535    81Ag     1.208011  
      82Ag     1.211679    74Bg     1.225275    75Au     1.225500  
      82Bu     1.230172    83Bu     1.232507    83Ag     1.237448  
      76Au     1.239756    75Bg     1.242938    84Ag     1.246185  
      77Au     1.248917    76Bg     1.252076    84Bu     1.254627  
      85Ag     1.261553    85Bu     1.262883    77Bg     1.275250  
      86Bu     1.276098    86Ag     1.285095    78Bg     1.294054  
      78Au     1.295463    87Ag     1.303233    87Bu     1.310581  
      79Bg     1.314462    88Ag     1.322049    79Au     1.326099  
      80Bg     1.329260    80Au     1.329592    88Bu     1.339098  
      89Ag     1.349900    81Bg     1.351272    81Au     1.357890  
      82Au     1.362541    82Bg     1.365664    89Bu     1.366178  
      83Bg     1.381065    90Bu     1.390079    83Au     1.391095  
      84Bg     1.396771    90Ag     1.399833    91Bu     1.406133  
      91Ag     1.409205    85Bg     1.427100    84Au     1.431975  
      92Ag     1.434821    92Bu     1.436172    85Au     1.444661  
      86Bg     1.448177    93Bu     1.449638    93Ag     1.467287  
      86Au     1.470673    94Bu     1.473686    87Au     1.487630  
      87Bg     1.487872    94Ag     1.493060    95Bu     1.493199  
      88Au     1.502814    95Ag     1.510923    89Au     1.514836  
      88Bg     1.517412    89Bg     1.530688    96Ag     1.545859  
      90Bg     1.547292    96Bu     1.547950    90Au     1.552234  
      97Bu     1.562981    91Au     1.571704    91Bg     1.580317  
      97Ag     1.581562    92Bg     1.586976    98Ag     1.597625  
      98Bu     1.607953    92Au     1.608019    93Bg     1.626079  
      99Ag     1.635156    93Au     1.636266    99Bu     1.645900  
      94Au     1.655019    94Bg     1.669840   100Ag     1.696975  
     100Bu     1.707739    95Au     1.711145    95Bg     1.715789  
      96Au     1.724604   101Bu     1.729799   101Ag     1.733179  
     102Bu     1.736694    96Bg     1.737360   102Ag     1.743355  
      97Bg     1.756404   103Bu     1.764564   103Ag     1.773854  
      97Au     1.774980   104Ag     1.779722    98Au     1.780598  
      98Bg     1.787634   104Bu     1.790969   105Ag     1.809641  
      99Au     1.811930    99Bg     1.822247   105Bu     1.827531  
     106Ag     1.836455   100Au     1.852302   107Ag     1.853828  
     106Bu     1.855096   100Bg     1.856053   108Ag     1.861294  
     107Bu     1.864002   101Au     1.866806   101Bg     1.879661  
     109Ag     1.888762   102Bg     1.897700   102Au     1.901903  
     108Bu     1.909522   109Bu     1.922942   110Ag     1.935806  
     110Bu     1.941807   103Au     1.942117   103Bg     1.946861  
     104Au     1.959014   104Bg     1.966440   111Bu     1.977427  
     111Ag     1.992442   105Au     2.010627   112Ag     2.013647  
     105Bg     2.029554   113Ag     2.034630   112Bu     2.040292  
     114Ag     2.045829   113Bu     2.050573   114Bu     2.054080  
     106Au     2.061902   106Bg     2.065739   115Bu     2.067553  
     115Ag     2.073337   116Bu     2.081047   107Au     2.083242  
     108Au     2.087800   107Bg     2.088417   117Bu     2.093615  
     116Ag     2.097081   108Bg     2.106886   109Au     2.110678  
     117Ag     2.125508   109Bg     2.128804   110Au     2.134745  
     118Bu     2.140979   118Ag     2.145734   111Au     2.148591  
     119Ag     2.154037   110Bg     2.166658   119Bu     2.167853  
     120Bu     2.197061   111Bg     2.198700   112Au     2.210984  
     112Bg     2.211255   113Au     2.218306   120Ag     2.220999  
     121Ag     2.292372   113Bg     2.299253   114Bg     2.301404  
     121Bu     2.303625   114Au     2.309551   115Au     2.320586  
     122Ag     2.334161   115Bg     2.336457   116Au     2.342906  
     116Bg     2.350202   117Au     2.362990   122Bu     2.363941  
     123Ag     2.387607   123Bu     2.390881   117Bg     2.397569  
     124Ag     2.398057   118Au     2.423844   124Bu     2.449744  
     118Bg     2.449945   119Au     2.452276   119Bg     2.464972  
     125Ag     2.469339   120Au     2.491991   125Bu     2.499079  
     121Au     2.509007   120Bg     2.516001   121Bg     2.530205  
     126Ag     2.537611   122Bg     2.540656   122Au     2.546847  
     126Bu     2.547683   123Au     2.563679   123Bg     2.565797  
     127Ag     2.591291   127Bu     2.593199   124Au     2.598589  
     128Ag     2.601593   124Bg     2.609525   125Au     2.621917  
     125Bg     2.630372   128Bu     2.638823   126Au     2.649100  
     126Bg     2.676426   127Bg     2.759630   127Au     2.767822  
     129Bu     2.771862   129Ag     2.775474   128Au     2.796043  
     130Ag     2.800966   128Bg     2.810236   129Au     2.815279  
     129Bg     2.829422   131Ag     2.855105   130Bu     2.857425  
     130Au     2.870347   130Bg     2.870636   131Bu     2.955129  
     132Ag     2.978323   132Bu     3.019198   133Ag     3.039254  
     133Bu     3.102181   134Ag     3.124859   131Bg     3.137197  
     134Bu     3.163590   135Ag     3.171683   131Au     3.173647  
     135Bu     3.196322   132Bg     3.227733   136Ag     3.229002  
     132Au     3.245938   136Bu     3.253797   137Bu     3.306438  
     137Ag     3.314333   133Au     3.315911   138Ag     3.329941  
     138Bu     3.341734   139Bu     3.356923   139Ag     3.359074  
     133Bg     3.366801   134Au     3.392965   140Ag     3.393688  
     140Bu     3.399596   141Bu     3.412159   141Ag     3.415221  
     142Ag     3.420017   142Bu     3.420242   134Bg     3.424704  
     143Bu     3.435921   135Au     3.445607   143Ag     3.454825  
     144Ag     3.455727   135Bg     3.459623   144Bu     3.473994  
     136Au     3.491632   136Bg     3.515925   145Ag     3.518261  
     145Bu     3.519645   137Bg     3.527952   146Ag     3.528347  
     146Bu     3.536136   137Au     3.536379   147Ag     3.549440  
     147Bu     3.550574   138Au     3.552955   148Ag     3.568583  
     138Bg     3.576139   148Bu     3.607370   139Bg     3.610755  
     139Au     3.612035   149Bu     3.638704   149Ag     3.639501  
     150Ag     3.646606   140Bg     3.656872   150Bu     3.668454  
     141Bg     3.672030   140Au     3.680387   142Bg     3.698377  
     151Ag     3.700500   151Bu     3.703454   141Au     3.706373  
     152Ag     3.715570   152Bu     3.721648   153Ag     3.727082  
     142Au     3.731631   153Bu     3.743195   143Bg     3.757475  
     143Au     3.782623   144Au     3.794430   154Bu     3.806565  
     144Bg     3.810211   154Ag     3.828468   145Bg     3.833364  
     145Au     3.836417   155Ag     3.838705   156Ag     3.839601  
     155Bu     3.845564   156Bu     3.864110   146Au     3.867320  
     157Ag     3.871948   157Bu     3.878339   146Bg     3.890710  
     158Bu     3.908035   147Au     3.922614   158Ag     3.927081  
     147Bg     3.929852   159Bu     3.945522   159Ag     3.956279  
     148Bg     3.967285   148Au     3.975245   160Ag     3.976147  
     149Au     3.988032   149Bg     3.990099   160Bu     3.994324  
     161Ag     4.002212   150Bg     4.004854   150Au     4.015378  
     161Bu     4.024238   162Ag     4.026252   151Au     4.041806  
     162Bu     4.052511   151Bg     4.055463   152Bg     4.064240  
     152Au     4.075080   163Ag     4.081008   163Bu     4.082901  
     153Au     4.089127   164Bu     4.103114   153Bg     4.115539  
     164Ag     4.121648   154Au     4.129513   154Bg     4.130003  
     165Bu     4.130723   165Ag     4.146152   155Au     4.146266  
     155Bg     4.152051   166Bu     4.154523   166Ag     4.155161  
     156Bg     4.165294   167Bu     4.166799   156Au     4.170274  
     167Ag     4.176883   157Au     4.194655   157Bg     4.198937  
     158Au     4.214131   168Ag     4.216907   159Au     4.241960  
     168Bu     4.246849   158Bg     4.266081   159Bg     4.287468  
     169Ag     4.307002   169Bu     4.310774   160Au     4.313795  
     161Au     4.335120   160Bg     4.341695   170Ag     4.352982  
     170Bu     4.369001   171Ag     4.387462   161Bg     4.388207  
     171Bu     4.388824   162Au     4.389754   172Ag     4.408873  
     172Bu     4.412388   162Bg     4.412706   173Ag     4.420864  
     163Bg     4.425950   163Au     4.434738   164Au     4.437976  
     173Bu     4.439103   174Ag     4.440695   164Bg     4.453489  
     165Au     4.464241   174Bu     4.465230   175Ag     4.465982  
     175Bu     4.475842   165Bg     4.482290   166Au     4.486684  
     167Au     4.489389   166Bg     4.497058   176Bu     4.504556  
     176Ag     4.508580   168Au     4.509350   177Ag     4.520561  
     177Bu     4.528601   167Bg     4.528901   169Au     4.540694  
     168Bg     4.543339   169Bg     4.555471   170Au     4.625656  
     170Bg     4.634163   171Au     4.714235   171Bg     4.718874  
     178Ag     4.730693   172Au     4.731245   178Bu     4.735601  
     179Bu     4.739315   172Bg     4.751553   179Ag     4.760967  
     180Ag     4.770018   173Au     4.775854   173Bg     4.780486  
     180Bu     4.793154   174Au     4.806847   181Bu     4.810135  
     181Ag     4.821512   174Bg     4.825634   182Ag     4.884640  
     182Bu     4.885801   175Bg     4.899574   175Au     4.906447  
     176Au     4.931525   176Bg     4.947532   183Ag     4.954172  
     183Bu     4.956393   177Au     4.978239   177Bg     4.984233  
     178Au     5.042797   184Ag     5.042980   184Bu     5.044366  
     178Bg     5.065413   185Ag     5.092830   179Au     5.093557  
     185Bu     5.110164   186Ag     5.122743   179Bg     5.126360  
     186Bu     5.130034   187Ag     5.152070   187Bu     5.157395  
     180Bg     5.164219   180Au     5.166599   188Ag     5.175511  
     181Bg     5.180548   188Bu     5.180706   181Au     5.184054  
     189Bu     5.189875   182Au     5.194497   189Ag     5.196731  
     182Bg     5.197625   183Au     5.209132   183Bg     5.210119  
     190Ag     5.214829   190Bu     5.226074   191Ag     5.252686  
     184Au     5.259682   184Bg     5.261683   191Bu     5.267954  
     185Bg     5.286897   185Au     5.293459   186Bg     5.338676  
     186Au     5.346807   192Ag     5.361452   192Bu     5.369359  
     187Au     5.369948   187Bg     5.398991   188Au     5.428265  
     193Ag     5.433981   193Bu     5.442387   188Bg     5.447856  
     194Bu     5.453270   189Au     5.453660   194Ag     5.454976  
     189Bg     5.457051   190Au     5.483490   190Bg     5.489842  
     195Bu     5.518139   195Ag     5.526508   196Bu     5.554284  
     196Ag     5.554652   197Bu     5.756643   191Bg     5.758624  
     197Ag     5.763472   198Ag     5.789563   191Au     5.791108  
     198Bu     5.795271   192Au     5.796036   192Bg     5.806136  
     193Bg     5.871180   193Au     5.872501   194Au     5.876798  
     194Bg     5.882579   195Bg     5.989061   195Au     5.994132  
     199Ag     6.016181   199Bu     6.069212   200Bu     6.252981  
     200Ag     6.257095   196Au     6.263084   201Bu     6.263844  
     196Bg     6.270418   197Bg     6.280442   201Ag     6.282969  
     197Au     6.307709   202Bu     6.389748   198Au     6.390935  
     202Ag     6.391193   199Au     6.397110   198Bg     6.400326  
     199Bg     6.404816   203Ag     6.651777   203Bu     6.666174  
     200Bg     6.673883   200Au     6.678756   204Bu     6.880763  
     204Ag     6.891867   201Au     6.921265   201Bg     6.924414  
     202Au     7.029532   202Bg     7.031640   203Bg     7.230198  
     203Au     7.248643   204Bg     7.423166   204Au     7.427924  
     205Ag    15.976868   205Bg    16.015442   205Bu    16.028556  
     205Au    16.102865   206Ag    17.957342   206Bu    18.548536  
     206Au    19.448717   206Bg    19.503116   207Bu    19.553998  
     207Bg    19.598055   207Ag    19.636977   207Au    19.736936  

    Final Occupation by Irrep:
             Ag    Bg    Au    Bu 
    DOCC [    12,    9,    9,   12 ]
    NA   [    12,    9,    9,   12 ]
    NB   [    12,    9,    9,   12 ]

  @DF-RHF Final Energy:  -461.55411081951604

   => Energetics <=

    Nuclear Repulsion Energy =            623.8006167993570443
    One-Electron Energy =               -1860.9683242613141374
    Two-Electron Energy =                 775.6135966424409389
    Total Energy =                       -461.5541108195160405

Computation Completed


Properties will be evaluated at   0.000000,   0.000000,   0.000000 [a0]

Properties computed using the SCF density matrix


 Multipole Moments:

 ------------------------------------------------------------------------------------
     Multipole            Electronic (a.u.)      Nuclear  (a.u.)        Total (a.u.)
 ------------------------------------------------------------------------------------

 L = 1.  Multiply by 2.5417464519 to convert [e a0] to [Debye]
 Dipole X            :          0.0000000            0.0000000            0.0000000
 Dipole Y            :          0.0000000           -0.0000000           -0.0000000
 Dipole Z            :          0.0000000            0.0000000            0.0000000
 Magnitude           :                                                    0.0000000

 ------------------------------------------------------------------------------------

*** tstop() called on cos-4a12077.cos.gatech.edu at Wed May 27 22:46:11 2026
Module time:
	user time   =     150.15 seconds =       2.50 minutes
	system time =      11.18 seconds =       0.19 minutes
	total time  =         21 seconds =       0.35 minutes
Total time:
	user time   =     150.15 seconds =       2.50 minutes
	system time =      11.18 seconds =       0.19 minutes
	total time  =         21 seconds =       0.35 minutes

    Psi4 stopped on: Wednesday, 27 May 2026 10:46PM
    Psi4 wall time for execution: 0:00:21.55

*** Psi4 exiting successfully. Buy a developer a beer!
