
    -----------------------------------------------------------------------
          Psi4: An Open-Source Ab Initio Electronic Structure Package
                               Psi4 1.9.1 release

                         Git: Rev {} zzzzzzz 


    D. G. A. Smith, L. A. Burns, A. C. Simmonett, R. M. Parrish,
    M. C. Schieber, R. Galvelis, P. Kraus, H. Kruse, R. Di Remigio,
    A. Alenaizan, A. M. James, S. Lehtola, J. P. Misiewicz, M. Scheurer,
    R. A. Shaw, J. B. Schriber, Y. Xie, Z. L. Glick, D. A. Sirianni,
    J. S. O'Brien, J. M. Waldrop, A. Kumar, E. G. Hohenstein,
    B. P. Pritchard, B. R. Brooks, H. F. Schaefer III, A. Yu. Sokolov,
    K. Patkowski, A. E. DePrince III, U. Bozkaya, R. A. King,
    F. A. Evangelista, J. M. Turney, T. D. Crawford, C. D. Sherrill,
    J. Chem. Phys. 152(18) 184108 (2020). https://doi.org/10.1063/5.0006002

                            Additional Code Authors
    E. T. Seidl, C. L. Janssen, E. F. Valeev, M. L. Leininger,
    J. F. Gonthier, R. M. Richard, H. R. McAlexander, M. Saitow, X. Wang,
    P. Verma, M. H. Lechner, A. Jiang, S. Behnle, A. G. Heide,
    M. F. Herbst, and D. L. Poole

             Previous Authors, Complete List of Code Contributors,
                       and Citations for Specific Modules
    https://github.com/psi4/psi4/blob/master/codemeta.json
    https://github.com/psi4/psi4/graphs/contributors
    http://psicode.org/psi4manual/master/introduction.html#citing-psifour

    -----------------------------------------------------------------------


    Psi4 started on: Monday, 15 June 2026 01:43PM

    Process ID: 1125095
    Host:       atl1-1-03-004-15-2.pace.gatech.edu
    PSIDATADIR: /storage/home/hcoda1/5/vlita3/.conda/envs/p4_qcml/share/psi4
    Memory:     250.0 GiB
    Threads:    10
    
  ==> Input QCSchema <==

--------------------------------------------------------------------------
{'driver': 'energy',
 'extras': {},
 'id': '360',
 'keywords': {},
 'model': {'basis': 'aug-cc-pvtz', 'method': 'b2plyp-d3'},
 'molecule': {'extras': {},
              'fix_com': True,
              'fix_orientation': True,
              'fragment_charges': [0.0, 0.0],
              'fragment_multiplicities': [1, 1],
              'fragments': [[0, 1, 2, 3, 4, 5, 6, 7, 8, 9, 10, 11, 12, 13, 14, 15, 16, 17, 18, 19, 20, 21, 22, 23, 24,
                             25, 26, 27, 28, 29, 30, 31, 32, 33, 34, 35, 36, 37, 38, 39, 40, 41, 42, 43, 44, 45, 46, 47,
                             48, 49, 50, 51, 52, 53, 54, 55],
                            [56, 57, 58, 59, 60, 61, 62, 63, 64, 65, 66, 67, 68, 69, 70, 71, 72, 73, 74, 75, 76, 77, 78,
                             79, 80, 81, 82, 83, 84, 85, 86, 87, 88, 89, 90, 91, 92, 93, 94, 95, 96, 97, 98, 99, 100,
                             101, 102, 103, 104, 105, 106, 107, 108, 109, 110, 111]],
              'geometry': [39.18725066, 24.74029443, 4.00810911, 37.91546498, 22.14947992, 3.77378307, 35.03363264,
                           22.26853266, 4.05535227, 33.7429497, 19.68527705, 3.82102623, 30.85922763, 19.81566815,
                           4.07613925, 29.56287551, 17.23808172, 3.82858513, 26.67726371, 17.37792145, 4.05535227,
                           25.37335269, 14.80600419, 3.78890088, 22.48774089, 14.95907201, 3.99866048, 21.17249151,
                           12.3909342, 3.72653992, 18.28876944, 12.55534038, 3.93818925, 16.9621817, 9.99287175,
                           3.67551731, 14.08034936, 10.16483683, 3.9060639, 12.74809244, 7.60425793, 3.66417896,
                           9.86814983, 7.77811273, 3.92685089, 8.53400318, 5.21564411, 3.71142211, 5.65595029,
                           5.38571946, 4.00621939, 4.34070091, 2.8138022, 3.80590842, 2.28845834, 3.00088509,
                           4.00432966, 38.81875407, 25.57933283, 5.86570989, 41.23760351, 24.59667525, 3.76811389,
                           38.46915474, 26.04798491, 2.57191726, 38.38222733, 21.31233124, 1.93318983, 38.68647324,
                           20.86635588, 5.21186465, 34.56120111, 23.10568134, 5.89594551, 34.26073465, 23.5516567,
                           2.61538096, 34.22860931, 18.8424592, 1.98610216, 34.50072987, 18.40782219, 5.27044616,
                           30.37356801, 20.65281683, 5.91484277, 30.10333718, 21.10257164, 2.63238849, 30.06365293,
                           16.39337414, 1.99744051, 30.30175842, 15.95495768, 5.28556397, 26.17648629, 18.2131804,
                           5.89027633, 25.94216025, 18.67049412, 2.60593233, 25.88168901, 13.96507607, 1.95964599,
                           26.09711779, 13.51532125, 5.24776945, 21.97940457, 15.79433096, 5.83169482, 21.76586551,
                           16.25353441, 2.54546109, 21.67893811, 11.5518958, 1.89728503, 21.89247716, 11.09647181,
                           5.18351876, 17.78610229, 13.3962685, 5.76933386, 17.56878379, 13.8516925, 2.48310013,
                           17.45540022, 9.14816417, 1.84248297, 17.68594681, 8.69651963, 5.1287167, 13.59468975,
                           11.01521359, 5.73909824, 13.3528048, 11.4574095, 2.45286451, 13.21863425, 6.7557709,
                           1.82925489, 13.48697536, 6.31168526, 5.1135989, 9.4032772, 8.63604839, 5.76177496,
                           9.12359773, 9.0631265, 2.47743095, 8.983758, 4.35959817, 1.87271859, 9.29178336, 3.92874061,
                           5.15517287, 5.21186465, 6.2493243, 5.84114345, 4.90005984, 6.66506404, 2.55868917,
                           4.72431531, 1.92563092, 1.9747638, 5.00966396, 1.52500898, 5.28367425, 9.39004912,
                           8.90249978, -3.87960774, 8.09936617, 6.31924416, -4.11393378, 5.21753383, 6.43829691,
                           -3.83236458, 3.94574815, 3.84748239, -4.06669062, 12.27188146, 8.77210867, -4.13661049,
                           13.57012331, 11.35158484, -3.88716664, 16.45384537, 11.20985538, -4.11393378, 17.75964613,
                           13.78177263, -3.84748239, 20.64525792, 13.62870482, -4.05724199, 21.95861758, 16.19684262,
                           -3.78512143, 24.84422937, 16.03243645, -3.99677076, 26.16892739, 18.5967948, -3.73409882,
                           29.05075973, 18.42294, -3.96464541, 30.38301665, 20.98540862, -3.72276047, 33.26295926,
                           20.80966409, -3.98732212, 34.5971059, 23.37213272, -3.77000362, 37.47515879, 23.20205737,
                           -4.0648009, 38.79040818, 25.77397463, -3.86637965, 40.84265075, 25.58878146, -4.0648009,
                           38.12144513, 27.06276784, -5.34414548, 37.91924443, 22.33845253, -5.89972496, 38.23104924,
                           21.92271278, -2.61727068, 34.14735109, 24.23006838, -1.93318983, 33.83932573, 24.65903621,
                           -5.21564411, 33.72783189, 19.95172843, -5.82035647, 34.00751135, 19.52465033, -2.53601246,
                           29.91247484, 21.83389565, -1.8878364, 29.64413373, 22.27609157, -5.17218041, 29.53641934,
                           17.57256324, -5.79767975, 29.78019401, 17.13225705, -2.51144602, 25.67759859, 19.43961265,
                           -1.90106448, 25.44516228, 19.8912572, -5.18729821, 25.34500679, 15.19150832, -5.82791537,
                           25.5623253, 14.73797405, -2.54168164, 21.45217098, 17.03777075, -1.95586654, 21.24052165,
                           17.49130502, -5.24210027, 21.15359425, 12.79344587, -5.89027633, 21.3671333, 12.33424242,
                           -2.6040426, 17.24942007, 14.62270076, -2.02011723, 17.03588102, 15.07245558, -5.30635096,
                           16.9546228, 10.37459643, -5.95074757, 17.18894884, 9.91728271, -2.66451384, 13.06934588,
                           12.19440269, -2.05791175, 12.82935067, 12.63281915, -5.34414548, 12.75754107, 7.93684973,
                           -5.97531401, 13.02777191, 7.48520518, -2.69285973, 8.9043895, 9.74531763, -2.04468367,
                           8.57179771, 5.48209549, -5.95641675, 8.87037443, 5.03612012, -2.67585219, 4.75077148,
                           7.27544558, -1.99177134, 4.44652557, 7.72142095, -5.27044616, 1.8953953, 3.99110158,
                           -3.82858513, 4.31424474, 3.00844399, -5.92618113, 4.66384408, 2.53979191, -2.63238849,
                           8.63037921, 10.17995464, -5.3309174, 38.40679377, 26.6621459, -2.03334531],
              'id': 13,
              'identifiers': {'molecular_formula': 'C36H76',
                              'molecule_hash': '5a1027ed7a2872ae334f0d27d7734dfd003db69d'},
              'masses': [12.0, 12.0, 12.0, 12.0, 12.0, 12.0, 12.0, 12.0, 12.0, 12.0, 12.0, 12.0, 12.0, 12.0, 12.0, 12.0,
                         12.0, 12.0, 1.00782503223, 1.00782503223, 1.00782503223, 1.00782503223, 1.00782503223,
                         1.00782503223, 1.00782503223, 1.00782503223, 1.00782503223, 1.00782503223, 1.00782503223,
                         1.00782503223, 1.00782503223, 1.00782503223, 1.00782503223, 1.00782503223, 1.00782503223,
                         1.00782503223, 1.00782503223, 1.00782503223, 1.00782503223, 1.00782503223, 1.00782503223,
                         1.00782503223, 1.00782503223, 1.00782503223, 1.00782503223, 1.00782503223, 1.00782503223,
                         1.00782503223, 1.00782503223, 1.00782503223, 1.00782503223, 1.00782503223, 1.00782503223,
                         1.00782503223, 1.00782503223, 1.00782503223, 12.0, 12.0, 12.0, 12.0, 12.0, 12.0, 12.0, 12.0,
                         12.0, 12.0, 12.0, 12.0, 12.0, 12.0, 12.0, 12.0, 12.0, 12.0, 1.00782503223, 1.00782503223,
                         1.00782503223, 1.00782503223, 1.00782503223, 1.00782503223, 1.00782503223, 1.00782503223,
                         1.00782503223, 1.00782503223, 1.00782503223, 1.00782503223, 1.00782503223, 1.00782503223,
                         1.00782503223, 1.00782503223, 1.00782503223, 1.00782503223, 1.00782503223, 1.00782503223,
                         1.00782503223, 1.00782503223, 1.00782503223, 1.00782503223, 1.00782503223, 1.00782503223,
                         1.00782503223, 1.00782503223, 1.00782503223, 1.00782503223, 1.00782503223, 1.00782503223,
                         1.00782503223, 1.00782503223, 1.00782503223, 1.00782503223, 1.00782503223, 1.00782503223],
              'molecular_charge': 0.0,
              'molecular_multiplicity': 1,
              'name': 'C36H76 ([1],[0])',
              'provenance': {'creator': 'QCElemental',
                             'routine': 'qcelemental.molparse.from_schema',
                             'version': '0.29.0'},
              'real': [False, False, False, False, False, False, False, False, False, False, False, False, False, False,
                       False, False, False, False, False, False, False, False, False, False, False, False, False, False,
                       False, False, False, False, False, False, False, False, False, False, False, False, False, False,
                       False, False, False, False, False, False, False, False, False, False, False, False, False, False,
                       True, True, True, True, True, True, True, True, True, True, True, True, True, True, True, True,
                       True, True, True, True, True, True, True, True, True, True, True, True, True, True, True, True,
                       True, True, True, True, True, True, True, True, True, True, True, True, True, True, True, True,
                       True, True, True, True, True, True, True, True],
              'schema_name': 'qcschema_molecule',
              'schema_version': 2,
              'symbols': ['C', 'C', 'C', 'C', 'C', 'C', 'C', 'C', 'C', 'C', 'C', 'C', 'C', 'C', 'C', 'C', 'C', 'C', 'H',
                          'H', 'H', 'H', 'H', 'H', 'H', 'H', 'H', 'H', 'H', 'H', 'H', 'H', 'H', 'H', 'H', 'H', 'H', 'H',
                          'H', 'H', 'H', 'H', 'H', 'H', 'H', 'H', 'H', 'H', 'H', 'H', 'H', 'H', 'H', 'H', 'H', 'H', 'C',
                          'C', 'C', 'C', 'C', 'C', 'C', 'C', 'C', 'C', 'C', 'C', 'C', 'C', 'C', 'C', 'C', 'C', 'H', 'H',
                          'H', 'H', 'H', 'H', 'H', 'H', 'H', 'H', 'H', 'H', 'H', 'H', 'H', 'H', 'H', 'H', 'H', 'H', 'H',
                          'H', 'H', 'H', 'H', 'H', 'H', 'H', 'H', 'H', 'H', 'H', 'H', 'H', 'H', 'H', 'H', 'H'],
              'validated': True},
 'protocols': {},
 'provenance': {'creator': 'QCElemental', 'routine': 'qcelemental.models.results', 'version': '0.29.0'},
 'schema_name': 'qcschema_input',
 'schema_version': 1}
--------------------------------------------------------------------------

Scratch directory: /tmp/tmpfmg_gkus_psi_scratch/
   => Libint2 <=

    Primary   basis highest AM E, G, H:  6, 6, 3
    Auxiliary basis highest AM E, G, H:  7, 7, 4
    Onebody   basis highest AM E, G, H:  -, -, -
    Solid Harmonics ordering:            Gaussian

*** tstart() called on atl1-1-03-004-15-2.pace.gatech.edu
*** at Mon Jun 15 13:43:08 2026

   => Loading Basis Set <=

    Name: AUG-CC-PVTZ
    Role: ORBITAL
    Keyword: BASIS
    atoms 1-18, 57-74   entry C          line   239 file /storage/home/hcoda1/5/vlita3/.conda/envs/p4_qcml/share/psi4/basis/aug-cc-pvtz.gbs 
    atoms 19-56, 75-112 entry H          line    40 file /storage/home/hcoda1/5/vlita3/.conda/envs/p4_qcml/share/psi4/basis/aug-cc-pvtz.gbs 

   => B2PLYP-D3: Empirical Dispersion <=

    Grimme's -D3 (zero-damping) Dispersion Correction
    Grimme S.; Antony J.; Ehrlich S.; Krieg H. (2010), J. Chem. Phys., 132: 154104
    Parametrisation from:    L. Goerigk, S. Grimme, J. Chem. Theory Comput. 7, 291-309, 2011

        s6 =       0.640000
        s8 =       1.022000
       sr6 =       1.427000
    alpha6 =      14.000000
       sr8 =       1.000000


         ---------------------------------------------------------
                                   SCF
               by Justin Turney, Rob Parrish, Andy Simmonett
                          and Daniel G. A. Smith
                              RKS Reference
                       10 Threads, 256000 MiB Core
         ---------------------------------------------------------

  ==> Geometry <==

    Molecular point group: c1
    Full point group: C1

    Geometry (in Bohr), charge = 0, multiplicity = 1:

       Center              X                  Y                   Z               Mass       
    ------------   -----------------  -----------------  -----------------  -----------------
      Gh(C)          39.187250660000    24.740294430000     4.008109110000    12.000000000000
      Gh(C)          37.915464980000    22.149479920000     3.773783070000    12.000000000000
      Gh(C)          35.033632640000    22.268532660000     4.055352270000    12.000000000000
      Gh(C)          33.742949700000    19.685277050000     3.821026230000    12.000000000000
      Gh(C)          30.859227630000    19.815668150000     4.076139250000    12.000000000000
      Gh(C)          29.562875510000    17.238081720000     3.828585130000    12.000000000000
      Gh(C)          26.677263710000    17.377921450000     4.055352270000    12.000000000000
      Gh(C)          25.373352690000    14.806004190000     3.788900880000    12.000000000000
      Gh(C)          22.487740890000    14.959072010000     3.998660480000    12.000000000000
      Gh(C)          21.172491510000    12.390934200000     3.726539920000    12.000000000000
      Gh(C)          18.288769440000    12.555340380000     3.938189250000    12.000000000000
      Gh(C)          16.962181700000     9.992871750000     3.675517310000    12.000000000000
      Gh(C)          14.080349360000    10.164836830000     3.906063900000    12.000000000000
      Gh(C)          12.748092440000     7.604257930000     3.664178960000    12.000000000000
      Gh(C)           9.868149830000     7.778112730000     3.926850890000    12.000000000000
      Gh(C)           8.534003180000     5.215644110000     3.711422110000    12.000000000000
      Gh(C)           5.655950290000     5.385719460000     4.006219390000    12.000000000000
      Gh(C)           4.340700910000     2.813802200000     3.805908420000    12.000000000000
      Gh(H)           2.288458340000     3.000885090000     4.004329660000     1.007825032230
      Gh(H)          38.818754070000    25.579332830000     5.865709890000     1.007825032230
      Gh(H)          41.237603510000    24.596675250000     3.768113890000     1.007825032230
      Gh(H)          38.469154740000    26.047984910000     2.571917260000     1.007825032230
      Gh(H)          38.382227330000    21.312331240000     1.933189830000     1.007825032230
      Gh(H)          38.686473240000    20.866355880000     5.211864650000     1.007825032230
      Gh(H)          34.561201110000    23.105681340000     5.895945510000     1.007825032230
      Gh(H)          34.260734650000    23.551656700000     2.615380960000     1.007825032230
      Gh(H)          34.228609310000    18.842459200000     1.986102160000     1.007825032230
      Gh(H)          34.500729870000    18.407822190000     5.270446160000     1.007825032230
      Gh(H)          30.373568010000    20.652816830000     5.914842770000     1.007825032230
      Gh(H)          30.103337180000    21.102571640000     2.632388490000     1.007825032230
      Gh(H)          30.063652930000    16.393374140000     1.997440510000     1.007825032230
      Gh(H)          30.301758420000    15.954957680000     5.285563970000     1.007825032230
      Gh(H)          26.176486290000    18.213180400000     5.890276330000     1.007825032230
      Gh(H)          25.942160250000    18.670494120000     2.605932330000     1.007825032230
      Gh(H)          25.881689010000    13.965076070000     1.959645990000     1.007825032230
      Gh(H)          26.097117790000    13.515321250000     5.247769450000     1.007825032230
      Gh(H)          21.979404570000    15.794330960000     5.831694820000     1.007825032230
      Gh(H)          21.765865510000    16.253534410000     2.545461090000     1.007825032230
      Gh(H)          21.678938110000    11.551895800000     1.897285030000     1.007825032230
      Gh(H)          21.892477160000    11.096471810000     5.183518760000     1.007825032230
      Gh(H)          17.786102290000    13.396268500000     5.769333860000     1.007825032230
      Gh(H)          17.568783790000    13.851692500000     2.483100130000     1.007825032230
      Gh(H)          17.455400220000     9.148164170000     1.842482970000     1.007825032230
      Gh(H)          17.685946810000     8.696519630000     5.128716700000     1.007825032230
      Gh(H)          13.594689750000    11.015213590000     5.739098240000     1.007825032230
      Gh(H)          13.352804800000    11.457409500000     2.452864510000     1.007825032230
      Gh(H)          13.218634250000     6.755770900000     1.829254890000     1.007825032230
      Gh(H)          13.486975360000     6.311685260000     5.113598900000     1.007825032230
      Gh(H)           9.403277200000     8.636048390000     5.761774960000     1.007825032230
      Gh(H)           9.123597730000     9.063126500000     2.477430950000     1.007825032230
      Gh(H)           8.983758000000     4.359598170000     1.872718590000     1.007825032230
      Gh(H)           9.291783360000     3.928740610000     5.155172870000     1.007825032230
      Gh(H)           5.211864650000     6.249324300000     5.841143450000     1.007825032230
      Gh(H)           4.900059840000     6.665064040000     2.558689170000     1.007825032230
      Gh(H)           4.724315310000     1.925630920000     1.974763800000     1.007825032230
      Gh(H)           5.009663960000     1.525008980000     5.283674250000     1.007825032230
         C            9.390049120000     8.902499780000    -3.879607740000    12.000000000000
         C            8.099366170000     6.319244160000    -4.113933780000    12.000000000000
         C            5.217533830000     6.438296910000    -3.832364580000    12.000000000000
         C            3.945748150000     3.847482390000    -4.066690620000    12.000000000000
         C           12.271881460000     8.772108670000    -4.136610490000    12.000000000000
         C           13.570123310000    11.351584840000    -3.887166640000    12.000000000000
         C           16.453845370000    11.209855380000    -4.113933780000    12.000000000000
         C           17.759646130000    13.781772630000    -3.847482390000    12.000000000000
         C           20.645257920000    13.628704820000    -4.057241990000    12.000000000000
         C           21.958617580000    16.196842620000    -3.785121430000    12.000000000000
         C           24.844229370000    16.032436450000    -3.996770760000    12.000000000000
         C           26.168927390000    18.596794800000    -3.734098820000    12.000000000000
         C           29.050759730000    18.422940000000    -3.964645410000    12.000000000000
         C           30.383016650000    20.985408620000    -3.722760470000    12.000000000000
         C           33.262959260000    20.809664090000    -3.987322120000    12.000000000000
         C           34.597105900000    23.372132720000    -3.770003620000    12.000000000000
         C           37.475158790000    23.202057370000    -4.064800900000    12.000000000000
         C           38.790408180000    25.773974630000    -3.866379650000    12.000000000000
         H           40.842650750000    25.588781460000    -4.064800900000     1.007825032230
         H           38.121445130000    27.062767840000    -5.344145480000     1.007825032230
         H           37.919244430000    22.338452530000    -5.899724960000     1.007825032230
         H           38.231049240000    21.922712780000    -2.617270680000     1.007825032230
         H           34.147351090000    24.230068380000    -1.933189830000     1.007825032230
         H           33.839325730000    24.659036210000    -5.215644110000     1.007825032230
         H           33.727831890000    19.951728430000    -5.820356470000     1.007825032230
         H           34.007511350000    19.524650330000    -2.536012460000     1.007825032230
         H           29.912474840000    21.833895650000    -1.887836400000     1.007825032230
         H           29.644133730000    22.276091570000    -5.172180410000     1.007825032230
         H           29.536419340000    17.572563240000    -5.797679750000     1.007825032230
         H           29.780194010000    17.132257050000    -2.511446020000     1.007825032230
         H           25.677598590000    19.439612650000    -1.901064480000     1.007825032230
         H           25.445162280000    19.891257200000    -5.187298210000     1.007825032230
         H           25.345006790000    15.191508320000    -5.827915370000     1.007825032230
         H           25.562325300000    14.737974050000    -2.541681640000     1.007825032230
         H           21.452170980000    17.037770750000    -1.955866540000     1.007825032230
         H           21.240521650000    17.491305020000    -5.242100270000     1.007825032230
         H           21.153594250000    12.793445870000    -5.890276330000     1.007825032230
         H           21.367133300000    12.334242420000    -2.604042600000     1.007825032230
         H           17.249420070000    14.622700760000    -2.020117230000     1.007825032230
         H           17.035881020000    15.072455580000    -5.306350960000     1.007825032230
         H           16.954622800000    10.374596430000    -5.950747570000     1.007825032230
         H           17.188948840000     9.917282710000    -2.664513840000     1.007825032230
         H           13.069345880000    12.194402690000    -2.057911750000     1.007825032230
         H           12.829350670000    12.632819150000    -5.344145480000     1.007825032230
         H           12.757541070000     7.936849730000    -5.975314010000     1.007825032230
         H           13.027771910000     7.485205180000    -2.692859730000     1.007825032230
         H            8.904389500000     9.745317630000    -2.044683670000     1.007825032230
         H            8.571797710000     5.482095490000    -5.956416750000     1.007825032230
         H            8.870374430000     5.036120120000    -2.675852190000     1.007825032230
         H            4.750771480000     7.275445580000    -1.991771340000     1.007825032230
         H            4.446525570000     7.721420950000    -5.270446160000     1.007825032230
         H            1.895395300000     3.991101580000    -3.828585130000     1.007825032230
         H            4.314244740000     3.008443990000    -5.926181130000     1.007825032230
         H            4.663844080000     2.539791910000    -2.632388490000     1.007825032230
         H            8.630379210000    10.179954640000    -5.330917400000     1.007825032230
         H           38.406793770000    26.662145900000    -2.033345310000     1.007825032230

  Running in c1 symmetry.

  Rotational constants: A =      0.00674  B =      0.00014  C =      0.00014 [cm^-1]
  Rotational constants: A =    202.03768  B =      4.27015  C =      4.19674 [MHz]
  Nuclear repulsion = 1177.211817927325001

  Charge       = 0
  Multiplicity = 1
  Electrons    = 146
  Nalpha       = 73
  Nbeta        = 73

  ==> Algorithm <==

  SCF Algorithm Type is DF.
  DIIS enabled.
  MOM disabled.
  Fractional occupation disabled.
  Guess Type is SAD.
  Energy threshold   = 1.00e-06
  Density threshold  = 1.00e-06
  Integral threshold = 1.00e-12

  ==> Primary Basis <==

  Basis Set: AUG-CC-PVTZ
    Blend: AUG-CC-PVTZ
    Number of shells: 1188
    Number of basis functions: 3404
    Number of Cartesian functions: 3880
    Spherical Harmonics?: true
    Max angular momentum: 3

  ==> DFT Potential <==

   => LibXC <=

    Version 7.0.0
    S. Lehtola, C. Steigemann, M. J.T. Oliveira, and M. A.L. Marques.,  SoftwareX 7, 1–5 (2018) (10.1016/j.softx.2017.11.002)

   => Composite Functional: B2PLYP-D3ZERO2B <= 

    B2PLYP Double Hybrid Exchange-Correlation Functional

    S. Grimme, J. Chem. Phys., 124, 034108, 2006


    Deriv               =              1
    GGA                 =           TRUE
    Meta                =          FALSE

    Exchange Hybrid     =           TRUE
    MP2 Hybrid          =           TRUE

   => Exchange Functionals <=

    0.4700     XC_GGA_X_B88

   => Exact (HF) Exchange <=

    0.5300               HF 

   => Correlation Functionals <=

    0.7300     XC_GGA_C_LYP

   => MP2 Correlation <=

    0.2700       MP2 

   => LibXC Density Thresholds  <==

    XC_GGA_C_LYP:  1.00E-14 
    XC_GGA_X_B88:  1.00E-15 

   => Molecular Quadrature <=

    Radial Scheme          =       TREUTLER
    Pruning Scheme         =           NONE
    Nuclear Scheme         =       TREUTLER

    Blocking Scheme        =         OCTREE
    BS radius alpha        =              1
    Pruning alpha          =              1
    Radial Points          =             75
    Spherical Points       =            302
    Total Points           =        2287807
    Total Blocks           =          15476
    Max Points             =            256
    Max Functions          =           1540
    Weights Tolerance      =       1.00E-15

   => Loading Basis Set <=

    Name: (AUG-CC-PVTZ AUX)
    Role: JKFIT
    Keyword: DF_BASIS_SCF
    atoms 1-18, 57-74   entry C          line   162 file /storage/home/hcoda1/5/vlita3/.conda/envs/p4_qcml/share/psi4/basis/aug-cc-pvtz-jkfit.gbs 
    atoms 19-56, 75-112 entry H          line    70 file /storage/home/hcoda1/5/vlita3/.conda/envs/p4_qcml/share/psi4/basis/aug-cc-pvtz-jkfit.gbs 

  ==> Integral Setup <==

  ==> DiskDFJK: Density-Fitted J/K Matrices <==

    J tasked:                  Yes
    K tasked:                  Yes
    wK tasked:                  No
    OpenMP threads:             10
    Integrals threads:          10
    Memory [MiB]:           172368
    Algorithm:                Disk
    Integral Cache:           NONE
    Schwarz Cutoff:          1E-12
    Fitting Condition:       1E-10

   => Auxiliary Basis Set <=

  Basis Set: (AUG-CC-PVTZ AUX)
    Blend: AUG-CC-PVTZ-JKFIT
    Number of shells: 2144
    Number of basis functions: 7240
    Number of Cartesian functions: 8896
    Spherical Harmonics?: true
    Max angular momentum: 4

  Minimum eigenvalue in the overlap matrix is 2.2061596341E-08.
  Reciprocal condition number of the overlap matrix is 6.8411741151E-10.
    Using canonical orthogonalization.
  Overall, 1 of 3404 possible MOs eliminated.


  ==> Pre-Iterations <==

  SCF Guess: Superposition of Atomic Densities via on-the-fly atomic UHF (no occupation information).

   -------------------------
    Irrep   Nso     Nmo    
   -------------------------
     A       3404    3403 
   -------------------------
    Total    3404    3403
   -------------------------

  ==> Iterations <==

                           Total Energy        Delta E     RMS |[F,P]|

   @DF-RKS iter SAD:  -706.01640790851434   -7.06016e+02   0.00000e+00 
   @DF-RKS iter   1:  -705.85432625948818    1.62082e-01   4.89820e-04 DIIS/ADIIS
   @DF-RKS iter   2:  -706.33830255884459   -4.83976e-01   4.08681e-04 DIIS/ADIIS
   @DF-RKS iter   3:  -707.37360291677055   -1.03530e+00   1.98493e-05 DIIS
   @DF-RKS iter   4:  -707.37650241609606   -2.89950e-03   9.74216e-06 DIIS
   @DF-RKS iter   5:  -707.37703992483216   -5.37509e-04   2.81332e-06 DIIS
   @DF-RKS iter   6:  -707.37708804707484   -4.81222e-05   3.86564e-07 DIIS
   @DF-RKS iter   7:  -707.37708895330070   -9.06226e-07   1.49408e-07 DIIS
  Energy and wave function converged.


  ==> Post-Iterations <==

   Electrons on quadrature grid:
      Ntotal   =  146.0011319481 ; deviation = 1.132e-03 

    Orbital Energies [Eh]
    ---------------------

    Doubly Occupied:                                                      

       1A    -10.604981     2A    -10.604966     3A    -10.602833  
       4A    -10.602831     5A    -10.602647     6A    -10.602628  
       7A    -10.602519     8A    -10.602479     9A    -10.602400  
      10A    -10.602318    11A    -10.602263    12A    -10.602176  
      13A    -10.602089    14A    -10.602010    15A    -10.601898  
      16A    -10.601787    17A    -10.598744    18A    -10.598592  
      19A     -0.931686    20A     -0.925866    21A     -0.915944  
      22A     -0.902165    23A     -0.884604    24A     -0.863481  
      25A     -0.839124    26A     -0.811708    27A     -0.781979  
      28A     -0.750911    29A     -0.719715    30A     -0.691258  
      31A     -0.669830    32A     -0.664916    33A     -0.661849  
      34A     -0.659507    35A     -0.655990    36A     -0.654884  
      37A     -0.560736    38A     -0.555370    39A     -0.546356  
      40A     -0.534077    41A     -0.518904    42A     -0.501352  
      43A     -0.499347    44A     -0.498348    45A     -0.489622  
      46A     -0.483166    47A     -0.482104    48A     -0.474077  
      49A     -0.461952    50A     -0.457363    51A     -0.454462  
      52A     -0.441999    53A     -0.437315    54A     -0.423439  
      55A     -0.422121    56A     -0.419629    57A     -0.407195  
      58A     -0.404407    59A     -0.394287    60A     -0.393658  
      61A     -0.387140    62A     -0.385153    63A     -0.384925  
      64A     -0.379718    65A     -0.379625    66A     -0.377678  
      67A     -0.377471    68A     -0.377071    69A     -0.376414  
      70A     -0.376269    71A     -0.375695    72A     -0.357888  
      73A     -0.337426  

    Virtual:                                                              

      74A      0.006174    75A      0.007404    76A      0.011920  
      77A      0.013454    78A      0.013612    79A      0.016259  
      80A      0.017878    81A      0.019274    82A      0.022632  
      83A      0.025258    84A      0.028279    85A      0.030515  
      86A      0.030746    87A      0.033677    88A      0.034542  
      89A      0.034936    90A      0.037477    91A      0.039551  
      92A      0.040296    93A      0.041820    94A      0.044992  
      95A      0.045938    96A      0.048369    97A      0.050334  
      98A      0.051113    99A      0.051273   100A      0.052217  
     101A      0.052288   102A      0.055087   103A      0.056820  
     104A      0.057771   105A      0.060068   106A      0.062799  
     107A      0.063246   108A      0.064565   109A      0.066040  
     110A      0.067675   111A      0.068709   112A      0.068876  
     113A      0.074109   114A      0.074877   115A      0.075985  
     116A      0.076037   117A      0.077123   118A      0.077672  
     119A      0.079191   120A      0.080501   121A      0.081483  
     122A      0.082050   123A      0.082731   124A      0.083027  
     125A      0.083294   126A      0.084278   127A      0.085491  
     128A      0.086587   129A      0.086979   130A      0.088224  
     131A      0.092395   132A      0.092893   133A      0.093617  
     134A      0.093933   135A      0.096040   136A      0.097475  
     137A      0.097910   138A      0.098111   139A      0.098295  
     140A      0.100024   141A      0.100319   142A      0.101896  
     143A      0.102801   144A      0.103083   145A      0.105020  
     146A      0.105239   147A      0.106187   148A      0.106265  
     149A      0.110127   150A      0.110534   151A      0.111524  
     152A      0.113870   153A      0.116593   154A      0.117815  
     155A      0.118516   156A      0.118956   157A      0.119458  
     158A      0.120611   159A      0.120866   160A      0.121265  
     161A      0.122197   162A      0.123003   163A      0.123232  
     164A      0.125701   165A      0.127180   166A      0.129535  
     167A      0.129639   168A      0.132096   169A      0.132116  
     170A      0.134259   171A      0.135709   172A      0.136661  
     173A      0.137106   174A      0.137381   175A      0.137768  
     176A      0.139098   177A      0.140715   178A      0.140910  
     179A      0.141326   180A      0.142773   181A      0.145307  
     182A      0.145858   183A      0.146705   184A      0.148032  
     185A      0.150084   186A      0.151290   187A      0.152070  
     188A      0.153532   189A      0.154411   190A      0.154851  
     191A      0.155522   192A      0.156338   193A      0.158512  
     194A      0.159927   195A      0.160487   196A      0.160911  
     197A      0.162351   198A      0.163303   199A      0.164525  
     200A      0.165629   201A      0.166052   202A      0.168315  
     203A      0.169321   204A      0.169548   205A      0.170248  
     206A      0.171765   207A      0.172721   208A      0.173239  
     209A      0.175211   210A      0.175717   211A      0.177574  
     212A      0.179686   213A      0.180736   214A      0.181300  
     215A      0.181911   216A      0.182514   217A      0.183182  
     218A      0.183889   219A      0.184792   220A      0.185506  
     221A      0.186401   222A      0.187380   223A      0.190124  
     224A      0.192016   225A      0.192545   226A      0.193551  
     227A      0.194237   228A      0.194686   229A      0.195700  
     230A      0.196394   231A      0.198344   232A      0.199532  
     233A      0.200042   234A      0.201361   235A      0.203596  
     236A      0.206006   237A      0.206373   238A      0.206922  
     239A      0.207542   240A      0.209628   241A      0.209985  
     242A      0.212252   243A      0.212672   244A      0.212837  
     245A      0.214773   246A      0.215181   247A      0.216188  
     248A      0.216770   249A      0.218701   250A      0.220253  
     251A      0.222113   252A      0.222599   253A      0.222984  
     254A      0.224702   255A      0.226381   256A      0.228418  
     257A      0.229685   258A      0.229872   259A      0.230609  
     260A      0.232900   261A      0.234220   262A      0.235967  
     263A      0.236495   264A      0.236874   265A      0.237378  
     266A      0.238527   267A      0.238768   268A      0.239518  
     269A      0.241579   270A      0.242924   271A      0.243271  
     272A      0.244352   273A      0.245395   274A      0.246668  
     275A      0.247501   276A      0.247591   277A      0.249092  
     278A      0.249868   279A      0.251804   280A      0.252664  
     281A      0.255525   282A      0.255829   283A      0.257849  
     284A      0.258504   285A      0.259320   286A      0.260397  
     287A      0.260718   288A      0.261682   289A      0.261971  
     290A      0.266541   291A      0.267190   292A      0.267868  
     293A      0.269725   294A      0.270683   295A      0.271311  
     296A      0.272555   297A      0.273434   298A      0.273740  
     299A      0.274934   300A      0.277699   301A      0.278183  
     302A      0.279131   303A      0.279610   304A      0.281989  
     305A      0.282545   306A      0.284789   307A      0.286341  
     308A      0.287496   309A      0.289158   310A      0.289781  
     311A      0.290640   312A      0.290858   313A      0.291864  
     314A      0.293309   315A      0.294135   316A      0.296766  
     317A      0.297996   318A      0.300570   319A      0.301785  
     320A      0.303383   321A      0.304562   322A      0.305397  
     323A      0.305938   324A      0.306848   325A      0.307335  
     326A      0.309306   327A      0.310485   328A      0.311288  
     329A      0.312789   330A      0.314001   331A      0.315492  
     332A      0.317805   333A      0.318465   334A      0.319391  
     335A      0.319646   336A      0.321020   337A      0.324163  
     338A      0.324435   339A      0.326399   340A      0.327081  
     341A      0.327898   342A      0.328175   343A      0.330436  
     344A      0.331527   345A      0.332764   346A      0.333403  
     347A      0.334512   348A      0.335192   349A      0.335938  
     350A      0.337132   351A      0.339681   352A      0.339991  
     353A      0.341120   354A      0.341378   355A      0.343130  
     356A      0.343584   357A      0.344863   358A      0.345454  
     359A      0.348221   360A      0.348842   361A      0.349951  
     362A      0.350364   363A      0.351683   364A      0.351981  
     365A      0.353025   366A      0.354094   367A      0.355678  
     368A      0.357520   369A      0.358260   370A      0.359314  
     371A      0.359578   372A      0.360771   373A      0.362223  
     374A      0.364179   375A      0.364346   376A      0.364967  
     377A      0.366449   378A      0.368193   379A      0.368630  
     380A      0.369462   381A      0.369832   382A      0.370010  
     383A      0.371990   384A      0.372868   385A      0.373160  
     386A      0.374491   387A      0.374607   388A      0.375904  
     389A      0.376734   390A      0.377294   391A      0.377688  
     392A      0.379138   393A      0.379739   394A      0.380587  
     395A      0.382631   396A      0.383602   397A      0.384160  
     398A      0.385822   399A      0.386485   400A      0.386678  
     401A      0.387926   402A      0.389629   403A      0.390131  
     404A      0.391080   405A      0.391390   406A      0.392191  
     407A      0.393275   408A      0.394257   409A      0.395241  
     410A      0.397066   411A      0.397774   412A      0.398286  
     413A      0.399264   414A      0.400445   415A      0.401915  
     416A      0.402555   417A      0.403237   418A      0.404273  
     419A      0.406393   420A      0.406922   421A      0.407541  
     422A      0.410062   423A      0.410552   424A      0.411927  
     425A      0.414117   426A      0.414523   427A      0.416009  
     428A      0.416692   429A      0.417792   430A      0.418511  
     431A      0.419772   432A      0.421346   433A      0.422225  
     434A      0.423750   435A      0.425037   436A      0.426402  
     437A      0.427335   438A      0.428323   439A      0.428676  
     440A      0.429413   441A      0.432257   442A      0.433399  
     443A      0.433848   444A      0.434115   445A      0.434677  
     446A      0.436623   447A      0.438751   448A      0.439006  
     449A      0.440723   450A      0.441451   451A      0.442995  
     452A      0.443845   453A      0.444854   454A      0.447398  
     455A      0.450542   456A      0.450823   457A      0.452095  
     458A      0.452734   459A      0.453057   460A      0.453793  
     461A      0.456707   462A      0.458173   463A      0.459642  
     464A      0.460733   465A      0.461038   466A      0.461890  
     467A      0.462540   468A      0.464466   469A      0.465091  
     470A      0.465654   471A      0.466754   472A      0.467230  
     473A      0.467780   474A      0.468990   475A      0.470441  
     476A      0.470971   477A      0.472480   478A      0.472988  
     479A      0.473279   480A      0.473891   481A      0.474892  
     482A      0.475742   483A      0.477121   484A      0.477299  
     485A      0.478591   486A      0.478777   487A      0.480077  
     488A      0.480243   489A      0.481684   490A      0.484644  
     491A      0.486154   492A      0.486834   493A      0.487450  
     494A      0.488332   495A      0.489027   496A      0.490637  
     497A      0.490855   498A      0.491697   499A      0.493110  
     500A      0.494257   501A      0.495086   502A      0.495573  
     503A      0.496430   504A      0.498666   505A      0.500431  
     506A      0.502068   507A      0.503263   508A      0.504542  
     509A      0.504770   510A      0.506995   511A      0.507191  
     512A      0.507705   513A      0.509359   514A      0.510339  
     515A      0.510661   516A      0.512311   517A      0.513283  
     518A      0.513926   519A      0.515911   520A      0.516801  
     521A      0.517959   522A      0.518155   523A      0.520921  
     524A      0.522345   525A      0.523285   526A      0.523974  
     527A      0.525191   528A      0.525724   529A      0.528063  
     530A      0.531227   531A      0.531475   532A      0.533569  
     533A      0.534456   534A      0.536331   535A      0.537385  
     536A      0.538587   537A      0.539400   538A      0.541815  
     539A      0.544646   540A      0.545369   541A      0.546673  
     542A      0.547256   543A      0.548538   544A      0.549522  
     545A      0.552589   546A      0.553463   547A      0.555810  
     548A      0.557063   549A      0.557602   550A      0.558468  
     551A      0.559352   552A      0.560092   553A      0.561221  
     554A      0.561954   555A      0.562825   556A      0.564406  
     557A      0.565056   558A      0.566495   559A      0.567604  
     560A      0.567818   561A      0.569356   562A      0.569986  
     563A      0.570851   564A      0.572672   565A      0.573603  
     566A      0.575403   567A      0.576820   568A      0.579832  
     569A      0.581755   570A      0.583192   571A      0.584389  
     572A      0.585531   573A      0.588241   574A      0.590000  
     575A      0.590630   576A      0.591742   577A      0.592105  
     578A      0.593114   579A      0.593833   580A      0.594508  
     581A      0.596055   582A      0.597190   583A      0.597852  
     584A      0.599201   585A      0.599778   586A      0.600333  
     587A      0.601484   588A      0.602330   589A      0.603931  
     590A      0.604358   591A      0.605844   592A      0.606983  
     593A      0.607406   594A      0.607942   595A      0.608424  
     596A      0.610406   597A      0.610621   598A      0.612912  
     599A      0.614355   600A      0.615613   601A      0.617933  
     602A      0.619932   603A      0.620550   604A      0.621522  
     605A      0.622554   606A      0.624168   607A      0.626026  
     608A      0.626356   609A      0.627741   610A      0.629857  
     611A      0.630664   612A      0.631909   613A      0.632701  
     614A      0.633830   615A      0.634797   616A      0.636820  
     617A      0.637804   618A      0.639107   619A      0.641401  
     620A      0.642876   621A      0.643346   622A      0.643572  
     623A      0.644937   624A      0.647182   625A      0.647588  
     626A      0.650277   627A      0.651490   628A      0.653337  
     629A      0.654331   630A      0.656021   631A      0.656880  
     632A      0.659617   633A      0.660014   634A      0.661539  
     635A      0.662731   636A      0.663948   637A      0.665256  
     638A      0.666360   639A      0.668183   640A      0.668516  
     641A      0.670141   642A      0.672088   643A      0.672424  
     644A      0.672919   645A      0.673343   646A      0.675000  
     647A      0.676070   648A      0.676747   649A      0.677534  
     650A      0.678081   651A      0.679053   652A      0.682873  
     653A      0.683268   654A      0.683497   655A      0.684439  
     656A      0.685358   657A      0.686645   658A      0.687262  
     659A      0.688235   660A      0.689377   661A      0.690120  
     662A      0.692232   663A      0.693019   664A      0.694942  
     665A      0.695776   666A      0.697356   667A      0.699943  
     668A      0.700655   669A      0.702624   670A      0.704338  
     671A      0.705190   672A      0.707387   673A      0.707873  
     674A      0.708973   675A      0.709577   676A      0.712846  
     677A      0.713623   678A      0.714870   679A      0.715162  
     680A      0.716095   681A      0.716196   682A      0.719269  
     683A      0.719839   684A      0.721403   685A      0.721811  
     686A      0.722637   687A      0.726118   688A      0.726369  
     689A      0.727553   690A      0.730071   691A      0.732556  
     692A      0.733485   693A      0.734802   694A      0.736199  
     695A      0.736616   696A      0.738048   697A      0.738914  
     698A      0.739879   699A      0.743186   700A      0.743928  
     701A      0.746346   702A      0.746749   703A      0.748403  
     704A      0.748742   705A      0.750053   706A      0.750976  
     707A      0.751451   708A      0.752259   709A      0.753950  
     710A      0.755570   711A      0.756498   712A      0.759439  
     713A      0.760285   714A      0.761676   715A      0.762211  
     716A      0.763907   717A      0.764822   718A      0.766067  
     719A      0.767304   720A      0.767923   721A      0.769152  
     722A      0.769847   723A      0.772711   724A      0.773621  
     725A      0.775009   726A      0.775610   727A      0.779051  
     728A      0.779753   729A      0.780677   730A      0.781376  
     731A      0.782358   732A      0.783724   733A      0.785643  
     734A      0.788012   735A      0.788313   736A      0.789881  
     737A      0.791321   738A      0.793544   739A      0.796170  
     740A      0.796895   741A      0.797772   742A      0.799382  
     743A      0.799830   744A      0.801279   745A      0.802274  
     746A      0.803292   747A      0.804117   748A      0.805042  
     749A      0.805708   750A      0.807149   751A      0.808165  
     752A      0.808694   753A      0.809975   754A      0.811388  
     755A      0.812598   756A      0.814583   757A      0.815946  
     758A      0.817023   759A      0.817947   760A      0.819575  
     761A      0.820544   762A      0.821648   763A      0.822082  
     764A      0.823173   765A      0.825375   766A      0.826024  
     767A      0.827020   768A      0.828850   769A      0.830526  
     770A      0.831324   771A      0.832430   772A      0.834053  
     773A      0.836277   774A      0.837692   775A      0.840240  
     776A      0.840941   777A      0.841751   778A      0.843432  
     779A      0.844392   780A      0.846522   781A      0.847722  
     782A      0.849341   783A      0.850718   784A      0.851466  
     785A      0.852043   786A      0.852947   787A      0.855408  
     788A      0.856197   789A      0.857284   790A      0.859532  
     791A      0.860997   792A      0.862179   793A      0.863056  
     794A      0.865068   795A      0.865502   796A      0.867142  
     797A      0.867986   798A      0.868618   799A      0.869024  
     800A      0.871373   801A      0.872061   802A      0.874894  
     803A      0.875102   804A      0.876713   805A      0.879188  
     806A      0.879486   807A      0.880116   808A      0.880949  
     809A      0.881073   810A      0.882255   811A      0.882839  
     812A      0.883578   813A      0.884895   814A      0.887317  
     815A      0.888324   816A      0.889288   817A      0.889839  
     818A      0.891852   819A      0.892631   820A      0.894144  
     821A      0.894502   822A      0.897478   823A      0.897976  
     824A      0.900039   825A      0.901519   826A      0.901938  
     827A      0.903970   828A      0.905100   829A      0.905672  
     830A      0.906317   831A      0.907228   832A      0.907792  
     833A      0.910209   834A      0.911348   835A      0.912019  
     836A      0.912974   837A      0.915630   838A      0.917189  
     839A      0.918099   840A      0.919545   841A      0.922679  
     842A      0.924614   843A      0.924803   844A      0.925842  
     845A      0.928392   846A      0.929174   847A      0.930299  
     848A      0.931328   849A      0.932534   850A      0.933267  
     851A      0.935212   852A      0.937440   853A      0.940395  
     854A      0.941830   855A      0.942478   856A      0.942741  
     857A      0.943524   858A      0.944163   859A      0.945463  
     860A      0.947712   861A      0.949905   862A      0.950687  
     863A      0.952447   864A      0.952884   865A      0.953942  
     866A      0.955427   867A      0.957923   868A      0.958300  
     869A      0.960607   870A      0.961611   871A      0.962390  
     872A      0.964766   873A      0.965997   874A      0.968585  
     875A      0.969148   876A      0.970194   877A      0.970986  
     878A      0.972738   879A      0.974229   880A      0.979166  
     881A      0.981468   882A      0.982896   883A      0.984292  
     884A      0.986816   885A      0.989606   886A      0.990243  
     887A      0.990958   888A      0.993474   889A      0.995077  
     890A      0.996109   891A      0.996350   892A      0.997930  
     893A      0.998785   894A      1.000209   895A      1.001255  
     896A      1.003596   897A      1.004340   898A      1.005447  
     899A      1.006891   900A      1.008049   901A      1.008324  
     902A      1.009603   903A      1.010788   904A      1.013625  
     905A      1.015041   906A      1.016231   907A      1.018018  
     908A      1.018904   909A      1.020169   910A      1.022308  
     911A      1.023551   912A      1.024000   913A      1.025053  
     914A      1.025878   915A      1.026880   916A      1.028752  
     917A      1.030527   918A      1.031788   919A      1.032792  
     920A      1.033636   921A      1.036043   922A      1.037011  
     923A      1.038311   924A      1.039389   925A      1.041154  
     926A      1.042148   927A      1.044115   928A      1.046256  
     929A      1.047782   930A      1.049339   931A      1.049402  
     932A      1.051483   933A      1.052276   934A      1.053779  
     935A      1.055071   936A      1.057834   937A      1.058182  
     938A      1.059576   939A      1.061336   940A      1.062386  
     941A      1.063885   942A      1.065429   943A      1.066568  
     944A      1.067390   945A      1.070432   946A      1.071082  
     947A      1.072479   948A      1.074202   949A      1.074417  
     950A      1.075490   951A      1.076988   952A      1.079038  
     953A      1.079951   954A      1.081007   955A      1.083860  
     956A      1.085783   957A      1.087269   958A      1.087928  
     959A      1.090238   960A      1.090422   961A      1.092601  
     962A      1.092983   963A      1.094461   964A      1.095335  
     965A      1.099170   966A      1.100420   967A      1.100858  
     968A      1.102412   969A      1.103914   970A      1.106344  
     971A      1.107353   972A      1.108177   973A      1.109697  
     974A      1.110710   975A      1.112694   976A      1.113319  
     977A      1.114580   978A      1.115869   979A      1.116739  
     980A      1.118307   981A      1.119021   982A      1.119923  
     983A      1.123020   984A      1.125404   985A      1.125581  
     986A      1.128197   987A      1.128737   988A      1.129580  
     989A      1.131009   990A      1.132084   991A      1.132569  
     992A      1.135482   993A      1.136184   994A      1.137136  
     995A      1.138218   996A      1.139444   997A      1.140502  
     998A      1.142453   999A      1.144426  1000A      1.145173  
    1001A      1.146396  1002A      1.147113  1003A      1.149418  
    1004A      1.151171  1005A      1.152910  1006A      1.153876  
    1007A      1.155405  1008A      1.156571  1009A      1.157484  
    1010A      1.159143  1011A      1.160170  1012A      1.161253  
    1013A      1.163198  1014A      1.165237  1015A      1.165740  
    1016A      1.167889  1017A      1.170065  1018A      1.170618  
    1019A      1.172137  1020A      1.173477  1021A      1.175442  
    1022A      1.175874  1023A      1.177123  1024A      1.178430  
    1025A      1.179474  1026A      1.179563  1027A      1.181471  
    1028A      1.182442  1029A      1.184284  1030A      1.185406  
    1031A      1.187479  1032A      1.188935  1033A      1.190971  
    1034A      1.191273  1035A      1.192389  1036A      1.194106  
    1037A      1.195075  1038A      1.195994  1039A      1.197714  
    1040A      1.199346  1041A      1.199664  1042A      1.201723  
    1043A      1.203256  1044A      1.203906  1045A      1.204222  
    1046A      1.204568  1047A      1.206975  1048A      1.207777  
    1049A      1.208724  1050A      1.209135  1051A      1.209812  
    1052A      1.212328  1053A      1.212799  1054A      1.214045  
    1055A      1.215199  1056A      1.217177  1057A      1.218107  
    1058A      1.220056  1059A      1.221362  1060A      1.222483  
    1061A      1.225007  1062A      1.225775  1063A      1.226255  
    1064A      1.227491  1065A      1.230301  1066A      1.230763  
    1067A      1.231377  1068A      1.234284  1069A      1.234394  
    1070A      1.236004  1071A      1.237521  1072A      1.240235  
    1073A      1.240563  1074A      1.241592  1075A      1.242781  
    1076A      1.245113  1077A      1.246088  1078A      1.247044  
    1079A      1.248298  1080A      1.249841  1081A      1.250532  
    1082A      1.251258  1083A      1.252004  1084A      1.254310  
    1085A      1.256093  1086A      1.257465  1087A      1.258019  
    1088A      1.258627  1089A      1.261075  1090A      1.262541  
    1091A      1.263374  1092A      1.264437  1093A      1.265312  
    1094A      1.265602  1095A      1.268047  1096A      1.269402  
    1097A      1.270508  1098A      1.272005  1099A      1.274162  
    1100A      1.275064  1101A      1.275602  1102A      1.278226  
    1103A      1.279455  1104A      1.281137  1105A      1.283595  
    1106A      1.285363  1107A      1.286479  1108A      1.288409  
    1109A      1.289451  1110A      1.291307  1111A      1.291695  
    1112A      1.292764  1113A      1.294922  1114A      1.295816  
    1115A      1.296782  1116A      1.298807  1117A      1.300327  
    1118A      1.301547  1119A      1.302732  1120A      1.304452  
    1121A      1.305505  1122A      1.306633  1123A      1.306910  
    1124A      1.308093  1125A      1.309272  1126A      1.310860  
    1127A      1.311744  1128A      1.314055  1129A      1.314916  
    1130A      1.317655  1131A      1.319036  1132A      1.319916  
    1133A      1.320334  1134A      1.323029  1135A      1.323562  
    1136A      1.324124  1137A      1.326003  1138A      1.327223  
    1139A      1.329231  1140A      1.330309  1141A      1.332996  
    1142A      1.334815  1143A      1.335886  1144A      1.337280  
    1145A      1.337749  1146A      1.338922  1147A      1.341151  
    1148A      1.343399  1149A      1.343892  1150A      1.344329  
    1151A      1.346000  1152A      1.348017  1153A      1.348822  
    1154A      1.351573  1155A      1.352275  1156A      1.353577  
    1157A      1.354647  1158A      1.355820  1159A      1.357262  
    1160A      1.357974  1161A      1.359071  1162A      1.359863  
    1163A      1.360769  1164A      1.361544  1165A      1.361890  
    1166A      1.364525  1167A      1.365146  1168A      1.367420  
    1169A      1.368834  1170A      1.368995  1171A      1.369676  
    1172A      1.370563  1173A      1.371796  1174A      1.372996  
    1175A      1.374220  1176A      1.375871  1177A      1.376685  
    1178A      1.378222  1179A      1.378411  1180A      1.381199  
    1181A      1.383184  1182A      1.384928  1183A      1.386199  
    1184A      1.386896  1185A      1.388045  1186A      1.390147  
    1187A      1.390670  1188A      1.390832  1189A      1.392423  
    1190A      1.392612  1191A      1.395838  1192A      1.397361  
    1193A      1.397487  1194A      1.399555  1195A      1.400077  
    1196A      1.400921  1197A      1.403435  1198A      1.403824  
    1199A      1.406737  1200A      1.407583  1201A      1.409089  
    1202A      1.412752  1203A      1.415733  1204A      1.416699  
    1205A      1.417082  1206A      1.417787  1207A      1.420853  
    1208A      1.422066  1209A      1.423550  1210A      1.424869  
    1211A      1.427672  1212A      1.429281  1213A      1.431287  
    1214A      1.433437  1215A      1.434116  1216A      1.434682  
    1217A      1.437068  1218A      1.438662  1219A      1.438895  
    1220A      1.440532  1221A      1.442694  1222A      1.444510  
    1223A      1.445550  1224A      1.447094  1225A      1.448523  
    1226A      1.450716  1227A      1.452149  1228A      1.453003  
    1229A      1.454197  1230A      1.457218  1231A      1.458543  
    1232A      1.458920  1233A      1.459430  1234A      1.462662  
    1235A      1.463806  1236A      1.466489  1237A      1.468664  
    1238A      1.469173  1239A      1.471540  1240A      1.473673  
    1241A      1.474725  1242A      1.476606  1243A      1.477751  
    1244A      1.481240  1245A      1.482859  1246A      1.484143  
    1247A      1.485728  1248A      1.487689  1249A      1.489463  
    1250A      1.490242  1251A      1.490679  1252A      1.491965  
    1253A      1.492760  1254A      1.495157  1255A      1.498149  
    1256A      1.499852  1257A      1.501051  1258A      1.503115  
    1259A      1.505340  1260A      1.506599  1261A      1.509600  
    1262A      1.510233  1263A      1.512083  1264A      1.513815  
    1265A      1.515362  1266A      1.515870  1267A      1.517375  
    1268A      1.519253  1269A      1.520219  1270A      1.521906  
    1271A      1.523759  1272A      1.523950  1273A      1.524940  
    1274A      1.525925  1275A      1.528097  1276A      1.530280  
    1277A      1.531020  1278A      1.532466  1279A      1.535298  
    1280A      1.536065  1281A      1.537020  1282A      1.538285  
    1283A      1.539937  1284A      1.540610  1285A      1.542484  
    1286A      1.543346  1287A      1.545454  1288A      1.547287  
    1289A      1.547685  1290A      1.549701  1291A      1.550863  
    1292A      1.551649  1293A      1.552319  1294A      1.553196  
    1295A      1.554957  1296A      1.557579  1297A      1.559171  
    1298A      1.561147  1299A      1.561213  1300A      1.564826  
    1301A      1.565498  1302A      1.567037  1303A      1.570883  
    1304A      1.571753  1305A      1.572727  1306A      1.573832  
    1307A      1.576759  1308A      1.577677  1309A      1.578563  
    1310A      1.579116  1311A      1.580518  1312A      1.581905  
    1313A      1.583205  1314A      1.584485  1315A      1.585399  
    1316A      1.586465  1317A      1.587510  1318A      1.589333  
    1319A      1.590648  1320A      1.592396  1321A      1.593436  
    1322A      1.595924  1323A      1.597179  1324A      1.598165  
    1325A      1.598361  1326A      1.599895  1327A      1.602160  
    1328A      1.602326  1329A      1.604469  1330A      1.605242  
    1331A      1.605633  1332A      1.607802  1333A      1.608019  
    1334A      1.610685  1335A      1.611202  1336A      1.612224  
    1337A      1.613629  1338A      1.616849  1339A      1.618534  
    1340A      1.619258  1341A      1.620012  1342A      1.622086  
    1343A      1.623317  1344A      1.624016  1345A      1.625672  
    1346A      1.626794  1347A      1.627452  1348A      1.628989  
    1349A      1.629236  1350A      1.632234  1351A      1.633037  
    1352A      1.633579  1353A      1.637168  1354A      1.638273  
    1355A      1.638932  1356A      1.639823  1357A      1.641683  
    1358A      1.641934  1359A      1.644643  1360A      1.645520  
    1361A      1.647753  1362A      1.648633  1363A      1.650233  
    1364A      1.650675  1365A      1.651718  1366A      1.653429  
    1367A      1.655070  1368A      1.658179  1369A      1.660079  
    1370A      1.660339  1371A      1.661518  1372A      1.662096  
    1373A      1.663906  1374A      1.665852  1375A      1.666204  
    1376A      1.668349  1377A      1.669451  1378A      1.669844  
    1379A      1.670970  1380A      1.673394  1381A      1.673843  
    1382A      1.675744  1383A      1.676836  1384A      1.678113  
    1385A      1.679975  1386A      1.680704  1387A      1.681086  
    1388A      1.684068  1389A      1.685108  1390A      1.686160  
    1391A      1.686611  1392A      1.688112  1393A      1.688931  
    1394A      1.689786  1395A      1.691992  1396A      1.693340  
    1397A      1.693960  1398A      1.695300  1399A      1.696972  
    1400A      1.697615  1401A      1.699160  1402A      1.699666  
    1403A      1.702905  1404A      1.703984  1405A      1.704876  
    1406A      1.705496  1407A      1.707279  1408A      1.707953  
    1409A      1.711016  1410A      1.711385  1411A      1.713017  
    1412A      1.713344  1413A      1.713791  1414A      1.715175  
    1415A      1.716542  1416A      1.717268  1417A      1.718033  
    1418A      1.719822  1419A      1.721368  1420A      1.723679  
    1421A      1.724060  1422A      1.724760  1423A      1.727408  
    1424A      1.727653  1425A      1.728324  1426A      1.729185  
    1427A      1.732472  1428A      1.732974  1429A      1.735291  
    1430A      1.736275  1431A      1.737745  1432A      1.738697  
    1433A      1.740089  1434A      1.741243  1435A      1.743114  
    1436A      1.743735  1437A      1.744919  1438A      1.745351  
    1439A      1.746819  1440A      1.748571  1441A      1.749412  
    1442A      1.751644  1443A      1.752195  1444A      1.754178  
    1445A      1.755471  1446A      1.758249  1447A      1.759247  
    1448A      1.760224  1449A      1.762426  1450A      1.763827  
    1451A      1.765150  1452A      1.766236  1453A      1.768191  
    1454A      1.768926  1455A      1.769967  1456A      1.772075  
    1457A      1.774008  1458A      1.775263  1459A      1.776888  
    1460A      1.779179  1461A      1.781000  1462A      1.781556  
    1463A      1.783528  1464A      1.786327  1465A      1.787727  
    1466A      1.788817  1467A      1.790182  1468A      1.790479  
    1469A      1.793597  1470A      1.794880  1471A      1.794994  
    1472A      1.795887  1473A      1.798930  1474A      1.799570  
    1475A      1.802795  1476A      1.804436  1477A      1.806607  
    1478A      1.808234  1479A      1.810023  1480A      1.810907  
    1481A      1.811511  1482A      1.812334  1483A      1.812944  
    1484A      1.814111  1485A      1.814961  1486A      1.816076  
    1487A      1.817452  1488A      1.818605  1489A      1.820301  
    1490A      1.821438  1491A      1.823264  1492A      1.824955  
    1493A      1.826432  1494A      1.827759  1495A      1.827982  
    1496A      1.829844  1497A      1.830469  1498A      1.833053  
    1499A      1.835550  1500A      1.837644  1501A      1.839284  
    1502A      1.842790  1503A      1.842899  1504A      1.845000  
    1505A      1.847552  1506A      1.847982  1507A      1.849287  
    1508A      1.851497  1509A      1.852881  1510A      1.854716  
    1511A      1.856051  1512A      1.857921  1513A      1.858481  
    1514A      1.860705  1515A      1.861045  1516A      1.863251  
    1517A      1.864414  1518A      1.864873  1519A      1.865500  
    1520A      1.869198  1521A      1.871653  1522A      1.872431  
    1523A      1.876121  1524A      1.877547  1525A      1.878512  
    1526A      1.880590  1527A      1.882009  1528A      1.884217  
    1529A      1.885806  1530A      1.886216  1531A      1.887921  
    1532A      1.890024  1533A      1.893171  1534A      1.894498  
    1535A      1.895719  1536A      1.897333  1537A      1.898642  
    1538A      1.901671  1539A      1.903443  1540A      1.903748  
    1541A      1.905504  1542A      1.907389  1543A      1.908967  
    1544A      1.911291  1545A      1.912129  1546A      1.913199  
    1547A      1.915178  1548A      1.917188  1549A      1.921722  
    1550A      1.923552  1551A      1.925255  1552A      1.926276  
    1553A      1.929341  1554A      1.929859  1555A      1.932593  
    1556A      1.934463  1557A      1.935029  1558A      1.936928  
    1559A      1.938850  1560A      1.940002  1561A      1.942735  
    1562A      1.944723  1563A      1.945325  1564A      1.946871  
    1565A      1.948183  1566A      1.951064  1567A      1.952165  
    1568A      1.952634  1569A      1.955636  1570A      1.957532  
    1571A      1.958171  1572A      1.960756  1573A      1.961343  
    1574A      1.963066  1575A      1.964827  1576A      1.966228  
    1577A      1.967592  1578A      1.968287  1579A      1.970114  
    1580A      1.972281  1581A      1.974705  1582A      1.976267  
    1583A      1.980226  1584A      1.981212  1585A      1.982720  
    1586A      1.984347  1587A      1.986217  1588A      1.987089  
    1589A      1.988922  1590A      1.990987  1591A      1.991045  
    1592A      1.992145  1593A      1.993569  1594A      1.995633  
    1595A      2.000180  1596A      2.001185  1597A      2.001938  
    1598A      2.002892  1599A      2.004390  1600A      2.008069  
    1601A      2.010104  1602A      2.011229  1603A      2.013160  
    1604A      2.014425  1605A      2.014651  1606A      2.015440  
    1607A      2.017360  1608A      2.018924  1609A      2.019990  
    1610A      2.022739  1611A      2.025298  1612A      2.026328  
    1613A      2.027662  1614A      2.030216  1615A      2.033620  
    1616A      2.033653  1617A      2.036791  1618A      2.038165  
    1619A      2.039138  1620A      2.042114  1621A      2.043509  
    1622A      2.044915  1623A      2.046220  1624A      2.047867  
    1625A      2.048529  1626A      2.050492  1627A      2.052960  
    1628A      2.054427  1629A      2.056059  1630A      2.056626  
    1631A      2.057440  1632A      2.059551  1633A      2.061610  
    1634A      2.063514  1635A      2.065386  1636A      2.065986  
    1637A      2.068902  1638A      2.069767  1639A      2.071361  
    1640A      2.072305  1641A      2.073814  1642A      2.077081  
    1643A      2.078128  1644A      2.079424  1645A      2.082298  
    1646A      2.083740  1647A      2.085103  1648A      2.086492  
    1649A      2.089525  1650A      2.090117  1651A      2.090558  
    1652A      2.092545  1653A      2.093747  1654A      2.095510  
    1655A      2.096468  1656A      2.099153  1657A      2.100111  
    1658A      2.102160  1659A      2.103030  1660A      2.105611  
    1661A      2.106270  1662A      2.108214  1663A      2.110670  
    1664A      2.111681  1665A      2.114643  1666A      2.115498  
    1667A      2.116782  1668A      2.121943  1669A      2.122221  
    1670A      2.124659  1671A      2.126334  1672A      2.127530  
    1673A      2.130653  1674A      2.131268  1675A      2.133741  
    1676A      2.134805  1677A      2.137276  1678A      2.140628  
    1679A      2.142848  1680A      2.144523  1681A      2.147720  
    1682A      2.149032  1683A      2.152040  1684A      2.153079  
    1685A      2.154497  1686A      2.158216  1687A      2.160089  
    1688A      2.162704  1689A      2.164749  1690A      2.167047  
    1691A      2.168870  1692A      2.171752  1693A      2.174179  
    1694A      2.176404  1695A      2.178619  1696A      2.179932  
    1697A      2.180803  1698A      2.183670  1699A      2.184055  
    1700A      2.188027  1701A      2.189549  1702A      2.190862  
    1703A      2.193689  1704A      2.197513  1705A      2.198637  
    1706A      2.199555  1707A      2.201252  1708A      2.205670  
    1709A      2.207616  1710A      2.209054  1711A      2.211211  
    1712A      2.212483  1713A      2.214879  1714A      2.216198  
    1715A      2.219367  1716A      2.220427  1717A      2.222297  
    1718A      2.223801  1719A      2.225444  1720A      2.227375  
    1721A      2.231709  1722A      2.232976  1723A      2.234667  
    1724A      2.238020  1725A      2.238707  1726A      2.240180  
    1727A      2.242424  1728A      2.244282  1729A      2.246041  
    1730A      2.248262  1731A      2.248850  1732A      2.251328  
    1733A      2.253461  1734A      2.255060  1735A      2.258565  
    1736A      2.259039  1737A      2.260009  1738A      2.260988  
    1739A      2.262853  1740A      2.265136  1741A      2.266158  
    1742A      2.266759  1743A      2.268429  1744A      2.271936  
    1745A      2.273390  1746A      2.275582  1747A      2.276376  
    1748A      2.280419  1749A      2.283147  1750A      2.286111  
    1751A      2.289009  1752A      2.289870  1753A      2.291877  
    1754A      2.294164  1755A      2.295928  1756A      2.296455  
    1757A      2.298837  1758A      2.301495  1759A      2.301810  
    1760A      2.304311  1761A      2.305268  1762A      2.308833  
    1763A      2.311561  1764A      2.314416  1765A      2.314744  
    1766A      2.317164  1767A      2.319635  1768A      2.321977  
    1769A      2.323392  1770A      2.323485  1771A      2.326522  
    1772A      2.329808  1773A      2.330450  1774A      2.332334  
    1775A      2.334952  1776A      2.336323  1777A      2.338222  
    1778A      2.341747  1779A      2.342430  1780A      2.344562  
    1781A      2.344939  1782A      2.346611  1783A      2.348362  
    1784A      2.349432  1785A      2.351858  1786A      2.353221  
    1787A      2.354079  1788A      2.355289  1789A      2.356089  
    1790A      2.357740  1791A      2.359027  1792A      2.360262  
    1793A      2.364143  1794A      2.365508  1795A      2.367736  
    1796A      2.369822  1797A      2.372445  1798A      2.373320  
    1799A      2.375194  1800A      2.377019  1801A      2.380058  
    1802A      2.381385  1803A      2.382540  1804A      2.385719  
    1805A      2.388847  1806A      2.389466  1807A      2.391741  
    1808A      2.394338  1809A      2.395078  1810A      2.398020  
    1811A      2.399023  1812A      2.402960  1813A      2.403620  
    1814A      2.405032  1815A      2.406913  1816A      2.407718  
    1817A      2.409255  1818A      2.409828  1819A      2.413444  
    1820A      2.414668  1821A      2.417024  1822A      2.418116  
    1823A      2.419471  1824A      2.422748  1825A      2.423041  
    1826A      2.425784  1827A      2.426417  1828A      2.429969  
    1829A      2.432151  1830A      2.432876  1831A      2.434733  
    1832A      2.436836  1833A      2.437736  1834A      2.442288  
    1835A      2.443976  1836A      2.445113  1837A      2.448470  
    1838A      2.450674  1839A      2.452127  1840A      2.453351  
    1841A      2.456754  1842A      2.458538  1843A      2.461200  
    1844A      2.462677  1845A      2.467668  1846A      2.469464  
    1847A      2.470490  1848A      2.472125  1849A      2.472800  
    1850A      2.475425  1851A      2.477233  1852A      2.478385  
    1853A      2.480029  1854A      2.482885  1855A      2.487248  
    1856A      2.488009  1857A      2.490289  1858A      2.493265  
    1859A      2.493704  1860A      2.496099  1861A      2.499109  
    1862A      2.503652  1863A      2.505873  1864A      2.509762  
    1865A      2.510378  1866A      2.512686  1867A      2.514685  
    1868A      2.517848  1869A      2.521115  1870A      2.524394  
    1871A      2.526251  1872A      2.528209  1873A      2.529627  
    1874A      2.535633  1875A      2.539526  1876A      2.542083  
    1877A      2.544315  1878A      2.545645  1879A      2.546702  
    1880A      2.550257  1881A      2.552899  1882A      2.554951  
    1883A      2.557220  1884A      2.558936  1885A      2.561496  
    1886A      2.563164  1887A      2.565114  1888A      2.568009  
    1889A      2.572901  1890A      2.575286  1891A      2.576733  
    1892A      2.580407  1893A      2.584041  1894A      2.584465  
    1895A      2.587152  1896A      2.588446  1897A      2.589894  
    1898A      2.591549  1899A      2.595414  1900A      2.597337  
    1901A      2.600985  1902A      2.603800  1903A      2.604551  
    1904A      2.608810  1905A      2.613082  1906A      2.615861  
    1907A      2.618135  1908A      2.618656  1909A      2.621261  
    1910A      2.623714  1911A      2.627708  1912A      2.629541  
    1913A      2.632076  1914A      2.635552  1915A      2.636316  
    1916A      2.640861  1917A      2.643270  1918A      2.645997  
    1919A      2.647814  1920A      2.651546  1921A      2.656250  
    1922A      2.663375  1923A      2.665521  1924A      2.669962  
    1925A      2.672345  1926A      2.674044  1927A      2.675031  
    1928A      2.676879  1929A      2.682073  1930A      2.686379  
    1931A      2.687556  1932A      2.691255  1933A      2.692945  
    1934A      2.695474  1935A      2.696607  1936A      2.699836  
    1937A      2.701300  1938A      2.702912  1939A      2.704416  
    1940A      2.706014  1941A      2.711277  1942A      2.716265  
    1943A      2.718917  1944A      2.723136  1945A      2.725242  
    1946A      2.726973  1947A      2.728494  1948A      2.730783  
    1949A      2.734422  1950A      2.738241  1951A      2.739581  
    1952A      2.744858  1953A      2.748466  1954A      2.750128  
    1955A      2.754082  1956A      2.755398  1957A      2.759336  
    1958A      2.760894  1959A      2.761872  1960A      2.764389  
    1961A      2.770398  1962A      2.772450  1963A      2.775250  
    1964A      2.776259  1965A      2.779016  1966A      2.784277  
    1967A      2.786951  1968A      2.790151  1969A      2.795066  
    1970A      2.796737  1971A      2.802012  1972A      2.803179  
    1973A      2.804341  1974A      2.807868  1975A      2.810777  
    1976A      2.810784  1977A      2.813048  1978A      2.815707  
    1979A      2.819656  1980A      2.819978  1981A      2.824363  
    1982A      2.825426  1983A      2.826301  1984A      2.828493  
    1985A      2.833269  1986A      2.834849  1987A      2.838348  
    1988A      2.839128  1989A      2.841474  1990A      2.844967  
    1991A      2.851688  1992A      2.854498  1993A      2.859656  
    1994A      2.862689  1995A      2.862940  1996A      2.864637  
    1997A      2.867767  1998A      2.871574  1999A      2.873713  
    2000A      2.877014  2001A      2.878648  2002A      2.879960  
    2003A      2.886260  2004A      2.889876  2005A      2.892774  
    2006A      2.895089  2007A      2.898367  2008A      2.899501  
    2009A      2.902193  2010A      2.903664  2011A      2.904375  
    2012A      2.906128  2013A      2.909643  2014A      2.913689  
    2015A      2.915643  2016A      2.921018  2017A      2.922320  
    2018A      2.925380  2019A      2.930533  2020A      2.932206  
    2021A      2.935104  2022A      2.935406  2023A      2.937865  
    2024A      2.939317  2025A      2.942862  2026A      2.945163  
    2027A      2.949335  2028A      2.950043  2029A      2.953005  
    2030A      2.960077  2031A      2.965443  2032A      2.972238  
    2033A      2.977374  2034A      2.980644  2035A      2.984253  
    2036A      2.987713  2037A      2.994619  2038A      2.995575  
    2039A      3.001175  2040A      3.002357  2041A      3.008512  
    2042A      3.011405  2043A      3.015749  2044A      3.018935  
    2045A      3.027135  2046A      3.031151  2047A      3.035180  
    2048A      3.038552  2049A      3.042317  2050A      3.049716  
    2051A      3.054679  2052A      3.056995  2053A      3.060421  
    2054A      3.060812  2055A      3.069067  2056A      3.069806  
    2057A      3.073391  2058A      3.076651  2059A      3.076719  
    2060A      3.080794  2061A      3.086096  2062A      3.088890  
    2063A      3.091865  2064A      3.094864  2065A      3.097535  
    2066A      3.101691  2067A      3.106870  2068A      3.111796  
    2069A      3.115585  2070A      3.119809  2071A      3.124531  
    2072A      3.130790  2073A      3.134948  2074A      3.142067  
    2075A      3.150660  2076A      3.152914  2077A      3.161832  
    2078A      3.167910  2079A      3.172070  2080A      3.174066  
    2081A      3.176494  2082A      3.181534  2083A      3.189765  
    2084A      3.191733  2085A      3.199270  2086A      3.210860  
    2087A      3.212773  2088A      3.214734  2089A      3.224792  
    2090A      3.231050  2091A      3.235325  2092A      3.241637  
    2093A      3.260989  2094A      3.264438  2095A      3.271359  
    2096A      3.276247  2097A      3.278736  2098A      3.282858  
    2099A      3.285923  2100A      3.302480  2101A      3.311751  
    2102A      3.318233  2103A      3.321035  2104A      3.321491  
    2105A      3.324633  2106A      3.327444  2107A      3.336067  
    2108A      3.344563  2109A      3.345018  2110A      3.347756  
    2111A      3.348405  2112A      3.350879  2113A      3.355199  
    2114A      3.360718  2115A      3.369950  2116A      3.375426  
    2117A      3.377114  2118A      3.387826  2119A      3.394511  
    2120A      3.395256  2121A      3.396631  2122A      3.398232  
    2123A      3.398577  2124A      3.404785  2125A      3.410678  
    2126A      3.413016  2127A      3.415111  2128A      3.417195  
    2129A      3.419768  2130A      3.427481  2131A      3.428772  
    2132A      3.438662  2133A      3.443093  2134A      3.446624  
    2135A      3.446762  2136A      3.458331  2137A      3.465130  
    2138A      3.466153  2139A      3.471845  2140A      3.475341  
    2141A      3.483347  2142A      3.485591  2143A      3.491927  
    2144A      3.493464  2145A      3.500283  2146A      3.502594  
    2147A      3.503636  2148A      3.505152  2149A      3.506839  
    2150A      3.510360  2151A      3.517234  2152A      3.518965  
    2153A      3.519228  2154A      3.525750  2155A      3.528297  
    2156A      3.533062  2157A      3.534335  2158A      3.539357  
    2159A      3.543256  2160A      3.545920  2161A      3.547640  
    2162A      3.549828  2163A      3.552104  2164A      3.563573  
    2165A      3.565178  2166A      3.566523  2167A      3.571663  
    2168A      3.575785  2169A      3.579024  2170A      3.580159  
    2171A      3.588773  2172A      3.590221  2173A      3.598273  
    2174A      3.604688  2175A      3.606909  2176A      3.613142  
    2177A      3.615927  2178A      3.620986  2179A      3.630145  
    2180A      3.633795  2181A      3.635378  2182A      3.638714  
    2183A      3.640343  2184A      3.643187  2185A      3.652619  
    2186A      3.654573  2187A      3.657717  2188A      3.660110  
    2189A      3.663134  2190A      3.667183  2191A      3.668208  
    2192A      3.670597  2193A      3.672282  2194A      3.678369  
    2195A      3.679528  2196A      3.681253  2197A      3.684551  
    2198A      3.686688  2199A      3.691576  2200A      3.693130  
    2201A      3.706889  2202A      3.709140  2203A      3.711931  
    2204A      3.717390  2205A      3.722421  2206A      3.723381  
    2207A      3.732201  2208A      3.734334  2209A      3.740430  
    2210A      3.745069  2211A      3.751582  2212A      3.754129  
    2213A      3.755712  2214A      3.757312  2215A      3.758572  
    2216A      3.762852  2217A      3.764699  2218A      3.774152  
    2219A      3.776844  2220A      3.781783  2221A      3.783646  
    2222A      3.788758  2223A      3.791796  2224A      3.793360  
    2225A      3.796188  2226A      3.796948  2227A      3.798175  
    2228A      3.803136  2229A      3.806568  2230A      3.810033  
    2231A      3.812923  2232A      3.818566  2233A      3.823170  
    2234A      3.824446  2235A      3.826691  2236A      3.827849  
    2237A      3.828935  2238A      3.830445  2239A      3.833096  
    2240A      3.835803  2241A      3.838707  2242A      3.840539  
    2243A      3.842293  2244A      3.843794  2245A      3.848220  
    2246A      3.849285  2247A      3.852386  2248A      3.853804  
    2249A      3.856402  2250A      3.858148  2251A      3.859548  
    2252A      3.869092  2253A      3.872617  2254A      3.875264  
    2255A      3.878077  2256A      3.881660  2257A      3.885420  
    2258A      3.886959  2259A      3.889646  2260A      3.892598  
    2261A      3.901793  2262A      3.902092  2263A      3.906700  
    2264A      3.907968  2265A      3.913744  2266A      3.919362  
    2267A      3.922249  2268A      3.923639  2269A      3.928852  
    2270A      3.931393  2271A      3.932454  2272A      3.935310  
    2273A      3.937242  2274A      3.942517  2275A      3.942662  
    2276A      3.945471  2277A      3.951818  2278A      3.953593  
    2279A      3.955894  2280A      3.958294  2281A      3.962606  
    2282A      3.966964  2283A      3.967812  2284A      3.971549  
    2285A      3.973058  2286A      3.974668  2287A      3.978388  
    2288A      3.981872  2289A      3.985915  2290A      3.989881  
    2291A      3.992242  2292A      3.996587  2293A      4.001042  
    2294A      4.002734  2295A      4.005268  2296A      4.006432  
    2297A      4.008054  2298A      4.015237  2299A      4.019696  
    2300A      4.020664  2301A      4.022910  2302A      4.028841  
    2303A      4.031871  2304A      4.032657  2305A      4.036131  
    2306A      4.038590  2307A      4.041463  2308A      4.044600  
    2309A      4.049127  2310A      4.049678  2311A      4.052992  
    2312A      4.055939  2313A      4.061959  2314A      4.065212  
    2315A      4.066393  2316A      4.069790  2317A      4.073805  
    2318A      4.078398  2319A      4.083463  2320A      4.090037  
    2321A      4.097626  2322A      4.099660  2323A      4.105324  
    2324A      4.110954  2325A      4.111357  2326A      4.112696  
    2327A      4.114504  2328A      4.114764  2329A      4.119494  
    2330A      4.124093  2331A      4.130438  2332A      4.133446  
    2333A      4.139465  2334A      4.140424  2335A      4.144541  
    2336A      4.146985  2337A      4.152569  2338A      4.155845  
    2339A      4.158332  2340A      4.163390  2341A      4.164604  
    2342A      4.166530  2343A      4.169883  2344A      4.174139  
    2345A      4.177323  2346A      4.179829  2347A      4.180990  
    2348A      4.182132  2349A      4.187980  2350A      4.190927  
    2351A      4.192271  2352A      4.194966  2353A      4.197259  
    2354A      4.198480  2355A      4.203291  2356A      4.205888  
    2357A      4.210939  2358A      4.212223  2359A      4.216322  
    2360A      4.218156  2361A      4.220572  2362A      4.222678  
    2363A      4.225467  2364A      4.227293  2365A      4.230266  
    2366A      4.236339  2367A      4.238504  2368A      4.241964  
    2369A      4.242875  2370A      4.244167  2371A      4.246324  
    2372A      4.249837  2373A      4.253629  2374A      4.254619  
    2375A      4.256261  2376A      4.259679  2377A      4.263877  
    2378A      4.266483  2379A      4.268254  2380A      4.271260  
    2381A      4.272322  2382A      4.274818  2383A      4.276718  
    2384A      4.278264  2385A      4.284137  2386A      4.284594  
    2387A      4.287594  2388A      4.291729  2389A      4.292274  
    2390A      4.295023  2391A      4.300979  2392A      4.301667  
    2393A      4.306497  2394A      4.307390  2395A      4.308832  
    2396A      4.311044  2397A      4.315532  2398A      4.317220  
    2399A      4.318155  2400A      4.324003  2401A      4.327802  
    2402A      4.328542  2403A      4.330662  2404A      4.333741  
    2405A      4.336034  2406A      4.337559  2407A      4.339613  
    2408A      4.340883  2409A      4.343748  2410A      4.345118  
    2411A      4.346066  2412A      4.347461  2413A      4.350368  
    2414A      4.350596  2415A      4.353778  2416A      4.357344  
    2417A      4.361004  2418A      4.361782  2419A      4.363239  
    2420A      4.367979  2421A      4.369497  2422A      4.370843  
    2423A      4.373044  2424A      4.376047  2425A      4.378132  
    2426A      4.378709  2427A      4.384218  2428A      4.386344  
    2429A      4.389115  2430A      4.390293  2431A      4.392439  
    2432A      4.394384  2433A      4.395374  2434A      4.398601  
    2435A      4.401355  2436A      4.402922  2437A      4.403956  
    2438A      4.404893  2439A      4.407008  2440A      4.408516  
    2441A      4.411326  2442A      4.413213  2443A      4.416578  
    2444A      4.419312  2445A      4.420392  2446A      4.424521  
    2447A      4.426071  2448A      4.427273  2449A      4.434866  
    2450A      4.435456  2451A      4.437238  2452A      4.439401  
    2453A      4.442016  2454A      4.446313  2455A      4.448140  
    2456A      4.451447  2457A      4.452066  2458A      4.455862  
    2459A      4.458195  2460A      4.460266  2461A      4.461159  
    2462A      4.465789  2463A      4.470728  2464A      4.471982  
    2465A      4.473272  2466A      4.474459  2467A      4.476171  
    2468A      4.477548  2469A      4.481042  2470A      4.482091  
    2471A      4.484387  2472A      4.486141  2473A      4.488192  
    2474A      4.489824  2475A      4.494664  2476A      4.496466  
    2477A      4.500863  2478A      4.502979  2479A      4.504215  
    2480A      4.506631  2481A      4.509132  2482A      4.510599  
    2483A      4.511972  2484A      4.515772  2485A      4.520334  
    2486A      4.522660  2487A      4.524265  2488A      4.527275  
    2489A      4.530142  2490A      4.530855  2491A      4.535347  
    2492A      4.537702  2493A      4.539678  2494A      4.540932  
    2495A      4.541417  2496A      4.544981  2497A      4.546612  
    2498A      4.550099  2499A      4.553307  2500A      4.554236  
    2501A      4.556685  2502A      4.557501  2503A      4.559450  
    2504A      4.562479  2505A      4.567543  2506A      4.568244  
    2507A      4.569848  2508A      4.573785  2509A      4.576507  
    2510A      4.577329  2511A      4.579785  2512A      4.582321  
    2513A      4.583800  2514A      4.587365  2515A      4.587982  
    2516A      4.593065  2517A      4.595830  2518A      4.601018  
    2519A      4.601877  2520A      4.604950  2521A      4.606001  
    2522A      4.607563  2523A      4.611916  2524A      4.612691  
    2525A      4.615126  2526A      4.616961  2527A      4.620972  
    2528A      4.622191  2529A      4.626452  2530A      4.627339  
    2531A      4.629625  2532A      4.630661  2533A      4.632797  
    2534A      4.634289  2535A      4.638777  2536A      4.639642  
    2537A      4.643286  2538A      4.649899  2539A      4.653861  
    2540A      4.658010  2541A      4.658569  2542A      4.661626  
    2543A      4.663156  2544A      4.666138  2545A      4.670645  
    2546A      4.673047  2547A      4.680301  2548A      4.682855  
    2549A      4.684336  2550A      4.687297  2551A      4.691632  
    2552A      4.695178  2553A      4.696480  2554A      4.702097  
    2555A      4.706031  2556A      4.708556  2557A      4.710094  
    2558A      4.712568  2559A      4.715516  2560A      4.718652  
    2561A      4.721546  2562A      4.724540  2563A      4.726792  
    2564A      4.727421  2565A      4.731502  2566A      4.733351  
    2567A      4.736760  2568A      4.737452  2569A      4.739503  
    2570A      4.742040  2571A      4.746119  2572A      4.749852  
    2573A      4.750897  2574A      4.752396  2575A      4.757268  
    2576A      4.758881  2577A      4.761987  2578A      4.763228  
    2579A      4.764587  2580A      4.771720  2581A      4.773733  
    2582A      4.774985  2583A      4.776785  2584A      4.781046  
    2585A      4.781878  2586A      4.783485  2587A      4.785285  
    2588A      4.789818  2589A      4.791439  2590A      4.794570  
    2591A      4.799032  2592A      4.799720  2593A      4.802973  
    2594A      4.805080  2595A      4.806152  2596A      4.808637  
    2597A      4.813654  2598A      4.814563  2599A      4.816353  
    2600A      4.821130  2601A      4.826392  2602A      4.832679  
    2603A      4.834721  2604A      4.836099  2605A      4.838266  
    2606A      4.840439  2607A      4.843428  2608A      4.845927  
    2609A      4.849690  2610A      4.850678  2611A      4.852890  
    2612A      4.854932  2613A      4.862263  2614A      4.864125  
    2615A      4.865318  2616A      4.868085  2617A      4.870257  
    2618A      4.871465  2619A      4.876045  2620A      4.876650  
    2621A      4.878726  2622A      4.881057  2623A      4.891403  
    2624A      4.892947  2625A      4.895775  2626A      4.899332  
    2627A      4.901046  2628A      4.903592  2629A      4.904600  
    2630A      4.907123  2631A      4.907771  2632A      4.914741  
    2633A      4.918003  2634A      4.919658  2635A      4.921549  
    2636A      4.924652  2637A      4.926510  2638A      4.931816  
    2639A      4.934370  2640A      4.937334  2641A      4.940602  
    2642A      4.940887  2643A      4.943506  2644A      4.945736  
    2645A      4.946954  2646A      4.950458  2647A      4.953847  
    2648A      4.956022  2649A      4.959494  2650A      4.961200  
    2651A      4.964069  2652A      4.968398  2653A      4.968826  
    2654A      4.970709  2655A      4.971668  2656A      4.974850  
    2657A      4.976658  2658A      4.978235  2659A      4.980241  
    2660A      4.983609  2661A      4.985400  2662A      4.986726  
    2663A      4.987982  2664A      4.990137  2665A      4.991861  
    2666A      4.996188  2667A      4.999077  2668A      5.002347  
    2669A      5.003141  2670A      5.005755  2671A      5.009798  
    2672A      5.011073  2673A      5.013643  2674A      5.017105  
    2675A      5.019021  2676A      5.019663  2677A      5.022530  
    2678A      5.026597  2679A      5.028350  2680A      5.029438  
    2681A      5.031204  2682A      5.032292  2683A      5.034131  
    2684A      5.035244  2685A      5.036837  2686A      5.039613  
    2687A      5.041213  2688A      5.043073  2689A      5.044915  
    2690A      5.048813  2691A      5.049121  2692A      5.051069  
    2693A      5.052867  2694A      5.055099  2695A      5.056309  
    2696A      5.056585  2697A      5.059306  2698A      5.061513  
    2699A      5.064087  2700A      5.066651  2701A      5.069149  
    2702A      5.070397  2703A      5.073798  2704A      5.074924  
    2705A      5.076580  2706A      5.079716  2707A      5.080737  
    2708A      5.083243  2709A      5.085883  2710A      5.087365  
    2711A      5.089745  2712A      5.090865  2713A      5.093517  
    2714A      5.094281  2715A      5.096418  2716A      5.098229  
    2717A      5.099446  2718A      5.101408  2719A      5.102053  
    2720A      5.105213  2721A      5.106012  2722A      5.109385  
    2723A      5.112660  2724A      5.113494  2725A      5.114271  
    2726A      5.116301  2727A      5.116875  2728A      5.119353  
    2729A      5.119722  2730A      5.123159  2731A      5.123719  
    2732A      5.125835  2733A      5.127175  2734A      5.129292  
    2735A      5.132512  2736A      5.132937  2737A      5.134688  
    2738A      5.136787  2739A      5.137619  2740A      5.138673  
    2741A      5.140751  2742A      5.141885  2743A      5.142883  
    2744A      5.145593  2745A      5.147498  2746A      5.148442  
    2747A      5.150509  2748A      5.155032  2749A      5.156057  
    2750A      5.156889  2751A      5.162230  2752A      5.166147  
    2753A      5.170536  2754A      5.173429  2755A      5.174572  
    2756A      5.176676  2757A      5.177627  2758A      5.180338  
    2759A      5.181863  2760A      5.183236  2761A      5.185385  
    2762A      5.186281  2763A      5.190734  2764A      5.192781  
    2765A      5.194114  2766A      5.196055  2767A      5.199889  
    2768A      5.200486  2769A      5.203624  2770A      5.207160  
    2771A      5.209572  2772A      5.212898  2773A      5.214141  
    2774A      5.214807  2775A      5.216040  2776A      5.217157  
    2777A      5.218289  2778A      5.222312  2779A      5.225302  
    2780A      5.226744  2781A      5.228141  2782A      5.230572  
    2783A      5.233993  2784A      5.235974  2785A      5.238375  
    2786A      5.239626  2787A      5.243400  2788A      5.244846  
    2789A      5.248231  2790A      5.250455  2791A      5.254160  
    2792A      5.255697  2793A      5.257277  2794A      5.260208  
    2795A      5.260685  2796A      5.265935  2797A      5.268820  
    2798A      5.269676  2799A      5.272789  2800A      5.280602  
    2801A      5.286094  2802A      5.287590  2803A      5.291873  
    2804A      5.295385  2805A      5.301339  2806A      5.302750  
    2807A      5.307965  2808A      5.310826  2809A      5.316533  
    2810A      5.317013  2811A      5.320019  2812A      5.322785  
    2813A      5.325637  2814A      5.328671  2815A      5.329312  
    2816A      5.331425  2817A      5.333701  2818A      5.334038  
    2819A      5.336925  2820A      5.338673  2821A      5.340687  
    2822A      5.344447  2823A      5.346080  2824A      5.346667  
    2825A      5.348632  2826A      5.352466  2827A      5.356734  
    2828A      5.357027  2829A      5.359931  2830A      5.360393  
    2831A      5.361521  2832A      5.366611  2833A      5.367678  
    2834A      5.370840  2835A      5.373021  2836A      5.375156  
    2837A      5.375983  2838A      5.377876  2839A      5.378833  
    2840A      5.379196  2841A      5.381316  2842A      5.384909  
    2843A      5.386390  2844A      5.390821  2845A      5.395487  
    2846A      5.399686  2847A      5.401894  2848A      5.403731  
    2849A      5.405984  2850A      5.410149  2851A      5.416526  
    2852A      5.417349  2853A      5.421732  2854A      5.422744  
    2855A      5.423783  2856A      5.426197  2857A      5.427547  
    2858A      5.431307  2859A      5.432716  2860A      5.434171  
    2861A      5.437578  2862A      5.437914  2863A      5.438947  
    2864A      5.440482  2865A      5.443208  2866A      5.444846  
    2867A      5.447825  2868A      5.453381  2869A      5.453803  
    2870A      5.455782  2871A      5.457132  2872A      5.459200  
    2873A      5.460526  2874A      5.462142  2875A      5.464785  
    2876A      5.466276  2877A      5.469834  2878A      5.472077  
    2879A      5.474000  2880A      5.475876  2881A      5.477206  
    2882A      5.479618  2883A      5.483458  2884A      5.484989  
    2885A      5.488425  2886A      5.490872  2887A      5.491414  
    2888A      5.493588  2889A      5.496421  2890A      5.499099  
    2891A      5.506906  2892A      5.510429  2893A      5.512989  
    2894A      5.515066  2895A      5.516340  2896A      5.518477  
    2897A      5.523151  2898A      5.528445  2899A      5.533747  
    2900A      5.537356  2901A      5.541393  2902A      5.541913  
    2903A      5.545729  2904A      5.546275  2905A      5.551405  
    2906A      5.557222  2907A      5.558646  2908A      5.560235  
    2909A      5.560798  2910A      5.564441  2911A      5.569070  
    2912A      5.569299  2913A      5.573922  2914A      5.576647  
    2915A      5.580561  2916A      5.583632  2917A      5.584614  
    2918A      5.592752  2919A      5.597557  2920A      5.601523  
    2921A      5.604899  2922A      5.607675  2923A      5.608259  
    2924A      5.613274  2925A      5.616829  2926A      5.618144  
    2927A      5.624978  2928A      5.632331  2929A      5.633639  
    2930A      5.634931  2931A      5.637142  2932A      5.643317  
    2933A      5.644533  2934A      5.648074  2935A      5.650764  
    2936A      5.651213  2937A      5.653442  2938A      5.656909  
    2939A      5.657360  2940A      5.660627  2941A      5.664818  
    2942A      5.665375  2943A      5.667336  2944A      5.669597  
    2945A      5.671409  2946A      5.671684  2947A      5.673055  
    2948A      5.676604  2949A      5.679178  2950A      5.679686  
    2951A      5.684561  2952A      5.689230  2953A      5.692972  
    2954A      5.696317  2955A      5.697330  2956A      5.700537  
    2957A      5.702607  2958A      5.705598  2959A      5.707262  
    2960A      5.714931  2961A      5.719650  2962A      5.722213  
    2963A      5.724877  2964A      5.727888  2965A      5.729415  
    2966A      5.733802  2967A      5.735109  2968A      5.738430  
    2969A      5.740343  2970A      5.746330  2971A      5.749452  
    2972A      5.752637  2973A      5.756404  2974A      5.756577  
    2975A      5.762304  2976A      5.762641  2977A      5.764560  
    2978A      5.767355  2979A      5.770431  2980A      5.772561  
    2981A      5.774707  2982A      5.776712  2983A      5.777613  
    2984A      5.780343  2985A      5.787532  2986A      5.791407  
    2987A      5.793255  2988A      5.795588  2989A      5.799410  
    2990A      5.800250  2991A      5.804134  2992A      5.807675  
    2993A      5.811557  2994A      5.812251  2995A      5.815746  
    2996A      5.817850  2997A      5.819574  2998A      5.823717  
    2999A      5.824501  3000A      5.825954  3001A      5.829292  
    3002A      5.831198  3003A      5.831243  3004A      5.832557  
    3005A      5.839546  3006A      5.844941  3007A      5.845679  
    3008A      5.846677  3009A      5.848071  3010A      5.851436  
    3011A      5.854429  3012A      5.855822  3013A      5.859427  
    3014A      5.861607  3015A      5.863566  3016A      5.865918  
    3017A      5.868217  3018A      5.877849  3019A      5.883211  
    3020A      5.886166  3021A      5.890922  3022A      5.892421  
    3023A      5.895963  3024A      5.897773  3025A      5.898505  
    3026A      5.903837  3027A      5.905059  3028A      5.907203  
    3029A      5.908180  3030A      5.912645  3031A      5.914513  
    3032A      5.917581  3033A      5.919695  3034A      5.924979  
    3035A      5.925924  3036A      5.928289  3037A      5.934078  
    3038A      5.934818  3039A      5.938118  3040A      5.943575  
    3041A      5.951069  3042A      5.958044  3043A      5.960889  
    3044A      5.962021  3045A      5.963136  3046A      5.967365  
    3047A      5.975711  3048A      5.977330  3049A      5.979008  
    3050A      5.984949  3051A      5.986801  3052A      5.989620  
    3053A      5.994674  3054A      5.994824  3055A      5.997985  
    3056A      6.000685  3057A      6.006376  3058A      6.009475  
    3059A      6.011020  3060A      6.018983  3061A      6.020001  
    3062A      6.022843  3063A      6.023058  3064A      6.026658  
    3065A      6.029623  3066A      6.033981  3067A      6.038615  
    3068A      6.041937  3069A      6.043728  3070A      6.047717  
    3071A      6.052284  3072A      6.053525  3073A      6.054239  
    3074A      6.055374  3075A      6.064236  3076A      6.067391  
    3077A      6.068949  3078A      6.070043  3079A      6.070888  
    3080A      6.072402  3081A      6.076316  3082A      6.079246  
    3083A      6.081231  3084A      6.086099  3085A      6.087696  
    3086A      6.089326  3087A      6.091647  3088A      6.092101  
    3089A      6.097517  3090A      6.098967  3091A      6.106715  
    3092A      6.108432  3093A      6.110750  3094A      6.111527  
    3095A      6.116171  3096A      6.118371  3097A      6.119140  
    3098A      6.124323  3099A      6.127123  3100A      6.130677  
    3101A      6.132465  3102A      6.136206  3103A      6.143424  
    3104A      6.147393  3105A      6.150958  3106A      6.151916  
    3107A      6.154685  3108A      6.158800  3109A      6.163913  
    3110A      6.168903  3111A      6.170964  3112A      6.175402  
    3113A      6.176987  3114A      6.177689  3115A      6.183870  
    3116A      6.187870  3117A      6.190303  3118A      6.191953  
    3119A      6.196057  3120A      6.199645  3121A      6.203003  
    3122A      6.212093  3123A      6.213176  3124A      6.216525  
    3125A      6.217861  3126A      6.223628  3127A      6.227556  
    3128A      6.228314  3129A      6.232153  3130A      6.234829  
    3131A      6.244448  3132A      6.254027  3133A      6.258061  
    3134A      6.265170  3135A      6.267921  3136A      6.270259  
    3137A      6.273680  3138A      6.275539  3139A      6.278631  
    3140A      6.281364  3141A      6.295308  3142A      6.302324  
    3143A      6.302772  3144A      6.312390  3145A      6.318183  
    3146A      6.321938  3147A      6.328960  3148A      6.333761  
    3149A      6.335677  3150A      6.344354  3151A      6.349315  
    3152A      6.361154  3153A      6.372188  3154A      6.394576  
    3155A      6.398870  3156A      6.402943  3157A      6.415058  
    3158A      6.424930  3159A      6.435160  3160A      6.439654  
    3161A      6.447891  3162A      6.454919  3163A      6.463057  
    3164A      6.465450  3165A      6.479822  3166A      6.495065  
    3167A      6.498639  3168A      6.512939  3169A      6.528504  
    3170A      6.535390  3171A      6.541211  3172A      6.546499  
    3173A      6.552916  3174A      6.555309  3175A      6.563558  
    3176A      6.570962  3177A      6.577251  3178A      6.582201  
    3179A      6.587081  3180A      6.595797  3181A      6.600041  
    3182A      6.604731  3183A      6.635357  3184A      6.636595  
    3185A      6.640075  3186A      6.647429  3187A      6.649736  
    3188A      6.660185  3189A      6.662911  3190A      6.665476  
    3191A      6.672940  3192A      6.673538  3193A      6.681529  
    3194A      6.693323  3195A      6.703735  3196A      6.710062  
    3197A      6.716728  3198A      6.737883  3199A      6.759193  
    3200A      6.769291  3201A      6.772381  3202A      6.774037  
    3203A      6.784054  3204A      6.788563  3205A      6.809170  
    3206A      6.810043  3207A      6.822880  3208A      6.830123  
    3209A      6.835080  3210A      6.843431  3211A      6.849686  
    3212A      6.853342  3213A      6.858101  3214A      6.874666  
    3215A      6.896508  3216A      6.911216  3217A      6.916434  
    3218A      6.926045  3219A      6.928437  3220A      6.938183  
    3221A      6.949081  3222A      6.962031  3223A      6.971419  
    3224A      6.986987  3225A      6.995538  3226A      7.003518  
    3227A      7.021517  3228A      7.037480  3229A      7.044374  
    3230A      7.051152  3231A      7.056179  3232A      7.072895  
    3233A      7.074992  3234A      7.087495  3235A      7.092526  
    3236A      7.110945  3237A      7.113057  3238A      7.140258  
    3239A      7.142651  3240A      7.170427  3241A      7.173014  
    3242A      7.208472  3243A      7.209602  3244A      7.236062  
    3245A      7.238709  3246A      7.252303  3247A      7.257562  
    3248A      7.282492  3249A      7.286815  3250A      7.298299  
    3251A      7.316634  3252A      7.326889  3253A      7.340367  
    3254A      7.366537  3255A      7.369337  3256A      7.376890  
    3257A      7.426153  3258A      7.429209  3259A      7.443832  
    3260A      7.456167  3261A      7.465842  3262A      7.525913  
    3263A      7.572474  3264A      7.604042  3265A      7.611626  
    3266A      7.638423  3267A      7.642388  3268A      7.660929  
    3269A      7.663622  3270A      7.678140  3271A      7.680545  
    3272A      7.688628  3273A      7.694073  3274A      7.706648  
    3275A      7.710554  3276A      7.718155  3277A      7.742926  
    3278A      7.754135  3279A      7.767070  3280A      7.827663  
    3281A      7.846792  3282A      7.849139  3283A      7.863596  
    3284A      7.868265  3285A      7.891547  3286A      7.898650  
    3287A      7.931027  3288A      7.937660  3289A      7.945998  
    3290A      7.947717  3291A      7.958278  3292A      7.967427  
    3293A      7.980561  3294A      7.984846  3295A      7.995443  
    3296A      8.003565  3297A      8.006643  3298A      8.013769  
    3299A      8.018225  3300A      8.026314  3301A      8.037789  
    3302A      8.049265  3303A      8.067213  3304A      8.069138  
    3305A      8.085288  3306A      8.120899  3307A      8.154044  
    3308A      8.177809  3309A      8.199131  3310A      8.206622  
    3311A      8.224276  3312A      8.226672  3313A      8.340522  
    3314A      8.352628  3315A      8.395682  3316A      8.399070  
    3317A      8.496191  3318A      8.522233  3319A      8.543558  
    3320A      8.551216  3321A      8.575991  3322A      8.585154  
    3323A      8.600917  3324A      8.607624  3325A      8.627276  
    3326A      8.631333  3327A      8.655499  3328A      8.657165  
    3329A      8.685764  3330A      8.687106  3331A      8.739232  
    3332A      8.740016  3333A      9.066927  3334A      9.093990  
    3335A      9.182517  3336A      9.275737  3337A      9.340579  
    3338A      9.385182  3339A      9.404535  3340A      9.437319  
    3341A      9.444851  3342A      9.447334  3343A      9.489177  
    3344A      9.491756  3345A      9.543261  3346A      9.700692  
    3347A      9.866652  3348A     10.007911  3349A     10.110210  
    3350A     10.490401  3351A     10.492748  3352A     10.552636  
    3353A     10.557626  3354A     10.586428  3355A     10.604072  
    3356A     10.623245  3357A     10.664159  3358A     10.693333  
    3359A     10.755066  3360A     10.775720  3361A     10.878234  
    3362A     10.889871  3363A     10.896930  3364A     11.000221  
    3365A     11.055667  3366A     11.107557  3367A     11.119682  
    3368A     17.574610  3369A     17.583462  3370A     17.815140  
    3371A     17.857045  3372A     17.931131  3373A     17.971983  
    3374A     18.070044  3375A     18.121623  3376A     18.166891  
    3377A     18.188754  3378A     18.249034  3379A     18.469973  
    3380A     18.489251  3381A     18.533174  3382A     18.953825  
    3383A     19.277729  3384A     19.536666  3385A     19.545599  
    3386A     53.607999  3387A     53.617682  3388A     54.169203  
    3389A     54.251623  3390A     54.388805  3391A     54.530652  
    3392A     54.731881  3393A     54.764415  3394A     54.835098  
    3395A     54.997659  3396A     55.026172  3397A     55.289708  
    3398A     55.310515  3399A     55.420357  3400A     56.232047  
    3401A     56.881112  3402A     57.412443  3403A     57.420048  

    Final Occupation by Irrep:
              A 
    DOCC [    73 ]
    NA   [    73 ]
    NB   [    73 ]

  @DF-RKS Final Energy:  -707.37708895330070

   => Energetics <=

    Nuclear Repulsion Energy =           1177.2118179273250007
    One-Electron Energy =               -3288.6116148473688554
    Two-Electron Energy =                1457.7258194466073746
    DFT Exchange-Correlation Energy =     -53.6781390084013594
    Empirical Dispersion Energy =          -0.0249724714631223
    VV10 Nonlocal Energy =                  0.0000000000000000
    Total Energy =                       -707.3770889533006994

Computation Completed


Properties will be evaluated at   0.000000,   0.000000,   0.000000 [a0]

Properties computed using the SCF density matrix


 Multipole Moments:

 ------------------------------------------------------------------------------------
     Multipole            Electronic (a.u.)      Nuclear  (a.u.)        Total (a.u.)
 ------------------------------------------------------------------------------------

 L = 1.  Multiply by 2.5417464519 to convert [e a0] to [Debye]
 Dipole X            :      -3113.8287763         3113.8283486           -0.0004277
 Dipole Y            :      -2170.7513091         2170.7510770           -0.0002320
 Dipole Z            :        574.6164336         -574.6146922            0.0017414
 Magnitude           :                                                    0.0018081

 ------------------------------------------------------------------------------------

*** tstop() called on atl1-1-03-004-15-2.pace.gatech.edu at Mon Jun 15 14:42:55 2026
Module time:
	user time   =   24246.61 seconds =     404.11 minutes
	system time =    1290.84 seconds =      21.51 minutes
	total time  =       3587 seconds =      59.78 minutes
Total time:
	user time   =   24246.61 seconds =     404.11 minutes
	system time =    1290.84 seconds =      21.51 minutes
	total time  =       3587 seconds =      59.78 minutes

*** tstart() called on atl1-1-03-004-15-2.pace.gatech.edu
*** at Mon Jun 15 14:42:55 2026

   => Loading Basis Set <=

    Name: (AUG-CC-PVTZ AUX)
    Role: RIFIT
    Keyword: DF_BASIS_MP2
    atoms 1-18, 57-74   entry C          line   148 file /storage/home/hcoda1/5/vlita3/.conda/envs/p4_qcml/share/psi4/basis/aug-cc-pvtz-ri.gbs 
    atoms 19-56, 75-112 entry H          line    30 file /storage/home/hcoda1/5/vlita3/.conda/envs/p4_qcml/share/psi4/basis/aug-cc-pvtz-ri.gbs 

	 --------------------------------------------------------
	                          DF-MP2                         
	      2nd-Order Density-Fitted Moller-Plesset Theory     
	              RMP2 Wavefunction,  10 Threads             
	                                                         
	        Rob Parrish, Justin Turney, Andy Simmonett,      
	           Ed Hohenstein, and C. David Sherrill          
	 --------------------------------------------------------

   => Auxiliary Basis Set <=

  Basis Set: (AUG-CC-PVTZ AUX)
    Blend: AUG-CC-PVTZ-RI
    Number of shells: 2072
    Number of basis functions: 7312
    Number of Cartesian functions: 9076
    Spherical Harmonics?: true
    Max angular momentum: 4

	 --------------------------------------------------------
	                 NBF =  3404, NAUX =  7312
	 --------------------------------------------------------
	   CLASS    FOCC     OCC    AOCC    AVIR     VIR    FVIR
	   PAIRS       0      73      73    3330    3330       0
	 --------------------------------------------------------

	-----------------------------------------------------------
	 ==================> DF-MP2 Energies <==================== 
	-----------------------------------------------------------
	 Reference Energy          =    -707.3770889533006994 [Eh]
	 Singles Energy            =      -0.0000000000000000 [Eh]
	 Same-Spin Energy          =      -0.9298073864139315 [Eh]
	 Opposite-Spin Energy      =      -3.3155481825502129 [Eh]
	 Correlation Energy        =      -4.2453555689641442 [Eh]
	 Total Energy              =    -711.6224445222648001 [Eh]
	-----------------------------------------------------------
	 ================> DF-SCS-MP2 Energies <================== 
	-----------------------------------------------------------
	 SCS Same-Spin Scale       =       0.3333333333333333 [-]
	 SCS Opposite-Spin Scale   =       1.2000000000000000 [-]
	 SCS Same-Spin Energy      =      -0.3099357954713104 [Eh]
	 SCS Opposite-Spin Energy  =      -3.9786578190602553 [Eh]
	 SCS Correlation Energy    =      -4.2885936145315657 [Eh]
	 SCS Total Energy          =    -711.6656825678322775 [Eh]
	-----------------------------------------------------------



    B2PLYP-D3 Energy Summary
    ------------------------
    DFT Reference Energy                  =  -707.3770889533006994
    Scaled MP2 Correlation                =    -1.1462460036203190
    @Final double-hybrid DFT total energy =  -708.5233349569209622


*** tstop() called on atl1-1-03-004-15-2.pace.gatech.edu at Mon Jun 15 15:05:33 2026
Module time:
	user time   =   11482.52 seconds =     191.38 minutes
	system time =     100.03 seconds =       1.67 minutes
	total time  =       1358 seconds =      22.63 minutes
Total time:
	user time   =   35729.13 seconds =     595.49 minutes
	system time =    1390.87 seconds =      23.18 minutes
	total time  =       4945 seconds =      82.42 minutes

    Psi4 stopped on: Monday, 15 June 2026 03:05PM
    Psi4 wall time for execution: 1:22:29.17

*** Psi4 exiting successfully. Buy a developer a beer!
