
    -----------------------------------------------------------------------
          Psi4: An Open-Source Ab Initio Electronic Structure Package
                               Psi4 1.9.1 release

                         Git: Rev {} zzzzzzz 


    D. G. A. Smith, L. A. Burns, A. C. Simmonett, R. M. Parrish,
    M. C. Schieber, R. Galvelis, P. Kraus, H. Kruse, R. Di Remigio,
    A. Alenaizan, A. M. James, S. Lehtola, J. P. Misiewicz, M. Scheurer,
    R. A. Shaw, J. B. Schriber, Y. Xie, Z. L. Glick, D. A. Sirianni,
    J. S. O'Brien, J. M. Waldrop, A. Kumar, E. G. Hohenstein,
    B. P. Pritchard, B. R. Brooks, H. F. Schaefer III, A. Yu. Sokolov,
    K. Patkowski, A. E. DePrince III, U. Bozkaya, R. A. King,
    F. A. Evangelista, J. M. Turney, T. D. Crawford, C. D. Sherrill,
    J. Chem. Phys. 152(18) 184108 (2020). https://doi.org/10.1063/5.0006002

                            Additional Code Authors
    E. T. Seidl, C. L. Janssen, E. F. Valeev, M. L. Leininger,
    J. F. Gonthier, R. M. Richard, H. R. McAlexander, M. Saitow, X. Wang,
    P. Verma, M. H. Lechner, A. Jiang, S. Behnle, A. G. Heide,
    M. F. Herbst, and D. L. Poole

             Previous Authors, Complete List of Code Contributors,
                       and Citations for Specific Modules
    https://github.com/psi4/psi4/blob/master/codemeta.json
    https://github.com/psi4/psi4/graphs/contributors
    http://psicode.org/psi4manual/master/introduction.html#citing-psifour

    -----------------------------------------------------------------------


    Psi4 started on: Monday, 15 June 2026 12:56PM

    Process ID: 1259748
    Host:       atl1-1-02-003-30-2.pace.gatech.edu
    PSIDATADIR: /storage/home/hcoda1/5/vlita3/.conda/envs/p4_qcml/share/psi4
    Memory:     250.0 GiB
    Threads:    10
    
  ==> Input QCSchema <==

--------------------------------------------------------------------------
{'driver': 'energy',
 'extras': {},
 'id': '353',
 'keywords': {},
 'model': {'basis': 'aug-cc-pvtz', 'method': 'b2plyp-d3'},
 'molecule': {'extras': {},
              'fix_com': True,
              'fix_orientation': True,
              'fragment_charges': [0.0, 0.0],
              'fragment_multiplicities': [1, 1],
              'fragments': [[0, 1, 2, 3, 4, 5, 6, 7, 8, 9, 10, 11, 12, 13, 14],
                            [15, 16, 17, 18, 19, 20, 21, 22, 23, 24, 25, 26, 27, 28, 29, 30, 31, 32, 33, 34, 35, 36, 37,
                             38, 39, 40, 41, 42, 43, 44, 45, 46, 47, 48, 49, 50, 51, 52, 53, 54, 55, 56, 57, 58, 59, 60,
                             61, 62, 63, 64, 65, 66, 67, 68, 69, 70, 71, 72, 73, 74, 75, 76, 77, 78, 79, 80, 81, 82, 83,
                             84, 85, 86]],
              'geometry': [-4.21408926, -0.28723837, 4.89628039, -1.79523982, -1.39650761, 4.99454615, 0.24755412,
                           0.2891281, 5.03989958, -2.26011245, 3.62260498, 4.98698725, 1.49477337, -3.70764266,
                           4.95864135, -4.39928242, 2.25255354, 4.90194957, 0.14172946, 2.81947138, 5.05312766,
                           -0.98265759, -3.88905637, 4.94352354, 2.3583782, -1.24532952, 5.0417893, -6.38349485,
                           -1.67240762, 4.84336806, -2.52278438, 5.65972975, 4.97375916, 2.79301521, -5.28367425,
                           4.88305231, 4.17440501, -0.66140414, 4.90761875, -7.96519562, -0.73321374, 4.3180242,
                           -6.25499348, -3.50544196, 4.31424474, 11.7540965, -2.40373163, -0.19464179, 12.01109925,
                           0.16251645, -0.12661165, 9.86437037, 1.80657818, -0.31180481, 7.41339559, 0.69163976,
                           -0.57447674, 7.14694421, -1.98232271, -0.66329387, 9.3239087, -3.57536183, -0.45353427,
                           4.71108723, -3.08214331, -0.90706854, 9.01399362, -6.20397087, -0.50077742, 6.6253798,
                           -7.32646819, -0.72754456, 4.43707694, -5.7504366, -0.94486306, 6.28333937, -10.01365874,
                           -0.73699319, 3.93440979, -11.06812592, -0.89950964, 1.70453297, -9.53744776, -1.06580553,
                           1.98988161, -6.8502572, -1.09415143, -0.17763426, -5.27989479, -1.26233705, 0.09637603,
                           -2.60026315, -1.26422678, 2.53601246, -1.50233227, -1.12627677, 5.24776945, 2.2638919,
                           -0.77667744, 2.80246384, 1.16407129, -1.01856238, 0.63305825, 2.7344337, -1.15651239,
                           -1.80279872, 1.63650282, -1.33414664, -2.07491929, -1.02990074, -1.34926445, -2.62293986,
                           -6.37593595, -1.31902884, -4.79990436, -4.80179408, -1.37005144, -4.52967352, -2.1335008,
                           -1.44375076, -0.72565483, -10.5824663, -1.15840211, -2.8931707, -9.0631265, -1.26044733,
                           -7.27166613, -5.89972496, -1.3889487, -9.39193884, -4.31424474, -1.4324124, -9.16517171,
                           -1.67618707, -1.46642747, -6.70285857, -0.56124866, -1.45130966, -3.98732212, 3.21064469,
                           -1.35115418, -6.430738, 2.11082408, -1.44186103, -5.39138864, -10.11003477, -1.29257267,
                           -7.48142573, -8.6001436, -1.34737473, -8.61904086, 3.69819403, -1.42863295, -11.06056701,
                           2.52845356, -1.46453775, -11.32323894, -0.03779452, -1.47776583, -8.3110155, 6.32680307,
                           -1.36627199, -5.9167325, 7.44930039, -1.28123431, -3.71709129, 5.87704825, -1.27745486,
                           -1.27367541, 6.97686886, -1.09415143, 0.90328909, 5.4102859, -1.048798, 3.34103579,
                           6.50632705, -0.82203086, 5.51044138, 4.93218519, -0.65195551, 7.9708648, 6.02822634,
                           -0.40629112, 10.08546833, 4.44274612, -0.23810549, 8.17306549, 8.72864497, -0.31936372,
                           3.59803854, 9.1935176, -0.69541921, 6.08680785, 10.23853615, -0.45920345, -0.99588567,
                           9.66405941, -0.98454731, 1.42863295, 10.70907795, -0.7955747, -5.58036125, 10.13649094,
                           -1.18107883, -3.23143167, 11.19284784, -1.04312882, 13.40760686, -3.61315635, -0.04535343,
                           13.87058976, 1.01100348, 0.06991987, 10.67317316, -7.40772641, -0.34204043, 7.94629836,
                           -11.20985538, -0.59526373, 3.71331184, -13.11280958, -0.88817128, -0.93919388, -12.62714997,
                           -1.12249732, -11.26843689, -5.1570626, -1.44186103, -5.59169961, -12.15471844, -1.2585576,
                           -9.3598135, -9.43351282, -1.36060281, -12.72163628, 3.739768, -1.47020693, -13.19406781,
                           -0.88817128, -1.49288364, -9.97964367, 7.52866888, -1.35871308, 11.95062802, 5.28556397,
                           -0.0434637, 10.04200463, 9.56012447, -0.13228083, 6.28144964, 12.28321982, -0.37983495,
                           1.6346131, 12.75376162, -0.7086473, -7.25276887, 11.32890812, -1.20753499, -3.0160029,
                           13.23564178, -0.9618706],
              'id': 1,
              'identifiers': {'molecular_formula': 'C59H23N5',
                              'molecule_hash': '12e9da1e1b8452b6fe71b82a8f2ee95d42c696b3'},
              'molecular_charge': 0.0,
              'molecular_multiplicity': 1,
              'name': 'C59H23N5',
              'provenance': {'creator': 'QCElemental',
                             'routine': 'qcelemental.molparse.from_string',
                             'version': '0.29.0'},
              'schema_name': 'qcschema_molecule',
              'schema_version': 2,
              'symbols': ['C', 'C', 'C', 'C', 'C', 'N', 'N', 'N', 'N', 'N', 'H', 'H', 'H', 'H', 'H', 'C', 'C', 'C', 'C',
                          'C', 'C', 'C', 'C', 'C', 'C', 'C', 'C', 'C', 'C', 'C', 'C', 'C', 'C', 'C', 'C', 'C', 'C', 'C',
                          'C', 'C', 'C', 'C', 'C', 'C', 'C', 'C', 'C', 'C', 'C', 'C', 'C', 'C', 'C', 'C', 'C', 'C', 'C',
                          'C', 'C', 'C', 'C', 'C', 'C', 'C', 'C', 'C', 'C', 'C', 'C', 'H', 'H', 'H', 'H', 'H', 'H', 'H',
                          'H', 'H', 'H', 'H', 'H', 'H', 'H', 'H', 'H', 'H', 'H'],
              'validated': True},
 'protocols': {},
 'provenance': {'creator': 'QCElemental', 'routine': 'qcelemental.models.results', 'version': '0.29.0'},
 'schema_name': 'qcschema_input',
 'schema_version': 1}
--------------------------------------------------------------------------

Scratch directory: /tmp/tmpem__rju6_psi_scratch/
   => Libint2 <=

    Primary   basis highest AM E, G, H:  6, 6, 3
    Auxiliary basis highest AM E, G, H:  7, 7, 4
    Onebody   basis highest AM E, G, H:  -, -, -
    Solid Harmonics ordering:            Gaussian

*** tstart() called on atl1-1-02-003-30-2.pace.gatech.edu
*** at Mon Jun 15 12:56:00 2026

   => Loading Basis Set <=

    Name: AUG-CC-PVTZ
    Role: ORBITAL
    Keyword: BASIS
    atoms 1-5, 16-69   entry C          line   239 file /storage/home/hcoda1/5/vlita3/.conda/envs/p4_qcml/share/psi4/basis/aug-cc-pvtz.gbs 
    atoms 6-10         entry N          line   285 file /storage/home/hcoda1/5/vlita3/.conda/envs/p4_qcml/share/psi4/basis/aug-cc-pvtz.gbs 
    atoms 11-15, 70-87 entry H          line    40 file /storage/home/hcoda1/5/vlita3/.conda/envs/p4_qcml/share/psi4/basis/aug-cc-pvtz.gbs 

   => B2PLYP-D3: Empirical Dispersion <=

    Grimme's -D3 (zero-damping) Dispersion Correction
    Grimme S.; Antony J.; Ehrlich S.; Krieg H. (2010), J. Chem. Phys., 132: 154104
    Parametrisation from:    L. Goerigk, S. Grimme, J. Chem. Theory Comput. 7, 291-309, 2011

        s6 =       0.640000
        s8 =       1.022000
       sr6 =       1.427000
    alpha6 =      14.000000
       sr8 =       1.000000


         ---------------------------------------------------------
                                   SCF
               by Justin Turney, Rob Parrish, Andy Simmonett
                          and Daniel G. A. Smith
                              RKS Reference
                       10 Threads, 256000 MiB Core
         ---------------------------------------------------------

  ==> Geometry <==

    Molecular point group: c1
    Full point group: C1

    Geometry (in Bohr), charge = 0, multiplicity = 1:

       Center              X                  Y                   Z               Mass       
    ------------   -----------------  -----------------  -----------------  -----------------
         C           -4.214089260000    -0.287238370000     4.896280390000    12.000000000000
         C           -1.795239820000    -1.396507610000     4.994546150000    12.000000000000
         C            0.247554120000     0.289128100000     5.039899580000    12.000000000000
         C           -2.260112450000     3.622604980000     4.986987250000    12.000000000000
         C            1.494773370000    -3.707642660000     4.958641350000    12.000000000000
         N           -4.399282420000     2.252553540000     4.901949570000    14.003074004430
         N            0.141729460000     2.819471380000     5.053127660000    14.003074004430
         N           -0.982657590000    -3.889056370000     4.943523540000    14.003074004430
         N            2.358378200000    -1.245329520000     5.041789300000    14.003074004430
         N           -6.383494850000    -1.672407620000     4.843368060000    14.003074004430
         H           -2.522784380000     5.659729750000     4.973759160000     1.007825032230
         H            2.793015210000    -5.283674250000     4.883052310000     1.007825032230
         H            4.174405010000    -0.661404140000     4.907618750000     1.007825032230
         H           -7.965195620000    -0.733213740000     4.318024200000     1.007825032230
         H           -6.254993480000    -3.505441960000     4.314244740000     1.007825032230
         C           11.754096500000    -2.403731630000    -0.194641790000    12.000000000000
         C           12.011099250000     0.162516450000    -0.126611650000    12.000000000000
         C            9.864370370000     1.806578180000    -0.311804810000    12.000000000000
         C            7.413395590000     0.691639760000    -0.574476740000    12.000000000000
         C            7.146944210000    -1.982322710000    -0.663293870000    12.000000000000
         C            9.323908700000    -3.575361830000    -0.453534270000    12.000000000000
         C            4.711087230000    -3.082143310000    -0.907068540000    12.000000000000
         C            9.013993620000    -6.203970870000    -0.500777420000    12.000000000000
         C            6.625379800000    -7.326468190000    -0.727544560000    12.000000000000
         C            4.437076940000    -5.750436600000    -0.944863060000    12.000000000000
         C            6.283339370000   -10.013658740000    -0.736993190000    12.000000000000
         C            3.934409790000   -11.068125920000    -0.899509640000    12.000000000000
         C            1.704532970000    -9.537447760000    -1.065805530000    12.000000000000
         C            1.989881610000    -6.850257200000    -1.094151430000    12.000000000000
         C           -0.177634260000    -5.279894790000    -1.262337050000    12.000000000000
         C            0.096376030000    -2.600263150000    -1.264226780000    12.000000000000
         C            2.536012460000    -1.502332270000    -1.126276770000    12.000000000000
         C            5.247769450000     2.263891900000    -0.776677440000    12.000000000000
         C            2.802463840000     1.164071290000    -1.018562380000    12.000000000000
         C            0.633058250000     2.734433700000    -1.156512390000    12.000000000000
         C           -1.802798720000     1.636502820000    -1.334146640000    12.000000000000
         C           -2.074919290000    -1.029900740000    -1.349264450000    12.000000000000
         C           -2.622939860000    -6.375935950000    -1.319028840000    12.000000000000
         C           -4.799904360000    -4.801794080000    -1.370051440000    12.000000000000
         C           -4.529673520000    -2.133500800000    -1.443750760000    12.000000000000
         C           -0.725654830000   -10.582466300000    -1.158402110000    12.000000000000
         C           -2.893170700000    -9.063126500000    -1.260447330000    12.000000000000
         C           -7.271666130000    -5.899724960000    -1.388948700000    12.000000000000
         C           -9.391938840000    -4.314244740000    -1.432412400000    12.000000000000
         C           -9.165171710000    -1.676187070000    -1.466427470000    12.000000000000
         C           -6.702858570000    -0.561248660000    -1.451309660000    12.000000000000
         C           -3.987322120000     3.210644690000    -1.351154180000    12.000000000000
         C           -6.430738000000     2.110824080000    -1.441861030000    12.000000000000
         C           -5.391388640000   -10.110034770000    -1.292572670000    12.000000000000
         C           -7.481425730000    -8.600143600000    -1.347374730000    12.000000000000
         C           -8.619040860000     3.698194030000    -1.428632950000    12.000000000000
         C          -11.060567010000     2.528453560000    -1.464537750000    12.000000000000
         C          -11.323238940000    -0.037794520000    -1.477765830000    12.000000000000
         C           -8.311015500000     6.326803070000    -1.366271990000    12.000000000000
         C           -5.916732500000     7.449300390000    -1.281234310000    12.000000000000
         C           -3.717091290000     5.877048250000    -1.277454860000    12.000000000000
         C           -1.273675410000     6.976868860000    -1.094151430000    12.000000000000
         C            0.903289090000     5.410285900000    -1.048798000000    12.000000000000
         C            3.341035790000     6.506327050000    -0.822030860000    12.000000000000
         C            5.510441380000     4.932185190000    -0.651955510000    12.000000000000
         C            7.970864800000     6.028226340000    -0.406291120000    12.000000000000
         C           10.085468330000     4.442746120000    -0.238105490000    12.000000000000
         C            8.173065490000     8.728644970000    -0.319363720000    12.000000000000
         C            3.598038540000     9.193517600000    -0.695419210000    12.000000000000
         C            6.086807850000    10.238536150000    -0.459203450000    12.000000000000
         C           -0.995885670000     9.664059410000    -0.984547310000    12.000000000000
         C            1.428632950000    10.709077950000    -0.795574700000    12.000000000000
         C           -5.580361250000    10.136490940000    -1.181078830000    12.000000000000
         C           -3.231431670000    11.192847840000    -1.043128820000    12.000000000000
         H           13.407606860000    -3.613156350000    -0.045353430000     1.007825032230
         H           13.870589760000     1.011003480000     0.069919870000     1.007825032230
         H           10.673173160000    -7.407726410000    -0.342040430000     1.007825032230
         H            7.946298360000   -11.209855380000    -0.595263730000     1.007825032230
         H            3.713311840000   -13.112809580000    -0.888171280000     1.007825032230
         H           -0.939193880000   -12.627149970000    -1.122497320000     1.007825032230
         H          -11.268436890000    -5.157062600000    -1.441861030000     1.007825032230
         H           -5.591699610000   -12.154718440000    -1.258557600000     1.007825032230
         H           -9.359813500000    -9.433512820000    -1.360602810000     1.007825032230
         H          -12.721636280000     3.739768000000    -1.470206930000     1.007825032230
         H          -13.194067810000    -0.888171280000    -1.492883640000     1.007825032230
         H           -9.979643670000     7.528668880000    -1.358713080000     1.007825032230
         H           11.950628020000     5.285563970000    -0.043463700000     1.007825032230
         H           10.042004630000     9.560124470000    -0.132280830000     1.007825032230
         H            6.281449640000    12.283219820000    -0.379834950000     1.007825032230
         H            1.634613100000    12.753761620000    -0.708647300000     1.007825032230
         H           -7.252768870000    11.328908120000    -1.207534990000     1.007825032230
         H           -3.016002900000    13.235641780000    -0.961870600000     1.007825032230

  Running in c1 symmetry.

  Rotational constants: A =      0.00187  B =      0.00184  C =      0.00106 [cm^-1]
  Rotational constants: A =     56.02922  B =     55.09335  C =     31.77172 [MHz]
  Nuclear repulsion = 9204.830048001262185

  Charge       = 0
  Multiplicity = 1
  Electrons    = 412
  Nalpha       = 206
  Nbeta        = 206

  ==> Algorithm <==

  SCF Algorithm Type is DF.
  DIIS enabled.
  MOM disabled.
  Fractional occupation disabled.
  Guess Type is SAD.
  Energy threshold   = 1.00e-06
  Density threshold  = 1.00e-06
  Integral threshold = 1.00e-12

  ==> Primary Basis <==

  Basis Set: AUG-CC-PVTZ
    Blend: AUG-CC-PVTZ
    Number of shells: 1103
    Number of basis functions: 3473
    Number of Cartesian functions: 4095
    Spherical Harmonics?: true
    Max angular momentum: 3

  ==> DFT Potential <==

   => LibXC <=

    Version 7.0.0
    S. Lehtola, C. Steigemann, M. J.T. Oliveira, and M. A.L. Marques.,  SoftwareX 7, 1–5 (2018) (10.1016/j.softx.2017.11.002)

   => Composite Functional: B2PLYP-D3ZERO2B <= 

    B2PLYP Double Hybrid Exchange-Correlation Functional

    S. Grimme, J. Chem. Phys., 124, 034108, 2006


    Deriv               =              1
    GGA                 =           TRUE
    Meta                =          FALSE

    Exchange Hybrid     =           TRUE
    MP2 Hybrid          =           TRUE

   => Exchange Functionals <=

    0.4700     XC_GGA_X_B88

   => Exact (HF) Exchange <=

    0.5300               HF 

   => Correlation Functionals <=

    0.7300     XC_GGA_C_LYP

   => MP2 Correlation <=

    0.2700       MP2 

   => LibXC Density Thresholds  <==

    XC_GGA_C_LYP:  1.00E-14 
    XC_GGA_X_B88:  1.00E-15 

   => Molecular Quadrature <=

    Radial Scheme          =       TREUTLER
    Pruning Scheme         =           NONE
    Nuclear Scheme         =       TREUTLER

    Blocking Scheme        =         OCTREE
    BS radius alpha        =              1
    Pruning alpha          =              1
    Radial Points          =             75
    Spherical Points       =            302
    Total Points           =        1715496
    Total Blocks           =          11517
    Max Points             =            256
    Max Functions          =           2168
    Weights Tolerance      =       1.00E-15

   => Loading Basis Set <=

    Name: (AUG-CC-PVTZ AUX)
    Role: JKFIT
    Keyword: DF_BASIS_SCF
    atoms 1-5, 16-69   entry C          line   162 file /storage/home/hcoda1/5/vlita3/.conda/envs/p4_qcml/share/psi4/basis/aug-cc-pvtz-jkfit.gbs 
    atoms 6-10         entry N          line   224 file /storage/home/hcoda1/5/vlita3/.conda/envs/p4_qcml/share/psi4/basis/aug-cc-pvtz-jkfit.gbs 
    atoms 11-15, 70-87 entry H          line    70 file /storage/home/hcoda1/5/vlita3/.conda/envs/p4_qcml/share/psi4/basis/aug-cc-pvtz-jkfit.gbs 

  ==> Integral Setup <==

  ==> DiskDFJK: Density-Fitted J/K Matrices <==

    J tasked:                  Yes
    K tasked:                  Yes
    wK tasked:                  No
    OpenMP threads:             10
    Integrals threads:          10
    Memory [MiB]:           172800
    Algorithm:                Disk
    Integral Cache:           NONE
    Schwarz Cutoff:          1E-12
    Fitting Condition:       1E-10

   => Auxiliary Basis Set <=

  Basis Set: (AUG-CC-PVTZ AUX)
    Blend: AUG-CC-PVTZ-JKFIT
    Number of shells: 2242
    Number of basis functions: 7714
    Number of Cartesian functions: 9649
    Spherical Harmonics?: true
    Max angular momentum: 4

  Minimum eigenvalue in the overlap matrix is 6.5964717033E-12.
  Reciprocal condition number of the overlap matrix is 1.9686718001E-13.
    Using canonical orthogonalization.
  Overall, 56 of 3473 possible MOs eliminated.


  ==> Pre-Iterations <==

  SCF Guess: Superposition of Atomic Densities via on-the-fly atomic UHF (no occupation information).

   -------------------------
    Irrep   Nso     Nmo    
   -------------------------
     A       3473    3417 
   -------------------------
    Total    3473    3417
   -------------------------

  ==> Iterations <==

                           Total Energy        Delta E     RMS |[F,P]|

   @DF-RKS iter SAD: -2535.99605744691007   -2.53600e+03   0.00000e+00 
   @DF-RKS iter   1: -2529.97192661758481    6.02413e+00   5.33616e-04 ADIIS/DIIS
   @DF-RKS iter   2: -2530.87139744974593   -8.99471e-01   3.78398e-04 ADIIS/DIIS
   @DF-RKS iter   3: -2531.67655884080250   -8.05161e-01   1.00929e-04 ADIIS/DIIS
   @DF-RKS iter   4: -2531.72420005745971   -4.76412e-02   4.80606e-05 DIIS
   @DF-RKS iter   5: -2531.73742931575316   -1.32293e-02   1.58299e-05 DIIS
   @DF-RKS iter   6: -2531.73890303665621   -1.47372e-03   4.40130e-06 DIIS
   @DF-RKS iter   7: -2531.73901794434869   -1.14908e-04   1.35539e-06 DIIS
   @DF-RKS iter   8: -2531.73903007604804   -1.21317e-05   4.11449e-07 DIIS
   @DF-RKS iter   9: -2531.73903175686974   -1.68082e-06   2.45943e-07 DIIS
   @DF-RKS iter  10: -2531.73903230724682   -5.50377e-07   9.94488e-08 DIIS
  Energy and wave function converged.


  ==> Post-Iterations <==

   Electrons on quadrature grid:
      Ntotal   =  411.9999566884 ; deviation = -4.331e-05 

    Orbital Energies [Eh]
    ---------------------

    Doubly Occupied:                                                      

       1A    -14.897359     2A    -14.850219     3A    -14.835030  
       4A    -14.828570     5A    -14.822119     6A    -10.705037  
       7A    -10.693177     8A    -10.688451     9A    -10.678183  
      10A    -10.643923    11A    -10.643515    12A    -10.643260  
      13A    -10.642957    14A    -10.642511    15A    -10.642159  
      16A    -10.642096    17A    -10.641923    18A    -10.641762  
      19A    -10.641619    20A    -10.641331    21A    -10.641234  
      22A    -10.641162    23A    -10.640925    24A    -10.640869  
      25A    -10.640758    26A    -10.640647    27A    -10.640369  
      28A    -10.640176    29A    -10.640010    30A    -10.639851  
      31A    -10.639741    32A    -10.639630    33A    -10.639399  
      34A    -10.639134    35A    -10.639032    36A    -10.638936  
      37A    -10.638895    38A    -10.638806    39A    -10.638646  
      40A    -10.638529    41A    -10.638379    42A    -10.637761  
      43A    -10.637578    44A    -10.637458    45A    -10.636932  
      46A    -10.636822    47A    -10.634480    48A    -10.634016  
      49A    -10.633860    50A    -10.633415    51A    -10.632876  
      52A    -10.632780    53A    -10.632605    54A    -10.632526  
      55A    -10.632223    56A    -10.631560    57A    -10.631445  
      58A    -10.631434    59A    -10.631371    60A    -10.630510  
      61A    -10.630245    62A    -10.629926    63A    -10.629606  
      64A    -10.629461    65A     -1.164138    66A     -1.103342  
      67A     -1.057737    68A     -1.056507    69A     -1.037196  
      70A     -1.036113    71A     -1.010711    72A     -1.010234  
      73A     -1.003980    74A     -1.002760    75A     -0.982584  
      76A     -0.975248    77A     -0.972554    78A     -0.963414  
      79A     -0.962508    80A     -0.944003    81A     -0.943953  
      82A     -0.917013    83A     -0.916560    84A     -0.913355  
      85A     -0.902996    86A     -0.902864    87A     -0.879371  
      88A     -0.869654    89A     -0.865142    90A     -0.863144  
      91A     -0.862569    92A     -0.860329    93A     -0.857052  
      94A     -0.832840    95A     -0.832613    96A     -0.812166  
      97A     -0.811913    98A     -0.757455    99A     -0.757328  
     100A     -0.753769   101A     -0.752189   102A     -0.748585  
     103A     -0.748021   104A     -0.745008   105A     -0.744886  
     106A     -0.737337   107A     -0.728304   108A     -0.710164  
     109A     -0.705989   110A     -0.689805   111A     -0.689530  
     112A     -0.686403   113A     -0.686010   114A     -0.669821  
     115A     -0.669698   116A     -0.654105   117A     -0.634112  
     118A     -0.631950   119A     -0.618036   120A     -0.617772  
     121A     -0.617397   122A     -0.615454   123A     -0.615258  
     124A     -0.603838   125A     -0.591322   126A     -0.590735  
     127A     -0.587039   128A     -0.586514   129A     -0.581759  
     130A     -0.563744   131A     -0.553834   132A     -0.551115  
     133A     -0.547256   134A     -0.547103   135A     -0.545575  
     136A     -0.541857   137A     -0.538714   138A     -0.538444  
     139A     -0.529841   140A     -0.526248   141A     -0.526102  
     142A     -0.523813   143A     -0.508919   144A     -0.507944  
     145A     -0.505312   146A     -0.504077   147A     -0.503623  
     148A     -0.502788   149A     -0.496809   150A     -0.496057  
     151A     -0.494901   152A     -0.494479   153A     -0.492927  
     154A     -0.491293   155A     -0.482982   156A     -0.473724  
     157A     -0.473495   158A     -0.472441   159A     -0.471955  
     160A     -0.465937   161A     -0.463980   162A     -0.463336  
     163A     -0.462984   164A     -0.460503   165A     -0.456392  
     166A     -0.449788   167A     -0.449400   168A     -0.449227  
     169A     -0.441619   170A     -0.434555   171A     -0.433837  
     172A     -0.425716   173A     -0.418610   174A     -0.416420  
     175A     -0.415659   176A     -0.408540   177A     -0.403261  
     178A     -0.400793   179A     -0.398866   180A     -0.398609  
     181A     -0.396006   182A     -0.387503   183A     -0.378219  
     184A     -0.378053   185A     -0.370960   186A     -0.370576  
     187A     -0.353443   188A     -0.351969   189A     -0.349932  
     190A     -0.346686   191A     -0.341530   192A     -0.326534  
     193A     -0.326263   194A     -0.313994   195A     -0.307346  
     196A     -0.303607   197A     -0.293918   198A     -0.293008  
     199A     -0.291766   200A     -0.278404   201A     -0.261512  
     202A     -0.257131   203A     -0.251261   204A     -0.249053  
     205A     -0.206738   206A     -0.206122  

    Virtual:                                                              

     207A     -0.050141   208A     -0.049500   209A     -0.010062  
     210A     -0.009909   211A      0.004131   212A      0.005988  
     213A      0.006755   214A      0.007889   215A      0.012792  
     216A      0.013225   217A      0.013521   218A      0.014005  
     219A      0.014787   220A      0.015648   221A      0.021044  
     222A      0.021366   223A      0.021793   224A      0.029172  
     225A      0.032137   226A      0.032517   227A      0.032742  
     228A      0.034556   229A      0.035814   230A      0.041450  
     231A      0.043005   232A      0.044215   233A      0.044296  
     234A      0.045825   235A      0.046005   236A      0.049982  
     237A      0.052960   238A      0.054571   239A      0.057251  
     240A      0.058279   241A      0.058660   242A      0.059746  
     243A      0.060347   244A      0.063628   245A      0.065210  
     246A      0.066252   247A      0.069222   248A      0.071483  
     249A      0.071893   250A      0.072070   251A      0.072619  
     252A      0.075924   253A      0.076579   254A      0.077573  
     255A      0.077918   256A      0.079915   257A      0.080432  
     258A      0.081064   259A      0.083288   260A      0.084845  
     261A      0.086059   262A      0.086968   263A      0.087900  
     264A      0.088787   265A      0.089743   266A      0.091043  
     267A      0.091684   268A      0.091869   269A      0.092384  
     270A      0.093399   271A      0.094447   272A      0.095303  
     273A      0.096521   274A      0.097651   275A      0.099603  
     276A      0.101190   277A      0.101536   278A      0.102205  
     279A      0.106140   280A      0.106163   281A      0.108217  
     282A      0.109825   283A      0.110145   284A      0.110684  
     285A      0.112497   286A      0.117434   287A      0.119170  
     288A      0.119991   289A      0.120644   290A      0.120947  
     291A      0.121194   292A      0.121928   293A      0.122607  
     294A      0.125694   295A      0.127000   296A      0.129457  
     297A      0.129958   298A      0.135530   299A      0.135733  
     300A      0.137597   301A      0.137768   302A      0.139700  
     303A      0.140861   304A      0.141480   305A      0.143044  
     306A      0.143228   307A      0.144750   308A      0.146774  
     309A      0.149014   310A      0.150067   311A      0.150352  
     312A      0.150917   313A      0.152833   314A      0.153335  
     315A      0.153885   316A      0.154903   317A      0.156328  
     318A      0.157714   319A      0.159002   320A      0.159825  
     321A      0.161552   322A      0.161711   323A      0.164633  
     324A      0.167055   325A      0.168018   326A      0.169283  
     327A      0.170292   328A      0.172755   329A      0.175434  
     330A      0.176022   331A      0.176398   332A      0.177835  
     333A      0.178737   334A      0.180896   335A      0.182400  
     336A      0.183231   337A      0.184160   338A      0.184637  
     339A      0.185762   340A      0.188381   341A      0.191650  
     342A      0.194273   343A      0.195484   344A      0.196660  
     345A      0.197275   346A      0.197837   347A      0.198634  
     348A      0.200754   349A      0.201147   350A      0.201367  
     351A      0.202500   352A      0.203203   353A      0.203478  
     354A      0.205670   355A      0.206249   356A      0.207359  
     357A      0.208271   358A      0.209671   359A      0.210364  
     360A      0.211725   361A      0.212123   362A      0.212509  
     363A      0.212919   364A      0.213925   365A      0.214845  
     366A      0.215284   367A      0.215812   368A      0.216044  
     369A      0.217391   370A      0.217454   371A      0.218114  
     372A      0.219727   373A      0.220446   374A      0.221149  
     375A      0.224727   376A      0.224851   377A      0.226809  
     378A      0.227238   379A      0.228367   380A      0.230315  
     381A      0.230972   382A      0.231680   383A      0.232033  
     384A      0.234964   385A      0.236429   386A      0.237779  
     387A      0.238198   388A      0.238882   389A      0.239208  
     390A      0.240163   391A      0.241245   392A      0.241632  
     393A      0.241905   394A      0.244241   395A      0.246383  
     396A      0.246869   397A      0.248260   398A      0.248993  
     399A      0.250065   400A      0.250789   401A      0.251711  
     402A      0.252479   403A      0.252828   404A      0.253354  
     405A      0.254793   406A      0.255181   407A      0.256702  
     408A      0.257507   409A      0.258770   410A      0.260357  
     411A      0.261277   412A      0.262337   413A      0.263662  
     414A      0.264804   415A      0.265992   416A      0.267035  
     417A      0.268274   418A      0.269362   419A      0.271401  
     420A      0.272465   421A      0.273100   422A      0.274366  
     423A      0.275065   424A      0.277148   425A      0.280117  
     426A      0.280502   427A      0.281080   428A      0.282079  
     429A      0.282859   430A      0.284097   431A      0.285683  
     432A      0.287026   433A      0.287582   434A      0.288151  
     435A      0.288935   436A      0.289565   437A      0.290477  
     438A      0.291115   439A      0.292429   440A      0.293211  
     441A      0.294120   442A      0.294641   443A      0.296026  
     444A      0.296298   445A      0.297730   446A      0.298559  
     447A      0.300202   448A      0.300328   449A      0.302089  
     450A      0.303456   451A      0.305213   452A      0.306646  
     453A      0.308141   454A      0.308817   455A      0.310258  
     456A      0.310740   457A      0.312160   458A      0.312567  
     459A      0.314680   460A      0.315885   461A      0.317449  
     462A      0.318018   463A      0.318980   464A      0.319665  
     465A      0.320342   466A      0.321136   467A      0.321470  
     468A      0.322455   469A      0.322941   470A      0.323680  
     471A      0.324657   472A      0.325474   473A      0.326998  
     474A      0.327393   475A      0.327727   476A      0.329454  
     477A      0.329756   478A      0.331278   479A      0.331839  
     480A      0.332412   481A      0.333690   482A      0.335895  
     483A      0.336782   484A      0.337319   485A      0.337857  
     486A      0.339338   487A      0.339663   488A      0.340817  
     489A      0.340875   490A      0.341867   491A      0.342782  
     492A      0.343063   493A      0.343600   494A      0.345302  
     495A      0.346185   496A      0.347024   497A      0.348326  
     498A      0.351124   499A      0.351166   500A      0.354280  
     501A      0.354977   502A      0.356385   503A      0.358105  
     504A      0.358412   505A      0.359122   506A      0.359647  
     507A      0.360395   508A      0.360878   509A      0.361460  
     510A      0.361606   511A      0.361926   512A      0.363449  
     513A      0.364374   514A      0.365195   515A      0.366396  
     516A      0.367300   517A      0.368375   518A      0.370924  
     519A      0.371816   520A      0.372017   521A      0.373085  
     522A      0.374886   523A      0.375763   524A      0.377510  
     525A      0.378279   526A      0.379090   527A      0.379969  
     528A      0.380671   529A      0.381978   530A      0.383841  
     531A      0.384807   532A      0.386306   533A      0.388110  
     534A      0.388367   535A      0.390994   536A      0.391933  
     537A      0.392987   538A      0.393319   539A      0.394678  
     540A      0.395415   541A      0.398297   542A      0.399820  
     543A      0.401169   544A      0.402182   545A      0.404120  
     546A      0.405926   547A      0.407099   548A      0.408653  
     549A      0.409464   550A      0.409769   551A      0.410470  
     552A      0.411791   553A      0.411990   554A      0.413390  
     555A      0.413720   556A      0.414929   557A      0.416147  
     558A      0.416620   559A      0.417341   560A      0.419840  
     561A      0.420165   562A      0.421731   563A      0.421859  
     564A      0.423263   565A      0.424016   566A      0.425753  
     567A      0.426484   568A      0.427747   569A      0.429727  
     570A      0.430400   571A      0.431295   572A      0.431903  
     573A      0.432578   574A      0.434471   575A      0.436592  
     576A      0.438461   577A      0.438756   578A      0.439635  
     579A      0.440516   580A      0.442029   581A      0.443569  
     582A      0.443955   583A      0.445124   584A      0.446252  
     585A      0.446555   586A      0.448061   587A      0.449525  
     588A      0.450990   589A      0.451525   590A      0.453032  
     591A      0.453765   592A      0.454026   593A      0.454526  
     594A      0.454654   595A      0.456106   596A      0.456630  
     597A      0.458068   598A      0.458920   599A      0.460380  
     600A      0.460939   601A      0.462161   602A      0.462803  
     603A      0.463763   604A      0.464583   605A      0.464916  
     606A      0.466102   607A      0.466485   608A      0.467820  
     609A      0.468803   610A      0.469341   611A      0.471200  
     612A      0.471311   613A      0.472007   614A      0.472989  
     615A      0.474387   616A      0.475137   617A      0.475955  
     618A      0.476659   619A      0.477002   620A      0.478690  
     621A      0.479931   622A      0.481095   623A      0.481312  
     624A      0.482505   625A      0.483704   626A      0.484128  
     627A      0.484555   628A      0.486523   629A      0.487243  
     630A      0.487716   631A      0.490524   632A      0.490717  
     633A      0.493191   634A      0.493931   635A      0.494612  
     636A      0.495462   637A      0.496747   638A      0.496942  
     639A      0.498290   640A      0.498579   641A      0.499669  
     642A      0.500759   643A      0.501903   644A      0.502115  
     645A      0.503107   646A      0.504239   647A      0.505042  
     648A      0.505098   649A      0.506224   650A      0.507069  
     651A      0.507470   652A      0.509529   653A      0.510399  
     654A      0.511848   655A      0.512757   656A      0.513476  
     657A      0.514683   658A      0.516599   659A      0.517589  
     660A      0.518824   661A      0.520053   662A      0.522001  
     663A      0.522735   664A      0.524885   665A      0.525755  
     666A      0.526383   667A      0.526438   668A      0.528479  
     669A      0.529240   670A      0.530015   671A      0.530763  
     672A      0.531924   673A      0.533879   674A      0.534621  
     675A      0.535956   676A      0.537468   677A      0.537901  
     678A      0.538679   679A      0.539073   680A      0.542170  
     681A      0.542422   682A      0.543841   683A      0.545256  
     684A      0.546094   685A      0.547124   686A      0.547763  
     687A      0.548777   688A      0.550874   689A      0.552060  
     690A      0.552606   691A      0.553494   692A      0.557850  
     693A      0.558261   694A      0.558592   695A      0.559630  
     696A      0.561096   697A      0.561388   698A      0.562489  
     699A      0.564473   700A      0.565059   701A      0.568053  
     702A      0.568418   703A      0.569744   704A      0.572125  
     705A      0.573669   706A      0.575137   707A      0.576332  
     708A      0.577228   709A      0.578506   710A      0.579076  
     711A      0.580922   712A      0.581485   713A      0.583292  
     714A      0.585255   715A      0.586204   716A      0.587919  
     717A      0.589283   718A      0.590581   719A      0.591373  
     720A      0.592743   721A      0.595117   722A      0.596590  
     723A      0.597048   724A      0.598928   725A      0.601023  
     726A      0.604031   727A      0.605040   728A      0.607381  
     729A      0.610082   730A      0.611109   731A      0.614564  
     732A      0.615252   733A      0.615951   734A      0.617713  
     735A      0.618698   736A      0.620523   737A      0.622901  
     738A      0.624707   739A      0.625164   740A      0.627353  
     741A      0.628643   742A      0.629270   743A      0.632213  
     744A      0.634231   745A      0.635255   746A      0.635732  
     747A      0.639184   748A      0.640158   749A      0.642149  
     750A      0.643693   751A      0.644601   752A      0.645408  
     753A      0.647439   754A      0.648724   755A      0.650016  
     756A      0.650650   757A      0.652011   758A      0.654376  
     759A      0.655968   760A      0.657136   761A      0.658239  
     762A      0.660244   763A      0.661683   764A      0.663070  
     765A      0.664674   766A      0.665987   767A      0.667005  
     768A      0.668755   769A      0.671429   770A      0.672449  
     771A      0.674521   772A      0.676245   773A      0.677051  
     774A      0.677907   775A      0.679499   776A      0.680447  
     777A      0.681846   778A      0.683686   779A      0.685953  
     780A      0.686934   781A      0.688357   782A      0.690839  
     783A      0.690953   784A      0.692036   785A      0.693144  
     786A      0.693607   787A      0.695239   788A      0.697293  
     789A      0.699021   790A      0.699791   791A      0.701718  
     792A      0.701997   793A      0.703441   794A      0.705043  
     795A      0.705314   796A      0.707314   797A      0.707916  
     798A      0.709208   799A      0.710515   800A      0.712584  
     801A      0.713018   802A      0.714864   803A      0.715464  
     804A      0.717132   805A      0.718443   806A      0.720055  
     807A      0.720528   808A      0.721706   809A      0.723128  
     810A      0.723534   811A      0.724686   812A      0.727117  
     813A      0.727965   814A      0.728412   815A      0.731364  
     816A      0.732916   817A      0.733016   818A      0.734976  
     819A      0.736695   820A      0.738487   821A      0.739438  
     822A      0.740331   823A      0.741852   824A      0.742290  
     825A      0.742510   826A      0.743790   827A      0.745243  
     828A      0.745887   829A      0.746949   830A      0.749128  
     831A      0.749674   832A      0.750725   833A      0.752450  
     834A      0.753245   835A      0.754004   836A      0.756862  
     837A      0.757965   838A      0.758870   839A      0.760579  
     840A      0.761178   841A      0.761821   842A      0.762857  
     843A      0.764389   844A      0.766193   845A      0.766911  
     846A      0.768008   847A      0.768972   848A      0.770461  
     849A      0.771195   850A      0.771236   851A      0.773183  
     852A      0.774547   853A      0.775888   854A      0.776552  
     855A      0.777468   856A      0.779962   857A      0.781048  
     858A      0.782510   859A      0.783131   860A      0.784682  
     861A      0.785605   862A      0.787326   863A      0.788140  
     864A      0.789547   865A      0.791598   866A      0.792634  
     867A      0.796112   868A      0.796254   869A      0.797222  
     870A      0.798233   871A      0.800005   872A      0.801432  
     873A      0.802622   874A      0.804898   875A      0.806196  
     876A      0.806843   877A      0.807704   878A      0.809894  
     879A      0.810774   880A      0.811572   881A      0.813011  
     882A      0.813755   883A      0.816296   884A      0.816643  
     885A      0.817387   886A      0.818393   887A      0.818919  
     888A      0.820939   889A      0.822215   890A      0.823134  
     891A      0.824360   892A      0.826384   893A      0.829043  
     894A      0.829929   895A      0.831622   896A      0.832894  
     897A      0.832967   898A      0.834895   899A      0.835251  
     900A      0.837577   901A      0.838555   902A      0.839445  
     903A      0.842558   904A      0.842940   905A      0.843838  
     906A      0.844792   907A      0.845636   908A      0.847692  
     909A      0.848516   910A      0.848923   911A      0.850272  
     912A      0.850908   913A      0.853146   914A      0.853760  
     915A      0.855389   916A      0.856653   917A      0.858192  
     918A      0.858819   919A      0.859408   920A      0.860960  
     921A      0.861340   922A      0.863490   923A      0.864720  
     924A      0.865492   925A      0.867014   926A      0.868162  
     927A      0.869613   928A      0.870117   929A      0.870630  
     930A      0.870942   931A      0.871656   932A      0.872259  
     933A      0.873718   934A      0.875556   935A      0.876593  
     936A      0.877419   937A      0.878637   938A      0.879340  
     939A      0.880439   940A      0.881256   941A      0.882525  
     942A      0.882856   943A      0.884698   944A      0.885434  
     945A      0.886743   946A      0.887654   947A      0.888829  
     948A      0.889566   949A      0.890686   950A      0.892609  
     951A      0.893764   952A      0.894429   953A      0.895445  
     954A      0.895943   955A      0.896945   956A      0.898645  
     957A      0.899853   958A      0.901381   959A      0.902282  
     960A      0.903366   961A      0.904420   962A      0.905818  
     963A      0.907027   964A      0.908277   965A      0.909401  
     966A      0.909688   967A      0.912110   968A      0.913230  
     969A      0.913971   970A      0.916586   971A      0.917355  
     972A      0.917653   973A      0.920197   974A      0.922487  
     975A      0.923740   976A      0.924988   977A      0.926342  
     978A      0.927104   979A      0.927673   980A      0.929981  
     981A      0.931092   982A      0.932384   983A      0.933724  
     984A      0.934959   985A      0.935383   986A      0.937299  
     987A      0.938229   988A      0.939404   989A      0.941477  
     990A      0.941907   991A      0.943372   992A      0.944405  
     993A      0.945980   994A      0.947633   995A      0.949090  
     996A      0.949615   997A      0.950692   998A      0.952696  
     999A      0.953094  1000A      0.954422  1001A      0.955823  
    1002A      0.956436  1003A      0.956853  1004A      0.958365  
    1005A      0.958850  1006A      0.959671  1007A      0.960895  
    1008A      0.961417  1009A      0.963434  1010A      0.965383  
    1011A      0.968167  1012A      0.969003  1013A      0.969816  
    1014A      0.970964  1015A      0.972022  1016A      0.973435  
    1017A      0.975190  1018A      0.975889  1019A      0.977095  
    1020A      0.979484  1021A      0.980894  1022A      0.982156  
    1023A      0.983619  1024A      0.984293  1025A      0.985160  
    1026A      0.986584  1027A      0.987482  1028A      0.987931  
    1029A      0.989337  1030A      0.990615  1031A      0.991003  
    1032A      0.992023  1033A      0.993361  1034A      0.996036  
    1035A      0.997380  1036A      0.998628  1037A      0.999833  
    1038A      1.000603  1039A      1.002552  1040A      1.003746  
    1041A      1.004083  1042A      1.005474  1043A      1.007428  
    1044A      1.008743  1045A      1.009511  1046A      1.011232  
    1047A      1.012674  1048A      1.013317  1049A      1.014409  
    1050A      1.014798  1051A      1.015771  1052A      1.017492  
    1053A      1.018958  1054A      1.020477  1055A      1.020542  
    1056A      1.022322  1057A      1.024567  1058A      1.025477  
    1059A      1.026034  1060A      1.027559  1061A      1.029743  
    1062A      1.031312  1063A      1.033623  1064A      1.033925  
    1065A      1.035209  1066A      1.037059  1067A      1.038628  
    1068A      1.039379  1069A      1.041538  1070A      1.042414  
    1071A      1.043823  1072A      1.045537  1073A      1.046435  
    1074A      1.047987  1075A      1.049790  1076A      1.050310  
    1077A      1.051243  1078A      1.053183  1079A      1.055138  
    1080A      1.055728  1081A      1.056895  1082A      1.057675  
    1083A      1.058855  1084A      1.062147  1085A      1.062270  
    1086A      1.063105  1087A      1.065083  1088A      1.065895  
    1089A      1.066036  1090A      1.067121  1091A      1.068305  
    1092A      1.069569  1093A      1.071127  1094A      1.072449  
    1095A      1.073398  1096A      1.074793  1097A      1.076603  
    1098A      1.077208  1099A      1.079704  1100A      1.080612  
    1101A      1.081785  1102A      1.085223  1103A      1.085448  
    1104A      1.087393  1105A      1.088459  1106A      1.090059  
    1107A      1.091813  1108A      1.092136  1109A      1.093957  
    1110A      1.094604  1111A      1.095576  1112A      1.096821  
    1113A      1.098727  1114A      1.099376  1115A      1.101642  
    1116A      1.102146  1117A      1.103397  1118A      1.105054  
    1119A      1.105699  1120A      1.106544  1121A      1.109428  
    1122A      1.111195  1123A      1.111829  1124A      1.112207  
    1125A      1.116771  1126A      1.117223  1127A      1.118660  
    1128A      1.119134  1129A      1.119479  1130A      1.121339  
    1131A      1.121607  1132A      1.124075  1133A      1.124516  
    1134A      1.126162  1135A      1.128141  1136A      1.129707  
    1137A      1.130193  1138A      1.131837  1139A      1.132393  
    1140A      1.133267  1141A      1.134043  1142A      1.135068  
    1143A      1.136801  1144A      1.138697  1145A      1.140003  
    1146A      1.141600  1147A      1.142055  1148A      1.145121  
    1149A      1.145472  1150A      1.146438  1151A      1.148005  
    1152A      1.149498  1153A      1.150235  1154A      1.150726  
    1155A      1.151823  1156A      1.153099  1157A      1.154878  
    1158A      1.155288  1159A      1.156261  1160A      1.159040  
    1161A      1.160600  1162A      1.161358  1163A      1.162310  
    1164A      1.163132  1165A      1.163933  1166A      1.165915  
    1167A      1.166524  1168A      1.167570  1169A      1.168821  
    1170A      1.169353  1171A      1.170953  1172A      1.172205  
    1173A      1.174021  1174A      1.176211  1175A      1.176768  
    1176A      1.177970  1177A      1.179707  1178A      1.182014  
    1179A      1.182521  1180A      1.183797  1181A      1.184913  
    1182A      1.185810  1183A      1.189281  1184A      1.189490  
    1185A      1.190286  1186A      1.190961  1187A      1.192115  
    1188A      1.194528  1189A      1.195367  1190A      1.196002  
    1191A      1.198110  1192A      1.199311  1193A      1.200087  
    1194A      1.201604  1195A      1.202524  1196A      1.204215  
    1197A      1.205462  1198A      1.206396  1199A      1.208092  
    1200A      1.212058  1201A      1.213427  1202A      1.215197  
    1203A      1.216854  1204A      1.218377  1205A      1.221244  
    1206A      1.222926  1207A      1.224306  1208A      1.224884  
    1209A      1.226815  1210A      1.228056  1211A      1.228979  
    1212A      1.231136  1213A      1.232157  1214A      1.232522  
    1215A      1.234976  1216A      1.235528  1217A      1.236710  
    1218A      1.239050  1219A      1.239662  1220A      1.241778  
    1221A      1.243482  1222A      1.244862  1223A      1.245624  
    1224A      1.247332  1225A      1.248030  1226A      1.250218  
    1227A      1.250622  1228A      1.254426  1229A      1.255842  
    1230A      1.257001  1231A      1.258003  1232A      1.259587  
    1233A      1.260878  1234A      1.261257  1235A      1.264658  
    1236A      1.268665  1237A      1.268954  1238A      1.271537  
    1239A      1.273180  1240A      1.273559  1241A      1.275214  
    1242A      1.277039  1243A      1.280033  1244A      1.281449  
    1245A      1.282310  1246A      1.283418  1247A      1.284516  
    1248A      1.287531  1249A      1.288343  1250A      1.289749  
    1251A      1.291125  1252A      1.291760  1253A      1.293756  
    1254A      1.295635  1255A      1.298415  1256A      1.302038  
    1257A      1.302327  1258A      1.305464  1259A      1.307097  
    1260A      1.308323  1261A      1.308610  1262A      1.311981  
    1263A      1.313285  1264A      1.315283  1265A      1.315896  
    1266A      1.317477  1267A      1.318288  1268A      1.319767  
    1269A      1.322756  1270A      1.323249  1271A      1.324448  
    1272A      1.328380  1273A      1.329308  1274A      1.329884  
    1275A      1.332682  1276A      1.333231  1277A      1.335370  
    1278A      1.337277  1279A      1.338833  1280A      1.340040  
    1281A      1.342381  1282A      1.343514  1283A      1.345560  
    1284A      1.347429  1285A      1.349357  1286A      1.350625  
    1287A      1.351769  1288A      1.352895  1289A      1.355313  
    1290A      1.357125  1291A      1.357382  1292A      1.359648  
    1293A      1.360298  1294A      1.362694  1295A      1.363255  
    1296A      1.365600  1297A      1.366586  1298A      1.367212  
    1299A      1.368133  1300A      1.369239  1301A      1.370843  
    1302A      1.375038  1303A      1.376416  1304A      1.377134  
    1305A      1.378902  1306A      1.380216  1307A      1.382070  
    1308A      1.385051  1309A      1.386102  1310A      1.387519  
    1311A      1.388746  1312A      1.389038  1313A      1.390768  
    1314A      1.392384  1315A      1.393575  1316A      1.394174  
    1317A      1.395702  1318A      1.396785  1319A      1.398607  
    1320A      1.399710  1321A      1.401627  1322A      1.403284  
    1323A      1.406070  1324A      1.408509  1325A      1.410214  
    1326A      1.412431  1327A      1.414441  1328A      1.415999  
    1329A      1.416680  1330A      1.419353  1331A      1.421175  
    1332A      1.421357  1333A      1.423590  1334A      1.424731  
    1335A      1.424816  1336A      1.427080  1337A      1.429244  
    1338A      1.431635  1339A      1.432526  1340A      1.432613  
    1341A      1.434266  1342A      1.435527  1343A      1.438488  
    1344A      1.439222  1345A      1.441249  1346A      1.442909  
    1347A      1.444756  1348A      1.446017  1349A      1.447727  
    1350A      1.448705  1351A      1.449839  1352A      1.450536  
    1353A      1.452844  1354A      1.453589  1355A      1.454031  
    1356A      1.456210  1357A      1.457415  1358A      1.458029  
    1359A      1.460014  1360A      1.461877  1361A      1.464081  
    1362A      1.465517  1363A      1.465953  1364A      1.467095  
    1365A      1.467644  1366A      1.469259  1367A      1.471675  
    1368A      1.472736  1369A      1.474555  1370A      1.476217  
    1371A      1.476693  1372A      1.478918  1373A      1.479276  
    1374A      1.481113  1375A      1.482232  1376A      1.485183  
    1377A      1.486729  1378A      1.487968  1379A      1.489216  
    1380A      1.489831  1381A      1.490741  1382A      1.494139  
    1383A      1.495496  1384A      1.495597  1385A      1.497269  
    1386A      1.499166  1387A      1.500838  1388A      1.502491  
    1389A      1.503129  1390A      1.504541  1391A      1.505848  
    1392A      1.506491  1393A      1.507990  1394A      1.508183  
    1395A      1.509825  1396A      1.510770  1397A      1.512092  
    1398A      1.513969  1399A      1.515306  1400A      1.515680  
    1401A      1.518158  1402A      1.519308  1403A      1.521140  
    1404A      1.522513  1405A      1.522754  1406A      1.524426  
    1407A      1.527884  1408A      1.528812  1409A      1.530471  
    1410A      1.533311  1411A      1.533704  1412A      1.534574  
    1413A      1.537672  1414A      1.538281  1415A      1.539383  
    1416A      1.540249  1417A      1.542413  1418A      1.543980  
    1419A      1.545704  1420A      1.546264  1421A      1.546942  
    1422A      1.548804  1423A      1.551496  1424A      1.552717  
    1425A      1.554263  1426A      1.555729  1427A      1.556810  
    1428A      1.559507  1429A      1.559934  1430A      1.560752  
    1431A      1.562719  1432A      1.564538  1433A      1.565920  
    1434A      1.566554  1435A      1.567955  1436A      1.570308  
    1437A      1.571868  1438A      1.572986  1439A      1.574177  
    1440A      1.576991  1441A      1.578767  1442A      1.579714  
    1443A      1.582121  1444A      1.583123  1445A      1.584103  
    1446A      1.584977  1447A      1.585399  1448A      1.589221  
    1449A      1.590564  1450A      1.591897  1451A      1.594122  
    1452A      1.594850  1453A      1.596357  1454A      1.598381  
    1455A      1.600114  1456A      1.601480  1457A      1.603621  
    1458A      1.605169  1459A      1.605847  1460A      1.607674  
    1461A      1.610144  1462A      1.611431  1463A      1.611612  
    1464A      1.614124  1465A      1.615473  1466A      1.617460  
    1467A      1.619214  1468A      1.620251  1469A      1.622531  
    1470A      1.623515  1471A      1.625537  1472A      1.626413  
    1473A      1.627726  1474A      1.630471  1475A      1.631117  
    1476A      1.633554  1477A      1.634913  1478A      1.635935  
    1479A      1.637498  1480A      1.640513  1481A      1.641280  
    1482A      1.643621  1483A      1.644218  1484A      1.645892  
    1485A      1.648515  1486A      1.650354  1487A      1.652241  
    1488A      1.652881  1489A      1.655178  1490A      1.656482  
    1491A      1.658539  1492A      1.661214  1493A      1.662645  
    1494A      1.663460  1495A      1.666028  1496A      1.666469  
    1497A      1.667543  1498A      1.668648  1499A      1.669865  
    1500A      1.671510  1501A      1.673885  1502A      1.674850  
    1503A      1.677146  1504A      1.678887  1505A      1.680852  
    1506A      1.683044  1507A      1.683829  1508A      1.685122  
    1509A      1.689308  1510A      1.690567  1511A      1.692452  
    1512A      1.693877  1513A      1.695423  1514A      1.697430  
    1515A      1.698948  1516A      1.700381  1517A      1.701744  
    1518A      1.703894  1519A      1.704031  1520A      1.706360  
    1521A      1.710785  1522A      1.711908  1523A      1.712759  
    1524A      1.714046  1525A      1.715640  1526A      1.718289  
    1527A      1.722821  1528A      1.723261  1529A      1.724522  
    1530A      1.725873  1531A      1.728231  1532A      1.729130  
    1533A      1.731657  1534A      1.732839  1535A      1.733584  
    1536A      1.734910  1537A      1.737070  1538A      1.739756  
    1539A      1.740197  1540A      1.741523  1541A      1.743863  
    1542A      1.745811  1543A      1.748077  1544A      1.749347  
    1545A      1.751688  1546A      1.752033  1547A      1.753074  
    1548A      1.755918  1549A      1.758945  1550A      1.759585  
    1551A      1.760493  1552A      1.761206  1553A      1.764367  
    1554A      1.767210  1555A      1.767360  1556A      1.768744  
    1557A      1.770503  1558A      1.771760  1559A      1.773863  
    1560A      1.775874  1561A      1.777581  1562A      1.778852  
    1563A      1.779812  1564A      1.781715  1565A      1.783846  
    1566A      1.786200  1567A      1.786317  1568A      1.787488  
    1569A      1.789983  1570A      1.790658  1571A      1.792105  
    1572A      1.794110  1573A      1.795741  1574A      1.796373  
    1575A      1.798293  1576A      1.800839  1577A      1.802007  
    1578A      1.803384  1579A      1.804422  1580A      1.805242  
    1581A      1.806063  1582A      1.810135  1583A      1.810773  
    1584A      1.813479  1585A      1.814067  1586A      1.818190  
    1587A      1.818674  1588A      1.822813  1589A      1.823712  
    1590A      1.824067  1591A      1.825651  1592A      1.828786  
    1593A      1.831104  1594A      1.832094  1595A      1.832759  
    1596A      1.834790  1597A      1.835570  1598A      1.838739  
    1599A      1.840657  1600A      1.841942  1601A      1.843402  
    1602A      1.843815  1603A      1.846802  1604A      1.847969  
    1605A      1.848928  1606A      1.850932  1607A      1.851342  
    1608A      1.853460  1609A      1.854961  1610A      1.855806  
    1611A      1.858737  1612A      1.860524  1613A      1.862167  
    1614A      1.864778  1615A      1.865674  1616A      1.866767  
    1617A      1.870162  1618A      1.872876  1619A      1.876177  
    1620A      1.879114  1621A      1.881578  1622A      1.884063  
    1623A      1.885258  1624A      1.886321  1625A      1.887715  
    1626A      1.890017  1627A      1.891460  1628A      1.893369  
    1629A      1.896583  1630A      1.898614  1631A      1.900350  
    1632A      1.902830  1633A      1.906741  1634A      1.909270  
    1635A      1.909570  1636A      1.912062  1637A      1.912878  
    1638A      1.915148  1639A      1.918023  1640A      1.920954  
    1641A      1.923899  1642A      1.926830  1643A      1.927200  
    1644A      1.928313  1645A      1.930438  1646A      1.932250  
    1647A      1.932841  1648A      1.936262  1649A      1.937042  
    1650A      1.940724  1651A      1.942258  1652A      1.945108  
    1653A      1.945942  1654A      1.947771  1655A      1.950955  
    1656A      1.951437  1657A      1.953740  1658A      1.954562  
    1659A      1.956484  1660A      1.956747  1661A      1.959067  
    1662A      1.961008  1663A      1.965343  1664A      1.966500  
    1665A      1.968739  1666A      1.969230  1667A      1.974204  
    1668A      1.975576  1669A      1.978081  1670A      1.979147  
    1671A      1.980806  1672A      1.983019  1673A      1.984648  
    1674A      1.987062  1675A      1.988474  1676A      1.989818  
    1677A      1.991347  1678A      1.993711  1679A      1.995240  
    1680A      1.998165  1681A      1.999744  1682A      2.002880  
    1683A      2.003904  1684A      2.006274  1685A      2.007243  
    1686A      2.008084  1687A      2.010931  1688A      2.011989  
    1689A      2.013015  1690A      2.014123  1691A      2.015444  
    1692A      2.017179  1693A      2.019510  1694A      2.020597  
    1695A      2.021315  1696A      2.022928  1697A      2.023266  
    1698A      2.025388  1699A      2.027580  1700A      2.030486  
    1701A      2.030739  1702A      2.032132  1703A      2.035013  
    1704A      2.036091  1705A      2.037297  1706A      2.040734  
    1707A      2.042717  1708A      2.043791  1709A      2.045713  
    1710A      2.047087  1711A      2.050156  1712A      2.052032  
    1713A      2.053478  1714A      2.054906  1715A      2.057091  
    1716A      2.060116  1717A      2.061455  1718A      2.062752  
    1719A      2.065193  1720A      2.070416  1721A      2.073248  
    1722A      2.075654  1723A      2.078326  1724A      2.079458  
    1725A      2.081440  1726A      2.083386  1727A      2.084638  
    1728A      2.087483  1729A      2.087737  1730A      2.090385  
    1731A      2.093137  1732A      2.095221  1733A      2.098248  
    1734A      2.099382  1735A      2.101656  1736A      2.102085  
    1737A      2.104895  1738A      2.105663  1739A      2.107676  
    1740A      2.109133  1741A      2.110089  1742A      2.113892  
    1743A      2.114783  1744A      2.116105  1745A      2.118078  
    1746A      2.119798  1747A      2.122726  1748A      2.123640  
    1749A      2.125551  1750A      2.127544  1751A      2.129517  
    1752A      2.131140  1753A      2.131283  1754A      2.133842  
    1755A      2.136722  1756A      2.138709  1757A      2.141230  
    1758A      2.141405  1759A      2.142492  1760A      2.144772  
    1761A      2.145314  1762A      2.148130  1763A      2.149590  
    1764A      2.151012  1765A      2.153452  1766A      2.154748  
    1767A      2.156416  1768A      2.157120  1769A      2.159622  
    1770A      2.160634  1771A      2.163693  1772A      2.167686  
    1773A      2.169774  1774A      2.172135  1775A      2.173901  
    1776A      2.175241  1777A      2.177260  1778A      2.180049  
    1779A      2.181563  1780A      2.182801  1781A      2.183342  
    1782A      2.187395  1783A      2.187986  1784A      2.189534  
    1785A      2.190714  1786A      2.191207  1787A      2.194413  
    1788A      2.195139  1789A      2.195502  1790A      2.197086  
    1791A      2.200664  1792A      2.201616  1793A      2.204237  
    1794A      2.205499  1795A      2.205770  1796A      2.209097  
    1797A      2.212110  1798A      2.213517  1799A      2.216312  
    1800A      2.219209  1801A      2.221011  1802A      2.222187  
    1803A      2.223338  1804A      2.224348  1805A      2.225860  
    1806A      2.226967  1807A      2.229771  1808A      2.230288  
    1809A      2.232046  1810A      2.234477  1811A      2.235868  
    1812A      2.237280  1813A      2.238522  1814A      2.239966  
    1815A      2.241104  1816A      2.244594  1817A      2.246386  
    1818A      2.247617  1819A      2.248068  1820A      2.250743  
    1821A      2.252768  1822A      2.256055  1823A      2.257202  
    1824A      2.259138  1825A      2.261296  1826A      2.264312  
    1827A      2.267556  1828A      2.269835  1829A      2.273508  
    1830A      2.274137  1831A      2.275546  1832A      2.278282  
    1833A      2.280541  1834A      2.282925  1835A      2.284481  
    1836A      2.285174  1837A      2.287183  1838A      2.288371  
    1839A      2.291333  1840A      2.291839  1841A      2.293175  
    1842A      2.295599  1843A      2.296771  1844A      2.298581  
    1845A      2.300029  1846A      2.302188  1847A      2.305396  
    1848A      2.307025  1849A      2.308001  1850A      2.311501  
    1851A      2.313824  1852A      2.315028  1853A      2.315977  
    1854A      2.317782  1855A      2.319103  1856A      2.322205  
    1857A      2.323738  1858A      2.325666  1859A      2.329151  
    1860A      2.329858  1861A      2.333250  1862A      2.335943  
    1863A      2.335984  1864A      2.337521  1865A      2.340118  
    1866A      2.342196  1867A      2.342619  1868A      2.346020  
    1869A      2.348329  1870A      2.349848  1871A      2.352953  
    1872A      2.353683  1873A      2.358021  1874A      2.360796  
    1875A      2.360968  1876A      2.361434  1877A      2.365678  
    1878A      2.367459  1879A      2.369854  1880A      2.374124  
    1881A      2.374322  1882A      2.378450  1883A      2.379682  
    1884A      2.380931  1885A      2.381585  1886A      2.384844  
    1887A      2.387453  1888A      2.388513  1889A      2.390185  
    1890A      2.393726  1891A      2.396989  1892A      2.399313  
    1893A      2.401271  1894A      2.402764  1895A      2.405020  
    1896A      2.406728  1897A      2.410579  1898A      2.412656  
    1899A      2.415277  1900A      2.416467  1901A      2.417478  
    1902A      2.420191  1903A      2.421857  1904A      2.425125  
    1905A      2.428199  1906A      2.429926  1907A      2.432103  
    1908A      2.433623  1909A      2.435195  1910A      2.437818  
    1911A      2.438323  1912A      2.440266  1913A      2.442342  
    1914A      2.444165  1915A      2.448144  1916A      2.449328  
    1917A      2.450709  1918A      2.453129  1919A      2.454365  
    1920A      2.456511  1921A      2.459039  1922A      2.460446  
    1923A      2.463684  1924A      2.466330  1925A      2.468924  
    1926A      2.469751  1927A      2.470955  1928A      2.473414  
    1929A      2.476484  1930A      2.477779  1931A      2.480622  
    1932A      2.482912  1933A      2.483788  1934A      2.486341  
    1935A      2.487108  1936A      2.489894  1937A      2.491994  
    1938A      2.494375  1939A      2.499400  1940A      2.501604  
    1941A      2.503281  1942A      2.506404  1943A      2.507786  
    1944A      2.514643  1945A      2.515518  1946A      2.516531  
    1947A      2.517773  1948A      2.520025  1949A      2.522368  
    1950A      2.524723  1951A      2.526314  1952A      2.530463  
    1953A      2.533985  1954A      2.537044  1955A      2.538815  
    1956A      2.539962  1957A      2.544593  1958A      2.546785  
    1959A      2.548753  1960A      2.551038  1961A      2.555243  
    1962A      2.557122  1963A      2.558707  1964A      2.561514  
    1965A      2.562983  1966A      2.565491  1967A      2.566201  
    1968A      2.568066  1969A      2.570744  1970A      2.575754  
    1971A      2.577275  1972A      2.580668  1973A      2.581052  
    1974A      2.584503  1975A      2.586010  1976A      2.587962  
    1977A      2.589879  1978A      2.593108  1979A      2.597881  
    1980A      2.601156  1981A      2.605093  1982A      2.607673  
    1983A      2.610926  1984A      2.613352  1985A      2.617737  
    1986A      2.620273  1987A      2.624329  1988A      2.626593  
    1989A      2.629917  1990A      2.631580  1991A      2.632358  
    1992A      2.637305  1993A      2.640796  1994A      2.643146  
    1995A      2.648614  1996A      2.652027  1997A      2.654854  
    1998A      2.656540  1999A      2.659815  2000A      2.662870  
    2001A      2.664647  2002A      2.667183  2003A      2.671306  
    2004A      2.673474  2005A      2.680050  2006A      2.680758  
    2007A      2.682291  2008A      2.685765  2009A      2.687495  
    2010A      2.688343  2011A      2.691979  2012A      2.694746  
    2013A      2.697427  2014A      2.701659  2015A      2.704962  
    2016A      2.706740  2017A      2.710671  2018A      2.712169  
    2019A      2.713233  2020A      2.715894  2021A      2.718627  
    2022A      2.723554  2023A      2.725406  2024A      2.726262  
    2025A      2.729405  2026A      2.731330  2027A      2.732123  
    2028A      2.734120  2029A      2.738833  2030A      2.741020  
    2031A      2.742001  2032A      2.744117  2033A      2.748415  
    2034A      2.749790  2035A      2.751453  2036A      2.753124  
    2037A      2.755235  2038A      2.758322  2039A      2.759806  
    2040A      2.762899  2041A      2.763090  2042A      2.768045  
    2043A      2.770386  2044A      2.771752  2045A      2.774121  
    2046A      2.778384  2047A      2.780490  2048A      2.787624  
    2049A      2.788431  2050A      2.791605  2051A      2.795485  
    2052A      2.797255  2053A      2.802472  2054A      2.804730  
    2055A      2.807305  2056A      2.810132  2057A      2.813235  
    2058A      2.815309  2059A      2.820631  2060A      2.822326  
    2061A      2.824592  2062A      2.826954  2063A      2.832472  
    2064A      2.836202  2065A      2.839427  2066A      2.842464  
    2067A      2.847806  2068A      2.849508  2069A      2.853125  
    2070A      2.855523  2071A      2.857312  2072A      2.861492  
    2073A      2.863970  2074A      2.865867  2075A      2.870805  
    2076A      2.875354  2077A      2.881227  2078A      2.882875  
    2079A      2.885712  2080A      2.888838  2081A      2.893685  
    2082A      2.903760  2083A      2.904963  2084A      2.907375  
    2085A      2.910086  2086A      2.910873  2087A      2.919860  
    2088A      2.922939  2089A      2.928521  2090A      2.931417  
    2091A      2.938882  2092A      2.944127  2093A      2.949815  
    2094A      2.953875  2095A      2.954952  2096A      2.961992  
    2097A      2.963042  2098A      2.964956  2099A      2.966273  
    2100A      2.973798  2101A      2.978415  2102A      2.984007  
    2103A      2.988267  2104A      2.992322  2105A      2.994966  
    2106A      3.000622  2107A      3.005298  2108A      3.014796  
    2109A      3.016881  2110A      3.022512  2111A      3.024673  
    2112A      3.026747  2113A      3.031432  2114A      3.032318  
    2115A      3.034553  2116A      3.035972  2117A      3.038358  
    2118A      3.040512  2119A      3.045591  2120A      3.049199  
    2121A      3.053223  2122A      3.054333  2123A      3.057020  
    2124A      3.059681  2125A      3.062099  2126A      3.068448  
    2127A      3.071165  2128A      3.078750  2129A      3.084220  
    2130A      3.085416  2131A      3.088262  2132A      3.090910  
    2133A      3.093693  2134A      3.095286  2135A      3.098323  
    2136A      3.098490  2137A      3.104946  2138A      3.109003  
    2139A      3.110940  2140A      3.112248  2141A      3.114928  
    2142A      3.120272  2143A      3.128264  2144A      3.131140  
    2145A      3.135572  2146A      3.138820  2147A      3.142037  
    2148A      3.146025  2149A      3.150159  2150A      3.154180  
    2151A      3.155463  2152A      3.159056  2153A      3.162600  
    2154A      3.167490  2155A      3.169594  2156A      3.173330  
    2157A      3.176914  2158A      3.182689  2159A      3.183267  
    2160A      3.188855  2161A      3.194613  2162A      3.198960  
    2163A      3.202581  2164A      3.204933  2165A      3.206740  
    2166A      3.208097  2167A      3.214815  2168A      3.217173  
    2169A      3.218733  2170A      3.220788  2171A      3.222613  
    2172A      3.226870  2173A      3.229208  2174A      3.233214  
    2175A      3.234950  2176A      3.241517  2177A      3.247377  
    2178A      3.248562  2179A      3.250453  2180A      3.253616  
    2181A      3.256176  2182A      3.257001  2183A      3.260169  
    2184A      3.264417  2185A      3.266082  2186A      3.270082  
    2187A      3.270878  2188A      3.276328  2189A      3.279005  
    2190A      3.281063  2191A      3.282741  2192A      3.284075  
    2193A      3.289585  2194A      3.291846  2195A      3.293600  
    2196A      3.298216  2197A      3.300220  2198A      3.306103  
    2199A      3.307157  2200A      3.308345  2201A      3.313700  
    2202A      3.317292  2203A      3.320257  2204A      3.321581  
    2205A      3.323800  2206A      3.325749  2207A      3.326624  
    2208A      3.328206  2209A      3.332725  2210A      3.336628  
    2211A      3.339256  2212A      3.341763  2213A      3.344114  
    2214A      3.349937  2215A      3.351922  2216A      3.353514  
    2217A      3.359012  2218A      3.360624  2219A      3.363218  
    2220A      3.364637  2221A      3.372141  2222A      3.375230  
    2223A      3.375734  2224A      3.378012  2225A      3.379285  
    2226A      3.381704  2227A      3.383832  2228A      3.385931  
    2229A      3.390064  2230A      3.391121  2231A      3.392776  
    2232A      3.396716  2233A      3.397777  2234A      3.400540  
    2235A      3.404043  2236A      3.406505  2237A      3.407353  
    2238A      3.409939  2239A      3.410895  2240A      3.414118  
    2241A      3.415734  2242A      3.418326  2243A      3.421777  
    2244A      3.425965  2245A      3.426981  2246A      3.427388  
    2247A      3.429444  2248A      3.429940  2249A      3.431627  
    2250A      3.432764  2251A      3.435513  2252A      3.439322  
    2253A      3.441394  2254A      3.443407  2255A      3.445249  
    2256A      3.446438  2257A      3.450401  2258A      3.453776  
    2259A      3.457052  2260A      3.458020  2261A      3.460755  
    2262A      3.462904  2263A      3.464907  2264A      3.467521  
    2265A      3.467706  2266A      3.471773  2267A      3.473679  
    2268A      3.475696  2269A      3.478067  2270A      3.479774  
    2271A      3.481176  2272A      3.483243  2273A      3.484797  
    2274A      3.486547  2275A      3.488411  2276A      3.490007  
    2277A      3.490785  2278A      3.492021  2279A      3.494361  
    2280A      3.494924  2281A      3.499148  2282A      3.500773  
    2283A      3.502361  2284A      3.503392  2285A      3.505377  
    2286A      3.506679  2287A      3.509573  2288A      3.510552  
    2289A      3.512147  2290A      3.513687  2291A      3.515475  
    2292A      3.518451  2293A      3.522974  2294A      3.523759  
    2295A      3.525395  2296A      3.527815  2297A      3.530345  
    2298A      3.532379  2299A      3.534004  2300A      3.534840  
    2301A      3.537581  2302A      3.538942  2303A      3.539860  
    2304A      3.541590  2305A      3.542121  2306A      3.545071  
    2307A      3.548740  2308A      3.550361  2309A      3.553222  
    2310A      3.554070  2311A      3.556949  2312A      3.557400  
    2313A      3.558935  2314A      3.560325  2315A      3.560887  
    2316A      3.563435  2317A      3.564401  2318A      3.565828  
    2319A      3.567074  2320A      3.570092  2321A      3.572883  
    2322A      3.575306  2323A      3.577646  2324A      3.578119  
    2325A      3.581831  2326A      3.583284  2327A      3.584056  
    2328A      3.585401  2329A      3.588047  2330A      3.589451  
    2331A      3.592761  2332A      3.594106  2333A      3.597242  
    2334A      3.599469  2335A      3.601367  2336A      3.602333  
    2337A      3.602592  2338A      3.603897  2339A      3.605925  
    2340A      3.607788  2341A      3.609730  2342A      3.612852  
    2343A      3.615169  2344A      3.616410  2345A      3.616459  
    2346A      3.619737  2347A      3.620732  2348A      3.622277  
    2349A      3.623408  2350A      3.625696  2351A      3.628449  
    2352A      3.630538  2353A      3.632675  2354A      3.633999  
    2355A      3.635425  2356A      3.635916  2357A      3.638968  
    2358A      3.640324  2359A      3.642420  2360A      3.643664  
    2361A      3.646806  2362A      3.647945  2363A      3.650470  
    2364A      3.652761  2365A      3.654395  2366A      3.656533  
    2367A      3.657016  2368A      3.658244  2369A      3.661469  
    2370A      3.664217  2371A      3.665546  2372A      3.666986  
    2373A      3.668019  2374A      3.669898  2375A      3.672100  
    2376A      3.672733  2377A      3.673790  2378A      3.677664  
    2379A      3.677913  2380A      3.679829  2381A      3.681499  
    2382A      3.683089  2383A      3.683922  2384A      3.686163  
    2385A      3.687467  2386A      3.689810  2387A      3.691604  
    2388A      3.694236  2389A      3.695330  2390A      3.697905  
    2391A      3.698899  2392A      3.701670  2393A      3.704337  
    2394A      3.707205  2395A      3.708497  2396A      3.708809  
    2397A      3.711246  2398A      3.713481  2399A      3.714423  
    2400A      3.716431  2401A      3.717279  2402A      3.719174  
    2403A      3.719506  2404A      3.721046  2405A      3.722405  
    2406A      3.724161  2407A      3.725975  2408A      3.728131  
    2409A      3.729495  2410A      3.731978  2411A      3.733565  
    2412A      3.735508  2413A      3.738401  2414A      3.738960  
    2415A      3.742280  2416A      3.742721  2417A      3.743811  
    2418A      3.747594  2419A      3.749744  2420A      3.753132  
    2421A      3.754973  2422A      3.756210  2423A      3.757940  
    2424A      3.759439  2425A      3.762255  2426A      3.763539  
    2427A      3.764865  2428A      3.766731  2429A      3.768385  
    2430A      3.771603  2431A      3.772441  2432A      3.774270  
    2433A      3.776842  2434A      3.780483  2435A      3.782601  
    2436A      3.783528  2437A      3.785107  2438A      3.785796  
    2439A      3.787615  2440A      3.790872  2441A      3.791618  
    2442A      3.794180  2443A      3.797870  2444A      3.798620  
    2445A      3.799547  2446A      3.802571  2447A      3.805417  
    2448A      3.807918  2449A      3.810602  2450A      3.811521  
    2451A      3.813242  2452A      3.814656  2453A      3.817177  
    2454A      3.820501  2455A      3.822392  2456A      3.826296  
    2457A      3.828881  2458A      3.830242  2459A      3.831975  
    2460A      3.833689  2461A      3.835104  2462A      3.836522  
    2463A      3.838922  2464A      3.839734  2465A      3.841123  
    2466A      3.842946  2467A      3.844379  2468A      3.846643  
    2469A      3.847587  2470A      3.851883  2471A      3.853386  
    2472A      3.853841  2473A      3.858070  2474A      3.858876  
    2475A      3.860652  2476A      3.863693  2477A      3.866518  
    2478A      3.867110  2479A      3.868818  2480A      3.870790  
    2481A      3.871546  2482A      3.873996  2483A      3.876551  
    2484A      3.878484  2485A      3.881015  2486A      3.882705  
    2487A      3.885245  2488A      3.886420  2489A      3.887877  
    2490A      3.890494  2491A      3.894505  2492A      3.896408  
    2493A      3.897316  2494A      3.898983  2495A      3.900636  
    2496A      3.902143  2497A      3.904609  2498A      3.905645  
    2499A      3.907000  2500A      3.907599  2501A      3.908488  
    2502A      3.912529  2503A      3.918243  2504A      3.918568  
    2505A      3.920321  2506A      3.921191  2507A      3.922406  
    2508A      3.925135  2509A      3.926834  2510A      3.928093  
    2511A      3.931886  2512A      3.933440  2513A      3.935492  
    2514A      3.938333  2515A      3.939051  2516A      3.939592  
    2517A      3.941873  2518A      3.943597  2519A      3.944896  
    2520A      3.946762  2521A      3.947915  2522A      3.950444  
    2523A      3.951453  2524A      3.954676  2525A      3.956445  
    2526A      3.958809  2527A      3.963240  2528A      3.964155  
    2529A      3.964675  2530A      3.968151  2531A      3.970276  
    2532A      3.972019  2533A      3.973705  2534A      3.976226  
    2535A      3.977410  2536A      3.978158  2537A      3.978479  
    2538A      3.983114  2539A      3.984775  2540A      3.986690  
    2541A      3.989380  2542A      3.991806  2543A      3.993995  
    2544A      3.995699  2545A      3.999451  2546A      4.000190  
    2547A      4.001439  2548A      4.003098  2549A      4.004108  
    2550A      4.006824  2551A      4.008913  2552A      4.010394  
    2553A      4.014387  2554A      4.017726  2555A      4.019596  
    2556A      4.021865  2557A      4.023670  2558A      4.024924  
    2559A      4.028203  2560A      4.028270  2561A      4.029535  
    2562A      4.030815  2563A      4.032839  2564A      4.036457  
    2565A      4.037874  2566A      4.041297  2567A      4.043401  
    2568A      4.045404  2569A      4.047824  2570A      4.048453  
    2571A      4.050505  2572A      4.053270  2573A      4.053650  
    2574A      4.057570  2575A      4.059706  2576A      4.062873  
    2577A      4.063785  2578A      4.066660  2579A      4.068099  
    2580A      4.070076  2581A      4.072915  2582A      4.073020  
    2583A      4.076181  2584A      4.077833  2585A      4.079368  
    2586A      4.081582  2587A      4.083166  2588A      4.086341  
    2589A      4.088248  2590A      4.090438  2591A      4.092419  
    2592A      4.094517  2593A      4.097474  2594A      4.098006  
    2595A      4.100877  2596A      4.102550  2597A      4.103971  
    2598A      4.104912  2599A      4.109355  2600A      4.111383  
    2601A      4.114419  2602A      4.114958  2603A      4.117546  
    2604A      4.118849  2605A      4.121642  2606A      4.122637  
    2607A      4.127392  2608A      4.129032  2609A      4.130510  
    2610A      4.132311  2611A      4.136884  2612A      4.138733  
    2613A      4.140370  2614A      4.142221  2615A      4.143345  
    2616A      4.143750  2617A      4.146217  2618A      4.148423  
    2619A      4.151105  2620A      4.151756  2621A      4.154213  
    2622A      4.157311  2623A      4.157701  2624A      4.162139  
    2625A      4.163101  2626A      4.166768  2627A      4.168661  
    2628A      4.169946  2629A      4.173374  2630A      4.176366  
    2631A      4.181979  2632A      4.183069  2633A      4.184607  
    2634A      4.185800  2635A      4.189426  2636A      4.190477  
    2637A      4.191994  2638A      4.193601  2639A      4.196183  
    2640A      4.198283  2641A      4.199197  2642A      4.201477  
    2643A      4.204171  2644A      4.204572  2645A      4.207474  
    2646A      4.209024  2647A      4.210145  2648A      4.212632  
    2649A      4.212822  2650A      4.214255  2651A      4.219456  
    2652A      4.222407  2653A      4.224922  2654A      4.225604  
    2655A      4.227073  2656A      4.231151  2657A      4.233344  
    2658A      4.234208  2659A      4.234954  2660A      4.236612  
    2661A      4.241296  2662A      4.242316  2663A      4.244332  
    2664A      4.245086  2665A      4.248965  2666A      4.250593  
    2667A      4.251369  2668A      4.252200  2669A      4.252659  
    2670A      4.256788  2671A      4.259467  2672A      4.260891  
    2673A      4.262828  2674A      4.264987  2675A      4.266240  
    2676A      4.268634  2677A      4.270341  2678A      4.273176  
    2679A      4.275374  2680A      4.276620  2681A      4.279937  
    2682A      4.280400  2683A      4.281166  2684A      4.282303  
    2685A      4.283189  2686A      4.290286  2687A      4.291229  
    2688A      4.292853  2689A      4.296320  2690A      4.297714  
    2691A      4.298438  2692A      4.301327  2693A      4.304931  
    2694A      4.306551  2695A      4.307940  2696A      4.310252  
    2697A      4.311472  2698A      4.313604  2699A      4.314785  
    2700A      4.316745  2701A      4.319858  2702A      4.321264  
    2703A      4.322823  2704A      4.324849  2705A      4.328482  
    2706A      4.328993  2707A      4.333556  2708A      4.333802  
    2709A      4.340336  2710A      4.340776  2711A      4.344682  
    2712A      4.348043  2713A      4.349231  2714A      4.350100  
    2715A      4.353115  2716A      4.355229  2717A      4.357140  
    2718A      4.357880  2719A      4.358190  2720A      4.362706  
    2721A      4.365560  2722A      4.367518  2723A      4.368857  
    2724A      4.371099  2725A      4.372896  2726A      4.373322  
    2727A      4.375603  2728A      4.377852  2729A      4.378635  
    2730A      4.381511  2731A      4.382775  2732A      4.383559  
    2733A      4.386442  2734A      4.387482  2735A      4.389533  
    2736A      4.391134  2737A      4.392846  2738A      4.394652  
    2739A      4.395908  2740A      4.399753  2741A      4.402087  
    2742A      4.403851  2743A      4.404769  2744A      4.406003  
    2745A      4.409043  2746A      4.410787  2747A      4.412337  
    2748A      4.413502  2749A      4.415095  2750A      4.418309  
    2751A      4.420518  2752A      4.421689  2753A      4.423982  
    2754A      4.424711  2755A      4.425969  2756A      4.427157  
    2757A      4.429391  2758A      4.432085  2759A      4.432692  
    2760A      4.433797  2761A      4.436908  2762A      4.438447  
    2763A      4.439283  2764A      4.443967  2765A      4.446541  
    2766A      4.448272  2767A      4.449462  2768A      4.451235  
    2769A      4.453960  2770A      4.456466  2771A      4.457843  
    2772A      4.460825  2773A      4.461729  2774A      4.463890  
    2775A      4.465985  2776A      4.468008  2777A      4.469820  
    2778A      4.472688  2779A      4.474047  2780A      4.475520  
    2781A      4.477131  2782A      4.480048  2783A      4.481629  
    2784A      4.482599  2785A      4.483256  2786A      4.486533  
    2787A      4.487947  2788A      4.489258  2789A      4.491622  
    2790A      4.492453  2791A      4.494129  2792A      4.498272  
    2793A      4.498484  2794A      4.500031  2795A      4.501644  
    2796A      4.502580  2797A      4.504040  2798A      4.506521  
    2799A      4.507298  2800A      4.509362  2801A      4.509984  
    2802A      4.511715  2803A      4.514578  2804A      4.516164  
    2805A      4.517944  2806A      4.519288  2807A      4.521012  
    2808A      4.523622  2809A      4.525513  2810A      4.527658  
    2811A      4.529485  2812A      4.532346  2813A      4.534730  
    2814A      4.535356  2815A      4.540727  2816A      4.542416  
    2817A      4.543269  2818A      4.546146  2819A      4.548363  
    2820A      4.550981  2821A      4.551869  2822A      4.554451  
    2823A      4.556064  2824A      4.558161  2825A      4.558974  
    2826A      4.560343  2827A      4.564569  2828A      4.566950  
    2829A      4.571156  2830A      4.574219  2831A      4.575628  
    2832A      4.576628  2833A      4.577946  2834A      4.582212  
    2835A      4.584038  2836A      4.586188  2837A      4.587718  
    2838A      4.589054  2839A      4.592867  2840A      4.595316  
    2841A      4.596701  2842A      4.600846  2843A      4.600918  
    2844A      4.601285  2845A      4.604271  2846A      4.607451  
    2847A      4.609125  2848A      4.611195  2849A      4.611864  
    2850A      4.614621  2851A      4.618346  2852A      4.618807  
    2853A      4.620630  2854A      4.620712  2855A      4.624048  
    2856A      4.626285  2857A      4.630571  2858A      4.631852  
    2859A      4.634324  2860A      4.638250  2861A      4.644348  
    2862A      4.647314  2863A      4.648501  2864A      4.651535  
    2865A      4.654157  2866A      4.656023  2867A      4.658569  
    2868A      4.660418  2869A      4.663162  2870A      4.667170  
    2871A      4.668451  2872A      4.672229  2873A      4.674890  
    2874A      4.677193  2875A      4.678676  2876A      4.680312  
    2877A      4.681869  2878A      4.683324  2879A      4.685000  
    2880A      4.688498  2881A      4.688994  2882A      4.692544  
    2883A      4.693595  2884A      4.696265  2885A      4.697057  
    2886A      4.698441  2887A      4.703608  2888A      4.704110  
    2889A      4.707101  2890A      4.709563  2891A      4.714439  
    2892A      4.717036  2893A      4.720768  2894A      4.721021  
    2895A      4.723948  2896A      4.727712  2897A      4.729803  
    2898A      4.731455  2899A      4.733468  2900A      4.734540  
    2901A      4.737896  2902A      4.739983  2903A      4.743441  
    2904A      4.744055  2905A      4.746141  2906A      4.747975  
    2907A      4.749674  2908A      4.751757  2909A      4.752529  
    2910A      4.753777  2911A      4.758870  2912A      4.759356  
    2913A      4.761039  2914A      4.762012  2915A      4.765067  
    2916A      4.765634  2917A      4.767068  2918A      4.770760  
    2919A      4.773962  2920A      4.775602  2921A      4.776654  
    2922A      4.778357  2923A      4.780414  2924A      4.783764  
    2925A      4.784989  2926A      4.787640  2927A      4.788851  
    2928A      4.789879  2929A      4.794233  2930A      4.795972  
    2931A      4.798842  2932A      4.800712  2933A      4.805543  
    2934A      4.806486  2935A      4.812275  2936A      4.815483  
    2937A      4.817108  2938A      4.818963  2939A      4.823939  
    2940A      4.825111  2941A      4.827801  2942A      4.828813  
    2943A      4.831371  2944A      4.832794  2945A      4.837770  
    2946A      4.838030  2947A      4.841383  2948A      4.842724  
    2949A      4.846916  2950A      4.847002  2951A      4.849982  
    2952A      4.851573  2953A      4.852760  2954A      4.854474  
    2955A      4.859241  2956A      4.862557  2957A      4.863915  
    2958A      4.866086  2959A      4.871959  2960A      4.874062  
    2961A      4.878319  2962A      4.880109  2963A      4.882990  
    2964A      4.885163  2965A      4.886541  2966A      4.888094  
    2967A      4.890262  2968A      4.893677  2969A      4.898371  
    2970A      4.900232  2971A      4.901329  2972A      4.903326  
    2973A      4.910076  2974A      4.910769  2975A      4.920859  
    2976A      4.922642  2977A      4.924855  2978A      4.932663  
    2979A      4.934184  2980A      4.936057  2981A      4.936815  
    2982A      4.940745  2983A      4.943322  2984A      4.944125  
    2985A      4.948899  2986A      4.951889  2987A      4.954023  
    2988A      4.956356  2989A      4.958096  2990A      4.958910  
    2991A      4.959911  2992A      4.961639  2993A      4.965695  
    2994A      4.967260  2995A      4.968523  2996A      4.972355  
    2997A      4.974219  2998A      4.976084  2999A      4.977467  
    3000A      4.979200  3001A      4.981599  3002A      4.983297  
    3003A      4.985672  3004A      4.987228  3005A      4.988029  
    3006A      4.988951  3007A      4.993300  3008A      4.995212  
    3009A      4.996744  3010A      5.001199  3011A      5.004134  
    3012A      5.006575  3013A      5.010233  3014A      5.012720  
    3015A      5.014965  3016A      5.020008  3017A      5.020975  
    3018A      5.025718  3019A      5.027550  3020A      5.030720  
    3021A      5.038025  3022A      5.042479  3023A      5.048548  
    3024A      5.050655  3025A      5.052796  3026A      5.055356  
    3027A      5.060389  3028A      5.061679  3029A      5.064294  
    3030A      5.068411  3031A      5.070584  3032A      5.076092  
    3033A      5.077938  3034A      5.083835  3035A      5.086085  
    3036A      5.087432  3037A      5.088305  3038A      5.097078  
    3039A      5.100673  3040A      5.103686  3041A      5.106728  
    3042A      5.114578  3043A      5.115739  3044A      5.118302  
    3045A      5.119954  3046A      5.124022  3047A      5.128415  
    3048A      5.135839  3049A      5.139631  3050A      5.142877  
    3051A      5.143676  3052A      5.150667  3053A      5.155486  
    3054A      5.158380  3055A      5.161061  3056A      5.164004  
    3057A      5.166083  3058A      5.167137  3059A      5.167674  
    3060A      5.173572  3061A      5.175789  3062A      5.177972  
    3063A      5.182166  3064A      5.185200  3065A      5.186630  
    3066A      5.191188  3067A      5.191359  3068A      5.192522  
    3069A      5.199373  3070A      5.203428  3071A      5.203848  
    3072A      5.207311  3073A      5.213301  3074A      5.217756  
    3075A      5.218673  3076A      5.223190  3077A      5.228789  
    3078A      5.231935  3079A      5.237882  3080A      5.240944  
    3081A      5.242241  3082A      5.247403  3083A      5.251168  
    3084A      5.257474  3085A      5.258884  3086A      5.264587  
    3087A      5.268733  3088A      5.270142  3089A      5.272331  
    3090A      5.273148  3091A      5.278335  3092A      5.283095  
    3093A      5.290394  3094A      5.292896  3095A      5.293921  
    3096A      5.300148  3097A      5.304113  3098A      5.305444  
    3099A      5.311431  3100A      5.314737  3101A      5.321293  
    3102A      5.321571  3103A      5.327147  3104A      5.329828  
    3105A      5.339651  3106A      5.342252  3107A      5.344645  
    3108A      5.347493  3109A      5.352468  3110A      5.352850  
    3111A      5.357513  3112A      5.360458  3113A      5.361969  
    3114A      5.364641  3115A      5.370464  3116A      5.371642  
    3117A      5.375435  3118A      5.381573  3119A      5.392217  
    3120A      5.400538  3121A      5.403160  3122A      5.408598  
    3123A      5.426299  3124A      5.430114  3125A      5.434852  
    3126A      5.439237  3127A      5.442678  3128A      5.444470  
    3129A      5.446155  3130A      5.448125  3131A      5.449610  
    3132A      5.455610  3133A      5.462159  3134A      5.475827  
    3135A      5.480526  3136A      5.482555  3137A      5.482909  
    3138A      5.484864  3139A      5.489084  3140A      5.494897  
    3141A      5.512433  3142A      5.516029  3143A      5.516765  
    3144A      5.520935  3145A      5.527784  3146A      5.531009  
    3147A      5.532780  3148A      5.537952  3149A      5.540619  
    3150A      5.542201  3151A      5.553130  3152A      5.561831  
    3153A      5.565958  3154A      5.569736  3155A      5.578342  
    3156A      5.587202  3157A      5.594065  3158A      5.596623  
    3159A      5.599620  3160A      5.601224  3161A      5.604681  
    3162A      5.606436  3163A      5.608915  3164A      5.612171  
    3165A      5.624375  3166A      5.633016  3167A      5.636287  
    3168A      5.640665  3169A      5.643096  3170A      5.650037  
    3171A      5.653388  3172A      5.659393  3173A      5.663338  
    3174A      5.669636  3175A      5.672189  3176A      5.689474  
    3177A      5.689664  3178A      5.693944  3179A      5.698190  
    3180A      5.705127  3181A      5.709021  3182A      5.714204  
    3183A      5.716043  3184A      5.719684  3185A      5.722250  
    3186A      5.730351  3187A      5.744321  3188A      5.758148  
    3189A      5.763409  3190A      5.768345  3191A      5.775799  
    3192A      5.798767  3193A      5.806458  3194A      5.813186  
    3195A      5.817527  3196A      5.835067  3197A      5.839926  
    3198A      5.853138  3199A      5.858560  3200A      5.866017  
    3201A      5.873266  3202A      5.875941  3203A      5.888490  
    3204A      5.889970  3205A      5.897240  3206A      5.897725  
    3207A      5.902312  3208A      5.913293  3209A      5.933450  
    3210A      5.966266  3211A      5.972836  3212A      5.978293  
    3213A      5.988722  3214A      6.010028  3215A      6.027551  
    3216A      6.033440  3217A      6.037015  3218A      6.039956  
    3219A      6.053982  3220A      6.061851  3221A      6.074733  
    3222A      6.078847  3223A      6.089732  3224A      6.091588  
    3225A      6.095517  3226A      6.100142  3227A      6.104350  
    3228A      6.135110  3229A      6.140247  3230A      6.152326  
    3231A      6.172438  3232A      6.176343  3233A      6.177782  
    3234A      6.181270  3235A      6.202757  3236A      6.207521  
    3237A      6.212509  3238A      6.215078  3239A      6.237731  
    3240A      6.248026  3241A      6.252291  3242A      6.255935  
    3243A      6.258147  3244A      6.260661  3245A      6.270030  
    3246A      6.297537  3247A      6.300158  3248A      6.305316  
    3249A      6.310250  3250A      6.315396  3251A      6.322031  
    3252A      6.326812  3253A      6.346307  3254A      6.352991  
    3255A      6.357010  3256A      6.360402  3257A      6.366418  
    3258A      6.376482  3259A      6.379991  3260A      6.387276  
    3261A      6.391462  3262A      6.395269  3263A      6.398917  
    3264A      6.405941  3265A      6.412347  3266A      6.416598  
    3267A      6.425765  3268A      6.430498  3269A      6.433744  
    3270A      6.444917  3271A      6.445417  3272A      6.447683  
    3273A      6.449789  3274A      6.452531  3275A      6.454184  
    3276A      6.464572  3277A      6.471106  3278A      6.472226  
    3279A      6.484244  3280A      6.491332  3281A      6.495513  
    3282A      6.499193  3283A      6.502952  3284A      6.512406  
    3285A      6.525808  3286A      6.531590  3287A      6.544933  
    3288A      6.555768  3289A      6.571291  3290A      6.573329  
    3291A      6.577478  3292A      6.604004  3293A      6.605115  
    3294A      6.608731  3295A      6.615857  3296A      6.626829  
    3297A      6.643237  3298A      6.659681  3299A      6.664808  
    3300A      6.669826  3301A      6.671990  3302A      6.676036  
    3303A      6.696668  3304A      6.706457  3305A      6.707923  
    3306A      6.713502  3307A      6.727354  3308A      6.737228  
    3309A      6.741548  3310A      6.750082  3311A      6.751862  
    3312A      6.760682  3313A      6.761074  3314A      6.771163  
    3315A      6.780203  3316A      6.781384  3317A      6.788078  
    3318A      6.810789  3319A      6.817032  3320A      6.818696  
    3321A      6.822481  3322A      6.824835  3323A      6.848320  
    3324A      6.851379  3325A      6.854539  3326A      6.861504  
    3327A      6.894567  3328A      6.899905  3329A      6.900363  
    3330A      6.922505  3331A      6.928077  3332A      6.938803  
    3333A      6.944258  3334A      6.945080  3335A      6.962622  
    3336A      6.966782  3337A      6.973408  3338A      6.980735  
    3339A      6.986959  3340A      6.987170  3341A      6.993681  
    3342A      7.062407  3343A      7.122112  3344A      7.142572  
    3345A      7.174193  3346A      7.196591  3347A      7.199569  
    3348A      7.230647  3349A      7.316278  3350A      7.398979  
    3351A      7.429513  3352A      7.656870  3353A      7.682878  
    3354A     15.422393  3355A     15.458986  3356A     15.580017  
    3357A     15.740500  3358A     16.229858  3359A     16.355944  
    3360A     16.704473  3361A     17.045275  3362A     17.092420  
    3363A     17.103281  3364A     17.187691  3365A     17.221826  
    3366A     17.241253  3367A     17.272569  3368A     17.289273  
    3369A     17.951419  3370A     18.169724  3371A     18.182517  
    3372A     18.737828  3373A     18.758332  3374A     18.880786  
    3375A     18.930592  3376A     18.968449  3377A     19.319703  
    3378A     19.465054  3379A     19.500199  3380A     19.686829  
    3381A     19.803870  3382A     19.925357  3383A     20.052031  
    3384A     20.606919  3385A     20.629885  3386A     20.700177  
    3387A     20.822143  3388A     20.858685  3389A     20.885821  
    3390A     21.197070  3391A     21.259511  3392A     21.383910  
    3393A     21.410953  3394A     21.497791  3395A     21.720824  
    3396A     21.832545  3397A     22.216524  3398A     22.298114  
    3399A     22.302424  3400A     22.417780  3401A     22.450886  
    3402A     22.577949  3403A     23.047202  3404A     23.069930  
    3405A     23.105019  3406A     23.155649  3407A     23.240334  
    3408A     23.313052  3409A     23.422990  3410A     23.491986  
    3411A     23.624386  3412A     23.743407  3413A     23.827768  
    3414A     23.850584  3415A     24.040947  3416A     24.139972  
    3417A     24.185857  

    Final Occupation by Irrep:
              A 
    DOCC [   206 ]
    NA   [   206 ]
    NB   [   206 ]

  @DF-RKS Final Energy: -2531.73903230724682

   => Energetics <=

    Nuclear Repulsion Energy =           9204.8300480012621847
    One-Electron Energy =              -21772.6432037091435632
    Two-Electron Energy =               10210.5121435274377291
    DFT Exchange-Correlation Energy =    -174.3679180843631968
    Empirical Dispersion Energy =          -0.0701020424400890
    VV10 Nonlocal Energy =                  0.0000000000000000
    Total Energy =                      -2531.7390323072468163

Computation Completed


Properties will be evaluated at   0.000000,   0.000000,   0.000000 [a0]

Properties computed using the SCF density matrix


 Multipole Moments:

 ------------------------------------------------------------------------------------
     Multipole            Electronic (a.u.)      Nuclear  (a.u.)        Total (a.u.)
 ------------------------------------------------------------------------------------

 L = 1.  Multiply by 2.5417464519 to convert [e a0] to [Debye]
 Dipole X            :         -6.8289942            7.2924530            0.4634587
 Dipole Y            :          3.2658225           -3.6736275           -0.4078050
 Dipole Z            :         -6.2478426            5.9110634           -0.3367791
 Magnitude           :                                                    0.7032205

 ------------------------------------------------------------------------------------

*** tstop() called on atl1-1-02-003-30-2.pace.gatech.edu at Mon Jun 15 14:47:58 2026
Module time:
	user time   =   46768.67 seconds =     779.48 minutes
	system time =    2324.71 seconds =      38.75 minutes
	total time  =       6718 seconds =     111.97 minutes
Total time:
	user time   =   46768.67 seconds =     779.48 minutes
	system time =    2324.71 seconds =      38.75 minutes
	total time  =       6718 seconds =     111.97 minutes

*** tstart() called on atl1-1-02-003-30-2.pace.gatech.edu
*** at Mon Jun 15 14:47:58 2026

   => Loading Basis Set <=

    Name: (AUG-CC-PVTZ AUX)
    Role: RIFIT
    Keyword: DF_BASIS_MP2
    atoms 1-5, 16-69   entry C          line   148 file /storage/home/hcoda1/5/vlita3/.conda/envs/p4_qcml/share/psi4/basis/aug-cc-pvtz-ri.gbs 
    atoms 6-10         entry N          line   206 file /storage/home/hcoda1/5/vlita3/.conda/envs/p4_qcml/share/psi4/basis/aug-cc-pvtz-ri.gbs 
    atoms 11-15, 70-87 entry H          line    30 file /storage/home/hcoda1/5/vlita3/.conda/envs/p4_qcml/share/psi4/basis/aug-cc-pvtz-ri.gbs 

	 --------------------------------------------------------
	                          DF-MP2                         
	      2nd-Order Density-Fitted Moller-Plesset Theory     
	              RMP2 Wavefunction,  10 Threads             
	                                                         
	        Rob Parrish, Justin Turney, Andy Simmonett,      
	           Ed Hohenstein, and C. David Sherrill          
	 --------------------------------------------------------

   => Auxiliary Basis Set <=

  Basis Set: (AUG-CC-PVTZ AUX)
    Blend: AUG-CC-PVTZ-RI
    Number of shells: 2114
    Number of basis functions: 7842
    Number of Cartesian functions: 9969
    Spherical Harmonics?: true
    Max angular momentum: 4

	 --------------------------------------------------------
	                 NBF =  3473, NAUX =  7842
	 --------------------------------------------------------
	   CLASS    FOCC     OCC    AOCC    AVIR     VIR    FVIR
	   PAIRS       0     206     206    3211    3211       0
	 --------------------------------------------------------

	-----------------------------------------------------------
	 ==================> DF-MP2 Energies <==================== 
	-----------------------------------------------------------
	 Reference Energy          =   -2531.7390323072468163 [Eh]
	 Singles Energy            =      -0.0000000000000000 [Eh]
	 Same-Spin Energy          =      -3.7139206530467126 [Eh]
	 Opposite-Spin Energy      =     -10.2484497306755884 [Eh]
	 Correlation Energy        =     -13.9623703837223019 [Eh]
	 Total Energy              =   -2545.7014026909691893 [Eh]
	-----------------------------------------------------------
	 ================> DF-SCS-MP2 Energies <================== 
	-----------------------------------------------------------
	 SCS Same-Spin Scale       =       0.3333333333333333 [-]
	 SCS Opposite-Spin Scale   =       1.2000000000000000 [-]
	 SCS Same-Spin Energy      =      -1.2379735510155707 [Eh]
	 SCS Opposite-Spin Energy  =     -12.2981396768107061 [Eh]
	 SCS Correlation Energy    =     -13.5361132278262772 [Eh]
	 SCS Total Energy          =   -2545.2751455350730794 [Eh]
	-----------------------------------------------------------



    B2PLYP-D3 Energy Summary
    ------------------------
    DFT Reference Energy                  = -2531.7390323072468163
    Scaled MP2 Correlation                =    -3.7698400036050219
    @Final double-hybrid DFT total energy = -2535.5088723108519844


*** tstop() called on atl1-1-02-003-30-2.pace.gatech.edu at Mon Jun 15 16:25:48 2026
Module time:
	user time   =   55068.50 seconds =     917.81 minutes
	system time =     178.22 seconds =       2.97 minutes
	total time  =       5870 seconds =      97.83 minutes
Total time:
	user time   =  101837.17 seconds =    1697.29 minutes
	system time =    2502.93 seconds =      41.72 minutes
	total time  =      12588 seconds =     209.80 minutes

    Psi4 stopped on: Monday, 15 June 2026 04:25PM
    Psi4 wall time for execution: 3:29:52.95

*** Psi4 exiting successfully. Buy a developer a beer!
