
    -----------------------------------------------------------------------
          Psi4: An Open-Source Ab Initio Electronic Structure Package
                               Psi4 1.9.1 release

                         Git: Rev {} zzzzzzz 


    D. G. A. Smith, L. A. Burns, A. C. Simmonett, R. M. Parrish,
    M. C. Schieber, R. Galvelis, P. Kraus, H. Kruse, R. Di Remigio,
    A. Alenaizan, A. M. James, S. Lehtola, J. P. Misiewicz, M. Scheurer,
    R. A. Shaw, J. B. Schriber, Y. Xie, Z. L. Glick, D. A. Sirianni,
    J. S. O'Brien, J. M. Waldrop, A. Kumar, E. G. Hohenstein,
    B. P. Pritchard, B. R. Brooks, H. F. Schaefer III, A. Yu. Sokolov,
    K. Patkowski, A. E. DePrince III, U. Bozkaya, R. A. King,
    F. A. Evangelista, J. M. Turney, T. D. Crawford, C. D. Sherrill,
    J. Chem. Phys. 152(18) 184108 (2020). https://doi.org/10.1063/5.0006002

                            Additional Code Authors
    E. T. Seidl, C. L. Janssen, E. F. Valeev, M. L. Leininger,
    J. F. Gonthier, R. M. Richard, H. R. McAlexander, M. Saitow, X. Wang,
    P. Verma, M. H. Lechner, A. Jiang, S. Behnle, A. G. Heide,
    M. F. Herbst, and D. L. Poole

             Previous Authors, Complete List of Code Contributors,
                       and Citations for Specific Modules
    https://github.com/psi4/psi4/blob/master/codemeta.json
    https://github.com/psi4/psi4/graphs/contributors
    http://psicode.org/psi4manual/master/introduction.html#citing-psifour

    -----------------------------------------------------------------------


    Psi4 started on: Monday, 15 June 2026 01:50PM

    Process ID: 3702464
    Host:       atl1-1-03-004-18-1.pace.gatech.edu
    PSIDATADIR: /storage/home/hcoda1/5/vlita3/.conda/envs/p4_qcml/share/psi4
    Memory:     250.0 GiB
    Threads:    10
    
  ==> Input QCSchema <==

--------------------------------------------------------------------------
{'driver': 'energy',
 'extras': {},
 'id': '362',
 'keywords': {},
 'model': {'basis': 'aug-cc-pvtz', 'method': 'b2plyp-d3'},
 'molecule': {'extras': {},
              'fix_com': True,
              'fix_orientation': True,
              'fragment_charges': [0.0, 0.0],
              'fragment_multiplicities': [1, 1],
              'fragments': [[0, 1, 2, 3, 4, 5, 6, 7, 8, 9, 10, 11, 12, 13, 14, 15, 16, 17, 18, 19, 20, 21, 22, 23, 24,
                             25, 26, 27, 28, 29, 30, 31, 32, 33, 34, 35, 36, 37, 38, 39, 40, 41, 42, 43, 44, 45, 46, 47,
                             48, 49, 50, 51, 52, 53, 54, 55],
                            [56, 57, 58, 59, 60, 61, 62, 63, 64, 65, 66, 67, 68, 69, 70, 71, 72, 73, 74, 75, 76, 77, 78,
                             79, 80, 81, 82, 83, 84, 85, 86, 87, 88, 89, 90, 91, 92, 93, 94, 95, 96, 97, 98, 99, 100,
                             101, 102, 103, 104, 105, 106, 107, 108, 109, 110, 111]],
              'geometry': [39.18725066, 24.74029443, 4.00810911, 37.91546498, 22.14947992, 3.77378307, 35.03363264,
                           22.26853266, 4.05535227, 33.7429497, 19.68527705, 3.82102623, 30.85922763, 19.81566815,
                           4.07613925, 29.56287551, 17.23808172, 3.82858513, 26.67726371, 17.37792145, 4.05535227,
                           25.37335269, 14.80600419, 3.78890088, 22.48774089, 14.95907201, 3.99866048, 21.17249151,
                           12.3909342, 3.72653992, 18.28876944, 12.55534038, 3.93818925, 16.9621817, 9.99287175,
                           3.67551731, 14.08034936, 10.16483683, 3.9060639, 12.74809244, 7.60425793, 3.66417896,
                           9.86814983, 7.77811273, 3.92685089, 8.53400318, 5.21564411, 3.71142211, 5.65595029,
                           5.38571946, 4.00621939, 4.34070091, 2.8138022, 3.80590842, 2.28845834, 3.00088509,
                           4.00432966, 38.81875407, 25.57933283, 5.86570989, 41.23760351, 24.59667525, 3.76811389,
                           38.46915474, 26.04798491, 2.57191726, 38.38222733, 21.31233124, 1.93318983, 38.68647324,
                           20.86635588, 5.21186465, 34.56120111, 23.10568134, 5.89594551, 34.26073465, 23.5516567,
                           2.61538096, 34.22860931, 18.8424592, 1.98610216, 34.50072987, 18.40782219, 5.27044616,
                           30.37356801, 20.65281683, 5.91484277, 30.10333718, 21.10257164, 2.63238849, 30.06365293,
                           16.39337414, 1.99744051, 30.30175842, 15.95495768, 5.28556397, 26.17648629, 18.2131804,
                           5.89027633, 25.94216025, 18.67049412, 2.60593233, 25.88168901, 13.96507607, 1.95964599,
                           26.09711779, 13.51532125, 5.24776945, 21.97940457, 15.79433096, 5.83169482, 21.76586551,
                           16.25353441, 2.54546109, 21.67893811, 11.5518958, 1.89728503, 21.89247716, 11.09647181,
                           5.18351876, 17.78610229, 13.3962685, 5.76933386, 17.56878379, 13.8516925, 2.48310013,
                           17.45540022, 9.14816417, 1.84248297, 17.68594681, 8.69651963, 5.1287167, 13.59468975,
                           11.01521359, 5.73909824, 13.3528048, 11.4574095, 2.45286451, 13.21863425, 6.7557709,
                           1.82925489, 13.48697536, 6.31168526, 5.1135989, 9.4032772, 8.63604839, 5.76177496,
                           9.12359773, 9.0631265, 2.47743095, 8.983758, 4.35959817, 1.87271859, 9.29178336, 3.92874061,
                           5.15517287, 5.21186465, 6.2493243, 5.84114345, 4.90005984, 6.66506404, 2.55868917,
                           4.72431531, 1.92563092, 1.9747638, 5.00966396, 1.52500898, 5.28367425, 9.39004912,
                           8.90249978, -3.87960774, 8.09936617, 6.31924416, -4.11393378, 5.21753383, 6.43829691,
                           -3.83236458, 3.94574815, 3.84748239, -4.06669062, 12.27188146, 8.77210867, -4.13661049,
                           13.57012331, 11.35158484, -3.88716664, 16.45384537, 11.20985538, -4.11393378, 17.75964613,
                           13.78177263, -3.84748239, 20.64525792, 13.62870482, -4.05724199, 21.95861758, 16.19684262,
                           -3.78512143, 24.84422937, 16.03243645, -3.99677076, 26.16892739, 18.5967948, -3.73409882,
                           29.05075973, 18.42294, -3.96464541, 30.38301665, 20.98540862, -3.72276047, 33.26295926,
                           20.80966409, -3.98732212, 34.5971059, 23.37213272, -3.77000362, 37.47515879, 23.20205737,
                           -4.0648009, 38.79040818, 25.77397463, -3.86637965, 40.84265075, 25.58878146, -4.0648009,
                           38.12144513, 27.06276784, -5.34414548, 37.91924443, 22.33845253, -5.89972496, 38.23104924,
                           21.92271278, -2.61727068, 34.14735109, 24.23006838, -1.93318983, 33.83932573, 24.65903621,
                           -5.21564411, 33.72783189, 19.95172843, -5.82035647, 34.00751135, 19.52465033, -2.53601246,
                           29.91247484, 21.83389565, -1.8878364, 29.64413373, 22.27609157, -5.17218041, 29.53641934,
                           17.57256324, -5.79767975, 29.78019401, 17.13225705, -2.51144602, 25.67759859, 19.43961265,
                           -1.90106448, 25.44516228, 19.8912572, -5.18729821, 25.34500679, 15.19150832, -5.82791537,
                           25.5623253, 14.73797405, -2.54168164, 21.45217098, 17.03777075, -1.95586654, 21.24052165,
                           17.49130502, -5.24210027, 21.15359425, 12.79344587, -5.89027633, 21.3671333, 12.33424242,
                           -2.6040426, 17.24942007, 14.62270076, -2.02011723, 17.03588102, 15.07245558, -5.30635096,
                           16.9546228, 10.37459643, -5.95074757, 17.18894884, 9.91728271, -2.66451384, 13.06934588,
                           12.19440269, -2.05791175, 12.82935067, 12.63281915, -5.34414548, 12.75754107, 7.93684973,
                           -5.97531401, 13.02777191, 7.48520518, -2.69285973, 8.9043895, 9.74531763, -2.04468367,
                           8.57179771, 5.48209549, -5.95641675, 8.87037443, 5.03612012, -2.67585219, 4.75077148,
                           7.27544558, -1.99177134, 4.44652557, 7.72142095, -5.27044616, 1.8953953, 3.99110158,
                           -3.82858513, 4.31424474, 3.00844399, -5.92618113, 4.66384408, 2.53979191, -2.63238849,
                           8.63037921, 10.17995464, -5.3309174, 38.40679377, 26.6621459, -2.03334531],
              'id': 4,
              'identifiers': {'molecular_formula': 'C36H76',
                              'molecule_hash': 'a26322121004cb994cc742c1069ba4ca192992d1'},
              'molecular_charge': 0.0,
              'molecular_multiplicity': 1,
              'name': 'C36H76',
              'provenance': {'creator': 'QCElemental',
                             'routine': 'qcelemental.molparse.from_string',
                             'version': '0.29.0'},
              'schema_name': 'qcschema_molecule',
              'schema_version': 2,
              'symbols': ['C', 'C', 'C', 'C', 'C', 'C', 'C', 'C', 'C', 'C', 'C', 'C', 'C', 'C', 'C', 'C', 'C', 'C', 'H',
                          'H', 'H', 'H', 'H', 'H', 'H', 'H', 'H', 'H', 'H', 'H', 'H', 'H', 'H', 'H', 'H', 'H', 'H', 'H',
                          'H', 'H', 'H', 'H', 'H', 'H', 'H', 'H', 'H', 'H', 'H', 'H', 'H', 'H', 'H', 'H', 'H', 'H', 'C',
                          'C', 'C', 'C', 'C', 'C', 'C', 'C', 'C', 'C', 'C', 'C', 'C', 'C', 'C', 'C', 'C', 'C', 'H', 'H',
                          'H', 'H', 'H', 'H', 'H', 'H', 'H', 'H', 'H', 'H', 'H', 'H', 'H', 'H', 'H', 'H', 'H', 'H', 'H',
                          'H', 'H', 'H', 'H', 'H', 'H', 'H', 'H', 'H', 'H', 'H', 'H', 'H', 'H', 'H', 'H', 'H'],
              'validated': True},
 'protocols': {},
 'provenance': {'creator': 'QCElemental', 'routine': 'qcelemental.models.results', 'version': '0.29.0'},
 'schema_name': 'qcschema_input',
 'schema_version': 1}
--------------------------------------------------------------------------

Scratch directory: /tmp/tmpgnphzi06_psi_scratch/
   => Libint2 <=

    Primary   basis highest AM E, G, H:  6, 6, 3
    Auxiliary basis highest AM E, G, H:  7, 7, 4
    Onebody   basis highest AM E, G, H:  -, -, -
    Solid Harmonics ordering:            Gaussian

*** tstart() called on atl1-1-03-004-18-1.pace.gatech.edu
*** at Mon Jun 15 13:50:31 2026

   => Loading Basis Set <=

    Name: AUG-CC-PVTZ
    Role: ORBITAL
    Keyword: BASIS
    atoms 1-18, 57-74   entry C          line   239 file /storage/home/hcoda1/5/vlita3/.conda/envs/p4_qcml/share/psi4/basis/aug-cc-pvtz.gbs 
    atoms 19-56, 75-112 entry H          line    40 file /storage/home/hcoda1/5/vlita3/.conda/envs/p4_qcml/share/psi4/basis/aug-cc-pvtz.gbs 

   => B2PLYP-D3: Empirical Dispersion <=

    Grimme's -D3 (zero-damping) Dispersion Correction
    Grimme S.; Antony J.; Ehrlich S.; Krieg H. (2010), J. Chem. Phys., 132: 154104
    Parametrisation from:    L. Goerigk, S. Grimme, J. Chem. Theory Comput. 7, 291-309, 2011

        s6 =       0.640000
        s8 =       1.022000
       sr6 =       1.427000
    alpha6 =      14.000000
       sr8 =       1.000000


         ---------------------------------------------------------
                                   SCF
               by Justin Turney, Rob Parrish, Andy Simmonett
                          and Daniel G. A. Smith
                              RKS Reference
                       10 Threads, 256000 MiB Core
         ---------------------------------------------------------

  ==> Geometry <==

    Molecular point group: c1
    Full point group: C1

    Geometry (in Bohr), charge = 0, multiplicity = 1:

       Center              X                  Y                   Z               Mass       
    ------------   -----------------  -----------------  -----------------  -----------------
         C           39.187250660000    24.740294430000     4.008109110000    12.000000000000
         C           37.915464980000    22.149479920000     3.773783070000    12.000000000000
         C           35.033632640000    22.268532660000     4.055352270000    12.000000000000
         C           33.742949700000    19.685277050000     3.821026230000    12.000000000000
         C           30.859227630000    19.815668150000     4.076139250000    12.000000000000
         C           29.562875510000    17.238081720000     3.828585130000    12.000000000000
         C           26.677263710000    17.377921450000     4.055352270000    12.000000000000
         C           25.373352690000    14.806004190000     3.788900880000    12.000000000000
         C           22.487740890000    14.959072010000     3.998660480000    12.000000000000
         C           21.172491510000    12.390934200000     3.726539920000    12.000000000000
         C           18.288769440000    12.555340380000     3.938189250000    12.000000000000
         C           16.962181700000     9.992871750000     3.675517310000    12.000000000000
         C           14.080349360000    10.164836830000     3.906063900000    12.000000000000
         C           12.748092440000     7.604257930000     3.664178960000    12.000000000000
         C            9.868149830000     7.778112730000     3.926850890000    12.000000000000
         C            8.534003180000     5.215644110000     3.711422110000    12.000000000000
         C            5.655950290000     5.385719460000     4.006219390000    12.000000000000
         C            4.340700910000     2.813802200000     3.805908420000    12.000000000000
         H            2.288458340000     3.000885090000     4.004329660000     1.007825032230
         H           38.818754070000    25.579332830000     5.865709890000     1.007825032230
         H           41.237603510000    24.596675250000     3.768113890000     1.007825032230
         H           38.469154740000    26.047984910000     2.571917260000     1.007825032230
         H           38.382227330000    21.312331240000     1.933189830000     1.007825032230
         H           38.686473240000    20.866355880000     5.211864650000     1.007825032230
         H           34.561201110000    23.105681340000     5.895945510000     1.007825032230
         H           34.260734650000    23.551656700000     2.615380960000     1.007825032230
         H           34.228609310000    18.842459200000     1.986102160000     1.007825032230
         H           34.500729870000    18.407822190000     5.270446160000     1.007825032230
         H           30.373568010000    20.652816830000     5.914842770000     1.007825032230
         H           30.103337180000    21.102571640000     2.632388490000     1.007825032230
         H           30.063652930000    16.393374140000     1.997440510000     1.007825032230
         H           30.301758420000    15.954957680000     5.285563970000     1.007825032230
         H           26.176486290000    18.213180400000     5.890276330000     1.007825032230
         H           25.942160250000    18.670494120000     2.605932330000     1.007825032230
         H           25.881689010000    13.965076070000     1.959645990000     1.007825032230
         H           26.097117790000    13.515321250000     5.247769450000     1.007825032230
         H           21.979404570000    15.794330960000     5.831694820000     1.007825032230
         H           21.765865510000    16.253534410000     2.545461090000     1.007825032230
         H           21.678938110000    11.551895800000     1.897285030000     1.007825032230
         H           21.892477160000    11.096471810000     5.183518760000     1.007825032230
         H           17.786102290000    13.396268500000     5.769333860000     1.007825032230
         H           17.568783790000    13.851692500000     2.483100130000     1.007825032230
         H           17.455400220000     9.148164170000     1.842482970000     1.007825032230
         H           17.685946810000     8.696519630000     5.128716700000     1.007825032230
         H           13.594689750000    11.015213590000     5.739098240000     1.007825032230
         H           13.352804800000    11.457409500000     2.452864510000     1.007825032230
         H           13.218634250000     6.755770900000     1.829254890000     1.007825032230
         H           13.486975360000     6.311685260000     5.113598900000     1.007825032230
         H            9.403277200000     8.636048390000     5.761774960000     1.007825032230
         H            9.123597730000     9.063126500000     2.477430950000     1.007825032230
         H            8.983758000000     4.359598170000     1.872718590000     1.007825032230
         H            9.291783360000     3.928740610000     5.155172870000     1.007825032230
         H            5.211864650000     6.249324300000     5.841143450000     1.007825032230
         H            4.900059840000     6.665064040000     2.558689170000     1.007825032230
         H            4.724315310000     1.925630920000     1.974763800000     1.007825032230
         H            5.009663960000     1.525008980000     5.283674250000     1.007825032230
         C            9.390049120000     8.902499780000    -3.879607740000    12.000000000000
         C            8.099366170000     6.319244160000    -4.113933780000    12.000000000000
         C            5.217533830000     6.438296910000    -3.832364580000    12.000000000000
         C            3.945748150000     3.847482390000    -4.066690620000    12.000000000000
         C           12.271881460000     8.772108670000    -4.136610490000    12.000000000000
         C           13.570123310000    11.351584840000    -3.887166640000    12.000000000000
         C           16.453845370000    11.209855380000    -4.113933780000    12.000000000000
         C           17.759646130000    13.781772630000    -3.847482390000    12.000000000000
         C           20.645257920000    13.628704820000    -4.057241990000    12.000000000000
         C           21.958617580000    16.196842620000    -3.785121430000    12.000000000000
         C           24.844229370000    16.032436450000    -3.996770760000    12.000000000000
         C           26.168927390000    18.596794800000    -3.734098820000    12.000000000000
         C           29.050759730000    18.422940000000    -3.964645410000    12.000000000000
         C           30.383016650000    20.985408620000    -3.722760470000    12.000000000000
         C           33.262959260000    20.809664090000    -3.987322120000    12.000000000000
         C           34.597105900000    23.372132720000    -3.770003620000    12.000000000000
         C           37.475158790000    23.202057370000    -4.064800900000    12.000000000000
         C           38.790408180000    25.773974630000    -3.866379650000    12.000000000000
         H           40.842650750000    25.588781460000    -4.064800900000     1.007825032230
         H           38.121445130000    27.062767840000    -5.344145480000     1.007825032230
         H           37.919244430000    22.338452530000    -5.899724960000     1.007825032230
         H           38.231049240000    21.922712780000    -2.617270680000     1.007825032230
         H           34.147351090000    24.230068380000    -1.933189830000     1.007825032230
         H           33.839325730000    24.659036210000    -5.215644110000     1.007825032230
         H           33.727831890000    19.951728430000    -5.820356470000     1.007825032230
         H           34.007511350000    19.524650330000    -2.536012460000     1.007825032230
         H           29.912474840000    21.833895650000    -1.887836400000     1.007825032230
         H           29.644133730000    22.276091570000    -5.172180410000     1.007825032230
         H           29.536419340000    17.572563240000    -5.797679750000     1.007825032230
         H           29.780194010000    17.132257050000    -2.511446020000     1.007825032230
         H           25.677598590000    19.439612650000    -1.901064480000     1.007825032230
         H           25.445162280000    19.891257200000    -5.187298210000     1.007825032230
         H           25.345006790000    15.191508320000    -5.827915370000     1.007825032230
         H           25.562325300000    14.737974050000    -2.541681640000     1.007825032230
         H           21.452170980000    17.037770750000    -1.955866540000     1.007825032230
         H           21.240521650000    17.491305020000    -5.242100270000     1.007825032230
         H           21.153594250000    12.793445870000    -5.890276330000     1.007825032230
         H           21.367133300000    12.334242420000    -2.604042600000     1.007825032230
         H           17.249420070000    14.622700760000    -2.020117230000     1.007825032230
         H           17.035881020000    15.072455580000    -5.306350960000     1.007825032230
         H           16.954622800000    10.374596430000    -5.950747570000     1.007825032230
         H           17.188948840000     9.917282710000    -2.664513840000     1.007825032230
         H           13.069345880000    12.194402690000    -2.057911750000     1.007825032230
         H           12.829350670000    12.632819150000    -5.344145480000     1.007825032230
         H           12.757541070000     7.936849730000    -5.975314010000     1.007825032230
         H           13.027771910000     7.485205180000    -2.692859730000     1.007825032230
         H            8.904389500000     9.745317630000    -2.044683670000     1.007825032230
         H            8.571797710000     5.482095490000    -5.956416750000     1.007825032230
         H            8.870374430000     5.036120120000    -2.675852190000     1.007825032230
         H            4.750771480000     7.275445580000    -1.991771340000     1.007825032230
         H            4.446525570000     7.721420950000    -5.270446160000     1.007825032230
         H            1.895395300000     3.991101580000    -3.828585130000     1.007825032230
         H            4.314244740000     3.008443990000    -5.926181130000     1.007825032230
         H            4.663844080000     2.539791910000    -2.632388490000     1.007825032230
         H            8.630379210000    10.179954640000    -5.330917400000     1.007825032230
         H           38.406793770000    26.662145900000    -2.033345310000     1.007825032230

  Running in c1 symmetry.

  Rotational constants: A =      0.00674  B =      0.00014  C =      0.00014 [cm^-1]
  Rotational constants: A =    202.03768  B =      4.27015  C =      4.19674 [MHz]
  Nuclear repulsion = 3874.313543520549956

  Charge       = 0
  Multiplicity = 1
  Electrons    = 292
  Nalpha       = 146
  Nbeta        = 146

  ==> Algorithm <==

  SCF Algorithm Type is DF.
  DIIS enabled.
  MOM disabled.
  Fractional occupation disabled.
  Guess Type is SAD.
  Energy threshold   = 1.00e-06
  Density threshold  = 1.00e-06
  Integral threshold = 1.00e-12

  ==> Primary Basis <==

  Basis Set: AUG-CC-PVTZ
    Blend: AUG-CC-PVTZ
    Number of shells: 1188
    Number of basis functions: 3404
    Number of Cartesian functions: 3880
    Spherical Harmonics?: true
    Max angular momentum: 3

  ==> DFT Potential <==

   => LibXC <=

    Version 7.0.0
    S. Lehtola, C. Steigemann, M. J.T. Oliveira, and M. A.L. Marques.,  SoftwareX 7, 1–5 (2018) (10.1016/j.softx.2017.11.002)

   => Composite Functional: B2PLYP-D3ZERO2B <= 

    B2PLYP Double Hybrid Exchange-Correlation Functional

    S. Grimme, J. Chem. Phys., 124, 034108, 2006


    Deriv               =              1
    GGA                 =           TRUE
    Meta                =          FALSE

    Exchange Hybrid     =           TRUE
    MP2 Hybrid          =           TRUE

   => Exchange Functionals <=

    0.4700     XC_GGA_X_B88

   => Exact (HF) Exchange <=

    0.5300               HF 

   => Correlation Functionals <=

    0.7300     XC_GGA_C_LYP

   => MP2 Correlation <=

    0.2700       MP2 

   => LibXC Density Thresholds  <==

    XC_GGA_C_LYP:  1.00E-14 
    XC_GGA_X_B88:  1.00E-15 

   => Molecular Quadrature <=

    Radial Scheme          =       TREUTLER
    Pruning Scheme         =           NONE
    Nuclear Scheme         =       TREUTLER

    Blocking Scheme        =         OCTREE
    BS radius alpha        =              1
    Pruning alpha          =              1
    Radial Points          =             75
    Spherical Points       =            302
    Total Points           =        2287807
    Total Blocks           =          15476
    Max Points             =            256
    Max Functions          =           1540
    Weights Tolerance      =       1.00E-15

   => Loading Basis Set <=

    Name: (AUG-CC-PVTZ AUX)
    Role: JKFIT
    Keyword: DF_BASIS_SCF
    atoms 1-18, 57-74   entry C          line   162 file /storage/home/hcoda1/5/vlita3/.conda/envs/p4_qcml/share/psi4/basis/aug-cc-pvtz-jkfit.gbs 
    atoms 19-56, 75-112 entry H          line    70 file /storage/home/hcoda1/5/vlita3/.conda/envs/p4_qcml/share/psi4/basis/aug-cc-pvtz-jkfit.gbs 

  ==> Integral Setup <==

  ==> DiskDFJK: Density-Fitted J/K Matrices <==

    J tasked:                  Yes
    K tasked:                  Yes
    wK tasked:                  No
    OpenMP threads:             10
    Integrals threads:          10
    Memory [MiB]:           172368
    Algorithm:                Disk
    Integral Cache:           NONE
    Schwarz Cutoff:          1E-12
    Fitting Condition:       1E-10

   => Auxiliary Basis Set <=

  Basis Set: (AUG-CC-PVTZ AUX)
    Blend: AUG-CC-PVTZ-JKFIT
    Number of shells: 2144
    Number of basis functions: 7240
    Number of Cartesian functions: 8896
    Spherical Harmonics?: true
    Max angular momentum: 4

  Minimum eigenvalue in the overlap matrix is 2.2061596341E-08.
  Reciprocal condition number of the overlap matrix is 6.8411741151E-10.
    Using canonical orthogonalization.
  Overall, 1 of 3404 possible MOs eliminated.


  ==> Pre-Iterations <==

  SCF Guess: Superposition of Atomic Densities via on-the-fly atomic UHF (no occupation information).

   -------------------------
    Irrep   Nso     Nmo    
   -------------------------
     A       3404    3403 
   -------------------------
    Total    3404    3403
   -------------------------

  ==> Iterations <==

                           Total Energy        Delta E     RMS |[F,P]|

   @DF-RKS iter SAD: -1412.61421331793031   -1.41261e+03   0.00000e+00 
   @DF-RKS iter   1: -1411.78087400297727    8.33339e-01   6.86595e-04 ADIIS/DIIS
   @DF-RKS iter   2: -1412.71787553096124   -9.37002e-01   5.73941e-04 ADIIS/DIIS
   @DF-RKS iter   3: -1414.75347105507331   -2.03560e+00   3.05589e-05 DIIS
   @DF-RKS iter   4: -1414.75976899057605   -6.29794e-03   1.56976e-05 DIIS
   @DF-RKS iter   5: -1414.76122585609733   -1.45687e-03   3.76841e-06 DIIS
   @DF-RKS iter   6: -1414.76131277951004   -8.69234e-05   6.87885e-07 DIIS
   @DF-RKS iter   7: -1414.76131553353503   -2.75402e-06   2.47610e-07 DIIS
   @DF-RKS iter   8: -1414.76131590869932   -3.75164e-07   4.31744e-08 DIIS
  Energy and wave function converged.


  ==> Post-Iterations <==

   Electrons on quadrature grid:
      Ntotal   =  292.0022668116 ; deviation = 2.267e-03 

    Orbital Energies [Eh]
    ---------------------

    Doubly Occupied:                                                      

       1A    -10.605502     2A    -10.605488     3A    -10.605453  
       4A    -10.605430     5A    -10.603547     6A    -10.603547  
       7A    -10.603541     8A    -10.603515     9A    -10.603422  
      10A    -10.603403    11A    -10.603363    12A    -10.603348  
      13A    -10.603328    14A    -10.603279    15A    -10.603273  
      16A    -10.603219    17A    -10.603186    18A    -10.603150  
      19A    -10.603112    20A    -10.603059    21A    -10.603031  
      22A    -10.603000    23A    -10.602958    24A    -10.602929  
      25A    -10.602897    26A    -10.602835    27A    -10.602820  
      28A    -10.602761    29A    -10.602749    30A    -10.602679  
      31A    -10.602652    32A    -10.602599    33A    -10.598997  
      34A    -10.598988    35A    -10.598973    36A    -10.598910  
      37A     -0.933753    38A     -0.931523    39A     -0.927856  
      40A     -0.925648    41A     -0.917897    42A     -0.915717  
      43A     -0.904077    44A     -0.901930    45A     -0.886494  
      46A     -0.884378    47A     -0.865361    48A     -0.863276  
      49A     -0.840940    50A     -0.838882    51A     -0.813572  
      52A     -0.811523    53A     -0.783846    54A     -0.781780  
      55A     -0.752776    56A     -0.750640    57A     -0.721685  
      58A     -0.719375    59A     -0.693433    60A     -0.690800  
      61A     -0.672241    62A     -0.669083    63A     -0.668131  
      64A     -0.664979    65A     -0.663705    66A     -0.662385  
      67A     -0.660666    68A     -0.658920    69A     -0.658426  
      70A     -0.657844    71A     -0.655026    72A     -0.653851  
      73A     -0.569590    74A     -0.564077    75A     -0.554921  
      76A     -0.554102    77A     -0.548771    78A     -0.542431  
      79A     -0.539889    80A     -0.527790    81A     -0.527009  
      82A     -0.512808    83A     -0.509248    84A     -0.501281  
      85A     -0.500004    86A     -0.499045    87A     -0.498220  
      88A     -0.495507    89A     -0.491775    90A     -0.489763  
      91A     -0.489224    92A     -0.484591    93A     -0.483303  
      94A     -0.476568    95A     -0.476384    96A     -0.473595  
      97A     -0.469504    98A     -0.459674    99A     -0.457335  
     100A     -0.456853   101A     -0.456432   102A     -0.454370  
     103A     -0.448320   104A     -0.439511   105A     -0.436576  
     106A     -0.436184   107A     -0.430202   108A     -0.423286  
     109A     -0.422458   110A     -0.422211   111A     -0.418377  
     112A     -0.418318   113A     -0.414086   114A     -0.407377  
     115A     -0.402852   116A     -0.402099   117A     -0.401422  
     118A     -0.396956   119A     -0.392662   120A     -0.391973  
     121A     -0.389027   122A     -0.388894   123A     -0.388489  
     124A     -0.388064   125A     -0.387581   126A     -0.386922  
     127A     -0.386827   128A     -0.385414   129A     -0.385237  
     130A     -0.384004   131A     -0.382375   132A     -0.381949  
     133A     -0.380847   134A     -0.379494   135A     -0.376711  
     136A     -0.373666   137A     -0.373456   138A     -0.372039  
     139A     -0.370409   140A     -0.369743   141A     -0.369127  
     142A     -0.369071   143A     -0.358867   144A     -0.358436  
     145A     -0.338494   146A     -0.338158  

    Virtual:                                                              

     147A      0.009868   148A      0.010266   149A      0.010830  
     150A      0.012166   151A      0.013768   152A      0.015081  
     153A      0.015211   154A      0.019955   155A      0.020673  
     156A      0.022697   157A      0.025268   158A      0.028038  
     159A      0.028240   160A      0.029648   161A      0.032099  
     162A      0.033344   163A      0.034869   164A      0.036780  
     165A      0.037370   166A      0.039127   167A      0.042620  
     168A      0.043245   169A      0.046370   170A      0.048598  
     171A      0.050037   172A      0.050626   173A      0.052246  
     174A      0.054388   175A      0.056966   176A      0.057861  
     177A      0.061369   178A      0.061611   179A      0.061702  
     180A      0.062760   181A      0.063776   182A      0.064226  
     183A      0.067610   184A      0.069820   185A      0.071059  
     186A      0.071404   187A      0.071664   188A      0.073567  
     189A      0.074694   190A      0.074749   191A      0.076253  
     192A      0.077346   193A      0.078215   194A      0.079796  
     195A      0.080153   196A      0.082325   197A      0.082341  
     198A      0.083138   199A      0.084086   200A      0.084333  
     201A      0.085083   202A      0.086506   203A      0.087284  
     204A      0.088441   205A      0.091055   206A      0.091955  
     207A      0.092976   208A      0.094067   209A      0.094201  
     210A      0.094423   211A      0.094655   212A      0.095595  
     213A      0.096463   214A      0.098198   215A      0.099101  
     216A      0.099384   217A      0.101207   218A      0.101351  
     219A      0.103564   220A      0.104305   221A      0.105315  
     222A      0.106854   223A      0.107569   224A      0.108223  
     225A      0.110018   226A      0.110995   227A      0.113830  
     228A      0.114792   229A      0.115892   230A      0.117717  
     231A      0.118058   232A      0.118097   233A      0.118409  
     234A      0.118919   235A      0.119680   236A      0.119760  
     237A      0.121582   238A      0.122018   239A      0.123376  
     240A      0.125463   241A      0.129389   242A      0.130008  
     243A      0.131193   244A      0.132409   245A      0.133109  
     246A      0.133812   247A      0.134295   248A      0.134429  
     249A      0.135308   250A      0.135454   251A      0.135838  
     252A      0.138717   253A      0.138889   254A      0.139657  
     255A      0.139890   256A      0.141180   257A      0.143559  
     258A      0.145066   259A      0.145878   260A      0.146013  
     261A      0.146319   262A      0.148101   263A      0.148794  
     264A      0.149313   265A      0.149867   266A      0.151535  
     267A      0.152022   268A      0.152492   269A      0.156044  
     270A      0.156420   271A      0.158046   272A      0.158108  
     273A      0.160517   274A      0.162465   275A      0.163084  
     276A      0.164709   277A      0.165066   278A      0.165551  
     279A      0.166707   280A      0.167225   281A      0.167907  
     282A      0.168048   283A      0.168621   284A      0.168703  
     285A      0.170161   286A      0.171051   287A      0.172750  
     288A      0.173088   289A      0.173289   290A      0.173748  
     291A      0.175603   292A      0.176290   293A      0.179001  
     294A      0.179406   295A      0.179746   296A      0.180126  
     297A      0.182568   298A      0.183547   299A      0.184546  
     300A      0.185714   301A      0.188187   302A      0.189724  
     303A      0.190559   304A      0.192301   305A      0.193241  
     306A      0.193645   307A      0.194643   308A      0.196157  
     309A      0.197361   310A      0.197659   311A      0.198285  
     312A      0.199782   313A      0.201110   314A      0.203424  
     315A      0.203466   316A      0.206760   317A      0.208258  
     318A      0.210338   319A      0.212215   320A      0.212811  
     321A      0.212986   322A      0.213539   323A      0.216516  
     324A      0.218001   325A      0.219152   326A      0.219542  
     327A      0.222875   328A      0.223286   329A      0.223659  
     330A      0.224155   331A      0.224209   332A      0.225847  
     333A      0.226136   334A      0.227541   335A      0.229899  
     336A      0.230747   337A      0.230760   338A      0.231670  
     339A      0.231854   340A      0.232878   341A      0.234340  
     342A      0.235476   343A      0.235922   344A      0.235976  
     345A      0.238276   346A      0.239724   347A      0.239865  
     348A      0.240526   349A      0.240940   350A      0.242113  
     351A      0.242195   352A      0.243768   353A      0.244651  
     354A      0.245626   355A      0.246465   356A      0.247884  
     357A      0.248925   358A      0.249204   359A      0.250053  
     360A      0.253163   361A      0.255546   362A      0.255746  
     363A      0.256784   364A      0.257189   365A      0.257626  
     366A      0.258113   367A      0.258722   368A      0.259264  
     369A      0.259624   370A      0.260416   371A      0.261567  
     372A      0.262861   373A      0.265996   374A      0.267784  
     375A      0.269170   376A      0.269418   377A      0.269759  
     378A      0.269871   379A      0.270970   380A      0.271627  
     381A      0.271966   382A      0.274225   383A      0.275712  
     384A      0.275776   385A      0.276873   386A      0.277276  
     387A      0.277677   388A      0.279724   389A      0.281255  
     390A      0.281312   391A      0.281969   392A      0.282344  
     393A      0.284444   394A      0.284905   395A      0.285288  
     396A      0.286374   397A      0.287113   398A      0.288322  
     399A      0.289098   400A      0.291426   401A      0.291438  
     402A      0.291729   403A      0.293424   404A      0.293450  
     405A      0.296592   406A      0.296922   407A      0.297723  
     408A      0.299289   409A      0.299797   410A      0.299943  
     411A      0.300976   412A      0.301230   413A      0.302425  
     414A      0.302732   415A      0.305863   416A      0.306268  
     417A      0.307158   418A      0.307765   419A      0.311090  
     420A      0.312569   421A      0.312964   422A      0.314660  
     423A      0.315045   424A      0.315404   425A      0.318309  
     426A      0.319350   427A      0.320306   428A      0.321514  
     429A      0.322113   430A      0.322876   431A      0.323131  
     432A      0.323672   433A      0.323902   434A      0.324206  
     435A      0.326795   436A      0.326808   437A      0.328648  
     438A      0.329596   439A      0.329901   440A      0.330455  
     441A      0.330739   442A      0.331199   443A      0.334728  
     444A      0.335560   445A      0.338532   446A      0.338934  
     447A      0.339228   448A      0.340469   449A      0.342508  
     450A      0.342851   451A      0.343154   452A      0.344558  
     453A      0.345235   454A      0.347579   455A      0.348222  
     456A      0.348670   457A      0.349646   458A      0.351830  
     459A      0.352385   460A      0.353694   461A      0.354064  
     462A      0.354641   463A      0.357593   464A      0.358315  
     465A      0.359172   466A      0.359388   467A      0.361150  
     468A      0.361664   469A      0.362747   470A      0.364028  
     471A      0.365703   472A      0.366730   473A      0.367337  
     474A      0.370077   475A      0.370159   476A      0.370734  
     477A      0.371127   478A      0.372237   479A      0.375731  
     480A      0.375800   481A      0.376054   482A      0.376396  
     483A      0.378196   484A      0.378442   485A      0.379228  
     486A      0.379887   487A      0.380019   488A      0.380876  
     489A      0.381085   490A      0.381668   491A      0.382029  
     492A      0.383593   493A      0.385085   494A      0.385201  
     495A      0.386463   496A      0.388134   497A      0.388252  
     498A      0.389711   499A      0.390768   500A      0.391042  
     501A      0.393158   502A      0.394641   503A      0.394837  
     504A      0.396686   505A      0.396985   506A      0.399202  
     507A      0.400303   508A      0.401437   509A      0.403262  
     510A      0.403569   511A      0.404838   512A      0.405062  
     513A      0.405516   514A      0.406436   515A      0.407986  
     516A      0.408574   517A      0.409926   518A      0.411787  
     519A      0.412543   520A      0.412553   521A      0.415823  
     522A      0.416909   523A      0.417245   524A      0.418569  
     525A      0.418910   526A      0.418947   527A      0.421115  
     528A      0.422157   529A      0.422676   530A      0.425131  
     531A      0.427428   532A      0.428476   533A      0.429833  
     534A      0.430218   535A      0.430726   536A      0.430796  
     537A      0.432015   538A      0.432882   539A      0.433008  
     540A      0.433511   541A      0.434062   542A      0.436205  
     543A      0.436914   544A      0.438042   545A      0.438240  
     546A      0.441422   547A      0.442177   548A      0.442909  
     549A      0.443734   550A      0.445598   551A      0.446813  
     552A      0.448548   553A      0.448837   554A      0.449497  
     555A      0.450565   556A      0.452171   557A      0.452589  
     558A      0.455784   559A      0.456388   560A      0.456991  
     561A      0.457944   562A      0.458546   563A      0.460172  
     564A      0.462286   565A      0.463797   566A      0.464940  
     567A      0.465570   568A      0.466146   569A      0.466651  
     570A      0.466999   571A      0.467710   572A      0.467948  
     573A      0.468450   574A      0.468621   575A      0.469851  
     576A      0.470951   577A      0.471639   578A      0.473490  
     579A      0.474066   580A      0.474462   581A      0.474818  
     582A      0.475475   583A      0.477643   584A      0.478351  
     585A      0.479444   586A      0.480060   587A      0.480132  
     588A      0.481450   589A      0.481977   590A      0.483127  
     591A      0.484712   592A      0.485441   593A      0.485782  
     594A      0.486160   595A      0.487731   596A      0.489985  
     597A      0.490134   598A      0.493455   599A      0.494526  
     600A      0.495397   601A      0.495648   602A      0.496666  
     603A      0.498383   604A      0.499335   605A      0.500002  
     606A      0.500932   607A      0.501010   608A      0.502140  
     609A      0.503788   610A      0.506413   611A      0.507867  
     612A      0.508354   613A      0.511503   614A      0.511792  
     615A      0.512844   616A      0.513356   617A      0.513905  
     618A      0.514954   619A      0.515253   620A      0.516583  
     621A      0.517538   622A      0.517833   623A      0.520850  
     624A      0.522564   625A      0.522872   626A      0.525954  
     627A      0.526254   628A      0.527607   629A      0.527822  
     630A      0.528957   631A      0.530471   632A      0.530901  
     633A      0.532582   634A      0.533432   635A      0.533501  
     636A      0.534342   637A      0.535100   638A      0.536752  
     639A      0.537754   640A      0.538579   641A      0.538913  
     642A      0.538936   643A      0.539828   644A      0.540917  
     645A      0.542828   646A      0.543958   647A      0.544885  
     648A      0.546498   649A      0.547586   650A      0.549468  
     651A      0.551245   652A      0.554972   653A      0.555056  
     654A      0.555718   655A      0.556680   656A      0.557056  
     657A      0.558970   658A      0.559563   659A      0.563698  
     660A      0.564184   661A      0.564950   662A      0.565482  
     663A      0.566658   664A      0.567745   665A      0.570710  
     666A      0.570822   667A      0.573088   668A      0.573693  
     669A      0.574178   670A      0.577429   671A      0.578858  
     672A      0.580563   673A      0.581177   674A      0.581274  
     675A      0.582278   676A      0.583212   677A      0.583640  
     678A      0.584866   679A      0.585361   680A      0.587005  
     681A      0.587251   682A      0.587978   683A      0.588498  
     684A      0.590129   685A      0.591403   686A      0.593425  
     687A      0.594721   688A      0.595869   689A      0.597433  
     690A      0.598986   691A      0.599145   692A      0.601723  
     693A      0.603772   694A      0.604271   695A      0.604347  
     696A      0.605718   697A      0.607851   698A      0.608763  
     699A      0.610011   700A      0.610247   701A      0.611464  
     702A      0.612780   703A      0.614805   704A      0.615533  
     705A      0.615614   706A      0.616673   707A      0.617258  
     708A      0.618067   709A      0.619195   710A      0.620151  
     711A      0.621485   712A      0.621920   713A      0.622091  
     714A      0.623163   715A      0.623777   716A      0.626300  
     717A      0.627537   718A      0.629801   719A      0.630402  
     720A      0.631535   721A      0.631593   722A      0.632683  
     723A      0.633609   724A      0.634827   725A      0.635231  
     726A      0.636156   727A      0.636471   728A      0.640357  
     729A      0.640971   730A      0.641637   731A      0.642831  
     732A      0.643785   733A      0.644577   734A      0.644911  
     735A      0.647416   736A      0.647826   737A      0.649236  
     738A      0.649885   739A      0.650280   740A      0.650833  
     741A      0.654591   742A      0.655998   743A      0.656216  
     744A      0.656625   745A      0.658028   746A      0.658349  
     747A      0.662886   748A      0.663582   749A      0.667008  
     750A      0.667050   751A      0.668620   752A      0.669644  
     753A      0.669747   754A      0.672659   755A      0.672769  
     756A      0.673655   757A      0.675985   758A      0.676041  
     759A      0.676680   760A      0.678589   761A      0.679982  
     762A      0.681972   763A      0.684992   764A      0.685544  
     765A      0.686073   766A      0.687109   767A      0.687182  
     768A      0.688490   769A      0.690182   770A      0.694213  
     771A      0.695922   772A      0.696414   773A      0.698459  
     774A      0.699515   775A      0.699720   776A      0.700819  
     777A      0.701455   778A      0.703003   779A      0.706654  
     780A      0.707007   781A      0.707948   782A      0.711134  
     783A      0.712278   784A      0.715335   785A      0.716004  
     786A      0.716442   787A      0.718364   788A      0.718503  
     789A      0.719025   790A      0.722329   791A      0.722627  
     792A      0.722997   793A      0.724461   794A      0.727237  
     795A      0.727897   796A      0.731044   797A      0.731246  
     798A      0.732325   799A      0.735921   800A      0.736309  
     801A      0.737263   802A      0.739027   803A      0.740763  
     804A      0.742942   805A      0.744785   806A      0.745272  
     807A      0.747048   808A      0.747416   809A      0.747813  
     810A      0.748743   811A      0.749961   812A      0.750580  
     813A      0.752379   814A      0.754016   815A      0.755030  
     816A      0.755131   817A      0.756334   818A      0.760336  
     819A      0.760836   820A      0.764141   821A      0.765263  
     822A      0.765839   823A      0.766343   824A      0.768625  
     825A      0.769563   826A      0.771268   827A      0.771755  
     828A      0.773151   829A      0.775157   830A      0.776477  
     831A      0.778203   832A      0.779234   833A      0.780310  
     834A      0.780584   835A      0.781411   836A      0.781865  
     837A      0.782518   838A      0.783697   839A      0.783798  
     840A      0.785291   841A      0.787766   842A      0.789412  
     843A      0.793208   844A      0.793381   845A      0.794806  
     846A      0.795323   847A      0.796200   848A      0.797837  
     849A      0.800546   850A      0.802268   851A      0.802342  
     852A      0.803774   853A      0.806845   854A      0.806968  
     855A      0.807756   856A      0.808407   857A      0.809177  
     858A      0.811640   859A      0.813442   860A      0.813607  
     861A      0.816724   862A      0.819491   863A      0.821927  
     864A      0.822337   865A      0.823449   866A      0.824132  
     867A      0.825393   868A      0.827249   869A      0.830404  
     870A      0.831005   871A      0.834345   872A      0.835858  
     873A      0.836957   874A      0.838387   875A      0.838444  
     876A      0.840661   877A      0.843186   878A      0.844226  
     879A      0.845660   880A      0.846159   881A      0.847164  
     882A      0.847491   883A      0.847757   884A      0.848417  
     885A      0.849678   886A      0.851261   887A      0.851660  
     888A      0.853095   889A      0.854151   890A      0.855196  
     891A      0.856040   892A      0.857126   893A      0.857433  
     894A      0.857573   895A      0.858826   896A      0.860233  
     897A      0.860754   898A      0.861451   899A      0.862228  
     900A      0.863389   901A      0.863944   902A      0.865191  
     903A      0.866414   904A      0.869200   905A      0.869304  
     906A      0.869337   907A      0.871168   908A      0.874161  
     909A      0.874717   910A      0.875061   911A      0.876032  
     912A      0.877095   913A      0.877547   914A      0.878743  
     915A      0.878849   916A      0.879992   917A      0.880249  
     918A      0.882960   919A      0.883579   920A      0.884321  
     921A      0.884894   922A      0.887019   923A      0.887612  
     924A      0.888317   925A      0.889147   926A      0.890306  
     927A      0.891656   928A      0.893937   929A      0.895279  
     930A      0.896931   931A      0.897637   932A      0.898666  
     933A      0.899894   934A      0.901361   935A      0.902546  
     936A      0.902709   937A      0.902749   938A      0.904071  
     939A      0.904991   940A      0.906783   941A      0.909469  
     942A      0.909807   943A      0.911963   944A      0.913085  
     945A      0.913754   946A      0.914561   947A      0.915836  
     948A      0.917043   949A      0.918485   950A      0.920411  
     951A      0.921375   952A      0.921843   953A      0.923155  
     954A      0.923260   955A      0.926566   956A      0.927584  
     957A      0.927610   958A      0.929722   959A      0.930964  
     960A      0.933797   961A      0.935879   962A      0.936533  
     963A      0.939000   964A      0.939287   965A      0.940873  
     966A      0.941105   967A      0.942972   968A      0.943014  
     969A      0.945152   970A      0.945785   971A      0.947357  
     972A      0.947677   973A      0.950841   974A      0.952587  
     975A      0.952930   976A      0.954565   977A      0.954844  
     978A      0.956366   979A      0.957766   980A      0.959637  
     981A      0.960339   982A      0.961852   983A      0.966546  
     984A      0.967693   985A      0.969241   986A      0.970429  
     987A      0.972294   988A      0.973097   989A      0.974250  
     990A      0.974425   991A      0.977658   992A      0.979073  
     993A      0.979971   994A      0.983217   995A      0.983804  
     996A      0.985353   997A      0.986249   998A      0.987391  
     999A      0.987788  1000A      0.989532  1001A      0.991499  
    1002A      0.992185  1003A      0.994005  1004A      0.995797  
    1005A      0.995961  1006A      0.997562  1007A      0.999159  
    1008A      1.000074  1009A      1.001200  1010A      1.004100  
    1011A      1.004983  1012A      1.005743  1013A      1.007737  
    1014A      1.009274  1015A      1.009702  1016A      1.012318  
    1017A      1.013379  1018A      1.013433  1019A      1.014223  
    1020A      1.016183  1021A      1.017150  1022A      1.019703  
    1023A      1.022093  1024A      1.022396  1025A      1.024239  
    1026A      1.024503  1027A      1.025470  1028A      1.027727  
    1029A      1.028483  1030A      1.028630  1031A      1.028986  
    1032A      1.032081  1033A      1.033411  1034A      1.033552  
    1035A      1.034988  1036A      1.036242  1037A      1.038318  
    1038A      1.040677  1039A      1.041132  1040A      1.042149  
    1041A      1.043137  1042A      1.043967  1043A      1.044759  
    1044A      1.048452  1045A      1.048836  1046A      1.050079  
    1047A      1.051823  1048A      1.052585  1049A      1.053478  
    1050A      1.053739  1051A      1.053825  1052A      1.055529  
    1053A      1.055915  1054A      1.056778  1055A      1.058504  
    1056A      1.060233  1057A      1.062267  1058A      1.062341  
    1059A      1.062899  1060A      1.063911  1061A      1.065420  
    1062A      1.069335  1063A      1.069483  1064A      1.069771  
    1065A      1.071645  1066A      1.072594  1067A      1.074553  
    1068A      1.076798  1069A      1.076991  1070A      1.079671  
    1071A      1.079830  1072A      1.081742  1073A      1.082229  
    1074A      1.082962  1075A      1.084161  1076A      1.086606  
    1077A      1.087550  1078A      1.088990  1079A      1.089413  
    1080A      1.091252  1081A      1.091685  1082A      1.091733  
    1083A      1.094488  1084A      1.094997  1085A      1.095257  
    1086A      1.096917  1087A      1.098701  1088A      1.098956  
    1089A      1.100355  1090A      1.101286  1091A      1.101307  
    1092A      1.102827  1093A      1.104093  1094A      1.106425  
    1095A      1.106974  1096A      1.110284  1097A      1.110718  
    1098A      1.111565  1099A      1.112835  1100A      1.113790  
    1101A      1.114212  1102A      1.115185  1103A      1.115319  
    1104A      1.115431  1105A      1.117123  1106A      1.118646  
    1107A      1.119207  1108A      1.121657  1109A      1.122380  
    1110A      1.123141  1111A      1.124044  1112A      1.124865  
    1113A      1.126156  1114A      1.127302  1115A      1.129165  
    1116A      1.130525  1117A      1.131247  1118A      1.132071  
    1119A      1.133202  1120A      1.133746  1121A      1.134369  
    1122A      1.134707  1123A      1.137111  1124A      1.137568  
    1125A      1.139021  1126A      1.140649  1127A      1.142071  
    1128A      1.143202  1129A      1.143320  1130A      1.144695  
    1131A      1.147180  1132A      1.148614  1133A      1.149489  
    1134A      1.149532  1135A      1.151875  1136A      1.151979  
    1137A      1.153292  1138A      1.153635  1139A      1.154527  
    1140A      1.156560  1141A      1.157521  1142A      1.160443  
    1143A      1.164020  1144A      1.164028  1145A      1.166263  
    1146A      1.168077  1147A      1.168329  1148A      1.169689  
    1149A      1.170670  1150A      1.172839  1151A      1.173004  
    1152A      1.173256  1153A      1.174611  1154A      1.175251  
    1155A      1.175267  1156A      1.178330  1157A      1.178965  
    1158A      1.179312  1159A      1.182452  1160A      1.182775  
    1161A      1.185023  1162A      1.186414  1163A      1.188373  
    1164A      1.188499  1165A      1.190362  1166A      1.190419  
    1167A      1.191530  1168A      1.193588  1169A      1.194783  
    1170A      1.196597  1171A      1.197150  1172A      1.198910  
    1173A      1.199491  1174A      1.199581  1175A      1.200685  
    1176A      1.201485  1177A      1.203563  1178A      1.204303  
    1179A      1.204704  1180A      1.207589  1181A      1.207667  
    1182A      1.209897  1183A      1.210904  1184A      1.212772  
    1185A      1.218558  1186A      1.220723  1187A      1.221029  
    1188A      1.222500  1189A      1.225177  1190A      1.227053  
    1191A      1.227538  1192A      1.227985  1193A      1.229044  
    1194A      1.229379  1195A      1.232526  1196A      1.232578  
    1197A      1.234588  1198A      1.235128  1199A      1.236238  
    1200A      1.238160  1201A      1.238844  1202A      1.239416  
    1203A      1.241169  1204A      1.242565  1205A      1.242843  
    1206A      1.244830  1207A      1.245781  1208A      1.246981  
    1209A      1.248483  1210A      1.249466  1211A      1.250673  
    1212A      1.252136  1213A      1.253192  1214A      1.253890  
    1215A      1.254963  1216A      1.256639  1217A      1.258087  
    1218A      1.258483  1219A      1.259736  1220A      1.264988  
    1221A      1.265007  1222A      1.265389  1223A      1.268224  
    1224A      1.268241  1225A      1.270478  1226A      1.271474  
    1227A      1.272124  1228A      1.272581  1229A      1.274812  
    1230A      1.276741  1231A      1.277335  1232A      1.277556  
    1233A      1.279308  1234A      1.279637  1235A      1.283000  
    1236A      1.283038  1237A      1.284930  1238A      1.285394  
    1239A      1.286313  1240A      1.286543  1241A      1.288575  
    1242A      1.290406  1243A      1.292979  1244A      1.295596  
    1245A      1.297029  1246A      1.297134  1247A      1.298337  
    1248A      1.299376  1249A      1.301090  1250A      1.303381  
    1251A      1.303683  1252A      1.305329  1253A      1.307633  
    1254A      1.307752  1255A      1.308668  1256A      1.309650  
    1257A      1.310783  1258A      1.312394  1259A      1.314701  
    1260A      1.315483  1261A      1.316409  1262A      1.320445  
    1263A      1.320520  1264A      1.322051  1265A      1.324407  
    1266A      1.324786  1267A      1.325539  1268A      1.326295  
    1269A      1.326634  1270A      1.329046  1271A      1.330453  
    1272A      1.330840  1273A      1.334082  1274A      1.334893  
    1275A      1.337529  1276A      1.338571  1277A      1.340812  
    1278A      1.342649  1279A      1.343638  1280A      1.343698  
    1281A      1.345229  1282A      1.348427  1283A      1.348856  
    1284A      1.349597  1285A      1.350038  1286A      1.350780  
    1287A      1.353517  1288A      1.354117  1289A      1.355820  
    1290A      1.356007  1291A      1.359648  1292A      1.360345  
    1293A      1.365631  1294A      1.367273  1295A      1.369393  
    1296A      1.371570  1297A      1.374351  1298A      1.378281  
    1299A      1.378620  1300A      1.380207  1301A      1.382085  
    1302A      1.384333  1303A      1.385179  1304A      1.386119  
    1305A      1.386316  1306A      1.391368  1307A      1.391923  
    1308A      1.394056  1309A      1.394974  1310A      1.397145  
    1311A      1.398046  1312A      1.399734  1313A      1.402503  
    1314A      1.403870  1315A      1.404046  1316A      1.406244  
    1317A      1.407327  1318A      1.408153  1319A      1.410772  
    1320A      1.411750  1321A      1.412656  1322A      1.414514  
    1323A      1.415543  1324A      1.416713  1325A      1.419766  
    1326A      1.420561  1327A      1.423197  1328A      1.424361  
    1329A      1.426062  1330A      1.426397  1331A      1.427749  
    1332A      1.429101  1333A      1.429466  1334A      1.430490  
    1335A      1.432202  1336A      1.437753  1337A      1.438730  
    1338A      1.439545  1339A      1.439808  1340A      1.440014  
    1341A      1.441640  1342A      1.442174  1343A      1.443549  
    1344A      1.444934  1345A      1.447050  1346A      1.447637  
    1347A      1.448923  1348A      1.449685  1349A      1.451651  
    1350A      1.451980  1351A      1.455414  1352A      1.455769  
    1353A      1.456650  1354A      1.456854  1355A      1.460600  
    1356A      1.460834  1357A      1.463932  1358A      1.465116  
    1359A      1.468374  1360A      1.468458  1361A      1.469837  
    1362A      1.471871  1363A      1.472021  1364A      1.474910  
    1365A      1.474970  1366A      1.477638  1367A      1.480095  
    1368A      1.480111  1369A      1.480476  1370A      1.481632  
    1371A      1.482520  1372A      1.484753  1373A      1.486384  
    1374A      1.487356  1375A      1.488178  1376A      1.488782  
    1377A      1.491188  1378A      1.492164  1379A      1.496194  
    1380A      1.496224  1381A      1.499839  1382A      1.500319  
    1383A      1.503742  1384A      1.504881  1385A      1.505613  
    1386A      1.508378  1387A      1.512170  1388A      1.515332  
    1389A      1.515362  1390A      1.516204  1391A      1.516762  
    1392A      1.520394  1393A      1.521663  1394A      1.523066  
    1395A      1.524551  1396A      1.525532  1397A      1.528648  
    1398A      1.531598  1399A      1.531706  1400A      1.533941  
    1401A      1.534142  1402A      1.535224  1403A      1.538309  
    1404A      1.540265  1405A      1.541656  1406A      1.544199  
    1407A      1.545542  1408A      1.546006  1409A      1.546689  
    1410A      1.548059  1411A      1.550412  1412A      1.551861  
    1413A      1.552952  1414A      1.554804  1415A      1.554854  
    1416A      1.557096  1417A      1.560188  1418A      1.561966  
    1419A      1.562125  1420A      1.564770  1421A      1.565502  
    1422A      1.567184  1423A      1.568274  1424A      1.570153  
    1425A      1.573002  1426A      1.574147  1427A      1.575059  
    1428A      1.575918  1429A      1.577769  1430A      1.578809  
    1431A      1.578882  1432A      1.579720  1433A      1.580868  
    1434A      1.580929  1435A      1.584587  1436A      1.585025  
    1437A      1.587012  1438A      1.588284  1439A      1.588408  
    1440A      1.589033  1441A      1.591331  1442A      1.592454  
    1443A      1.593215  1444A      1.593604  1445A      1.593923  
    1446A      1.595364  1447A      1.596151  1448A      1.597215  
    1449A      1.599557  1450A      1.601912  1451A      1.602199  
    1452A      1.604115  1453A      1.605595  1454A      1.606708  
    1455A      1.608755  1456A      1.610781  1457A      1.610851  
    1458A      1.612009  1459A      1.614962  1460A      1.616840  
    1461A      1.617187  1462A      1.618051  1463A      1.623605  
    1464A      1.623790  1465A      1.625236  1466A      1.627047  
    1467A      1.627281  1468A      1.628627  1469A      1.630967  
    1470A      1.633223  1471A      1.633467  1472A      1.635622  
    1473A      1.637527  1474A      1.639071  1475A      1.640573  
    1476A      1.642176  1477A      1.643951  1478A      1.644327  
    1479A      1.646982  1480A      1.647040  1481A      1.649044  
    1482A      1.649876  1483A      1.650697  1484A      1.651161  
    1485A      1.652616  1486A      1.654371  1487A      1.655254  
    1488A      1.656003  1489A      1.656085  1490A      1.661663  
    1491A      1.662711  1492A      1.664088  1493A      1.666602  
    1494A      1.667638  1495A      1.668486  1496A      1.668947  
    1497A      1.669843  1498A      1.672582  1499A      1.673017  
    1500A      1.673540  1501A      1.674836  1502A      1.678771  
    1503A      1.678847  1504A      1.680823  1505A      1.681518  
    1506A      1.682214  1507A      1.688026  1508A      1.688117  
    1509A      1.691397  1510A      1.691808  1511A      1.692084  
    1512A      1.696151  1513A      1.696774  1514A      1.697862  
    1515A      1.699226  1516A      1.701529  1517A      1.701928  
    1518A      1.704623  1519A      1.706673  1520A      1.706809  
    1521A      1.708543  1522A      1.708684  1523A      1.711202  
    1524A      1.712257  1525A      1.713860  1526A      1.713957  
    1527A      1.716154  1528A      1.720128  1529A      1.720888  
    1530A      1.724831  1531A      1.724916  1532A      1.725697  
    1533A      1.729211  1534A      1.729269  1535A      1.732449  
    1536A      1.733100  1537A      1.733930  1538A      1.737760  
    1539A      1.738196  1540A      1.740989  1541A      1.742792  
    1542A      1.744034  1543A      1.744379  1544A      1.745067  
    1545A      1.745569  1546A      1.747851  1547A      1.748253  
    1548A      1.749206  1549A      1.754114  1550A      1.755290  
    1551A      1.756218  1552A      1.756371  1553A      1.758040  
    1554A      1.760686  1555A      1.761467  1556A      1.762304  
    1557A      1.762691  1558A      1.765351  1559A      1.765519  
    1560A      1.766677  1561A      1.766785  1562A      1.768759  
    1563A      1.769202  1564A      1.772703  1565A      1.773427  
    1566A      1.773456  1567A      1.775895  1568A      1.777528  
    1569A      1.779630  1570A      1.779785  1571A      1.781388  
    1572A      1.784469  1573A      1.785362  1574A      1.786679  
    1575A      1.788305  1576A      1.789265  1577A      1.789648  
    1578A      1.790573  1579A      1.791307  1580A      1.793267  
    1581A      1.793275  1582A      1.795470  1583A      1.795777  
    1584A      1.797345  1585A      1.798043  1586A      1.798372  
    1587A      1.799618  1588A      1.803154  1589A      1.803577  
    1590A      1.805429  1591A      1.806099  1592A      1.806231  
    1593A      1.808178  1594A      1.809809  1595A      1.811171  
    1596A      1.812191  1597A      1.812385  1598A      1.813687  
    1599A      1.816013  1600A      1.816833  1601A      1.818734  
    1602A      1.819002  1603A      1.821021  1604A      1.821879  
    1605A      1.822929  1606A      1.823726  1607A      1.825303  
    1608A      1.825580  1609A      1.827162  1610A      1.828101  
    1611A      1.829487  1612A      1.830768  1613A      1.830844  
    1614A      1.831896  1615A      1.832332  1616A      1.835753  
    1617A      1.836685  1618A      1.839517  1619A      1.840314  
    1620A      1.843296  1621A      1.843525  1622A      1.843852  
    1623A      1.843889  1624A      1.848182  1625A      1.849210  
    1626A      1.850566  1627A      1.851225  1628A      1.853267  
    1629A      1.853704  1630A      1.856244  1631A      1.856894  
    1632A      1.856999  1633A      1.859660  1634A      1.860380  
    1635A      1.862020  1636A      1.862082  1637A      1.862700  
    1638A      1.864727  1639A      1.866924  1640A      1.867147  
    1641A      1.868592  1642A      1.870561  1643A      1.872748  
    1644A      1.872825  1645A      1.875845  1646A      1.876443  
    1647A      1.876653  1648A      1.877047  1649A      1.879357  
    1650A      1.879663  1651A      1.881283  1652A      1.882479  
    1653A      1.884315  1654A      1.885294  1655A      1.886047  
    1656A      1.887286  1657A      1.889398  1658A      1.889833  
    1659A      1.890781  1660A      1.892759  1661A      1.893260  
    1662A      1.894545  1663A      1.896522  1664A      1.897134  
    1665A      1.898664  1666A      1.899588  1667A      1.899967  
    1668A      1.902671  1669A      1.903012  1670A      1.905139  
    1671A      1.907031  1672A      1.908344  1673A      1.911180  
    1674A      1.912239  1675A      1.912748  1676A      1.913762  
    1677A      1.914362  1678A      1.914640  1679A      1.916261  
    1680A      1.920477  1681A      1.920812  1682A      1.921658  
    1683A      1.923246  1684A      1.923279  1685A      1.925512  
    1686A      1.927192  1687A      1.927547  1688A      1.929065  
    1689A      1.930431  1690A      1.932775  1691A      1.935127  
    1692A      1.935777  1693A      1.936530  1694A      1.937701  
    1695A      1.938020  1696A      1.940482  1697A      1.940852  
    1698A      1.942237  1699A      1.945108  1700A      1.946066  
    1701A      1.946888  1702A      1.949695  1703A      1.950902  
    1704A      1.953713  1705A      1.954516  1706A      1.955250  
    1707A      1.956731  1708A      1.958283  1709A      1.958630  
    1710A      1.961510  1711A      1.962824  1712A      1.963612  
    1713A      1.964150  1714A      1.966146  1715A      1.967710  
    1716A      1.971172  1717A      1.972872  1718A      1.973747  
    1719A      1.976160  1720A      1.977290  1721A      1.977482  
    1722A      1.981188  1723A      1.981466  1724A      1.983550  
    1725A      1.985706  1726A      1.985801  1727A      1.986088  
    1728A      1.987866  1729A      1.989548  1730A      1.991021  
    1731A      1.992160  1732A      1.995295  1733A      1.996757  
    1734A      1.997969  1735A      2.000770  1736A      2.000832  
    1737A      2.001837  1738A      2.004585  1739A      2.005136  
    1740A      2.009225  1741A      2.009695  1742A      2.012678  
    1743A      2.013249  1744A      2.014503  1745A      2.016151  
    1746A      2.018869  1747A      2.023492  1748A      2.026171  
    1749A      2.028375  1750A      2.028829  1751A      2.029446  
    1752A      2.029635  1753A      2.031725  1754A      2.035858  
    1755A      2.037931  1756A      2.045343  1757A      2.047159  
    1758A      2.047228  1759A      2.049302  1760A      2.049885  
    1761A      2.051674  1762A      2.053487  1763A      2.056214  
    1764A      2.058053  1765A      2.058776  1766A      2.061700  
    1767A      2.062576  1768A      2.064173  1769A      2.067586  
    1770A      2.067878  1771A      2.069713  1772A      2.071969  
    1773A      2.075768  1774A      2.077294  1775A      2.078889  
    1776A      2.079384  1777A      2.085035  1778A      2.086921  
    1779A      2.087207  1780A      2.090365  1781A      2.091185  
    1782A      2.092143  1783A      2.092585  1784A      2.095303  
    1785A      2.096201  1786A      2.097539  1787A      2.099590  
    1788A      2.101179  1789A      2.101435  1790A      2.103566  
    1791A      2.108197  1792A      2.110091  1793A      2.110355  
    1794A      2.114439  1795A      2.115467  1796A      2.116747  
    1797A      2.117429  1798A      2.121754  1799A      2.124139  
    1800A      2.125657  1801A      2.126485  1802A      2.127492  
    1803A      2.127573  1804A      2.130270  1805A      2.132738  
    1806A      2.135461  1807A      2.135586  1808A      2.139108  
    1809A      2.140000  1810A      2.143213  1811A      2.143892  
    1812A      2.144357  1813A      2.145739  1814A      2.148306  
    1815A      2.150772  1816A      2.152100  1817A      2.154146  
    1818A      2.157007  1819A      2.157806  1820A      2.159145  
    1821A      2.162130  1822A      2.162480  1823A      2.166267  
    1824A      2.167041  1825A      2.168696  1826A      2.171348  
    1827A      2.173096  1828A      2.173215  1829A      2.175167  
    1830A      2.175733  1831A      2.178388  1832A      2.180389  
    1833A      2.180985  1834A      2.182220  1835A      2.184910  
    1836A      2.186199  1837A      2.187049  1838A      2.188294  
    1839A      2.192505  1840A      2.193383  1841A      2.194334  
    1842A      2.197611  1843A      2.198580  1844A      2.201870  
    1845A      2.203750  1846A      2.206464  1847A      2.207665  
    1848A      2.209340  1849A      2.210346  1850A      2.212558  
    1851A      2.213955  1852A      2.216023  1853A      2.216268  
    1854A      2.219544  1855A      2.223331  1856A      2.223947  
    1857A      2.226805  1858A      2.227844  1859A      2.228950  
    1860A      2.229308  1861A      2.231596  1862A      2.232159  
    1863A      2.233682  1864A      2.238000  1865A      2.238532  
    1866A      2.239696  1867A      2.245456  1868A      2.248323  
    1869A      2.248969  1870A      2.253286  1871A      2.255048  
    1872A      2.256557  1873A      2.256695  1874A      2.259529  
    1875A      2.261293  1876A      2.261369  1877A      2.262902  
    1878A      2.263863  1879A      2.264530  1880A      2.266323  
    1881A      2.272926  1882A      2.274711  1883A      2.277498  
    1884A      2.279412  1885A      2.279465  1886A      2.281365  
    1887A      2.282186  1888A      2.283524  1889A      2.283557  
    1890A      2.284111  1891A      2.287319  1892A      2.287808  
    1893A      2.293631  1894A      2.294480  1895A      2.299009  
    1896A      2.299205  1897A      2.300469  1898A      2.303457  
    1899A      2.306108  1900A      2.306604  1901A      2.307331  
    1902A      2.309923  1903A      2.310056  1904A      2.311577  
    1905A      2.316172  1906A      2.319197  1907A      2.321591  
    1908A      2.326223  1909A      2.327751  1910A      2.331737  
    1911A      2.333352  1912A      2.334261  1913A      2.336594  
    1914A      2.338443  1915A      2.345658  1916A      2.346813  
    1917A      2.347121  1918A      2.349028  1919A      2.350223  
    1920A      2.351859  1921A      2.353313  1922A      2.357513  
    1923A      2.359113  1924A      2.360381  1925A      2.362316  
    1926A      2.366169  1927A      2.369169  1928A      2.369359  
    1929A      2.371351  1930A      2.373929  1931A      2.377927  
    1932A      2.379217  1933A      2.380696  1934A      2.385767  
    1935A      2.389127  1936A      2.390695  1937A      2.391417  
    1938A      2.394486  1939A      2.395084  1940A      2.397865  
    1941A      2.400128  1942A      2.401693  1943A      2.402428  
    1944A      2.404478  1945A      2.408136  1946A      2.409398  
    1947A      2.409891  1948A      2.412171  1949A      2.414514  
    1950A      2.414606  1951A      2.416350  1952A      2.416527  
    1953A      2.418559  1954A      2.420797  1955A      2.422403  
    1956A      2.422532  1957A      2.423225  1958A      2.425108  
    1959A      2.430795  1960A      2.435000  1961A      2.437461  
    1962A      2.438284  1963A      2.439227  1964A      2.440100  
    1965A      2.442395  1966A      2.446424  1967A      2.448099  
    1968A      2.450811  1969A      2.450857  1970A      2.451915  
    1971A      2.453618  1972A      2.458305  1973A      2.463443  
    1974A      2.464482  1975A      2.465986  1976A      2.468010  
    1977A      2.472359  1978A      2.473376  1979A      2.475521  
    1980A      2.477549  1981A      2.485002  1982A      2.485358  
    1983A      2.485736  1984A      2.487624  1985A      2.490544  
    1986A      2.495922  1987A      2.498080  1988A      2.499899  
    1989A      2.502988  1990A      2.505090  1991A      2.505303  
    1992A      2.507153  1993A      2.510817  1994A      2.511139  
    1995A      2.513813  1996A      2.514610  1997A      2.516869  
    1998A      2.519837  1999A      2.521272  2000A      2.522423  
    2001A      2.522738  2002A      2.526651  2003A      2.529134  
    2004A      2.530818  2005A      2.532628  2006A      2.535534  
    2007A      2.538000  2008A      2.539732  2009A      2.540065  
    2010A      2.541440  2011A      2.542783  2012A      2.550358  
    2013A      2.550970  2014A      2.553262  2015A      2.555952  
    2016A      2.560115  2017A      2.564236  2018A      2.566633  
    2019A      2.571083  2020A      2.571769  2021A      2.573006  
    2022A      2.578708  2023A      2.580528  2024A      2.583403  
    2025A      2.585679  2026A      2.593951  2027A      2.595732  
    2028A      2.596433  2029A      2.600206  2030A      2.603579  
    2031A      2.616099  2032A      2.619261  2033A      2.620813  
    2034A      2.624626  2035A      2.626353  2036A      2.630571  
    2037A      2.631253  2038A      2.633876  2039A      2.635452  
    2040A      2.648295  2041A      2.652892  2042A      2.653285  
    2043A      2.655853  2044A      2.656323  2045A      2.658574  
    2046A      2.663655  2047A      2.667777  2048A      2.675127  
    2049A      2.681712  2050A      2.688319  2051A      2.693736  
    2052A      2.694275  2053A      2.698523  2054A      2.699947  
    2055A      2.705174  2056A      2.706882  2057A      2.718595  
    2058A      2.721904  2059A      2.723928  2060A      2.727985  
    2061A      2.728525  2062A      2.731386  2063A      2.734197  
    2064A      2.734836  2065A      2.738259  2066A      2.743869  
    2067A      2.750005  2068A      2.752118  2069A      2.759825  
    2070A      2.760840  2071A      2.767929  2072A      2.768493  
    2073A      2.771772  2074A      2.776368  2075A      2.779645  
    2076A      2.789487  2077A      2.790642  2078A      2.791310  
    2079A      2.795515  2080A      2.803260  2081A      2.810243  
    2082A      2.819951  2083A      2.824258  2084A      2.833358  
    2085A      2.834842  2086A      2.837164  2087A      2.837541  
    2088A      2.845062  2089A      2.847590  2090A      2.854049  
    2091A      2.860192  2092A      2.868538  2093A      2.870197  
    2094A      2.870448  2095A      2.875869  2096A      2.882190  
    2097A      2.887197  2098A      2.888811  2099A      2.895819  
    2100A      2.896364  2101A      2.899436  2102A      2.908825  
    2103A      2.909497  2104A      2.910148  2105A      2.917196  
    2106A      2.928161  2107A      2.930755  2108A      2.942131  
    2109A      2.943961  2110A      2.948634  2111A      2.956603  
    2112A      2.957788  2113A      2.964962  2114A      2.969920  
    2115A      2.970262  2116A      2.971488  2117A      2.973687  
    2118A      2.974908  2119A      2.977885  2120A      2.986915  
    2121A      2.993253  2122A      2.994018  2123A      2.999707  
    2124A      3.002603  2125A      3.011297  2126A      3.015556  
    2127A      3.017171  2128A      3.019105  2129A      3.023509  
    2130A      3.033166  2131A      3.035010  2132A      3.050623  
    2133A      3.051811  2134A      3.066909  2135A      3.075608  
    2136A      3.076387  2137A      3.081832  2138A      3.094235  
    2139A      3.099070  2140A      3.108646  2141A      3.123263  
    2142A      3.125953  2143A      3.129057  2144A      3.132350  
    2145A      3.144262  2146A      3.185300  2147A      3.202912  
    2148A      3.211332  2149A      3.216113  2150A      3.227016  
    2151A      3.230445  2152A      3.234215  2153A      3.235175  
    2154A      3.255250  2155A      3.265990  2156A      3.271441  
    2157A      3.272138  2158A      3.293635  2159A      3.298158  
    2160A      3.302416  2161A      3.304658  2162A      3.306273  
    2163A      3.315357  2164A      3.332162  2165A      3.336279  
    2166A      3.336809  2167A      3.341611  2168A      3.344930  
    2169A      3.350983  2170A      3.351282  2171A      3.352987  
    2172A      3.356741  2173A      3.361313  2174A      3.373088  
    2175A      3.374535  2176A      3.376194  2177A      3.377577  
    2178A      3.379765  2179A      3.380785  2180A      3.382856  
    2181A      3.384690  2182A      3.386035  2183A      3.386635  
    2184A      3.388318  2185A      3.394419  2186A      3.403703  
    2187A      3.407024  2188A      3.413049  2189A      3.416375  
    2190A      3.419542  2191A      3.420782  2192A      3.425512  
    2193A      3.425574  2194A      3.431512  2195A      3.436036  
    2196A      3.436809  2197A      3.440503  2198A      3.446807  
    2199A      3.449634  2200A      3.452188  2201A      3.454112  
    2202A      3.455273  2203A      3.455691  2204A      3.458681  
    2205A      3.462260  2206A      3.466601  2207A      3.467693  
    2208A      3.472684  2209A      3.474875  2210A      3.478707  
    2211A      3.480385  2212A      3.484641  2213A      3.485581  
    2214A      3.491249  2215A      3.492023  2216A      3.492739  
    2217A      3.494375  2218A      3.495338  2219A      3.496233  
    2220A      3.507623  2221A      3.512062  2222A      3.512520  
    2223A      3.515565  2224A      3.516784  2225A      3.519604  
    2226A      3.526194  2227A      3.528189  2228A      3.530676  
    2229A      3.532900  2230A      3.534375  2231A      3.536890  
    2232A      3.538932  2233A      3.540770  2234A      3.541563  
    2235A      3.546854  2236A      3.547722  2237A      3.548361  
    2238A      3.550556  2239A      3.551050  2240A      3.557355  
    2241A      3.561482  2242A      3.564462  2243A      3.565835  
    2244A      3.568116  2245A      3.570426  2246A      3.570996  
    2247A      3.573269  2248A      3.573942  2249A      3.577312  
    2250A      3.580519  2251A      3.580678  2252A      3.585427  
    2253A      3.588587  2254A      3.590269  2255A      3.590565  
    2256A      3.592091  2257A      3.593362  2258A      3.596623  
    2259A      3.598913  2260A      3.599787  2261A      3.603834  
    2262A      3.604582  2263A      3.606806  2264A      3.610146  
    2265A      3.614531  2266A      3.615051  2267A      3.616962  
    2268A      3.623170  2269A      3.623225  2270A      3.627640  
    2271A      3.628753  2272A      3.629517  2273A      3.634194  
    2274A      3.634303  2275A      3.639264  2276A      3.641409  
    2277A      3.641958  2278A      3.645531  2279A      3.645630  
    2280A      3.647707  2281A      3.648397  2282A      3.649389  
    2283A      3.657114  2284A      3.657298  2285A      3.660309  
    2286A      3.661468  2287A      3.661589  2288A      3.663772  
    2289A      3.666025  2290A      3.669352  2291A      3.669745  
    2292A      3.672496  2293A      3.677485  2294A      3.680522  
    2295A      3.682443  2296A      3.683082  2297A      3.687704  
    2298A      3.688283  2299A      3.689535  2300A      3.692715  
    2301A      3.695219  2302A      3.696207  2303A      3.696833  
    2304A      3.702340  2305A      3.704657  2306A      3.704677  
    2307A      3.705611  2308A      3.706615  2309A      3.706684  
    2310A      3.709585  2311A      3.710200  2312A      3.710460  
    2313A      3.711380  2314A      3.713896  2315A      3.715121  
    2316A      3.715447  2317A      3.718816  2318A      3.719492  
    2319A      3.721506  2320A      3.722824  2321A      3.723170  
    2322A      3.727283  2323A      3.728140  2324A      3.729581  
    2325A      3.730597  2326A      3.732475  2327A      3.734915  
    2328A      3.736315  2329A      3.740004  2330A      3.741338  
    2331A      3.746512  2332A      3.746592  2333A      3.749015  
    2334A      3.749044  2335A      3.752039  2336A      3.753658  
    2337A      3.754558  2338A      3.759311  2339A      3.761327  
    2340A      3.762047  2341A      3.763567  2342A      3.764945  
    2343A      3.767148  2344A      3.768449  2345A      3.771040  
    2346A      3.771068  2347A      3.773789  2348A      3.777553  
    2349A      3.779576  2350A      3.780210  2351A      3.784885  
    2352A      3.785059  2353A      3.786732  2354A      3.790288  
    2355A      3.791738  2356A      3.791864  2357A      3.791971  
    2358A      3.796385  2359A      3.796531  2360A      3.801031  
    2361A      3.801166  2362A      3.803715  2363A      3.805118  
    2364A      3.806929  2365A      3.809099  2366A      3.810642  
    2367A      3.812447  2368A      3.814358  2369A      3.814425  
    2370A      3.815961  2371A      3.816788  2372A      3.817723  
    2373A      3.821624  2374A      3.823698  2375A      3.824254  
    2376A      3.825335  2377A      3.828810  2378A      3.830625  
    2379A      3.833539  2380A      3.833908  2381A      3.834581  
    2382A      3.837940  2383A      3.840239  2384A      3.841584  
    2385A      3.842150  2386A      3.844793  2387A      3.845076  
    2388A      3.847467  2389A      3.847988  2390A      3.852706  
    2391A      3.852801  2392A      3.856928  2393A      3.858232  
    2394A      3.859022  2395A      3.859744  2396A      3.860438  
    2397A      3.862507  2398A      3.863485  2399A      3.864886  
    2400A      3.865822  2401A      3.868418  2402A      3.876419  
    2403A      3.877822  2404A      3.882892  2405A      3.883227  
    2406A      3.887125  2407A      3.887233  2408A      3.888363  
    2409A      3.888798  2410A      3.894076  2411A      3.894608  
    2412A      3.896367  2413A      3.896795  2414A      3.898287  
    2415A      3.899598  2416A      3.900821  2417A      3.902265  
    2418A      3.904577  2419A      3.906132  2420A      3.906366  
    2421A      3.907078  2422A      3.907919  2423A      3.909217  
    2424A      3.911276  2425A      3.911568  2426A      3.912167  
    2427A      3.915701  2428A      3.916673  2429A      3.918206  
    2430A      3.918633  2431A      3.921185  2432A      3.921314  
    2433A      3.923037  2434A      3.925527  2435A      3.926626  
    2436A      3.927061  2437A      3.927506  2438A      3.929887  
    2439A      3.930791  2440A      3.932235  2441A      3.934642  
    2442A      3.934738  2443A      3.936275  2444A      3.938085  
    2445A      3.939359  2446A      3.940976  2447A      3.941387  
    2448A      3.942540  2449A      3.944768  2450A      3.947381  
    2451A      3.948853  2452A      3.950980  2453A      3.953183  
    2454A      3.954538  2455A      3.965068  2456A      3.965862  
    2457A      3.967376  2458A      3.969473  2459A      3.971061  
    2460A      3.971851  2461A      3.972778  2462A      3.974715  
    2463A      3.977612  2464A      3.981458  2465A      3.982988  
    2466A      3.986247  2467A      3.986510  2468A      3.993371  
    2469A      3.993613  2470A      3.995658  2471A      3.999220  
    2472A      4.005098  2473A      4.005849  2474A      4.010761  
    2475A      4.012251  2476A      4.014019  2477A      4.014303  
    2478A      4.018542  2479A      4.021012  2480A      4.021154  
    2481A      4.021503  2482A      4.025418  2483A      4.027595  
    2484A      4.028594  2485A      4.030474  2486A      4.031364  
    2487A      4.031708  2488A      4.032448  2489A      4.037760  
    2490A      4.038978  2491A      4.041129  2492A      4.041754  
    2493A      4.043946  2494A      4.045203  2495A      4.048893  
    2496A      4.050371  2497A      4.050965  2498A      4.061139  
    2499A      4.061226  2500A      4.064893  2501A      4.067431  
    2502A      4.069682  2503A      4.070742  2504A      4.073676  
    2505A      4.075416  2506A      4.076140  2507A      4.076308  
    2508A      4.079293  2509A      4.081079  2510A      4.082297  
    2511A      4.083984  2512A      4.086535  2513A      4.091618  
    2514A      4.092661  2515A      4.094007  2516A      4.097069  
    2517A      4.100177  2518A      4.101142  2519A      4.101912  
    2520A      4.103885  2521A      4.105078  2522A      4.108941  
    2523A      4.110941  2524A      4.112375  2525A      4.112993  
    2526A      4.116193  2527A      4.118264  2528A      4.118387  
    2529A      4.123405  2530A      4.123625  2531A      4.126882  
    2532A      4.129362  2533A      4.129496  2534A      4.132571  
    2535A      4.132917  2536A      4.134725  2537A      4.136408  
    2538A      4.137014  2539A      4.139927  2540A      4.142938  
    2541A      4.145207  2542A      4.146443  2543A      4.149742  
    2544A      4.150450  2545A      4.152433  2546A      4.152666  
    2547A      4.158160  2548A      4.160444  2549A      4.163192  
    2550A      4.168133  2551A      4.168206  2552A      4.169532  
    2553A      4.172923  2554A      4.176303  2555A      4.177661  
    2556A      4.181046  2557A      4.182047  2558A      4.183208  
    2559A      4.185061  2560A      4.188558  2561A      4.190928  
    2562A      4.192650  2563A      4.194922  2564A      4.201652  
    2565A      4.203742  2566A      4.206289  2567A      4.206692  
    2568A      4.215377  2569A      4.215807  2570A      4.217111  
    2571A      4.217724  2572A      4.223907  2573A      4.226412  
    2574A      4.228216  2575A      4.234882  2576A      4.235239  
    2577A      4.237200  2578A      4.238055  2579A      4.239267  
    2580A      4.242246  2581A      4.245494  2582A      4.246666  
    2583A      4.247710  2584A      4.251073  2585A      4.252163  
    2586A      4.253052  2587A      4.254839  2588A      4.256847  
    2589A      4.257487  2590A      4.259087  2591A      4.261493  
    2592A      4.263716  2593A      4.266786  2594A      4.269036  
    2595A      4.271532  2596A      4.272646  2597A      4.276976  
    2598A      4.277197  2599A      4.280341  2600A      4.283476  
    2601A      4.284651  2602A      4.287849  2603A      4.290261  
    2604A      4.292507  2605A      4.296980  2606A      4.298337  
    2607A      4.300814  2608A      4.301590  2609A      4.301761  
    2610A      4.304737  2611A      4.306827  2612A      4.308019  
    2613A      4.312261  2614A      4.313568  2615A      4.314452  
    2616A      4.317130  2617A      4.318368  2618A      4.319023  
    2619A      4.323007  2620A      4.324496  2621A      4.326671  
    2622A      4.328364  2623A      4.330493  2624A      4.331586  
    2625A      4.334170  2626A      4.338183  2627A      4.340193  
    2628A      4.340670  2629A      4.341795  2630A      4.346730  
    2631A      4.347693  2632A      4.351669  2633A      4.356212  
    2634A      4.357692  2635A      4.361065  2636A      4.364976  
    2637A      4.366926  2638A      4.368301  2639A      4.369996  
    2640A      4.371846  2641A      4.374014  2642A      4.375657  
    2643A      4.377491  2644A      4.383434  2645A      4.385315  
    2646A      4.386036  2647A      4.389010  2648A      4.389892  
    2649A      4.394237  2650A      4.394323  2651A      4.396789  
    2652A      4.397798  2653A      4.404642  2654A      4.405803  
    2655A      4.407077  2656A      4.412447  2657A      4.414601  
    2658A      4.415224  2659A      4.416060  2660A      4.419673  
    2661A      4.420812  2662A      4.423006  2663A      4.426145  
    2664A      4.426854  2665A      4.428273  2666A      4.430576  
    2667A      4.431008  2668A      4.435098  2669A      4.437000  
    2670A      4.438020  2671A      4.438908  2672A      4.440572  
    2673A      4.441908  2674A      4.443958  2675A      4.444891  
    2676A      4.446062  2677A      4.447055  2678A      4.447934  
    2679A      4.449965  2680A      4.454331  2681A      4.457711  
    2682A      4.457893  2683A      4.458943  2684A      4.459159  
    2685A      4.463239  2686A      4.465227  2687A      4.472307  
    2688A      4.474791  2689A      4.475677  2690A      4.479861  
    2691A      4.485427  2692A      4.488177  2693A      4.489968  
    2694A      4.490229  2695A      4.495486  2696A      4.495728  
    2697A      4.496318  2698A      4.499261  2699A      4.502114  
    2700A      4.502285  2701A      4.503998  2702A      4.506719  
    2703A      4.510408  2704A      4.511422  2705A      4.515255  
    2706A      4.515347  2707A      4.521784  2708A      4.523746  
    2709A      4.526526  2710A      4.533144  2711A      4.535278  
    2712A      4.537512  2713A      4.542786  2714A      4.544903  
    2715A      4.546772  2716A      4.547846  2717A      4.550192  
    2718A      4.552152  2719A      4.552294  2720A      4.556118  
    2721A      4.557714  2722A      4.559692  2723A      4.562772  
    2724A      4.564328  2725A      4.564706  2726A      4.565842  
    2727A      4.568098  2728A      4.568489  2729A      4.569864  
    2730A      4.572243  2731A      4.575932  2732A      4.581806  
    2733A      4.584551  2734A      4.586583  2735A      4.589032  
    2736A      4.594182  2737A      4.597451  2738A      4.601790  
    2739A      4.602254  2740A      4.606462  2741A      4.607485  
    2742A      4.609251  2743A      4.613544  2744A      4.617871  
    2745A      4.619586  2746A      4.624202  2747A      4.626321  
    2748A      4.627737  2749A      4.631678  2750A      4.633103  
    2751A      4.638321  2752A      4.639070  2753A      4.645052  
    2754A      4.647526  2755A      4.650137  2756A      4.651388  
    2757A      4.653696  2758A      4.656068  2759A      4.656896  
    2760A      4.659166  2761A      4.660828  2762A      4.665087  
    2763A      4.665280  2764A      4.667790  2765A      4.670488  
    2766A      4.672735  2767A      4.673239  2768A      4.675313  
    2769A      4.680023  2770A      4.684878  2771A      4.687874  
    2772A      4.688425  2773A      4.689175  2774A      4.690877  
    2775A      4.692490  2776A      4.696159  2777A      4.699295  
    2778A      4.700065  2779A      4.700827  2780A      4.702236  
    2781A      4.704643  2782A      4.706458  2783A      4.707400  
    2784A      4.712314  2785A      4.714299  2786A      4.715559  
    2787A      4.719202  2788A      4.722073  2789A      4.731257  
    2790A      4.733782  2791A      4.735673  2792A      4.735809  
    2793A      4.743260  2794A      4.744246  2795A      4.747491  
    2796A      4.748639  2797A      4.749149  2798A      4.754727  
    2799A      4.755302  2800A      4.759473  2801A      4.764355  
    2802A      4.766357  2803A      4.768639  2804A      4.769814  
    2805A      4.772489  2806A      4.773454  2807A      4.774691  
    2808A      4.778783  2809A      4.778884  2810A      4.783914  
    2811A      4.785786  2812A      4.789089  2813A      4.798053  
    2814A      4.803520  2815A      4.804521  2816A      4.808406  
    2817A      4.812618  2818A      4.815545  2819A      4.816140  
    2820A      4.819910  2821A      4.822623  2822A      4.826872  
    2823A      4.832521  2824A      4.839396  2825A      4.842318  
    2826A      4.842420  2827A      4.845589  2828A      4.852996  
    2829A      4.854721  2830A      4.855469  2831A      4.858408  
    2832A      4.860894  2833A      4.862387  2834A      4.862895  
    2835A      4.865238  2836A      4.870160  2837A      4.872226  
    2838A      4.873993  2839A      4.877374  2840A      4.879968  
    2841A      4.884547  2842A      4.887359  2843A      4.888684  
    2844A      4.890864  2845A      4.894206  2846A      4.897280  
    2847A      4.898596  2848A      4.904074  2849A      4.906430  
    2850A      4.908605  2851A      4.909626  2852A      4.915652  
    2853A      4.919167  2854A      4.922342  2855A      4.924082  
    2856A      4.929940  2857A      4.933099  2858A      4.933510  
    2859A      4.940099  2860A      4.944121  2861A      4.944514  
    2862A      4.947403  2863A      4.948618  2864A      4.952347  
    2865A      4.952522  2866A      4.956779  2867A      4.958905  
    2868A      4.961022  2869A      4.961484  2870A      4.967793  
    2871A      4.968432  2872A      4.971340  2873A      4.973309  
    2874A      4.973905  2875A      4.976184  2876A      4.981561  
    2877A      4.982035  2878A      4.987341  2879A      4.991925  
    2880A      4.994423  2881A      4.998964  2882A      4.999184  
    2883A      5.001066  2884A      5.002274  2885A      5.005033  
    2886A      5.011637  2887A      5.011830  2888A      5.017455  
    2889A      5.019537  2890A      5.024536  2891A      5.028518  
    2892A      5.029599  2893A      5.029729  2894A      5.034650  
    2895A      5.039905  2896A      5.044245  2897A      5.046228  
    2898A      5.047821  2899A      5.050593  2900A      5.051291  
    2901A      5.053211  2902A      5.056650  2903A      5.062650  
    2904A      5.063798  2905A      5.075711  2906A      5.076823  
    2907A      5.077860  2908A      5.084097  2909A      5.085548  
    2910A      5.086258  2911A      5.088650  2912A      5.090474  
    2913A      5.091631  2914A      5.092044  2915A      5.094163  
    2916A      5.094358  2917A      5.096779  2918A      5.097419  
    2919A      5.099580  2920A      5.100617  2921A      5.103548  
    2922A      5.103635  2923A      5.104627  2924A      5.105102  
    2925A      5.111822  2926A      5.112266  2927A      5.112485  
    2928A      5.116090  2929A      5.119618  2930A      5.122934  
    2931A      5.128564  2932A      5.128914  2933A      5.132004  
    2934A      5.132603  2935A      5.135027  2936A      5.137841  
    2937A      5.138461  2938A      5.140900  2939A      5.142109  
    2940A      5.144497  2941A      5.147684  2942A      5.151837  
    2943A      5.154467  2944A      5.155290  2945A      5.160852  
    2946A      5.161653  2947A      5.164981  2948A      5.168606  
    2949A      5.169426  2950A      5.172477  2951A      5.175734  
    2952A      5.175878  2953A      5.182165  2954A      5.184036  
    2955A      5.185224  2956A      5.189024  2957A      5.191973  
    2958A      5.194424  2959A      5.194649  2960A      5.195929  
    2961A      5.198229  2962A      5.198797  2963A      5.202811  
    2964A      5.202988  2965A      5.205029  2966A      5.207752  
    2967A      5.209247  2968A      5.211108  2969A      5.212803  
    2970A      5.214413  2971A      5.218902  2972A      5.219406  
    2973A      5.220937  2974A      5.221266  2975A      5.222282  
    2976A      5.225970  2977A      5.229706  2978A      5.230819  
    2979A      5.231349  2980A      5.232012  2981A      5.237086  
    2982A      5.238563  2983A      5.238867  2984A      5.246655  
    2985A      5.247307  2986A      5.248288  2987A      5.250411  
    2988A      5.252110  2989A      5.256240  2990A      5.257915  
    2991A      5.258015  2992A      5.259012  2993A      5.262835  
    2994A      5.269340  2995A      5.270662  2996A      5.272578  
    2997A      5.275324  2998A      5.278768  2999A      5.279996  
    3000A      5.282664  3001A      5.284472  3002A      5.287904  
    3003A      5.289985  3004A      5.290607  3005A      5.298439  
    3006A      5.298717  3007A      5.301078  3008A      5.302788  
    3009A      5.305918  3010A      5.309847  3011A      5.312553  
    3012A      5.315821  3013A      5.318666  3014A      5.320550  
    3015A      5.321439  3016A      5.323774  3017A      5.324678  
    3018A      5.327404  3019A      5.329094  3020A      5.335291  
    3021A      5.336260  3022A      5.338597  3023A      5.341007  
    3024A      5.343844  3025A      5.347911  3026A      5.351264  
    3027A      5.351453  3028A      5.354815  3029A      5.356363  
    3030A      5.359334  3031A      5.359908  3032A      5.360939  
    3033A      5.365039  3034A      5.365374  3035A      5.369312  
    3036A      5.369838  3037A      5.373096  3038A      5.373576  
    3039A      5.374869  3040A      5.381792  3041A      5.384605  
    3042A      5.384772  3043A      5.387435  3044A      5.387757  
    3045A      5.388964  3046A      5.393597  3047A      5.393799  
    3048A      5.396777  3049A      5.398213  3050A      5.401515  
    3051A      5.401861  3052A      5.402983  3053A      5.403291  
    3054A      5.404811  3055A      5.408385  3056A      5.410937  
    3057A      5.412840  3058A      5.414392  3059A      5.415143  
    3060A      5.422648  3061A      5.422690  3062A      5.423779  
    3063A      5.424977  3064A      5.432234  3065A      5.433772  
    3066A      5.433862  3067A      5.437446  3068A      5.438428  
    3069A      5.438888  3070A      5.440273  3071A      5.442224  
    3072A      5.445139  3073A      5.449078  3074A      5.450085  
    3075A      5.453917  3076A      5.454727  3077A      5.454911  
    3078A      5.456684  3079A      5.459069  3080A      5.459966  
    3081A      5.460067  3082A      5.464203  3083A      5.464970  
    3084A      5.467379  3085A      5.467940  3086A      5.468883  
    3087A      5.472196  3088A      5.478649  3089A      5.479719  
    3090A      5.480692  3091A      5.482622  3092A      5.483948  
    3093A      5.485218  3094A      5.487580  3095A      5.487639  
    3096A      5.498430  3097A      5.502356  3098A      5.503240  
    3099A      5.510943  3100A      5.512299  3101A      5.515595  
    3102A      5.516738  3103A      5.517925  3104A      5.520748  
    3105A      5.522426  3106A      5.527432  3107A      5.532869  
    3108A      5.536653  3109A      5.537030  3110A      5.538774  
    3111A      5.542852  3112A      5.545039  3113A      5.546729  
    3114A      5.546916  3115A      5.552436  3116A      5.555455  
    3117A      5.556527  3118A      5.557375  3119A      5.559864  
    3120A      5.561900  3121A      5.563605  3122A      5.570587  
    3123A      5.576645  3124A      5.577058  3125A      5.578561  
    3126A      5.583691  3127A      5.585958  3128A      5.595313  
    3129A      5.597086  3130A      5.602108  3131A      5.604386  
    3132A      5.612933  3133A      5.615263  3134A      5.621668  
    3135A      5.623254  3136A      5.624963  3137A      5.632892  
    3138A      5.634852  3139A      5.635911  3140A      5.637986  
    3141A      5.638524  3142A      5.640374  3143A      5.645667  
    3144A      5.646370  3145A      5.647091  3146A      5.648700  
    3147A      5.657108  3148A      5.661773  3149A      5.663825  
    3150A      5.666648  3151A      5.672438  3152A      5.674113  
    3153A      5.676479  3154A      5.677227  3155A      5.681854  
    3156A      5.682361  3157A      5.685788  3158A      5.687113  
    3159A      5.689011  3160A      5.693479  3161A      5.702352  
    3162A      5.704537  3163A      5.707814  3164A      5.709780  
    3165A      5.715191  3166A      5.723006  3167A      5.727792  
    3168A      5.740360  3169A      5.741393  3170A      5.747692  
    3171A      5.755540  3172A      5.761148  3173A      5.762136  
    3174A      5.770098  3175A      5.772228  3176A      5.774352  
    3177A      5.778954  3178A      5.779406  3179A      5.780423  
    3180A      5.787162  3181A      5.790654  3182A      5.793244  
    3183A      5.794913  3184A      5.795623  3185A      5.796268  
    3186A      5.797978  3187A      5.798580  3188A      5.803118  
    3189A      5.808684  3190A      5.810882  3191A      5.820839  
    3192A      5.825278  3193A      5.827109  3194A      5.831317  
    3195A      5.836393  3196A      5.842689  3197A      5.844090  
    3198A      5.845621  3199A      5.848204  3200A      5.852797  
    3201A      5.854478  3202A      5.865403  3203A      5.866942  
    3204A      5.875000  3205A      5.877843  3206A      5.890252  
    3207A      5.894314  3208A      5.895059  3209A      5.897916  
    3210A      5.899505  3211A      5.900577  3212A      5.911005  
    3213A      5.917481  3214A      5.921452  3215A      5.923136  
    3216A      5.924036  3217A      5.931535  3218A      5.936912  
    3219A      5.942525  3220A      5.952903  3221A      5.956408  
    3222A      5.967102  3223A      5.969297  3224A      5.975267  
    3225A      5.983694  3226A      5.992711  3227A      5.993058  
    3228A      5.995243  3229A      5.995342  3230A      6.001527  
    3231A      6.011573  3232A      6.019210  3233A      6.019521  
    3234A      6.023402  3235A      6.028311  3236A      6.028488  
    3237A      6.032630  3238A      6.037903  3239A      6.040472  
    3240A      6.041424  3241A      6.047137  3242A      6.052804  
    3243A      6.060867  3244A      6.065482  3245A      6.067908  
    3246A      6.072477  3247A      6.076201  3248A      6.077497  
    3249A      6.083235  3250A      6.087699  3251A      6.091456  
    3252A      6.093756  3253A      6.095192  3254A      6.099549  
    3255A      6.099899  3256A      6.101497  3257A      6.101985  
    3258A      6.105806  3259A      6.110407  3260A      6.111567  
    3261A      6.115827  3262A      6.116182  3263A      6.117603  
    3264A      6.120799  3265A      6.121193  3266A      6.129659  
    3267A      6.130289  3268A      6.130945  3269A      6.133272  
    3270A      6.135672  3271A      6.140507  3272A      6.150555  
    3273A      6.150904  3274A      6.156404  3275A      6.163031  
    3276A      6.163702  3277A      6.168931  3278A      6.169404  
    3279A      6.176165  3280A      6.183702  3281A      6.189086  
    3282A      6.189401  3283A      6.198458  3284A      6.203795  
    3285A      6.204520  3286A      6.206778  3287A      6.207876  
    3288A      6.211964  3289A      6.213086  3290A      6.225487  
    3291A      6.242061  3292A      6.244218  3293A      6.251934  
    3294A      6.262719  3295A      6.289676  3296A      6.292628  
    3297A      6.306106  3298A      6.333217  3299A      6.334941  
    3300A      6.345580  3301A      6.375506  3302A      6.378445  
    3303A      6.385659  3304A      6.409160  3305A      6.419984  
    3306A      6.455950  3307A      6.463355  3308A      6.469102  
    3309A      6.511159  3310A      6.517301  3311A      6.519737  
    3312A      6.544689  3313A      6.550250  3314A      6.563036  
    3315A      6.563209  3316A      6.587192  3317A      6.591782  
    3318A      6.595693  3319A      6.596252  3320A      6.597668  
    3321A      6.601096  3322A      6.641179  3323A      6.645000  
    3324A      6.651654  3325A      6.651863  3326A      6.686729  
    3327A      6.687924  3328A      6.688628  3329A      6.699854  
    3330A      6.701827  3331A      6.734078  3332A      6.741818  
    3333A      6.746119  3334A      6.747697  3335A      6.752129  
    3336A      6.756839  3337A      6.757011  3338A      6.768789  
    3339A      6.776371  3340A      6.785725  3341A      6.787925  
    3342A      6.790414  3343A      6.790747  3344A      6.797512  
    3345A      6.797691  3346A      6.803826  3347A      6.825100  
    3348A      6.842525  3349A      6.851483  3350A      6.857457  
    3351A      6.863547  3352A      6.876158  3353A      6.890692  
    3354A      6.907877  3355A      6.908576  3356A      6.926333  
    3357A      6.940673  3358A      6.942339  3359A      6.956804  
    3360A      6.959353  3361A      6.962962  3362A      6.992312  
    3363A      7.054713  3364A      7.114744  3365A      7.144918  
    3366A      7.162036  3367A      7.164119  3368A     17.287097  
    3369A     17.357494  3370A     17.516060  3371A     17.629802  
    3372A     17.640299  3373A     17.743696  3374A     17.785127  
    3375A     17.789345  3376A     17.828328  3377A     17.835107  
    3378A     17.993840  3379A     17.997680  3380A     18.002030  
    3381A     18.017483  3382A     18.058588  3383A     18.114759  
    3384A     18.119328  3385A     18.123309  3386A     18.178591  
    3387A     18.253507  3388A     18.308314  3389A     18.336115  
    3390A     18.352513  3391A     18.396107  3392A     18.583714  
    3393A     18.709134  3394A     18.781227  3395A     18.882810  
    3396A     19.117216  3397A     19.124351  3398A     19.140149  
    3399A     19.393133  3400A     19.424378  3401A     19.434723  
    3402A     19.664525  3403A     19.680054  

    Final Occupation by Irrep:
              A 
    DOCC [   146 ]
    NA   [   146 ]
    NB   [   146 ]

  @DF-RKS Final Energy: -1414.76131590869932

   => Energetics <=

    Nuclear Repulsion Energy =           3874.3135435205499562
    One-Electron Energy =               -9616.7396435741011373
    Two-Electron Energy =                4435.1002158620767659
    DFT Exchange-Correlation Energy =    -107.3707372646427274
    Empirical Dispersion Energy =          -0.0646944525820881
    VV10 Nonlocal Energy =                  0.0000000000000000
    Total Energy =                      -1414.7613159086995438

Computation Completed


Properties will be evaluated at   0.000000,   0.000000,   0.000000 [a0]

Properties computed using the SCF density matrix


 Multipole Moments:

 ------------------------------------------------------------------------------------
     Multipole            Electronic (a.u.)      Nuclear  (a.u.)        Total (a.u.)
 ------------------------------------------------------------------------------------

 L = 1.  Multiply by 2.5417464519 to convert [e a0] to [Debye]
 Dipole X            :      -6297.2590131         6297.2590897            0.0000766
 Dipole Y            :      -4173.8626327         4173.8626598            0.0000271
 Dipole Z            :          8.6163257           -8.6152614            0.0010643
 Magnitude           :                                                    0.0010674

 ------------------------------------------------------------------------------------

*** tstop() called on atl1-1-03-004-18-1.pace.gatech.edu at Mon Jun 15 14:59:49 2026
Module time:
	user time   =   28629.87 seconds =     477.16 minutes
	system time =    1447.73 seconds =      24.13 minutes
	total time  =       4158 seconds =      69.30 minutes
Total time:
	user time   =   28629.87 seconds =     477.16 minutes
	system time =    1447.73 seconds =      24.13 minutes
	total time  =       4158 seconds =      69.30 minutes

*** tstart() called on atl1-1-03-004-18-1.pace.gatech.edu
*** at Mon Jun 15 14:59:49 2026

   => Loading Basis Set <=

    Name: (AUG-CC-PVTZ AUX)
    Role: RIFIT
    Keyword: DF_BASIS_MP2
    atoms 1-18, 57-74   entry C          line   148 file /storage/home/hcoda1/5/vlita3/.conda/envs/p4_qcml/share/psi4/basis/aug-cc-pvtz-ri.gbs 
    atoms 19-56, 75-112 entry H          line    30 file /storage/home/hcoda1/5/vlita3/.conda/envs/p4_qcml/share/psi4/basis/aug-cc-pvtz-ri.gbs 

	 --------------------------------------------------------
	                          DF-MP2                         
	      2nd-Order Density-Fitted Moller-Plesset Theory     
	              RMP2 Wavefunction,  10 Threads             
	                                                         
	        Rob Parrish, Justin Turney, Andy Simmonett,      
	           Ed Hohenstein, and C. David Sherrill          
	 --------------------------------------------------------

   => Auxiliary Basis Set <=

  Basis Set: (AUG-CC-PVTZ AUX)
    Blend: AUG-CC-PVTZ-RI
    Number of shells: 2072
    Number of basis functions: 7312
    Number of Cartesian functions: 9076
    Spherical Harmonics?: true
    Max angular momentum: 4

	 --------------------------------------------------------
	                 NBF =  3404, NAUX =  7312
	 --------------------------------------------------------
	   CLASS    FOCC     OCC    AOCC    AVIR     VIR    FVIR
	   PAIRS       0     146     146    3257    3257       0
	 --------------------------------------------------------

	-----------------------------------------------------------
	 ==================> DF-MP2 Energies <==================== 
	-----------------------------------------------------------
	 Reference Energy          =   -1414.7613159086993164 [Eh]
	 Singles Energy            =      -0.0000000000000000 [Eh]
	 Same-Spin Energy          =      -1.8791576718570624 [Eh]
	 Opposite-Spin Energy      =      -6.6512186398579756 [Eh]
	 Correlation Energy        =      -8.5303763117150382 [Eh]
	 Total Energy              =   -1423.2916922204144612 [Eh]
	-----------------------------------------------------------
	 ================> DF-SCS-MP2 Energies <================== 
	-----------------------------------------------------------
	 SCS Same-Spin Scale       =       0.3333333333333333 [-]
	 SCS Opposite-Spin Scale   =       1.2000000000000000 [-]
	 SCS Same-Spin Energy      =      -0.6263858906190207 [Eh]
	 SCS Opposite-Spin Energy  =      -7.9814623678295700 [Eh]
	 SCS Correlation Energy    =      -8.6078482584485911 [Eh]
	 SCS Total Energy          =   -1423.3691641671478010 [Eh]
	-----------------------------------------------------------



    B2PLYP-D3 Energy Summary
    ------------------------
    DFT Reference Energy                  = -1414.7613159086993164
    Scaled MP2 Correlation                =    -2.3032016041630605
    @Final double-hybrid DFT total energy = -1417.0645175128622668


*** tstop() called on atl1-1-03-004-18-1.pace.gatech.edu at Mon Jun 15 15:54:22 2026
Module time:
	user time   =   29921.49 seconds =     498.69 minutes
	system time =     146.14 seconds =       2.44 minutes
	total time  =       3273 seconds =      54.55 minutes
Total time:
	user time   =   58551.36 seconds =     975.86 minutes
	system time =    1593.87 seconds =      26.56 minutes
	total time  =       7431 seconds =     123.85 minutes

    Psi4 stopped on: Monday, 15 June 2026 03:54PM
    Psi4 wall time for execution: 2:03:54.59

*** Psi4 exiting successfully. Buy a developer a beer!
