
    -----------------------------------------------------------------------
          Psi4: An Open-Source Ab Initio Electronic Structure Package
                               Psi4 1.9.1 release

                         Git: Rev {} zzzzzzz 


    D. G. A. Smith, L. A. Burns, A. C. Simmonett, R. M. Parrish,
    M. C. Schieber, R. Galvelis, P. Kraus, H. Kruse, R. Di Remigio,
    A. Alenaizan, A. M. James, S. Lehtola, J. P. Misiewicz, M. Scheurer,
    R. A. Shaw, J. B. Schriber, Y. Xie, Z. L. Glick, D. A. Sirianni,
    J. S. O'Brien, J. M. Waldrop, A. Kumar, E. G. Hohenstein,
    B. P. Pritchard, B. R. Brooks, H. F. Schaefer III, A. Yu. Sokolov,
    K. Patkowski, A. E. DePrince III, U. Bozkaya, R. A. King,
    F. A. Evangelista, J. M. Turney, T. D. Crawford, C. D. Sherrill,
    J. Chem. Phys. 152(18) 184108 (2020). https://doi.org/10.1063/5.0006002

                            Additional Code Authors
    E. T. Seidl, C. L. Janssen, E. F. Valeev, M. L. Leininger,
    J. F. Gonthier, R. M. Richard, H. R. McAlexander, M. Saitow, X. Wang,
    P. Verma, M. H. Lechner, A. Jiang, S. Behnle, A. G. Heide,
    M. F. Herbst, and D. L. Poole

             Previous Authors, Complete List of Code Contributors,
                       and Citations for Specific Modules
    https://github.com/psi4/psi4/blob/master/codemeta.json
    https://github.com/psi4/psi4/graphs/contributors
    http://psicode.org/psi4manual/master/introduction.html#citing-psifour

    -----------------------------------------------------------------------


    Psi4 started on: Monday, 15 June 2026 01:41PM

    Process ID: 1606177
    Host:       atl1-1-03-004-13-1.pace.gatech.edu
    PSIDATADIR: /storage/home/hcoda1/5/vlita3/.conda/envs/p4_qcml/share/psi4
    Memory:     250.0 GiB
    Threads:    10
    
  ==> Input QCSchema <==

--------------------------------------------------------------------------
{'driver': 'energy',
 'extras': {},
 'id': '359',
 'keywords': {},
 'model': {'basis': 'aug-cc-pvtz', 'method': 'b2plyp-d3'},
 'molecule': {'extras': {},
              'fix_com': True,
              'fix_orientation': True,
              'fragment_charges': [0.0, 0.0],
              'fragment_multiplicities': [1, 1],
              'fragments': [[0, 1, 2, 3, 4, 5, 6, 7, 8, 9, 10, 11, 12, 13, 14, 15, 16, 17, 18, 19, 20, 21, 22, 23, 24,
                             25, 26, 27, 28, 29, 30, 31, 32, 33, 34, 35, 36, 37, 38, 39, 40, 41, 42, 43, 44, 45, 46, 47,
                             48, 49, 50, 51, 52, 53, 54, 55, 56, 57, 58, 59, 60, 61, 62, 63, 64, 65, 66, 67, 68, 69, 70,
                             71],
                            [72, 73, 74, 75, 76, 77, 78, 79, 80, 81, 82, 83, 84, 85, 86, 87, 88, 89, 90, 91]],
              'geometry': [-0.27392714, 6.18819166, -1.19323544, -2.46344698, 5.77825337, -2.60449614, -4.6940608,
                           5.39705781, -1.25234985, -4.71896739, 5.33938337, 1.40379628, -2.51326016, 5.65638493,
                           2.81229042, -0.29786241, 6.1264921, 1.46128175, -7.4236946, 4.94664159, -2.11437677,
                           -8.0102089, 2.21933216, -1.3518118, -8.03725088, 2.16388759, 1.30730308, -7.46490952,
                           4.85601033, 2.19433108, -8.21278754, 0.01810099, -2.78449255, -8.41651891, -2.24308601,
                           -1.44718061, -8.44656555, -2.29788807, 1.20944929, -8.27108559, -0.09424159, 2.64331111,
                           -8.82968863, 6.36030791, 0.05739419, 2.39027678, 6.99321499, -1.97848656, 2.35234998,
                           6.89052727, 2.33048585, 4.24147139, 4.87579576, 1.47132186, 4.26509297, 4.93957402,
                           -1.18371122, 5.91295305, 3.35513315, 2.83024282, 7.66850862, 1.97164575, 1.43096487,
                           7.69269711, 2.03631218, -1.22332744, 5.96134893, 3.48626124, -2.58482409, 2.91214355,
                           8.90127146, 0.22748523, 9.87956377, 0.34201964, -2.07607202, 9.16122218, -2.35520346,
                           -1.32189933, 9.13548411, -2.42066358, 1.33912796, 9.83927481, 0.23553924, 2.23913649,
                           8.55002806, -4.47912335, -2.729596, 7.90073706, -6.7005909, -1.42801501, 7.87418641,
                           -6.76523843, 1.20657123, 8.49702124, -4.61078057, 2.62830668, 11.77284258, 0.92596769,
                           0.1150709, -8.31764844, -5.08264518, 1.9809621, -5.66577687, -5.91321761, 1.16915466,
                           -5.63425624, -5.85826437, -1.48990165, -8.26696598, -4.99384695, -2.32929532, -3.49926256,
                           -6.47956853, 2.52781105, -1.27490751, -7.03089613, 1.18478458, -1.24350593, -6.97650981,
                           -1.44679133, -3.43540871, -6.36901955, -2.81856431, -9.87669139, -6.270716, -0.2182029,
                           -2.4529401, 5.84171037, -4.65828828, -2.54030214, 5.62747212, 4.86674397, -7.86022133,
                           5.46728004, -4.05896164, -7.93792687, 5.29540945, 4.15038659, -8.11773431, 0.05695332,
                           -4.83605482, -8.21892915, -0.14041005, 4.69617729, -8.40519945, 8.38335422, 0.10379812,
                           -10.87140543, 6.03249712, 0.03110168, 2.58575005, 7.68646102, -3.90969218, 2.51428061,
                           7.49055311, 4.29570653, 5.92036077, 3.32542665, 4.88460188, 6.00539845, 3.55672913,
                           -4.63769027, 1.57808761, 10.48166831, 0.25357668, 4.86729199, 9.57563912, 0.26070473,
                           10.52462179, 0.60197793, -4.01470426, 10.44833354, 0.39868497, 4.19987852, 8.5531839,
                           -4.43267388, -4.7823677, 7.42214502, -8.39155563, -2.48982755, 7.37512864, -8.50599744,
                           2.1742055, 8.4600204, -4.66543145, 4.68064374, 12.34503276, 2.91199237, 0.16959272,
                           13.42257349, -0.321261, 0.09956022, -8.86591468, -5.52843157, 3.91606055, -8.76902842,
                           -5.35979242, -4.29349555, -3.50574432, -6.49980749, 4.58215122, 0.4449946, -7.48906022,
                           2.20842844, 0.50076797, -7.39238184, -2.44683628, -3.39254972, -6.30418305, -4.87158167,
                           -11.84561594, -5.6407569, -0.22849246, -9.76051103, -8.33473156, -0.2592572, 0.45225115,
                           -0.84580551, -2.67537976, 2.67838443, -1.53842793, -1.2866805, 2.65068104, -1.59445642,
                           1.27425178, 0.39459182, -0.96458424, 2.64450164, -1.86313012, -0.39368286, 1.25325503,
                           -1.83502422, -0.33633346, -1.30877329, 0.51180775, -0.67721548, -5.30584073, 2.77402347,
                           -1.11680357, -6.67834882, 4.65792923, -1.46517081, -7.76197447, -1.67832057, -0.01779464,
                           -6.70601441, -3.49875233, 0.52904962, -7.81566159, 0.39835616, -0.91584254, 5.28048061,
                           2.63210503, -1.41763286, 6.67793308, 4.4946569, -1.81660506, 7.78079614, -1.82246132,
                           -0.32547131, 6.66298535, -3.66775054, 0.16586372, 7.75745803, 4.38153789, -2.03474371,
                           -2.30489896, 4.33176251, -2.13518265, 2.30622176, -3.59287959, 0.00412869, 2.26776584,
                           -3.54227272, 0.1076148, -2.34208877],
              'id': 3,
              'identifiers': {'molecular_formula': 'C54H34N4',
                              'molecule_hash': 'a6e197d77899e18e985cc14db0a8b81cfed912ed'},
              'molecular_charge': 0.0,
              'molecular_multiplicity': 1,
              'name': 'C54H34N4',
              'provenance': {'creator': 'QCElemental',
                             'routine': 'qcelemental.molparse.from_string',
                             'version': '0.29.0'},
              'schema_name': 'qcschema_molecule',
              'schema_version': 2,
              'symbols': ['C', 'C', 'C', 'C', 'C', 'C', 'C', 'C', 'C', 'C', 'C', 'C', 'C', 'C', 'C', 'C', 'C', 'C', 'C',
                          'C', 'C', 'C', 'C', 'C', 'C', 'C', 'C', 'C', 'C', 'C', 'C', 'C', 'C', 'C', 'C', 'C', 'C', 'C',
                          'C', 'C', 'C', 'C', 'H', 'H', 'H', 'H', 'H', 'H', 'H', 'H', 'H', 'H', 'H', 'H', 'H', 'H', 'H',
                          'H', 'H', 'H', 'H', 'H', 'H', 'H', 'H', 'H', 'H', 'H', 'H', 'H', 'H', 'H', 'C', 'C', 'C', 'C',
                          'C', 'C', 'C', 'C', 'N', 'C', 'N', 'C', 'C', 'N', 'C', 'N', 'H', 'H', 'H', 'H'],
              'validated': True},
 'protocols': {},
 'provenance': {'creator': 'QCElemental', 'routine': 'qcelemental.models.results', 'version': '0.29.0'},
 'schema_name': 'qcschema_input',
 'schema_version': 1}
--------------------------------------------------------------------------

Scratch directory: /tmp/tmphnlk0gdk_psi_scratch/
   => Libint2 <=

    Primary   basis highest AM E, G, H:  6, 6, 3
    Auxiliary basis highest AM E, G, H:  7, 7, 4
    Onebody   basis highest AM E, G, H:  -, -, -
    Solid Harmonics ordering:            Gaussian

*** tstart() called on atl1-1-03-004-13-1.pace.gatech.edu
*** at Mon Jun 15 13:41:40 2026

   => Loading Basis Set <=

    Name: AUG-CC-PVTZ
    Role: ORBITAL
    Keyword: BASIS
    atoms 1-42, 73-80, 82, 84-85, 87 entry C          line   239 file /storage/home/hcoda1/5/vlita3/.conda/envs/p4_qcml/share/psi4/basis/aug-cc-pvtz.gbs 
    atoms 43-72, 89-92               entry H          line    40 file /storage/home/hcoda1/5/vlita3/.conda/envs/p4_qcml/share/psi4/basis/aug-cc-pvtz.gbs 
    atoms 81, 83, 86, 88             entry N          line   285 file /storage/home/hcoda1/5/vlita3/.conda/envs/p4_qcml/share/psi4/basis/aug-cc-pvtz.gbs 

   => B2PLYP-D3: Empirical Dispersion <=

    Grimme's -D3 (zero-damping) Dispersion Correction
    Grimme S.; Antony J.; Ehrlich S.; Krieg H. (2010), J. Chem. Phys., 132: 154104
    Parametrisation from:    L. Goerigk, S. Grimme, J. Chem. Theory Comput. 7, 291-309, 2011

        s6 =       0.640000
        s8 =       1.022000
       sr6 =       1.427000
    alpha6 =      14.000000
       sr8 =       1.000000


         ---------------------------------------------------------
                                   SCF
               by Justin Turney, Rob Parrish, Andy Simmonett
                          and Daniel G. A. Smith
                              RKS Reference
                       10 Threads, 256000 MiB Core
         ---------------------------------------------------------

  ==> Geometry <==

    Molecular point group: c1
    Full point group: C1

    Geometry (in Bohr), charge = 0, multiplicity = 1:

       Center              X                  Y                   Z               Mass       
    ------------   -----------------  -----------------  -----------------  -----------------
         C           -0.273927140000     6.188191660000    -1.193235440000    12.000000000000
         C           -2.463446980000     5.778253370000    -2.604496140000    12.000000000000
         C           -4.694060800000     5.397057810000    -1.252349850000    12.000000000000
         C           -4.718967390000     5.339383370000     1.403796280000    12.000000000000
         C           -2.513260160000     5.656384930000     2.812290420000    12.000000000000
         C           -0.297862410000     6.126492100000     1.461281750000    12.000000000000
         C           -7.423694600000     4.946641590000    -2.114376770000    12.000000000000
         C           -8.010208900000     2.219332160000    -1.351811800000    12.000000000000
         C           -8.037250880000     2.163887590000     1.307303080000    12.000000000000
         C           -7.464909520000     4.856010330000     2.194331080000    12.000000000000
         C           -8.212787540000     0.018100990000    -2.784492550000    12.000000000000
         C           -8.416518910000    -2.243086010000    -1.447180610000    12.000000000000
         C           -8.446565550000    -2.297888070000     1.209449290000    12.000000000000
         C           -8.271085590000    -0.094241590000     2.643311110000    12.000000000000
         C           -8.829688630000     6.360307910000     0.057394190000    12.000000000000
         C            2.390276780000     6.993214990000    -1.978486560000    12.000000000000
         C            2.352349980000     6.890527270000     2.330485850000    12.000000000000
         C            4.241471390000     4.875795760000     1.471321860000    12.000000000000
         C            4.265092970000     4.939574020000    -1.183711220000    12.000000000000
         C            5.912953050000     3.355133150000     2.830242820000    12.000000000000
         C            7.668508620000     1.971645750000     1.430964870000    12.000000000000
         C            7.692697110000     2.036312180000    -1.223327440000    12.000000000000
         C            5.961348930000     3.486261240000    -2.584824090000    12.000000000000
         C            2.912143550000     8.901271460000     0.227485230000    12.000000000000
         C            9.879563770000     0.342019640000    -2.076072020000    12.000000000000
         C            9.161222180000    -2.355203460000    -1.321899330000    12.000000000000
         C            9.135484110000    -2.420663580000     1.339127960000    12.000000000000
         C            9.839274810000     0.235539240000     2.239136490000    12.000000000000
         C            8.550028060000    -4.479123350000    -2.729596000000    12.000000000000
         C            7.900737060000    -6.700590900000    -1.428015010000    12.000000000000
         C            7.874186410000    -6.765238430000     1.206571230000    12.000000000000
         C            8.497021240000    -4.610780570000     2.628306680000    12.000000000000
         C           11.772842580000     0.925967690000     0.115070900000    12.000000000000
         C           -8.317648440000    -5.082645180000     1.980962100000    12.000000000000
         C           -5.665776870000    -5.913217610000     1.169154660000    12.000000000000
         C           -5.634256240000    -5.858264370000    -1.489901650000    12.000000000000
         C           -8.266965980000    -4.993846950000    -2.329295320000    12.000000000000
         C           -3.499262560000    -6.479568530000     2.527811050000    12.000000000000
         C           -1.274907510000    -7.030896130000     1.184784580000    12.000000000000
         C           -1.243505930000    -6.976509810000    -1.446791330000    12.000000000000
         C           -3.435408710000    -6.369019550000    -2.818564310000    12.000000000000
         C           -9.876691390000    -6.270716000000    -0.218202900000    12.000000000000
         H           -2.452940100000     5.841710370000    -4.658288280000     1.007825032230
         H           -2.540302140000     5.627472120000     4.866743970000     1.007825032230
         H           -7.860221330000     5.467280040000    -4.058961640000     1.007825032230
         H           -7.937926870000     5.295409450000     4.150386590000     1.007825032230
         H           -8.117734310000     0.056953320000    -4.836054820000     1.007825032230
         H           -8.218929150000    -0.140410050000     4.696177290000     1.007825032230
         H           -8.405199450000     8.383354220000     0.103798120000     1.007825032230
         H          -10.871405430000     6.032497120000     0.031101680000     1.007825032230
         H            2.585750050000     7.686461020000    -3.909692180000     1.007825032230
         H            2.514280610000     7.490553110000     4.295706530000     1.007825032230
         H            5.920360770000     3.325426650000     4.884601880000     1.007825032230
         H            6.005398450000     3.556729130000    -4.637690270000     1.007825032230
         H            1.578087610000    10.481668310000     0.253576680000     1.007825032230
         H            4.867291990000     9.575639120000     0.260704730000     1.007825032230
         H           10.524621790000     0.601977930000    -4.014704260000     1.007825032230
         H           10.448333540000     0.398684970000     4.199878520000     1.007825032230
         H            8.553183900000    -4.432673880000    -4.782367700000     1.007825032230
         H            7.422145020000    -8.391555630000    -2.489827550000     1.007825032230
         H            7.375128640000    -8.505997440000     2.174205500000     1.007825032230
         H            8.460020400000    -4.665431450000     4.680643740000     1.007825032230
         H           12.345032760000     2.911992370000     0.169592720000     1.007825032230
         H           13.422573490000    -0.321261000000     0.099560220000     1.007825032230
         H           -8.865914680000    -5.528431570000     3.916060550000     1.007825032230
         H           -8.769028420000    -5.359792420000    -4.293495550000     1.007825032230
         H           -3.505744320000    -6.499807490000     4.582151220000     1.007825032230
         H            0.444994600000    -7.489060220000     2.208428440000     1.007825032230
         H            0.500767970000    -7.392381840000    -2.446836280000     1.007825032230
         H           -3.392549720000    -6.304183050000    -4.871581670000     1.007825032230
         H          -11.845615940000    -5.640756900000    -0.228492460000     1.007825032230
         H           -9.760511030000    -8.334731560000    -0.259257200000     1.007825032230
         C            0.452251150000    -0.845805510000    -2.675379760000    12.000000000000
         C            2.678384430000    -1.538427930000    -1.286680500000    12.000000000000
         C            2.650681040000    -1.594456420000     1.274251780000    12.000000000000
         C            0.394591820000    -0.964584240000     2.644501640000    12.000000000000
         C           -1.863130120000    -0.393682860000     1.253255030000    12.000000000000
         C           -1.835024220000    -0.336333460000    -1.308773290000    12.000000000000
         C            0.511807750000    -0.677215480000    -5.305840730000    12.000000000000
         C            2.774023470000    -1.116803570000    -6.678348820000    12.000000000000
         N            4.657929230000    -1.465170810000    -7.761974470000    14.003074004430
         C           -1.678320570000    -0.017794640000    -6.706014410000    12.000000000000
         N           -3.498752330000     0.529049620000    -7.815661590000    14.003074004430
         C            0.398356160000    -0.915842540000     5.280480610000    12.000000000000
         C            2.632105030000    -1.417632860000     6.677933080000    12.000000000000
         N            4.494656900000    -1.816605060000     7.780796140000    14.003074004430
         C           -1.822461320000    -0.325471310000     6.662985350000    12.000000000000
         N           -3.667750540000     0.165863720000     7.757458030000    14.003074004430
         H            4.381537890000    -2.034743710000    -2.304898960000     1.007825032230
         H            4.331762510000    -2.135182650000     2.306221760000     1.007825032230
         H           -3.592879590000     0.004128690000     2.267765840000     1.007825032230
         H           -3.542272720000     0.107614800000    -2.342088770000     1.007825032230

  Running in c1 symmetry.

  Rotational constants: A =      0.00267  B =      0.00168  C =      0.00146 [cm^-1]
  Rotational constants: A =     80.12542  B =     50.33918  C =     43.84220 [MHz]
  Nuclear repulsion = 8253.987649209337178

  Charge       = 0
  Multiplicity = 1
  Electrons    = 386
  Nalpha       = 193
  Nbeta        = 193

  ==> Algorithm <==

  SCF Algorithm Type is DF.
  DIIS enabled.
  MOM disabled.
  Fractional occupation disabled.
  Guess Type is SAD.
  Energy threshold   = 1.00e-06
  Density threshold  = 1.00e-06
  Integral threshold = 1.00e-12

  ==> Primary Basis <==

  Basis Set: AUG-CC-PVTZ
    Blend: AUG-CC-PVTZ
    Number of shells: 1118
    Number of basis functions: 3450
    Number of Cartesian functions: 4040
    Spherical Harmonics?: true
    Max angular momentum: 3

  ==> DFT Potential <==

   => LibXC <=

    Version 7.0.0
    S. Lehtola, C. Steigemann, M. J.T. Oliveira, and M. A.L. Marques.,  SoftwareX 7, 1–5 (2018) (10.1016/j.softx.2017.11.002)

   => Composite Functional: B2PLYP-D3ZERO2B <= 

    B2PLYP Double Hybrid Exchange-Correlation Functional

    S. Grimme, J. Chem. Phys., 124, 034108, 2006


    Deriv               =              1
    GGA                 =           TRUE
    Meta                =          FALSE

    Exchange Hybrid     =           TRUE
    MP2 Hybrid          =           TRUE

   => Exchange Functionals <=

    0.4700     XC_GGA_X_B88

   => Exact (HF) Exchange <=

    0.5300               HF 

   => Correlation Functionals <=

    0.7300     XC_GGA_C_LYP

   => MP2 Correlation <=

    0.2700       MP2 

   => LibXC Density Thresholds  <==

    XC_GGA_C_LYP:  1.00E-14 
    XC_GGA_X_B88:  1.00E-15 

   => Molecular Quadrature <=

    Radial Scheme          =       TREUTLER
    Pruning Scheme         =           NONE
    Nuclear Scheme         =       TREUTLER

    Blocking Scheme        =         OCTREE
    BS radius alpha        =              1
    Pruning alpha          =              1
    Radial Points          =             75
    Spherical Points       =            302
    Total Points           =        1810751
    Total Blocks           =          12182
    Max Points             =            256
    Max Functions          =           2258
    Weights Tolerance      =       1.00E-15

   => Loading Basis Set <=

    Name: (AUG-CC-PVTZ AUX)
    Role: JKFIT
    Keyword: DF_BASIS_SCF
    atoms 1-42, 73-80, 82, 84-85, 87 entry C          line   162 file /storage/home/hcoda1/5/vlita3/.conda/envs/p4_qcml/share/psi4/basis/aug-cc-pvtz-jkfit.gbs 
    atoms 43-72, 89-92               entry H          line    70 file /storage/home/hcoda1/5/vlita3/.conda/envs/p4_qcml/share/psi4/basis/aug-cc-pvtz-jkfit.gbs 
    atoms 81, 83, 86, 88             entry N          line   224 file /storage/home/hcoda1/5/vlita3/.conda/envs/p4_qcml/share/psi4/basis/aug-cc-pvtz-jkfit.gbs 

  ==> Integral Setup <==

  ==> DiskDFJK: Density-Fitted J/K Matrices <==

    J tasked:                  Yes
    K tasked:                  Yes
    wK tasked:                  No
    OpenMP threads:             10
    Integrals threads:          10
    Memory [MiB]:           172800
    Algorithm:                Disk
    Integral Cache:           NONE
    Schwarz Cutoff:          1E-12
    Fitting Condition:       1E-10

   => Auxiliary Basis Set <=

  Basis Set: (AUG-CC-PVTZ AUX)
    Blend: AUG-CC-PVTZ-JKFIT
    Number of shells: 2216
    Number of basis functions: 7596
    Number of Cartesian functions: 9468
    Spherical Harmonics?: true
    Max angular momentum: 4

  Minimum eigenvalue in the overlap matrix is 3.2999283483E-10.
  Reciprocal condition number of the overlap matrix is 8.9829939844E-12.
    Using canonical orthogonalization.
  Overall, 31 of 3450 possible MOs eliminated.


  ==> Pre-Iterations <==

  SCF Guess: Superposition of Atomic Densities via on-the-fly atomic UHF (no occupation information).

   -------------------------
    Irrep   Nso     Nmo    
   -------------------------
     A       3450    3419 
   -------------------------
    Total    3450    3419
   -------------------------

  ==> Iterations <==

                           Total Energy        Delta E     RMS |[F,P]|

   @DF-RKS iter SAD: -2294.43122249192857   -2.29443e+03   0.00000e+00 
   @DF-RKS iter   1: -2290.74360945733315    3.68761e+00   5.96901e-04 ADIIS/DIIS
   @DF-RKS iter   2: -2290.85133272095800   -1.07723e-01   5.96936e-04 ADIIS/DIIS
   @DF-RKS iter   3: -2292.79760066472772   -1.94627e+00   1.40926e-04 ADIIS/DIIS
   @DF-RKS iter   4: -2292.89726484339462   -9.96642e-02   4.80789e-05 DIIS
   @DF-RKS iter   5: -2292.90781282170065   -1.05480e-02   2.14249e-05 DIIS
   @DF-RKS iter   6: -2292.90991006454533   -2.09724e-03   7.23617e-06 DIIS
   @DF-RKS iter   7: -2292.91018829804625   -2.78234e-04   1.98562e-06 DIIS
   @DF-RKS iter   8: -2292.91021239056499   -2.40925e-05   5.49949e-07 DIIS
   @DF-RKS iter   9: -2292.91021496839903   -2.57783e-06   3.10009e-07 DIIS
   @DF-RKS iter  10: -2292.91021570252587   -7.34127e-07   1.38970e-07 DIIS
  Energy and wave function converged.


  ==> Post-Iterations <==

   Electrons on quadrature grid:
      Ntotal   =  385.9994062282 ; deviation = -5.938e-04 

    Orbital Energies [Eh]
    ---------------------

    Doubly Occupied:                                                      

       1A    -14.873134     2A    -14.873126     3A    -14.872892  
       4A    -14.872875     5A    -10.721305     6A    -10.721247  
       7A    -10.707546     8A    -10.707521     9A    -10.690933  
      10A    -10.690927    11A    -10.690686    12A    -10.690668  
      13A    -10.663195    14A    -10.662073    15A    -10.661690  
      16A    -10.660575    17A    -10.644185    18A    -10.644152  
      19A    -10.643058    20A    -10.643021    21A    -10.642378  
      22A    -10.642319    23A    -10.640768    24A    -10.640758  
      25A    -10.632757    26A    -10.632596    27A    -10.632445  
      28A    -10.631980    29A    -10.631962    30A    -10.631944  
      31A    -10.631797    32A    -10.631790    33A    -10.631141  
      34A    -10.631126    35A    -10.630956    36A    -10.630618  
      37A    -10.630485    38A    -10.630473    39A    -10.630278  
      40A    -10.630266    41A    -10.630231    42A    -10.629820  
      43A    -10.629674    44A    -10.629626    45A    -10.629495  
      46A    -10.629160    47A    -10.628900    48A    -10.628664  
      49A    -10.628610    50A    -10.628125    51A    -10.628116  
      52A    -10.627758    53A    -10.627497    54A    -10.627256  
      55A    -10.627250    56A    -10.626762    57A    -10.626513  
      58A    -10.626440    59A     -1.078516    60A     -1.075065  
      61A     -1.058987    62A     -1.058944    63A     -1.049721  
      64A     -1.045527    65A     -1.038593    66A     -1.037622  
      67A     -1.028501    68A     -0.991470    69A     -0.981595  
      70A     -0.974320    71A     -0.957552    72A     -0.937081  
      73A     -0.935208    74A     -0.915873    75A     -0.911166  
      76A     -0.895700    77A     -0.891244    78A     -0.882688  
      79A     -0.872064    80A     -0.864671    81A     -0.854645  
      82A     -0.851533    83A     -0.846670    84A     -0.831162  
      85A     -0.828428    86A     -0.813992    87A     -0.813056  
      88A     -0.802766    89A     -0.794324    90A     -0.776326  
      91A     -0.766069    92A     -0.753024    93A     -0.734245  
      94A     -0.728662    95A     -0.719636    96A     -0.709653  
      97A     -0.707903    98A     -0.705396    99A     -0.682800  
     100A     -0.681137   101A     -0.678369   102A     -0.675853  
     103A     -0.667578   104A     -0.667300   105A     -0.659212  
     106A     -0.656782   107A     -0.654474   108A     -0.630555  
     109A     -0.628676   110A     -0.609284   111A     -0.607457  
     112A     -0.602750   113A     -0.597205   114A     -0.590547  
     115A     -0.582842   116A     -0.571418   117A     -0.567663  
     118A     -0.558061   119A     -0.552658   120A     -0.552171  
     121A     -0.544832   122A     -0.538041   123A     -0.536553  
     124A     -0.531140   125A     -0.529556   126A     -0.528499  
     127A     -0.527867   128A     -0.525907   129A     -0.522008  
     130A     -0.505963   131A     -0.502429   132A     -0.500362  
     133A     -0.500155   134A     -0.491272   135A     -0.491194  
     136A     -0.491014   137A     -0.487501   138A     -0.483423  
     139A     -0.482367   140A     -0.482146   141A     -0.480145  
     142A     -0.478910   143A     -0.478486   144A     -0.476003  
     145A     -0.475025   146A     -0.472993   147A     -0.467279  
     148A     -0.462719   149A     -0.458411   150A     -0.455387  
     151A     -0.449131   152A     -0.448376   153A     -0.448108  
     154A     -0.441656   155A     -0.438647   156A     -0.430946  
     157A     -0.429784   158A     -0.427198   159A     -0.425589  
     160A     -0.425103   161A     -0.423445   162A     -0.421514  
     163A     -0.417796   164A     -0.416901   165A     -0.414769  
     166A     -0.413590   167A     -0.412398   168A     -0.409989  
     169A     -0.405507   170A     -0.405215   171A     -0.402940  
     172A     -0.399890   173A     -0.398748   174A     -0.396301  
     175A     -0.393058   176A     -0.391932   177A     -0.389847  
     178A     -0.386856   179A     -0.381782   180A     -0.377368  
     181A     -0.370825   182A     -0.335521   183A     -0.301724  
     184A     -0.297181   185A     -0.295962   186A     -0.294675  
     187A     -0.292238   188A     -0.291445   189A     -0.289862  
     190A     -0.281884   191A     -0.275998   192A     -0.261245  
     193A     -0.245059  

    Virtual:                                                              

     194A     -0.122202   195A      0.004501   196A      0.006523  
     197A      0.007383   198A      0.008680   199A      0.010102  
     200A      0.010244   201A      0.012538   202A      0.014071  
     203A      0.015468   204A      0.016967   205A      0.018866  
     206A      0.021583   207A      0.022001   208A      0.023857  
     209A      0.026414   210A      0.027681   211A      0.027996  
     212A      0.030903   213A      0.032436   214A      0.032584  
     215A      0.035070   216A      0.035288   217A      0.035886  
     218A      0.039224   219A      0.039895   220A      0.041819  
     221A      0.043086   222A      0.044241   223A      0.045920  
     224A      0.046638   225A      0.048793   226A      0.049748  
     227A      0.051648   228A      0.052243   229A      0.054483  
     230A      0.057701   231A      0.057998   232A      0.060515  
     233A      0.061612   234A      0.063705   235A      0.064823  
     236A      0.065327   237A      0.066516   238A      0.069704  
     239A      0.069759   240A      0.072660   241A      0.072795  
     242A      0.073139   243A      0.074054   244A      0.075827  
     245A      0.076864   246A      0.078657   247A      0.078887  
     248A      0.079927   249A      0.080229   250A      0.081177  
     251A      0.082876   252A      0.083159   253A      0.085688  
     254A      0.086353   255A      0.088952   256A      0.089376  
     257A      0.091261   258A      0.092126   259A      0.092711  
     260A      0.093349   261A      0.093596   262A      0.094841  
     263A      0.097131   264A      0.098396   265A      0.098627  
     266A      0.102153   267A      0.102595   268A      0.103977  
     269A      0.105636   270A      0.106694   271A      0.107479  
     272A      0.108621   273A      0.109002   274A      0.110884  
     275A      0.111971   276A      0.112356   277A      0.113834  
     278A      0.114640   279A      0.116801   280A      0.117875  
     281A      0.118218   282A      0.118299   283A      0.119965  
     284A      0.124128   285A      0.124424   286A      0.125056  
     287A      0.125210   288A      0.127326   289A      0.129095  
     290A      0.134220   291A      0.135020   292A      0.135421  
     293A      0.135652   294A      0.136249   295A      0.136874  
     296A      0.137933   297A      0.138414   298A      0.140027  
     299A      0.143052   300A      0.143312   301A      0.143761  
     302A      0.144443   303A      0.145192   304A      0.147210  
     305A      0.148713   306A      0.148997   307A      0.150021  
     308A      0.153294   309A      0.154699   310A      0.155339  
     311A      0.157479   312A      0.159203   313A      0.160687  
     314A      0.161558   315A      0.163864   316A      0.165426  
     317A      0.166053   318A      0.166923   319A      0.167241  
     320A      0.168691   321A      0.171185   322A      0.173932  
     323A      0.174022   324A      0.174452   325A      0.175932  
     326A      0.177162   327A      0.178277   328A      0.178637  
     329A      0.180358   330A      0.181650   331A      0.182046  
     332A      0.183200   333A      0.184010   334A      0.184921  
     335A      0.185960   336A      0.188536   337A      0.189659  
     338A      0.190040   339A      0.191857   340A      0.192103  
     341A      0.193405   342A      0.195023   343A      0.195646  
     344A      0.196898   345A      0.197163   346A      0.200328  
     347A      0.200886   348A      0.203131   349A      0.203481  
     350A      0.203595   351A      0.204218   352A      0.205174  
     353A      0.206697   354A      0.207096   355A      0.207540  
     356A      0.208146   357A      0.208576   358A      0.209769  
     359A      0.211019   360A      0.212197   361A      0.212291  
     362A      0.213583   363A      0.214456   364A      0.216163  
     365A      0.216223   366A      0.216650   367A      0.217487  
     368A      0.218698   369A      0.219792   370A      0.220311  
     371A      0.221660   372A      0.221791   373A      0.222750  
     374A      0.222827   375A      0.224083   376A      0.225462  
     377A      0.226556   378A      0.227163   379A      0.228632  
     380A      0.229994   381A      0.230919   382A      0.231847  
     383A      0.232094   384A      0.233728   385A      0.234749  
     386A      0.235121   387A      0.235753   388A      0.236203  
     389A      0.237963   390A      0.239045   391A      0.239359  
     392A      0.239730   393A      0.240491   394A      0.240649  
     395A      0.241965   396A      0.242640   397A      0.242854  
     398A      0.244347   399A      0.245603   400A      0.246431  
     401A      0.246625   402A      0.248172   403A      0.248284  
     404A      0.249566   405A      0.250075   406A      0.250253  
     407A      0.251314   408A      0.251548   409A      0.252142  
     410A      0.253500   411A      0.253933   412A      0.255231  
     413A      0.256260   414A      0.256640   415A      0.258522  
     416A      0.258588   417A      0.260123   418A      0.260991  
     419A      0.261048   420A      0.263173   421A      0.263524  
     422A      0.265235   423A      0.265467   424A      0.266082  
     425A      0.267718   426A      0.267946   427A      0.268953  
     428A      0.269075   429A      0.270250   430A      0.271383  
     431A      0.272405   432A      0.274548   433A      0.274983  
     434A      0.276942   435A      0.277813   436A      0.278639  
     437A      0.281213   438A      0.281778   439A      0.282315  
     440A      0.282961   441A      0.283511   442A      0.285858  
     443A      0.287923   444A      0.288857   445A      0.289665  
     446A      0.290947   447A      0.291869   448A      0.293865  
     449A      0.294051   450A      0.296054   451A      0.298595  
     452A      0.299255   453A      0.299305   454A      0.300208  
     455A      0.300344   456A      0.301451   457A      0.302360  
     458A      0.302807   459A      0.305091   460A      0.305390  
     461A      0.307078   462A      0.309144   463A      0.309635  
     464A      0.310352   465A      0.310772   466A      0.311621  
     467A      0.311804   468A      0.312690   469A      0.313728  
     470A      0.315292   471A      0.316852   472A      0.317061  
     473A      0.318624   474A      0.320238   475A      0.321630  
     476A      0.321798   477A      0.322461   478A      0.323633  
     479A      0.324360   480A      0.325683   481A      0.327840  
     482A      0.328634   483A      0.329862   484A      0.332401  
     485A      0.332806   486A      0.334278   487A      0.335318  
     488A      0.337671   489A      0.339144   490A      0.340223  
     491A      0.340549   492A      0.341448   493A      0.343544  
     494A      0.344316   495A      0.346442   496A      0.348346  
     497A      0.348953   498A      0.350717   499A      0.350845  
     500A      0.353830   501A      0.353865   502A      0.354933  
     503A      0.356100   504A      0.357719   505A      0.357896  
     506A      0.359970   507A      0.361274   508A      0.364923  
     509A      0.366164   510A      0.366566   511A      0.367175  
     512A      0.368221   513A      0.368459   514A      0.370108  
     515A      0.370283   516A      0.372525   517A      0.373357  
     518A      0.374539   519A      0.375716   520A      0.376637  
     521A      0.377230   522A      0.378865   523A      0.380477  
     524A      0.380597   525A      0.381770   526A      0.382476  
     527A      0.385385   528A      0.385438   529A      0.387397  
     530A      0.390113   531A      0.390575   532A      0.391187  
     533A      0.393096   534A      0.393295   535A      0.395122  
     536A      0.395494   537A      0.397040   538A      0.400338  
     539A      0.401664   540A      0.403004   541A      0.403259  
     542A      0.406078   543A      0.406763   544A      0.408589  
     545A      0.410205   546A      0.411349   547A      0.411817  
     548A      0.413855   549A      0.414221   550A      0.416015  
     551A      0.416148   552A      0.418833   553A      0.420692  
     554A      0.422206   555A      0.423592   556A      0.423795  
     557A      0.425429   558A      0.427163   559A      0.427281  
     560A      0.428508   561A      0.429345   562A      0.430674  
     563A      0.432243   564A      0.432536   565A      0.434457  
     566A      0.435003   567A      0.435963   568A      0.436379  
     569A      0.439045   570A      0.439227   571A      0.440127  
     572A      0.440756   573A      0.444287   574A      0.446105  
     575A      0.447020   576A      0.447875   577A      0.449663  
     578A      0.449872   579A      0.451034   580A      0.451475  
     581A      0.453763   582A      0.454148   583A      0.455273  
     584A      0.456654   585A      0.457836   586A      0.458884  
     587A      0.459163   588A      0.460105   589A      0.462491  
     590A      0.463495   591A      0.463962   592A      0.465609  
     593A      0.465791   594A      0.467050   595A      0.467221  
     596A      0.469432   597A      0.469622   598A      0.469813  
     599A      0.470860   600A      0.471537   601A      0.473539  
     602A      0.473962   603A      0.474974   604A      0.476394  
     605A      0.476885   606A      0.478212   607A      0.478549  
     608A      0.479095   609A      0.480528   610A      0.481235  
     611A      0.482274   612A      0.482811   613A      0.483771  
     614A      0.486405   615A      0.486601   616A      0.487791  
     617A      0.488065   618A      0.488374   619A      0.489668  
     620A      0.489896   621A      0.490729   622A      0.492711  
     623A      0.493846   624A      0.495900   625A      0.497102  
     626A      0.499428   627A      0.499609   628A      0.502265  
     629A      0.503054   630A      0.504072   631A      0.504876  
     632A      0.505051   633A      0.506023   634A      0.507159  
     635A      0.508702   636A      0.509583   637A      0.510317  
     638A      0.511338   639A      0.512954   640A      0.513368  
     641A      0.514629   642A      0.514736   643A      0.516390  
     644A      0.516458   645A      0.518358   646A      0.518472  
     647A      0.519741   648A      0.521915   649A      0.522280  
     650A      0.523464   651A      0.523775   652A      0.524162  
     653A      0.525926   654A      0.526389   655A      0.526757  
     656A      0.527526   657A      0.528464   658A      0.529849  
     659A      0.530547   660A      0.531877   661A      0.533522  
     662A      0.534101   663A      0.534857   664A      0.535300  
     665A      0.537245   666A      0.538208   667A      0.539460  
     668A      0.540322   669A      0.540890   670A      0.542575  
     671A      0.544640   672A      0.544850   673A      0.547473  
     674A      0.547666   675A      0.548837   676A      0.549313  
     677A      0.550432   678A      0.551226   679A      0.551587  
     680A      0.554749   681A      0.555945   682A      0.557297  
     683A      0.557745   684A      0.557866   685A      0.559609  
     686A      0.560941   687A      0.561758   688A      0.563986  
     689A      0.564189   690A      0.564661   691A      0.567891  
     692A      0.570967   693A      0.571291   694A      0.571906  
     695A      0.572753   696A      0.574111   697A      0.574586  
     698A      0.576233   699A      0.576702   700A      0.577944  
     701A      0.578776   702A      0.579356   703A      0.582494  
     704A      0.584179   705A      0.584340   706A      0.586335  
     707A      0.586697   708A      0.588500   709A      0.590383  
     710A      0.590684   711A      0.591074   712A      0.592687  
     713A      0.594602   714A      0.596549   715A      0.597625  
     716A      0.598090   717A      0.600621   718A      0.601340  
     719A      0.605095   720A      0.605361   721A      0.606607  
     722A      0.607669   723A      0.609210   724A      0.609844  
     725A      0.611635   726A      0.615506   727A      0.615589  
     728A      0.615805   729A      0.616374   730A      0.617048  
     731A      0.620101   732A      0.620519   733A      0.624124  
     734A      0.624698   735A      0.625968   736A      0.626144  
     737A      0.628292   738A      0.629235   739A      0.630246  
     740A      0.631814   741A      0.632039   742A      0.632693  
     743A      0.633611   744A      0.636543   745A      0.636774  
     746A      0.637106   747A      0.638138   748A      0.640651  
     749A      0.643079   750A      0.643184   751A      0.645561  
     752A      0.645797   753A      0.647884   754A      0.648835  
     755A      0.650005   756A      0.650920   757A      0.652783  
     758A      0.653658   759A      0.654119   760A      0.654358  
     761A      0.655972   762A      0.656189   763A      0.658911  
     764A      0.659638   765A      0.661123   766A      0.663269  
     767A      0.664553   768A      0.666607   769A      0.667425  
     770A      0.667787   771A      0.670391   772A      0.672401  
     773A      0.672938   774A      0.674507   775A      0.674754  
     776A      0.676062   777A      0.678311   778A      0.680007  
     779A      0.682282   780A      0.684791   781A      0.685077  
     782A      0.687123   783A      0.688244   784A      0.688318  
     785A      0.689218   786A      0.692392   787A      0.692914  
     788A      0.694924   789A      0.695302   790A      0.696535  
     791A      0.698951   792A      0.699268   793A      0.700891  
     794A      0.703116   795A      0.704234   796A      0.705439  
     797A      0.707540   798A      0.708312   799A      0.709997  
     800A      0.712293   801A      0.713502   802A      0.714487  
     803A      0.714771   804A      0.716245   805A      0.716959  
     806A      0.720395   807A      0.721906   808A      0.722112  
     809A      0.724165   810A      0.726151   811A      0.727624  
     812A      0.728863   813A      0.729468   814A      0.730003  
     815A      0.731519   816A      0.735120   817A      0.735231  
     818A      0.736646   819A      0.739738   820A      0.741345  
     821A      0.742066   822A      0.742890   823A      0.743472  
     824A      0.744462   825A      0.746669   826A      0.748386  
     827A      0.748798   828A      0.748880   829A      0.751006  
     830A      0.751850   831A      0.754287   832A      0.755300  
     833A      0.755390   834A      0.757976   835A      0.759152  
     836A      0.759357   837A      0.759819   838A      0.762860  
     839A      0.764837   840A      0.767284   841A      0.768333  
     842A      0.770243   843A      0.770793   844A      0.772632  
     845A      0.774614   846A      0.775262   847A      0.776097  
     848A      0.777007   849A      0.778708   850A      0.780487  
     851A      0.782715   852A      0.784028   853A      0.784953  
     854A      0.786619   855A      0.789703   856A      0.789870  
     857A      0.790548   858A      0.793071   859A      0.794494  
     860A      0.795675   861A      0.796847   862A      0.798300  
     863A      0.799586   864A      0.800353   865A      0.800780  
     866A      0.803663   867A      0.804655   868A      0.805120  
     869A      0.806212   870A      0.806752   871A      0.807667  
     872A      0.809852   873A      0.811180   874A      0.813375  
     875A      0.813749   876A      0.814437   877A      0.817120  
     878A      0.818254   879A      0.819972   880A      0.820768  
     881A      0.821286   882A      0.823172   883A      0.825552  
     884A      0.825942   885A      0.827089   886A      0.828853  
     887A      0.831828   888A      0.833101   889A      0.834022  
     890A      0.835645   891A      0.836618   892A      0.837212  
     893A      0.838276   894A      0.840270   895A      0.840924  
     896A      0.842421   897A      0.843113   898A      0.844882  
     899A      0.846185   900A      0.848135   901A      0.848762  
     902A      0.850081   903A      0.850085   904A      0.851771  
     905A      0.852184   906A      0.855391   907A      0.855565  
     908A      0.858127   909A      0.859697   910A      0.861122  
     911A      0.861995   912A      0.862687   913A      0.863393  
     914A      0.864263   915A      0.864877   916A      0.866115  
     917A      0.866788   918A      0.867804   919A      0.869217  
     920A      0.869420   921A      0.871995   922A      0.872650  
     923A      0.875127   924A      0.876157   925A      0.876498  
     926A      0.878476   927A      0.878898   928A      0.880571  
     929A      0.880951   930A      0.883384   931A      0.883589  
     932A      0.884032   933A      0.885735   934A      0.885922  
     935A      0.886034   936A      0.887564   937A      0.889072  
     938A      0.891679   939A      0.892718   940A      0.894439  
     941A      0.895752   942A      0.896268   943A      0.897406  
     944A      0.899603   945A      0.900799   946A      0.901726  
     947A      0.902853   948A      0.903908   949A      0.904535  
     950A      0.905742   951A      0.906061   952A      0.907824  
     953A      0.908579   954A      0.909928   955A      0.910868  
     956A      0.912723   957A      0.912867   958A      0.913373  
     959A      0.914126   960A      0.915789   961A      0.917344  
     962A      0.917973   963A      0.921681   964A      0.922387  
     965A      0.922644   966A      0.924680   967A      0.925626  
     968A      0.926651   969A      0.927540   970A      0.928244  
     971A      0.931046   972A      0.931715   973A      0.933074  
     974A      0.933491   975A      0.934986   976A      0.935265  
     977A      0.937188   978A      0.939022   979A      0.940171  
     980A      0.941044   981A      0.942151   982A      0.943621  
     983A      0.944972   984A      0.945807   985A      0.948293  
     986A      0.949530   987A      0.950541   988A      0.951516  
     989A      0.951887   990A      0.953180   991A      0.956145  
     992A      0.957129   993A      0.957927   994A      0.959786  
     995A      0.960212   996A      0.961001   997A      0.964555  
     998A      0.964909   999A      0.967126  1000A      0.968336  
    1001A      0.968545  1002A      0.968998  1003A      0.969856  
    1004A      0.972187  1005A      0.973476  1006A      0.974051  
    1007A      0.974965  1008A      0.976531  1009A      0.977762  
    1010A      0.979383  1011A      0.980965  1012A      0.983438  
    1013A      0.984475  1014A      0.987031  1015A      0.987284  
    1016A      0.989986  1017A      0.990700  1018A      0.991325  
    1019A      0.992496  1020A      0.992920  1021A      0.993287  
    1022A      0.993743  1023A      0.995700  1024A      0.997584  
    1025A      0.998965  1026A      0.999650  1027A      1.000821  
    1028A      1.002124  1029A      1.003843  1030A      1.006196  
    1031A      1.008537  1032A      1.009409  1033A      1.012519  
    1034A      1.013224  1035A      1.015837  1036A      1.015939  
    1037A      1.017548  1038A      1.018118  1039A      1.018578  
    1040A      1.022018  1041A      1.023045  1042A      1.023761  
    1043A      1.024164  1044A      1.025670  1045A      1.026219  
    1046A      1.029737  1047A      1.030037  1048A      1.031016  
    1049A      1.032971  1050A      1.033200  1051A      1.035029  
    1052A      1.035721  1053A      1.038221  1054A      1.038840  
    1055A      1.040165  1056A      1.040827  1057A      1.042246  
    1058A      1.043975  1059A      1.046179  1060A      1.048971  
    1061A      1.049981  1062A      1.051179  1063A      1.053957  
    1064A      1.054408  1065A      1.054655  1066A      1.058598  
    1067A      1.058916  1068A      1.059303  1069A      1.060670  
    1070A      1.061748  1071A      1.062685  1072A      1.064530  
    1073A      1.066395  1074A      1.067010  1075A      1.067334  
    1076A      1.068412  1077A      1.070893  1078A      1.072779  
    1079A      1.073035  1080A      1.075816  1081A      1.076370  
    1082A      1.076731  1083A      1.080484  1084A      1.082342  
    1085A      1.084827  1086A      1.085734  1087A      1.086005  
    1088A      1.087327  1089A      1.088917  1090A      1.089479  
    1091A      1.090540  1092A      1.091782  1093A      1.093575  
    1094A      1.093907  1095A      1.097490  1096A      1.098162  
    1097A      1.099812  1098A      1.100478  1099A      1.102547  
    1100A      1.105482  1101A      1.107115  1102A      1.108564  
    1103A      1.109365  1104A      1.109621  1105A      1.110285  
    1106A      1.112099  1107A      1.112642  1108A      1.114329  
    1109A      1.114935  1110A      1.117922  1111A      1.118856  
    1112A      1.120625  1113A      1.122683  1114A      1.123221  
    1115A      1.125593  1116A      1.126187  1117A      1.126503  
    1118A      1.130467  1119A      1.130687  1120A      1.131801  
    1121A      1.132745  1122A      1.133895  1123A      1.136027  
    1124A      1.136847  1125A      1.139039  1126A      1.142681  
    1127A      1.143897  1128A      1.145239  1129A      1.147691  
    1130A      1.148238  1131A      1.149711  1132A      1.150211  
    1133A      1.151944  1134A      1.153091  1135A      1.154092  
    1136A      1.154269  1137A      1.156974  1138A      1.157409  
    1139A      1.161140  1140A      1.162142  1141A      1.162977  
    1142A      1.163720  1143A      1.167143  1144A      1.168335  
    1145A      1.168704  1146A      1.171425  1147A      1.172288  
    1148A      1.174796  1149A      1.177480  1150A      1.177638  
    1151A      1.180500  1152A      1.182272  1153A      1.183798  
    1154A      1.184807  1155A      1.185808  1156A      1.186729  
    1157A      1.189817  1158A      1.191799  1159A      1.193869  
    1160A      1.194739  1161A      1.195268  1162A      1.196300  
    1163A      1.196690  1164A      1.199520  1165A      1.201041  
    1166A      1.203681  1167A      1.205226  1168A      1.205655  
    1169A      1.207236  1170A      1.209425  1171A      1.209790  
    1172A      1.210810  1173A      1.212811  1174A      1.215519  
    1175A      1.216094  1176A      1.217297  1177A      1.218375  
    1178A      1.219476  1179A      1.220543  1180A      1.223222  
    1181A      1.223513  1182A      1.224795  1183A      1.228510  
    1184A      1.230298  1185A      1.230558  1186A      1.232409  
    1187A      1.233618  1188A      1.234586  1189A      1.237390  
    1190A      1.239082  1191A      1.240667  1192A      1.243570  
    1193A      1.244777  1194A      1.244804  1195A      1.247119  
    1196A      1.248259  1197A      1.250671  1198A      1.251623  
    1199A      1.255300  1200A      1.255737  1201A      1.256633  
    1202A      1.258789  1203A      1.259284  1204A      1.259966  
    1205A      1.261823  1206A      1.262401  1207A      1.264461  
    1208A      1.266082  1209A      1.269601  1210A      1.271240  
    1211A      1.271671  1212A      1.272251  1213A      1.274577  
    1214A      1.276585  1215A      1.276800  1216A      1.279341  
    1217A      1.279433  1218A      1.281880  1219A      1.282568  
    1220A      1.285097  1221A      1.285939  1222A      1.287522  
    1223A      1.287914  1224A      1.288335  1225A      1.290518  
    1226A      1.291493  1227A      1.292280  1228A      1.292539  
    1229A      1.296128  1230A      1.296721  1231A      1.299522  
    1232A      1.300623  1233A      1.304880  1234A      1.305455  
    1235A      1.308367  1236A      1.309611  1237A      1.309926  
    1238A      1.311983  1239A      1.312692  1240A      1.316225  
    1241A      1.316775  1242A      1.318632  1243A      1.319513  
    1244A      1.321474  1245A      1.322490  1246A      1.323464  
    1247A      1.325273  1248A      1.327451  1249A      1.328425  
    1250A      1.330745  1251A      1.331031  1252A      1.333270  
    1253A      1.335016  1254A      1.335042  1255A      1.335617  
    1256A      1.337302  1257A      1.339111  1258A      1.339959  
    1259A      1.342898  1260A      1.343274  1261A      1.345649  
    1262A      1.346904  1263A      1.347382  1264A      1.349249  
    1265A      1.350299  1266A      1.350852  1267A      1.351159  
    1268A      1.353801  1269A      1.354988  1270A      1.356355  
    1271A      1.356923  1272A      1.359367  1273A      1.361440  
    1274A      1.362260  1275A      1.364167  1276A      1.367083  
    1277A      1.367471  1278A      1.368400  1279A      1.371259  
    1280A      1.373490  1281A      1.374585  1282A      1.375607  
    1283A      1.376475  1284A      1.378646  1285A      1.378964  
    1286A      1.381147  1287A      1.382692  1288A      1.382789  
    1289A      1.386558  1290A      1.386990  1291A      1.389274  
    1292A      1.390930  1293A      1.391635  1294A      1.394539  
    1295A      1.395728  1296A      1.396767  1297A      1.397875  
    1298A      1.399244  1299A      1.401953  1300A      1.402543  
    1301A      1.403607  1302A      1.405932  1303A      1.407999  
    1304A      1.409608  1305A      1.411035  1306A      1.412320  
    1307A      1.414259  1308A      1.416166  1309A      1.416690  
    1310A      1.419401  1311A      1.419888  1312A      1.421322  
    1313A      1.423685  1314A      1.424513  1315A      1.428470  
    1316A      1.428932  1317A      1.429583  1318A      1.431869  
    1319A      1.432576  1320A      1.433095  1321A      1.434499  
    1322A      1.435762  1323A      1.438793  1324A      1.439909  
    1325A      1.440934  1326A      1.442945  1327A      1.443338  
    1328A      1.446096  1329A      1.447148  1330A      1.447659  
    1331A      1.448102  1332A      1.449379  1333A      1.450416  
    1334A      1.451976  1335A      1.452954  1336A      1.454889  
    1337A      1.455572  1338A      1.457678  1339A      1.459313  
    1340A      1.460085  1341A      1.463487  1342A      1.464695  
    1343A      1.465506  1344A      1.466763  1345A      1.466974  
    1346A      1.469235  1347A      1.469485  1348A      1.473307  
    1349A      1.474390  1350A      1.475847  1351A      1.478849  
    1352A      1.479687  1353A      1.482168  1354A      1.482855  
    1355A      1.484916  1356A      1.485828  1357A      1.486605  
    1358A      1.488740  1359A      1.489807  1360A      1.490591  
    1361A      1.492393  1362A      1.493038  1363A      1.495362  
    1364A      1.498473  1365A      1.498804  1366A      1.500534  
    1367A      1.500852  1368A      1.502622  1369A      1.503282  
    1370A      1.506127  1371A      1.506835  1372A      1.507399  
    1373A      1.507866  1374A      1.511061  1375A      1.512055  
    1376A      1.515712  1377A      1.517862  1378A      1.519069  
    1379A      1.521130  1380A      1.521436  1381A      1.522869  
    1382A      1.525527  1383A      1.526693  1384A      1.530389  
    1385A      1.530582  1386A      1.531940  1387A      1.532379  
    1388A      1.534414  1389A      1.535292  1390A      1.537607  
    1391A      1.540006  1392A      1.540543  1393A      1.541875  
    1394A      1.542906  1395A      1.543525  1396A      1.544686  
    1397A      1.547439  1398A      1.549291  1399A      1.549783  
    1400A      1.552867  1401A      1.553541  1402A      1.555447  
    1403A      1.556103  1404A      1.557379  1405A      1.560183  
    1406A      1.561709  1407A      1.562408  1408A      1.562937  
    1409A      1.563563  1410A      1.565382  1411A      1.568940  
    1412A      1.569306  1413A      1.570026  1414A      1.571065  
    1415A      1.571438  1416A      1.574046  1417A      1.574739  
    1418A      1.576788  1419A      1.577918  1420A      1.579474  
    1421A      1.580581  1422A      1.580864  1423A      1.583432  
    1424A      1.584668  1425A      1.586539  1426A      1.587629  
    1427A      1.589129  1428A      1.591087  1429A      1.593797  
    1430A      1.595631  1431A      1.596347  1432A      1.597209  
    1433A      1.598030  1434A      1.598981  1435A      1.599747  
    1436A      1.601422  1437A      1.601933  1438A      1.602626  
    1439A      1.603472  1440A      1.605152  1441A      1.607646  
    1442A      1.611412  1443A      1.613213  1444A      1.615229  
    1445A      1.616140  1446A      1.618818  1447A      1.620595  
    1448A      1.621128  1449A      1.621797  1450A      1.622146  
    1451A      1.623349  1452A      1.623705  1453A      1.627278  
    1454A      1.628613  1455A      1.629726  1456A      1.632620  
    1457A      1.633259  1458A      1.634203  1459A      1.637147  
    1460A      1.637243  1461A      1.638458  1462A      1.640327  
    1463A      1.640909  1464A      1.642755  1465A      1.644062  
    1466A      1.646546  1467A      1.647488  1468A      1.648327  
    1469A      1.650160  1470A      1.650661  1471A      1.652452  
    1472A      1.653294  1473A      1.653751  1474A      1.655894  
    1475A      1.658774  1476A      1.659242  1477A      1.661872  
    1478A      1.662659  1479A      1.665025  1480A      1.668044  
    1481A      1.668586  1482A      1.669231  1483A      1.670218  
    1484A      1.671145  1485A      1.674987  1486A      1.676048  
    1487A      1.677765  1488A      1.679330  1489A      1.682090  
    1490A      1.682763  1491A      1.683357  1492A      1.683658  
    1493A      1.685453  1494A      1.685828  1495A      1.687404  
    1496A      1.688174  1497A      1.689913  1498A      1.690978  
    1499A      1.692020  1500A      1.693020  1501A      1.694939  
    1502A      1.695310  1503A      1.696723  1504A      1.699206  
    1505A      1.700193  1506A      1.700551  1507A      1.703329  
    1508A      1.706884  1509A      1.706925  1510A      1.708491  
    1511A      1.709019  1512A      1.710536  1513A      1.711183  
    1514A      1.712216  1515A      1.714972  1516A      1.716967  
    1517A      1.719295  1518A      1.720447  1519A      1.720681  
    1520A      1.721310  1521A      1.724360  1522A      1.724772  
    1523A      1.725355  1524A      1.728996  1525A      1.730691  
    1526A      1.731693  1527A      1.732474  1528A      1.734527  
    1529A      1.735627  1530A      1.739740  1531A      1.741658  
    1532A      1.744588  1533A      1.745627  1534A      1.746175  
    1535A      1.748513  1536A      1.750406  1537A      1.750705  
    1538A      1.754308  1539A      1.755632  1540A      1.755782  
    1541A      1.760344  1542A      1.760530  1543A      1.763473  
    1544A      1.763948  1545A      1.765453  1546A      1.767003  
    1547A      1.768342  1548A      1.770183  1549A      1.771456  
    1550A      1.772806  1551A      1.774192  1552A      1.775346  
    1553A      1.775625  1554A      1.777643  1555A      1.778438  
    1556A      1.779327  1557A      1.780388  1558A      1.784151  
    1559A      1.785288  1560A      1.787357  1561A      1.788156  
    1562A      1.789144  1563A      1.790580  1564A      1.792371  
    1565A      1.793122  1566A      1.794449  1567A      1.795540  
    1568A      1.797080  1569A      1.798512  1570A      1.799019  
    1571A      1.802621  1572A      1.804631  1573A      1.804895  
    1574A      1.805913  1575A      1.807101  1576A      1.808655  
    1577A      1.810051  1578A      1.811351  1579A      1.817536  
    1580A      1.818620  1581A      1.819746  1582A      1.821519  
    1583A      1.823800  1584A      1.826070  1585A      1.827890  
    1586A      1.828432  1587A      1.829759  1588A      1.831508  
    1589A      1.833518  1590A      1.834322  1591A      1.835564  
    1592A      1.840755  1593A      1.841396  1594A      1.841893  
    1595A      1.842324  1596A      1.844119  1597A      1.845945  
    1598A      1.847979  1599A      1.850055  1600A      1.851209  
    1601A      1.852612  1602A      1.853398  1603A      1.854394  
    1604A      1.854994  1605A      1.858353  1606A      1.860697  
    1607A      1.863002  1608A      1.863493  1609A      1.865465  
    1610A      1.868907  1611A      1.869093  1612A      1.869874  
    1613A      1.871446  1614A      1.873221  1615A      1.874030  
    1616A      1.875546  1617A      1.875635  1618A      1.876201  
    1619A      1.877256  1620A      1.880420  1621A      1.881126  
    1622A      1.882093  1623A      1.883933  1624A      1.886676  
    1625A      1.887104  1626A      1.887829  1627A      1.889978  
    1628A      1.890766  1629A      1.893174  1630A      1.893757  
    1631A      1.897031  1632A      1.900176  1633A      1.900964  
    1634A      1.902522  1635A      1.904006  1636A      1.904857  
    1637A      1.906348  1638A      1.908522  1639A      1.909315  
    1640A      1.911051  1641A      1.912647  1642A      1.915737  
    1643A      1.916025  1644A      1.916681  1645A      1.916973  
    1646A      1.919558  1647A      1.920311  1648A      1.921298  
    1649A      1.925433  1650A      1.928558  1651A      1.929271  
    1652A      1.931660  1653A      1.932749  1654A      1.933370  
    1655A      1.934648  1656A      1.937436  1657A      1.938819  
    1658A      1.940387  1659A      1.941000  1660A      1.941574  
    1661A      1.943633  1662A      1.944862  1663A      1.946469  
    1664A      1.947080  1665A      1.951185  1666A      1.953407  
    1667A      1.954391  1668A      1.956956  1669A      1.958067  
    1670A      1.959071  1671A      1.962060  1672A      1.962844  
    1673A      1.963094  1674A      1.964306  1675A      1.967087  
    1676A      1.968757  1677A      1.970054  1678A      1.972736  
    1679A      1.974774  1680A      1.975577  1681A      1.976503  
    1682A      1.979202  1683A      1.980875  1684A      1.982268  
    1685A      1.984116  1686A      1.984825  1687A      1.985195  
    1688A      1.987992  1689A      1.988367  1690A      1.989861  
    1691A      1.990747  1692A      1.994034  1693A      1.997085  
    1694A      1.999111  1695A      2.002433  1696A      2.004001  
    1697A      2.006288  1698A      2.007254  1699A      2.010585  
    1700A      2.011808  1701A      2.013080  1702A      2.013484  
    1703A      2.016714  1704A      2.017412  1705A      2.019299  
    1706A      2.019963  1707A      2.022173  1708A      2.024733  
    1709A      2.026304  1710A      2.027507  1711A      2.030694  
    1712A      2.031673  1713A      2.032469  1714A      2.033473  
    1715A      2.035531  1716A      2.037296  1717A      2.039497  
    1718A      2.039690  1719A      2.042333  1720A      2.043994  
    1721A      2.045259  1722A      2.049428  1723A      2.049955  
    1724A      2.051699  1725A      2.053471  1726A      2.054631  
    1727A      2.055868  1728A      2.056381  1729A      2.058465  
    1730A      2.059550  1731A      2.064342  1732A      2.066645  
    1733A      2.067374  1734A      2.068372  1735A      2.070674  
    1736A      2.072048  1737A      2.073583  1738A      2.074465  
    1739A      2.079492  1740A      2.079780  1741A      2.081192  
    1742A      2.083832  1743A      2.084808  1744A      2.085934  
    1745A      2.088376  1746A      2.088825  1747A      2.090609  
    1748A      2.092725  1749A      2.094568  1750A      2.095716  
    1751A      2.098403  1752A      2.099728  1753A      2.101211  
    1754A      2.101584  1755A      2.101997  1756A      2.103081  
    1757A      2.109559  1758A      2.110087  1759A      2.111109  
    1760A      2.113446  1761A      2.116002  1762A      2.117836  
    1763A      2.118637  1764A      2.122019  1765A      2.122973  
    1766A      2.123851  1767A      2.123926  1768A      2.126481  
    1769A      2.129508  1770A      2.131137  1771A      2.132559  
    1772A      2.135494  1773A      2.136415  1774A      2.138970  
    1775A      2.139981  1776A      2.142876  1777A      2.144304  
    1778A      2.146992  1779A      2.148160  1780A      2.152971  
    1781A      2.154831  1782A      2.156363  1783A      2.158234  
    1784A      2.159520  1785A      2.160315  1786A      2.162092  
    1787A      2.165446  1788A      2.167538  1789A      2.167875  
    1790A      2.169845  1791A      2.172851  1792A      2.173254  
    1793A      2.177697  1794A      2.178630  1795A      2.180284  
    1796A      2.181486  1797A      2.183499  1798A      2.184286  
    1799A      2.187690  1800A      2.190123  1801A      2.191259  
    1802A      2.192457  1803A      2.195652  1804A      2.196836  
    1805A      2.197495  1806A      2.199666  1807A      2.200300  
    1808A      2.201284  1809A      2.203977  1810A      2.209650  
    1811A      2.210634  1812A      2.212032  1813A      2.212358  
    1814A      2.216174  1815A      2.216392  1816A      2.221882  
    1817A      2.222678  1818A      2.223791  1819A      2.228240  
    1820A      2.228905  1821A      2.230397  1822A      2.233122  
    1823A      2.235959  1824A      2.236641  1825A      2.239044  
    1826A      2.240324  1827A      2.241713  1828A      2.242072  
    1829A      2.244577  1830A      2.247107  1831A      2.248561  
    1832A      2.251984  1833A      2.253573  1834A      2.256499  
    1835A      2.257512  1836A      2.259543  1837A      2.264004  
    1838A      2.264643  1839A      2.267250  1840A      2.269694  
    1841A      2.270624  1842A      2.271292  1843A      2.273415  
    1844A      2.274608  1845A      2.278072  1846A      2.280752  
    1847A      2.282733  1848A      2.285721  1849A      2.286356  
    1850A      2.290683  1851A      2.291971  1852A      2.294263  
    1853A      2.297202  1854A      2.299523  1855A      2.301323  
    1856A      2.302830  1857A      2.304220  1858A      2.304753  
    1859A      2.306286  1860A      2.306643  1861A      2.310878  
    1862A      2.314867  1863A      2.315423  1864A      2.317089  
    1865A      2.319282  1866A      2.322858  1867A      2.324280  
    1868A      2.325262  1869A      2.326215  1870A      2.329949  
    1871A      2.331398  1872A      2.334348  1873A      2.336649  
    1874A      2.339589  1875A      2.341192  1876A      2.344227  
    1877A      2.344866  1878A      2.346136  1879A      2.349047  
    1880A      2.354176  1881A      2.355317  1882A      2.355782  
    1883A      2.358203  1884A      2.359675  1885A      2.362206  
    1886A      2.364260  1887A      2.364964  1888A      2.367176  
    1889A      2.369059  1890A      2.371338  1891A      2.371602  
    1892A      2.373808  1893A      2.375443  1894A      2.377727  
    1895A      2.383207  1896A      2.384384  1897A      2.385842  
    1898A      2.387385  1899A      2.389963  1900A      2.391096  
    1901A      2.391217  1902A      2.397308  1903A      2.398270  
    1904A      2.399715  1905A      2.403053  1906A      2.403606  
    1907A      2.406157  1908A      2.409130  1909A      2.410391  
    1910A      2.410465  1911A      2.413187  1912A      2.414820  
    1913A      2.415391  1914A      2.417350  1915A      2.417789  
    1916A      2.421135  1917A      2.421707  1918A      2.422442  
    1919A      2.427240  1920A      2.429296  1921A      2.430978  
    1922A      2.433044  1923A      2.434344  1924A      2.437425  
    1925A      2.438097  1926A      2.439871  1927A      2.443897  
    1928A      2.447484  1929A      2.448067  1930A      2.450698  
    1931A      2.453458  1932A      2.453647  1933A      2.455546  
    1934A      2.456068  1935A      2.459525  1936A      2.461354  
    1937A      2.463869  1938A      2.464681  1939A      2.466855  
    1940A      2.467684  1941A      2.470111  1942A      2.470925  
    1943A      2.473013  1944A      2.474162  1945A      2.477528  
    1946A      2.478295  1947A      2.480312  1948A      2.483349  
    1949A      2.488115  1950A      2.488673  1951A      2.489876  
    1952A      2.491774  1953A      2.492733  1954A      2.493256  
    1955A      2.494964  1956A      2.501851  1957A      2.502667  
    1958A      2.505627  1959A      2.509826  1960A      2.512383  
    1961A      2.515034  1962A      2.515481  1963A      2.518396  
    1964A      2.519709  1965A      2.520304  1966A      2.520833  
    1967A      2.525462  1968A      2.527197  1969A      2.529846  
    1970A      2.532041  1971A      2.534010  1972A      2.536189  
    1973A      2.536653  1974A      2.541199  1975A      2.541312  
    1976A      2.543533  1977A      2.545467  1978A      2.547633  
    1979A      2.548160  1980A      2.551290  1981A      2.551429  
    1982A      2.553700  1983A      2.554290  1984A      2.557741  
    1985A      2.558819  1986A      2.563987  1987A      2.567169  
    1988A      2.567943  1989A      2.571367  1990A      2.572910  
    1991A      2.574078  1992A      2.577217  1993A      2.578616  
    1994A      2.579359  1995A      2.581089  1996A      2.584295  
    1997A      2.587223  1998A      2.588878  1999A      2.590540  
    2000A      2.592500  2001A      2.594823  2002A      2.596456  
    2003A      2.598260  2004A      2.599122  2005A      2.602862  
    2006A      2.606956  2007A      2.609719  2008A      2.610626  
    2009A      2.611835  2010A      2.614100  2011A      2.616005  
    2012A      2.619525  2013A      2.620081  2014A      2.624659  
    2015A      2.625219  2016A      2.626834  2017A      2.629433  
    2018A      2.630379  2019A      2.630757  2020A      2.638077  
    2021A      2.638672  2022A      2.642313  2023A      2.643187  
    2024A      2.646093  2025A      2.646881  2026A      2.649135  
    2027A      2.652592  2028A      2.654962  2029A      2.656375  
    2030A      2.659091  2031A      2.667390  2032A      2.669087  
    2033A      2.671396  2034A      2.674604  2035A      2.675646  
    2036A      2.676818  2037A      2.681844  2038A      2.683898  
    2039A      2.685743  2040A      2.687926  2041A      2.692633  
    2042A      2.693506  2043A      2.696158  2044A      2.699874  
    2045A      2.705732  2046A      2.706452  2047A      2.708834  
    2048A      2.709520  2049A      2.715088  2050A      2.716490  
    2051A      2.717597  2052A      2.721625  2053A      2.723039  
    2054A      2.724240  2055A      2.729357  2056A      2.732154  
    2057A      2.732962  2058A      2.737240  2059A      2.737768  
    2060A      2.742560  2061A      2.745148  2062A      2.749841  
    2063A      2.749950  2064A      2.750079  2065A      2.754922  
    2066A      2.758731  2067A      2.761704  2068A      2.764879  
    2069A      2.765347  2070A      2.771595  2071A      2.772549  
    2072A      2.773343  2073A      2.776846  2074A      2.778934  
    2075A      2.781952  2076A      2.785740  2077A      2.787274  
    2078A      2.790683  2079A      2.797268  2080A      2.797747  
    2081A      2.808328  2082A      2.814719  2083A      2.816928  
    2084A      2.818041  2085A      2.819571  2086A      2.822580  
    2087A      2.822951  2088A      2.829734  2089A      2.831606  
    2090A      2.833390  2091A      2.840251  2092A      2.843794  
    2093A      2.850584  2094A      2.851130  2095A      2.858807  
    2096A      2.861711  2097A      2.864212  2098A      2.867558  
    2099A      2.871734  2100A      2.872700  2101A      2.877808  
    2102A      2.882537  2103A      2.882880  2104A      2.888603  
    2105A      2.891347  2106A      2.894255  2107A      2.897719  
    2108A      2.911477  2109A      2.912251  2110A      2.917239  
    2111A      2.918939  2112A      2.923131  2113A      2.930531  
    2114A      2.936606  2115A      2.937438  2116A      2.938411  
    2117A      2.943342  2118A      2.950842  2119A      2.953474  
    2120A      2.960494  2121A      2.964160  2122A      2.966241  
    2123A      2.967894  2124A      2.973153  2125A      2.980668  
    2126A      2.985423  2127A      2.991048  2128A      2.992434  
    2129A      2.995290  2130A      2.999020  2131A      3.000789  
    2132A      3.009433  2133A      3.011434  2134A      3.024714  
    2135A      3.027134  2136A      3.038750  2137A      3.041018  
    2138A      3.048774  2139A      3.050944  2140A      3.056846  
    2141A      3.062168  2142A      3.069349  2143A      3.073342  
    2144A      3.075017  2145A      3.077095  2146A      3.084035  
    2147A      3.093931  2148A      3.097576  2149A      3.098436  
    2150A      3.101028  2151A      3.106641  2152A      3.114723  
    2153A      3.121830  2154A      3.132953  2155A      3.136985  
    2156A      3.141585  2157A      3.143171  2158A      3.147297  
    2159A      3.157249  2160A      3.164496  2161A      3.165068  
    2162A      3.170931  2163A      3.171491  2164A      3.174016  
    2165A      3.182680  2166A      3.185551  2167A      3.187012  
    2168A      3.195644  2169A      3.198769  2170A      3.204111  
    2171A      3.212491  2172A      3.213225  2173A      3.217228  
    2174A      3.230585  2175A      3.232998  2176A      3.233413  
    2177A      3.235694  2178A      3.236323  2179A      3.244295  
    2180A      3.251366  2181A      3.255966  2182A      3.261349  
    2183A      3.262002  2184A      3.265419  2185A      3.267907  
    2186A      3.270023  2187A      3.275264  2188A      3.283664  
    2189A      3.292244  2190A      3.293053  2191A      3.296157  
    2192A      3.301835  2193A      3.302766  2194A      3.303639  
    2195A      3.304867  2196A      3.309522  2197A      3.310398  
    2198A      3.317297  2199A      3.320426  2200A      3.322750  
    2201A      3.323248  2202A      3.327292  2203A      3.331847  
    2204A      3.335645  2205A      3.337193  2206A      3.337969  
    2207A      3.342976  2208A      3.345871  2209A      3.349914  
    2210A      3.353668  2211A      3.354118  2212A      3.357351  
    2213A      3.359154  2214A      3.365056  2215A      3.369958  
    2216A      3.370707  2217A      3.373614  2218A      3.374550  
    2219A      3.379775  2220A      3.380601  2221A      3.383832  
    2222A      3.384296  2223A      3.386633  2224A      3.388566  
    2225A      3.391807  2226A      3.396899  2227A      3.398119  
    2228A      3.403838  2229A      3.404744  2230A      3.409994  
    2231A      3.411473  2232A      3.416267  2233A      3.418449  
    2234A      3.420567  2235A      3.421391  2236A      3.422978  
    2237A      3.425411  2238A      3.428268  2239A      3.431015  
    2240A      3.432267  2241A      3.435322  2242A      3.438372  
    2243A      3.439609  2244A      3.440851  2245A      3.444851  
    2246A      3.446946  2247A      3.449260  2248A      3.449746  
    2249A      3.453184  2250A      3.456374  2251A      3.459516  
    2252A      3.463594  2253A      3.464334  2254A      3.467574  
    2255A      3.469159  2256A      3.471335  2257A      3.473533  
    2258A      3.474371  2259A      3.479678  2260A      3.480881  
    2261A      3.486414  2262A      3.487144  2263A      3.488819  
    2264A      3.489508  2265A      3.491102  2266A      3.493855  
    2267A      3.495382  2268A      3.498830  2269A      3.500165  
    2270A      3.503343  2271A      3.504730  2272A      3.505168  
    2273A      3.506709  2274A      3.508486  2275A      3.512558  
    2276A      3.515667  2277A      3.515866  2278A      3.517352  
    2279A      3.522585  2280A      3.523934  2281A      3.525777  
    2282A      3.527051  2283A      3.531723  2284A      3.533495  
    2285A      3.535862  2286A      3.538630  2287A      3.542708  
    2288A      3.543842  2289A      3.544463  2290A      3.546899  
    2291A      3.548411  2292A      3.551380  2293A      3.553619  
    2294A      3.554405  2295A      3.556092  2296A      3.557281  
    2297A      3.561560  2298A      3.564430  2299A      3.566484  
    2300A      3.569220  2301A      3.570398  2302A      3.572286  
    2303A      3.573509  2304A      3.578009  2305A      3.578338  
    2306A      3.579423  2307A      3.586483  2308A      3.588140  
    2309A      3.592796  2310A      3.593418  2311A      3.593646  
    2312A      3.596429  2313A      3.599177  2314A      3.602152  
    2315A      3.603398  2316A      3.605620  2317A      3.607473  
    2318A      3.608497  2319A      3.610238  2320A      3.612085  
    2321A      3.614192  2322A      3.615841  2323A      3.617098  
    2324A      3.619018  2325A      3.621104  2326A      3.621840  
    2327A      3.623437  2328A      3.624250  2329A      3.626739  
    2330A      3.629268  2331A      3.631731  2332A      3.633291  
    2333A      3.635361  2334A      3.637888  2335A      3.639276  
    2336A      3.641008  2337A      3.643966  2338A      3.644948  
    2339A      3.646666  2340A      3.649070  2341A      3.650221  
    2342A      3.653810  2343A      3.654590  2344A      3.656058  
    2345A      3.657094  2346A      3.659616  2347A      3.660805  
    2348A      3.663811  2349A      3.666305  2350A      3.667201  
    2351A      3.669434  2352A      3.672253  2353A      3.672390  
    2354A      3.673551  2355A      3.677779  2356A      3.679552  
    2357A      3.680480  2358A      3.682727  2359A      3.682879  
    2360A      3.684481  2361A      3.685592  2362A      3.688414  
    2363A      3.688886  2364A      3.689766  2365A      3.692532  
    2366A      3.694152  2367A      3.697891  2368A      3.700171  
    2369A      3.702832  2370A      3.703024  2371A      3.706852  
    2372A      3.707871  2373A      3.708940  2374A      3.709554  
    2375A      3.714245  2376A      3.716082  2377A      3.717842  
    2378A      3.720913  2379A      3.722105  2380A      3.724868  
    2381A      3.726153  2382A      3.726446  2383A      3.728699  
    2384A      3.732172  2385A      3.733608  2386A      3.737024  
    2387A      3.738297  2388A      3.739976  2389A      3.742319  
    2390A      3.746116  2391A      3.746407  2392A      3.748225  
    2393A      3.749363  2394A      3.751039  2395A      3.751393  
    2396A      3.753698  2397A      3.754063  2398A      3.758560  
    2399A      3.759808  2400A      3.760621  2401A      3.767286  
    2402A      3.768077  2403A      3.768828  2404A      3.770740  
    2405A      3.771988  2406A      3.775079  2407A      3.775282  
    2408A      3.776672  2409A      3.779803  2410A      3.784564  
    2411A      3.787581  2412A      3.788334  2413A      3.790949  
    2414A      3.792807  2415A      3.793783  2416A      3.794677  
    2417A      3.795319  2418A      3.798152  2419A      3.799041  
    2420A      3.799385  2421A      3.800774  2422A      3.804939  
    2423A      3.805824  2424A      3.806594  2425A      3.808777  
    2426A      3.810072  2427A      3.810212  2428A      3.815551  
    2429A      3.815782  2430A      3.817761  2431A      3.818745  
    2432A      3.823150  2433A      3.823863  2434A      3.826366  
    2435A      3.827901  2436A      3.829294  2437A      3.831898  
    2438A      3.833305  2439A      3.836596  2440A      3.836961  
    2441A      3.840138  2442A      3.841455  2443A      3.844410  
    2444A      3.846453  2445A      3.846869  2446A      3.847425  
    2447A      3.848129  2448A      3.851180  2449A      3.852352  
    2450A      3.854889  2451A      3.856603  2452A      3.857387  
    2453A      3.860030  2454A      3.864255  2455A      3.865047  
    2456A      3.866634  2457A      3.869825  2458A      3.870528  
    2459A      3.875370  2460A      3.876289  2461A      3.876952  
    2462A      3.880158  2463A      3.880575  2464A      3.884380  
    2465A      3.885019  2466A      3.887603  2467A      3.888987  
    2468A      3.890009  2469A      3.896183  2470A      3.896492  
    2471A      3.898686  2472A      3.898938  2473A      3.899251  
    2474A      3.904013  2475A      3.905382  2476A      3.906957  
    2477A      3.908639  2478A      3.909352  2479A      3.912208  
    2480A      3.915260  2481A      3.915528  2482A      3.917382  
    2483A      3.918938  2484A      3.920526  2485A      3.920682  
    2486A      3.922351  2487A      3.925352  2488A      3.929006  
    2489A      3.930343  2490A      3.931888  2491A      3.932534  
    2492A      3.936971  2493A      3.938055  2494A      3.940289  
    2495A      3.941087  2496A      3.942344  2497A      3.943001  
    2498A      3.945859  2499A      3.947379  2500A      3.950001  
    2501A      3.951842  2502A      3.953220  2503A      3.953808  
    2504A      3.956060  2505A      3.957300  2506A      3.958237  
    2507A      3.959545  2508A      3.963813  2509A      3.965078  
    2510A      3.965907  2511A      3.966088  2512A      3.972393  
    2513A      3.973678  2514A      3.976596  2515A      3.976946  
    2516A      3.978011  2517A      3.979911  2518A      3.982935  
    2519A      3.984143  2520A      3.986799  2521A      3.988203  
    2522A      3.988991  2523A      3.994063  2524A      3.994712  
    2525A      3.996176  2526A      3.997032  2527A      4.000644  
    2528A      4.004030  2529A      4.004467  2530A      4.006660  
    2531A      4.007509  2532A      4.009462  2533A      4.014477  
    2534A      4.015328  2535A      4.017325  2536A      4.019043  
    2537A      4.020968  2538A      4.021159  2539A      4.022648  
    2540A      4.023201  2541A      4.024875  2542A      4.028000  
    2543A      4.031027  2544A      4.033363  2545A      4.037028  
    2546A      4.038087  2547A      4.040530  2548A      4.041812  
    2549A      4.048290  2550A      4.048993  2551A      4.050651  
    2552A      4.052479  2553A      4.053573  2554A      4.055130  
    2555A      4.055768  2556A      4.058279  2557A      4.059627  
    2558A      4.061859  2559A      4.062853  2560A      4.065428  
    2561A      4.065964  2562A      4.070216  2563A      4.070705  
    2564A      4.072190  2565A      4.077060  2566A      4.078489  
    2567A      4.080557  2568A      4.082010  2569A      4.083251  
    2570A      4.085355  2571A      4.091720  2572A      4.092880  
    2573A      4.094073  2574A      4.097054  2575A      4.097529  
    2576A      4.099477  2577A      4.104070  2578A      4.105215  
    2579A      4.106999  2580A      4.107804  2581A      4.112689  
    2582A      4.113125  2583A      4.114480  2584A      4.118372  
    2585A      4.121041  2586A      4.121618  2587A      4.122538  
    2588A      4.123672  2589A      4.124527  2590A      4.128288  
    2591A      4.130974  2592A      4.132491  2593A      4.133880  
    2594A      4.136581  2595A      4.138118  2596A      4.140739  
    2597A      4.142149  2598A      4.143833  2599A      4.144804  
    2600A      4.147371  2601A      4.148438  2602A      4.152834  
    2603A      4.157002  2604A      4.160770  2605A      4.164027  
    2606A      4.164597  2607A      4.164667  2608A      4.166568  
    2609A      4.170671  2610A      4.171024  2611A      4.173686  
    2612A      4.174735  2613A      4.176704  2614A      4.179917  
    2615A      4.182155  2616A      4.182741  2617A      4.185290  
    2618A      4.187222  2619A      4.188751  2620A      4.188790  
    2621A      4.190761  2622A      4.192443  2623A      4.192852  
    2624A      4.197388  2625A      4.200877  2626A      4.201677  
    2627A      4.201919  2628A      4.206627  2629A      4.209045  
    2630A      4.209232  2631A      4.209794  2632A      4.213789  
    2633A      4.216075  2634A      4.216378  2635A      4.220043  
    2636A      4.221840  2637A      4.224428  2638A      4.224555  
    2639A      4.226222  2640A      4.228723  2641A      4.229307  
    2642A      4.229763  2643A      4.231862  2644A      4.234387  
    2645A      4.234783  2646A      4.236632  2647A      4.237135  
    2648A      4.240005  2649A      4.242030  2650A      4.245430  
    2651A      4.246455  2652A      4.249353  2653A      4.252561  
    2654A      4.253959  2655A      4.254212  2656A      4.257413  
    2657A      4.258745  2658A      4.261277  2659A      4.262264  
    2660A      4.268400  2661A      4.268957  2662A      4.273094  
    2663A      4.274676  2664A      4.276578  2665A      4.277874  
    2666A      4.279820  2667A      4.280559  2668A      4.281158  
    2669A      4.286124  2670A      4.288157  2671A      4.289045  
    2672A      4.291189  2673A      4.292444  2674A      4.296079  
    2675A      4.296390  2676A      4.298092  2677A      4.301502  
    2678A      4.303711  2679A      4.304734  2680A      4.311264  
    2681A      4.311875  2682A      4.313981  2683A      4.315298  
    2684A      4.318147  2685A      4.320211  2686A      4.321984  
    2687A      4.322902  2688A      4.325342  2689A      4.327930  
    2690A      4.329070  2691A      4.329697  2692A      4.332147  
    2693A      4.334710  2694A      4.338090  2695A      4.339074  
    2696A      4.339570  2697A      4.341393  2698A      4.342367  
    2699A      4.347227  2700A      4.349461  2701A      4.350959  
    2702A      4.352531  2703A      4.354489  2704A      4.357201  
    2705A      4.360392  2706A      4.361484  2707A      4.362039  
    2708A      4.365479  2709A      4.367099  2710A      4.367977  
    2711A      4.368496  2712A      4.371293  2713A      4.376120  
    2714A      4.377618  2715A      4.380652  2716A      4.381708  
    2717A      4.382250  2718A      4.385677  2719A      4.388150  
    2720A      4.388802  2721A      4.389587  2722A      4.395044  
    2723A      4.395800  2724A      4.397486  2725A      4.397795  
    2726A      4.400206  2727A      4.402487  2728A      4.405170  
    2729A      4.408705  2730A      4.409667  2731A      4.412781  
    2732A      4.413115  2733A      4.415025  2734A      4.416287  
    2735A      4.416873  2736A      4.420943  2737A      4.423057  
    2738A      4.424937  2739A      4.426324  2740A      4.430627  
    2741A      4.432159  2742A      4.437225  2743A      4.437665  
    2744A      4.438206  2745A      4.440070  2746A      4.440949  
    2747A      4.443412  2748A      4.444958  2749A      4.446206  
    2750A      4.450420  2751A      4.451164  2752A      4.454309  
    2753A      4.455208  2754A      4.460108  2755A      4.460674  
    2756A      4.465979  2757A      4.467497  2758A      4.469347  
    2759A      4.471924  2760A      4.473751  2761A      4.475445  
    2762A      4.476962  2763A      4.480554  2764A      4.484761  
    2765A      4.486366  2766A      4.486974  2767A      4.488093  
    2768A      4.489224  2769A      4.489363  2770A      4.489748  
    2771A      4.495429  2772A      4.497268  2773A      4.502838  
    2774A      4.507386  2775A      4.507885  2776A      4.509644  
    2777A      4.510340  2778A      4.511887  2779A      4.514086  
    2780A      4.516696  2781A      4.517357  2782A      4.519509  
    2783A      4.524775  2784A      4.525113  2785A      4.528001  
    2786A      4.528822  2787A      4.529641  2788A      4.531323  
    2789A      4.537758  2790A      4.538177  2791A      4.540867  
    2792A      4.542979  2793A      4.544815  2794A      4.549464  
    2795A      4.552387  2796A      4.553273  2797A      4.556251  
    2798A      4.557621  2799A      4.559747  2800A      4.563666  
    2801A      4.564654  2802A      4.566854  2803A      4.567397  
    2804A      4.570308  2805A      4.572242  2806A      4.579330  
    2807A      4.583068  2808A      4.583848  2809A      4.584942  
    2810A      4.589377  2811A      4.591690  2812A      4.594619  
    2813A      4.595443  2814A      4.597850  2815A      4.600646  
    2816A      4.605856  2817A      4.607277  2818A      4.610230  
    2819A      4.611571  2820A      4.612298  2821A      4.616752  
    2822A      4.617925  2823A      4.619296  2824A      4.620294  
    2825A      4.624187  2826A      4.625737  2827A      4.626302  
    2828A      4.630423  2829A      4.634639  2830A      4.637704  
    2831A      4.639795  2832A      4.640730  2833A      4.645387  
    2834A      4.645961  2835A      4.649590  2836A      4.650653  
    2837A      4.655264  2838A      4.656767  2839A      4.658566  
    2840A      4.660910  2841A      4.662049  2842A      4.665114  
    2843A      4.668916  2844A      4.676084  2845A      4.679386  
    2846A      4.682444  2847A      4.683138  2848A      4.685679  
    2849A      4.686382  2850A      4.688051  2851A      4.690427  
    2852A      4.694314  2853A      4.694584  2854A      4.697224  
    2855A      4.701993  2856A      4.703083  2857A      4.703952  
    2858A      4.711609  2859A      4.716010  2860A      4.718710  
    2861A      4.723586  2862A      4.724610  2863A      4.725472  
    2864A      4.727212  2865A      4.731037  2866A      4.731491  
    2867A      4.732922  2868A      4.734230  2869A      4.740330  
    2870A      4.741457  2871A      4.745264  2872A      4.748488  
    2873A      4.752509  2874A      4.753378  2875A      4.755883  
    2876A      4.757290  2877A      4.761701  2878A      4.766559  
    2879A      4.767130  2880A      4.768976  2881A      4.771208  
    2882A      4.773418  2883A      4.776793  2884A      4.778693  
    2885A      4.779597  2886A      4.780902  2887A      4.783315  
    2888A      4.785792  2889A      4.787602  2890A      4.789161  
    2891A      4.791050  2892A      4.793299  2893A      4.797753  
    2894A      4.798573  2895A      4.802215  2896A      4.808238  
    2897A      4.810061  2898A      4.813406  2899A      4.814707  
    2900A      4.819333  2901A      4.825419  2902A      4.825829  
    2903A      4.826284  2904A      4.829150  2905A      4.832581  
    2906A      4.832906  2907A      4.835853  2908A      4.837257  
    2909A      4.837491  2910A      4.842132  2911A      4.844305  
    2912A      4.845757  2913A      4.847646  2914A      4.848627  
    2915A      4.851562  2916A      4.854887  2917A      4.857942  
    2918A      4.859501  2919A      4.859977  2920A      4.866191  
    2921A      4.868576  2922A      4.868765  2923A      4.874317  
    2924A      4.875499  2925A      4.879967  2926A      4.882433  
    2927A      4.885178  2928A      4.887003  2929A      4.888764  
    2930A      4.895324  2931A      4.897187  2932A      4.901480  
    2933A      4.902912  2934A      4.905365  2935A      4.905850  
    2936A      4.915507  2937A      4.915775  2938A      4.916528  
    2939A      4.921523  2940A      4.922482  2941A      4.925064  
    2942A      4.926494  2943A      4.927845  2944A      4.933715  
    2945A      4.935587  2946A      4.936666  2947A      4.940959  
    2948A      4.942083  2949A      4.949345  2950A      4.951603  
    2951A      4.953410  2952A      4.957046  2953A      4.959203  
    2954A      4.960703  2955A      4.966429  2956A      4.968529  
    2957A      4.972448  2958A      4.973804  2959A      4.976076  
    2960A      4.976686  2961A      4.980441  2962A      4.984162  
    2963A      4.984753  2964A      4.989782  2965A      4.992232  
    2966A      4.995629  2967A      4.997087  2968A      5.004631  
    2969A      5.004690  2970A      5.006656  2971A      5.010169  
    2972A      5.014639  2973A      5.016951  2974A      5.017870  
    2975A      5.020193  2976A      5.021329  2977A      5.023795  
    2978A      5.027802  2979A      5.028967  2980A      5.033091  
    2981A      5.034056  2982A      5.035621  2983A      5.037480  
    2984A      5.041479  2985A      5.047471  2986A      5.047764  
    2987A      5.055459  2988A      5.056076  2989A      5.057208  
    2990A      5.059253  2991A      5.062026  2992A      5.064973  
    2993A      5.065405  2994A      5.065660  2995A      5.073699  
    2996A      5.077446  2997A      5.077785  2998A      5.080062  
    2999A      5.082464  3000A      5.083577  3001A      5.086363  
    3002A      5.091300  3003A      5.092450  3004A      5.097025  
    3005A      5.097703  3006A      5.100867  3007A      5.104532  
    3008A      5.106989  3009A      5.112349  3010A      5.115692  
    3011A      5.117610  3012A      5.121117  3013A      5.124727  
    3014A      5.125192  3015A      5.128223  3016A      5.128961  
    3017A      5.136654  3018A      5.136694  3019A      5.141316  
    3020A      5.143203  3021A      5.144452  3022A      5.150569  
    3023A      5.152187  3024A      5.156970  3025A      5.159481  
    3026A      5.161971  3027A      5.164567  3028A      5.166023  
    3029A      5.166983  3030A      5.170613  3031A      5.173344  
    3032A      5.175446  3033A      5.177853  3034A      5.178464  
    3035A      5.188027  3036A      5.188839  3037A      5.189586  
    3038A      5.192724  3039A      5.193376  3040A      5.203444  
    3041A      5.203614  3042A      5.209313  3043A      5.211612  
    3044A      5.213099  3045A      5.214512  3046A      5.215282  
    3047A      5.217039  3048A      5.223509  3049A      5.226169  
    3050A      5.229728  3051A      5.237749  3052A      5.238475  
    3053A      5.240981  3054A      5.247013  3055A      5.248771  
    3056A      5.250372  3057A      5.256178  3058A      5.257362  
    3059A      5.261706  3060A      5.264659  3061A      5.268601  
    3062A      5.269504  3063A      5.280220  3064A      5.280268  
    3065A      5.281011  3066A      5.283377  3067A      5.284549  
    3068A      5.285198  3069A      5.289610  3070A      5.292640  
    3071A      5.293071  3072A      5.298453  3073A      5.300275  
    3074A      5.308445  3075A      5.310083  3076A      5.315851  
    3077A      5.317456  3078A      5.321090  3079A      5.321674  
    3080A      5.324447  3081A      5.325346  3082A      5.327968  
    3083A      5.331616  3084A      5.335059  3085A      5.337635  
    3086A      5.338591  3087A      5.341330  3088A      5.343817  
    3089A      5.345376  3090A      5.347899  3091A      5.349433  
    3092A      5.350509  3093A      5.358999  3094A      5.364743  
    3095A      5.371660  3096A      5.374245  3097A      5.375652  
    3098A      5.384021  3099A      5.389146  3100A      5.392508  
    3101A      5.393384  3102A      5.394632  3103A      5.397410  
    3104A      5.404250  3105A      5.406365  3106A      5.410677  
    3107A      5.414368  3108A      5.415720  3109A      5.425043  
    3110A      5.425855  3111A      5.430693  3112A      5.435207  
    3113A      5.439272  3114A      5.441794  3115A      5.445245  
    3116A      5.446022  3117A      5.454764  3118A      5.456519  
    3119A      5.459149  3120A      5.463334  3121A      5.466132  
    3122A      5.466735  3123A      5.468012  3124A      5.470029  
    3125A      5.472042  3126A      5.480507  3127A      5.482350  
    3128A      5.482370  3129A      5.494803  3130A      5.495429  
    3131A      5.501188  3132A      5.501406  3133A      5.505497  
    3134A      5.506068  3135A      5.511532  3136A      5.513251  
    3137A      5.516257  3138A      5.517376  3139A      5.521679  
    3140A      5.523742  3141A      5.529661  3142A      5.533086  
    3143A      5.539708  3144A      5.540847  3145A      5.544634  
    3146A      5.546638  3147A      5.548376  3148A      5.552167  
    3149A      5.552455  3150A      5.554843  3151A      5.558434  
    3152A      5.563229  3153A      5.564873  3154A      5.566394  
    3155A      5.571023  3156A      5.571751  3157A      5.578101  
    3158A      5.579549  3159A      5.580436  3160A      5.583427  
    3161A      5.593135  3162A      5.595602  3163A      5.596303  
    3164A      5.602987  3165A      5.604565  3166A      5.609702  
    3167A      5.616827  3168A      5.623064  3169A      5.631134  
    3170A      5.634213  3171A      5.638828  3172A      5.641430  
    3173A      5.650961  3174A      5.654501  3175A      5.654929  
    3176A      5.657257  3177A      5.661620  3178A      5.667169  
    3179A      5.672750  3180A      5.674305  3181A      5.681783  
    3182A      5.682341  3183A      5.684359  3184A      5.686831  
    3185A      5.687565  3186A      5.692661  3187A      5.700028  
    3188A      5.713339  3189A      5.715824  3190A      5.716344  
    3191A      5.724773  3192A      5.730676  3193A      5.736003  
    3194A      5.738968  3195A      5.745504  3196A      5.749460  
    3197A      5.753777  3198A      5.756012  3199A      5.756655  
    3200A      5.765555  3201A      5.772761  3202A      5.773848  
    3203A      5.776269  3204A      5.783361  3205A      5.794877  
    3206A      5.800512  3207A      5.803813  3208A      5.805574  
    3209A      5.807640  3210A      5.819502  3211A      5.823469  
    3212A      5.824686  3213A      5.831488  3214A      5.838197  
    3215A      5.847342  3216A      5.849197  3217A      5.851664  
    3218A      5.853884  3219A      5.865577  3220A      5.879951  
    3221A      5.884890  3222A      5.885920  3223A      5.891119  
    3224A      5.898360  3225A      5.905054  3226A      5.908457  
    3227A      5.915216  3228A      5.921571  3229A      5.932968  
    3230A      5.937962  3231A      5.946300  3232A      5.951030  
    3233A      5.957270  3234A      5.957669  3235A      5.968802  
    3236A      5.977936  3237A      5.984817  3238A      5.986375  
    3239A      5.997827  3240A      6.002852  3241A      6.006407  
    3242A      6.023786  3243A      6.032246  3244A      6.035231  
    3245A      6.039231  3246A      6.047472  3247A      6.055946  
    3248A      6.058400  3249A      6.062847  3250A      6.069729  
    3251A      6.070804  3252A      6.077510  3253A      6.080990  
    3254A      6.083965  3255A      6.090866  3256A      6.096159  
    3257A      6.119860  3258A      6.119994  3259A      6.128499  
    3260A      6.138653  3261A      6.142073  3262A      6.198895  
    3263A      6.200118  3264A      6.209914  3265A      6.232923  
    3266A      6.244795  3267A      6.257662  3268A      6.262539  
    3269A      6.267295  3270A      6.273211  3271A      6.275301  
    3272A      6.309852  3273A      6.316309  3274A      6.335052  
    3275A      6.348649  3276A      6.359163  3277A      6.372732  
    3278A      6.376030  3279A      6.383713  3280A      6.389146  
    3281A      6.393610  3282A      6.396421  3283A      6.402293  
    3284A      6.405403  3285A      6.415808  3286A      6.424426  
    3287A      6.428637  3288A      6.432958  3289A      6.435784  
    3290A      6.436617  3291A      6.439381  3292A      6.445924  
    3293A      6.447815  3294A      6.450429  3295A      6.453901  
    3296A      6.456744  3297A      6.466636  3298A      6.469215  
    3299A      6.479563  3300A      6.493335  3301A      6.505109  
    3302A      6.509331  3303A      6.526392  3304A      6.529777  
    3305A      6.541235  3306A      6.558371  3307A      6.571108  
    3308A      6.586569  3309A      6.595003  3310A      6.600770  
    3311A      6.604953  3312A      6.617099  3313A      6.632939  
    3314A      6.643815  3315A      6.668146  3316A      6.692889  
    3317A      6.731544  3318A      6.737863  3319A      6.742308  
    3320A      6.743958  3321A      6.754369  3322A      6.762888  
    3323A      6.767503  3324A      6.773832  3325A      6.787985  
    3326A      6.802421  3327A      6.815824  3328A      6.819444  
    3329A      6.828792  3330A      6.836047  3331A      6.847894  
    3332A      6.855656  3333A      6.876385  3334A      6.880979  
    3335A      6.885498  3336A      6.894142  3337A      6.901659  
    3338A      6.906971  3339A      6.912655  3340A      6.921468  
    3341A      6.926355  3342A      6.943342  3343A      6.949555  
    3344A      6.953549  3345A      6.968450  3346A      6.997630  
    3347A      6.998170  3348A      7.011181  3349A      7.029109  
    3350A      7.035286  3351A      7.044279  3352A      7.067466  
    3353A      7.127279  3354A      7.127827  3355A      7.133941  
    3356A      7.142555  3357A      7.154520  3358A      7.174683  
    3359A      7.186304  3360A      7.229190  3361A      7.309740  
    3362A     16.006802  3363A     16.067734  3364A     16.299710  
    3365A     16.345746  3366A     16.403052  3367A     16.539362  
    3368A     16.742997  3369A     16.794975  3370A     16.914995  
    3371A     17.042051  3372A     17.352614  3373A     17.928207  
    3374A     17.993766  3375A     18.280434  3376A     18.326844  
    3377A     18.370821  3378A     18.426225  3379A     18.427756  
    3380A     18.517621  3381A     18.560172  3382A     18.602233  
    3383A     18.738778  3384A     18.752086  3385A     18.804321  
    3386A     18.933391  3387A     19.000066  3388A     19.300811  
    3389A     19.722158  3390A     20.148481  3391A     20.202810  
    3392A     20.332893  3393A     20.480021  3394A     20.596733  
    3395A     20.637653  3396A     20.676625  3397A     20.839004  
    3398A     20.887304  3399A     21.095082  3400A     21.144749  
    3401A     21.328336  3402A     21.473018  3403A     21.514300  
    3404A     21.588877  3405A     21.667048  3406A     21.712078  
    3407A     21.733333  3408A     21.842367  3409A     21.862250  
    3410A     21.913236  3411A     21.943356  3412A     22.086514  
    3413A     22.322535  3414A     22.330555  3415A     22.367457  
    3416A     22.415376  3417A     22.695550  3418A     23.229418  
    3419A     23.385105  

    Final Occupation by Irrep:
              A 
    DOCC [   193 ]
    NA   [   193 ]
    NB   [   193 ]

  @DF-RKS Final Energy: -2292.91021570252587

   => Energetics <=

    Nuclear Repulsion Energy =           8253.9876492093371780
    One-Electron Energy =              -19549.3132139302433643
    Two-Electron Energy =                9162.2429531650541321
    DFT Exchange-Correlation Energy =    -159.7444153838775946
    Empirical Dispersion Energy =          -0.0831887627958999
    VV10 Nonlocal Energy =                  0.0000000000000000
    Total Energy =                      -2292.9102157025258748

Computation Completed


Properties will be evaluated at   0.000000,   0.000000,   0.000000 [a0]

Properties computed using the SCF density matrix


 Multipole Moments:

 ------------------------------------------------------------------------------------
     Multipole            Electronic (a.u.)      Nuclear  (a.u.)        Total (a.u.)
 ------------------------------------------------------------------------------------

 L = 1.  Multiply by 2.5417464519 to convert [e a0] to [Debye]
 Dipole X            :          7.9308043           -8.0244688           -0.0936645
 Dipole Y            :          1.4316781           -0.9323541            0.4993240
 Dipole Z            :          0.1137898           -0.1046661            0.0091237
 Magnitude           :                                                    0.5081149

 ------------------------------------------------------------------------------------

*** tstop() called on atl1-1-03-004-13-1.pace.gatech.edu at Mon Jun 15 15:47:15 2026
Module time:
	user time   =   52378.87 seconds =     872.98 minutes
	system time =    2564.68 seconds =      42.74 minutes
	total time  =       7535 seconds =     125.58 minutes
Total time:
	user time   =   52378.87 seconds =     872.98 minutes
	system time =    2564.68 seconds =      42.74 minutes
	total time  =       7535 seconds =     125.58 minutes

*** tstart() called on atl1-1-03-004-13-1.pace.gatech.edu
*** at Mon Jun 15 15:47:15 2026

   => Loading Basis Set <=

    Name: (AUG-CC-PVTZ AUX)
    Role: RIFIT
    Keyword: DF_BASIS_MP2
    atoms 1-42, 73-80, 82, 84-85, 87 entry C          line   148 file /storage/home/hcoda1/5/vlita3/.conda/envs/p4_qcml/share/psi4/basis/aug-cc-pvtz-ri.gbs 
    atoms 43-72, 89-92               entry H          line    30 file /storage/home/hcoda1/5/vlita3/.conda/envs/p4_qcml/share/psi4/basis/aug-cc-pvtz-ri.gbs 
    atoms 81, 83, 86, 88             entry N          line   206 file /storage/home/hcoda1/5/vlita3/.conda/envs/p4_qcml/share/psi4/basis/aug-cc-pvtz-ri.gbs 

	 --------------------------------------------------------
	                          DF-MP2                         
	      2nd-Order Density-Fitted Moller-Plesset Theory     
	              RMP2 Wavefunction,  10 Threads             
	                                                         
	        Rob Parrish, Justin Turney, Andy Simmonett,      
	           Ed Hohenstein, and C. David Sherrill          
	 --------------------------------------------------------

   => Auxiliary Basis Set <=

  Basis Set: (AUG-CC-PVTZ AUX)
    Blend: AUG-CC-PVTZ-RI
    Number of shells: 2100
    Number of basis functions: 7712
    Number of Cartesian functions: 9758
    Spherical Harmonics?: true
    Max angular momentum: 4

	 --------------------------------------------------------
	                 NBF =  3450, NAUX =  7712
	 --------------------------------------------------------
	   CLASS    FOCC     OCC    AOCC    AVIR     VIR    FVIR
	   PAIRS       0     193     193    3226    3226       0
	 --------------------------------------------------------

	-----------------------------------------------------------
	 ==================> DF-MP2 Energies <==================== 
	-----------------------------------------------------------
	 Reference Energy          =   -2292.9102157025258748 [Eh]
	 Singles Energy            =      -0.0000000000000000 [Eh]
	 Same-Spin Energy          =      -3.3006071979933722 [Eh]
	 Opposite-Spin Energy      =      -9.5841134580632499 [Eh]
	 Correlation Energy        =     -12.8847206560566221 [Eh]
	 Total Energy              =   -2305.7949363585826177 [Eh]
	-----------------------------------------------------------
	 ================> DF-SCS-MP2 Energies <================== 
	-----------------------------------------------------------
	 SCS Same-Spin Scale       =       0.3333333333333333 [-]
	 SCS Opposite-Spin Scale   =       1.2000000000000000 [-]
	 SCS Same-Spin Energy      =      -1.1002023993311241 [Eh]
	 SCS Opposite-Spin Energy  =     -11.5009361496758995 [Eh]
	 SCS Correlation Energy    =     -12.6011385490070236 [Eh]
	 SCS Total Energy          =   -2305.5113542515327936 [Eh]
	-----------------------------------------------------------



    B2PLYP-D3 Energy Summary
    ------------------------
    DFT Reference Energy                  = -2292.9102157025258748
    Scaled MP2 Correlation                =    -3.4788745771352882
    @Final double-hybrid DFT total energy = -2296.3890902796611044


*** tstop() called on atl1-1-03-004-13-1.pace.gatech.edu at Mon Jun 15 17:15:21 2026
Module time:
	user time   =   49372.79 seconds =     822.88 minutes
	system time =     180.23 seconds =       3.00 minutes
	total time  =       5286 seconds =      88.10 minutes
Total time:
	user time   =  101751.66 seconds =    1695.86 minutes
	system time =    2744.91 seconds =      45.75 minutes
	total time  =      12821 seconds =     213.68 minutes

    Psi4 stopped on: Monday, 15 June 2026 05:15PM
    Psi4 wall time for execution: 3:33:45.39

*** Psi4 exiting successfully. Buy a developer a beer!
