
    -----------------------------------------------------------------------
          Psi4: An Open-Source Ab Initio Electronic Structure Package
                               Psi4 1.9.1 release

                         Git: Rev {} zzzzzzz 


    D. G. A. Smith, L. A. Burns, A. C. Simmonett, R. M. Parrish,
    M. C. Schieber, R. Galvelis, P. Kraus, H. Kruse, R. Di Remigio,
    A. Alenaizan, A. M. James, S. Lehtola, J. P. Misiewicz, M. Scheurer,
    R. A. Shaw, J. B. Schriber, Y. Xie, Z. L. Glick, D. A. Sirianni,
    J. S. O'Brien, J. M. Waldrop, A. Kumar, E. G. Hohenstein,
    B. P. Pritchard, B. R. Brooks, H. F. Schaefer III, A. Yu. Sokolov,
    K. Patkowski, A. E. DePrince III, U. Bozkaya, R. A. King,
    F. A. Evangelista, J. M. Turney, T. D. Crawford, C. D. Sherrill,
    J. Chem. Phys. 152(18) 184108 (2020). https://doi.org/10.1063/5.0006002

                            Additional Code Authors
    E. T. Seidl, C. L. Janssen, E. F. Valeev, M. L. Leininger,
    J. F. Gonthier, R. M. Richard, H. R. McAlexander, M. Saitow, X. Wang,
    P. Verma, M. H. Lechner, A. Jiang, S. Behnle, A. G. Heide,
    M. F. Herbst, and D. L. Poole

             Previous Authors, Complete List of Code Contributors,
                       and Citations for Specific Modules
    https://github.com/psi4/psi4/blob/master/codemeta.json
    https://github.com/psi4/psi4/graphs/contributors
    http://psicode.org/psi4manual/master/introduction.html#citing-psifour

    -----------------------------------------------------------------------


    Psi4 started on: Saturday, 13 June 2026 08:46PM

    Process ID: 602008
    Host:       atl1-1-03-004-8-2.pace.gatech.edu
    PSIDATADIR: /storage/home/hcoda1/5/vlita3/.conda/envs/p4_qcml/share/psi4
    Memory:     250.0 GiB
    Threads:    10
    
  ==> Input QCSchema <==

--------------------------------------------------------------------------
{'driver': 'energy',
 'extras': {},
 'id': '312',
 'keywords': {},
 'model': {'basis': 'aug-cc-pvtz', 'method': 'b2plyp-d3'},
 'molecule': {'extras': {},
              'fix_com': True,
              'fix_orientation': True,
              'fragment_charges': [0.0, 0.0],
              'fragment_multiplicities': [1, 1],
              'fragments': [[0, 1, 2, 3, 4, 5, 6, 7, 8, 9, 10, 11, 12, 13, 14, 15, 16, 17, 18, 19, 20, 21, 22, 23, 24,
                             25, 26, 27, 28, 29, 30, 31, 32, 33, 34, 35, 36, 37, 38, 39, 40, 41, 42, 43],
                            [44, 45, 46, 47, 48, 49, 50, 51, 52, 53, 54, 55, 56, 57, 58, 59, 60, 61, 62, 63, 64, 65, 66,
                             67, 68, 69, 70, 71, 72, 73, 74, 75, 76, 77, 78, 79, 80, 81, 82, 83, 84, 85, 86, 87]],
              'geometry': [25.47963781, 23.08351049, 43.1296896, 24.89690954, 20.52012331, 43.887087, 25.07057198,
                           18.48699404, 42.07353641, 25.8424877, 19.04880944, 39.52013663, 26.46903607, 21.61452675,
                           38.85199593, 26.30318821, 23.59330066, 40.54460103, 24.46577176, 15.9279092, 42.77036087,
                           23.76811717, 15.37695629, 45.40838081, 23.59859476, 17.38880058, 47.22265844, 24.1081018,
                           20.02007671, 46.44346413, 22.96694077, 16.77267612, 49.77192758, 22.51062738, 14.29130626,
                           50.58597185, 22.67427055, 12.32177999, 48.76231557, 23.27971306, 12.86309326, 46.25226043,
                           25.97467497, 17.0727052, 37.71068154, 25.34789586, 14.59123463, 38.39437083, 24.59969708,
                           14.0277518, 40.88784347, 25.20039992, 25.0588727, 44.92111126, 24.35321071, 24.59525103,
                           47.39946073, 23.84084877, 22.08099208, 48.12795237, 21.86046838, 13.69556932, 53.32235171,
                           24.04555383, 26.76370654, 49.27889773, 26.50915633, 27.41178979, 50.73375129, 26.93108599,
                           26.27094839, 39.72356046, 27.10311578, 21.98163565, 36.89906984, 22.32265299, 10.34583799,
                           49.33666834, 23.39372081, 11.28300305, 44.90489504, 26.57612038, 17.51973959, 35.76596134,
                           25.43664936, 13.06203906, 36.97800898, 24.12002947, 12.05854919, 41.3527408, 25.62817825,
                           27.01761767, 44.36171793, 23.18724332, 21.75219607, 50.07608394, 23.27013145, 12.38510294,
                           54.17857328, 21.79629273, 15.42803966, 54.50687769, 19.98705402, 12.74487252, 53.47527914,
                           22.53167906, 26.28198386, 50.6619148, 23.38069793, 28.48102898, 48.25612267, 27.19569266,
                           25.7565067, 51.83310019, 28.04156267, 27.96965392, 49.40821263, 28.39145441, 27.1428651,
                           40.95513515, 25.23456206, 27.51897461, 39.79892028, 27.66207922, 26.29954115, 37.75755015,
                           26.2022166, 29.00071195, 52.0780899, 22.83611537, 18.29134925, 51.1881473, 30.81342193,
                           18.71017989, 45.99359029, 31.5788239, 19.74555973, 43.58027113, 32.18922921, 22.39746574,
                           43.36009841, 32.04731473, 23.98056161, 45.57578145, 31.25562095, 22.88485355, 47.94186375,
                           30.64065655, 20.36296812, 48.19759324, 32.96098858, 23.46875558, 40.98068543, 32.9776879,
                           21.8498177, 38.71563215, 32.39688051, 19.20754673, 38.92783428, 31.75108262, 18.1119644,
                           41.41040042, 32.38510148, 17.70859001, 36.6883681, 32.89884869, 18.70388423, 34.28627015,
                           33.46045747, 21.32787429, 34.10603582, 33.50020544, 22.84413785, 36.26471359, 32.71084168,
                           26.57519902, 45.39430813, 33.51746054, 27.59229626, 43.0833912, 33.64071365, 26.05933156,
                           40.9078722, 30.26834315, 16.09166271, 46.16720061, 30.49746548, 14.47431826, 44.06910385,
                           31.23964841, 15.50757785, 41.72580743, 32.85245858, 17.05660123, 31.93007182, 30.0352396,
                           11.64386798, 44.33912194, 32.45644731, 10.16276856, 45.08627623, 29.83741229, 19.30937345,
                           50.74453249, 31.15944353, 24.13692378, 49.60598037, 33.86115259, 22.17547238, 32.24063318,
                           33.92403613, 24.86828461, 36.03931452, 32.60693264, 27.77144276, 47.1004289, 34.05705016,
                           29.60331272, 42.95688301, 34.27807476, 26.92308174, 39.12655219, 29.64722791, 15.28713696,
                           47.98302787, 31.38145507, 14.21615321, 40.10268471, 34.735737, 17.01308892, 30.98680081,
                           32.31443775, 15.0754773, 32.37170495, 31.48589123, 17.79122297, 30.50534659, 29.28049933,
                           10.88478084, 42.52649407, 28.54357618, 11.31799443, 45.78690148, 33.97269455, 10.41059171,
                           43.64975571, 33.2192207, 10.84125701, 46.92494523, 31.18221652, 17.84465276, 51.44063809,
                           27.94896357, 18.39273342, 50.64394079, 29.74125873, 20.82714016, 52.19033882, 32.06613232,
                           8.10297733, 45.26704002, 31.91846208, 15.68652669, 36.81860417],
              'id': 5,
              'identifiers': {'molecular_formula': 'C48H40',
                              'molecule_hash': '15b64246f541ee1ce312b171a08939958d334f77'},
              'molecular_charge': 0.0,
              'molecular_multiplicity': 1,
              'name': 'C48H40',
              'provenance': {'creator': 'QCElemental',
                             'routine': 'qcelemental.molparse.from_string',
                             'version': '0.29.0'},
              'schema_name': 'qcschema_molecule',
              'schema_version': 2,
              'symbols': ['C', 'C', 'C', 'C', 'C', 'C', 'C', 'C', 'C', 'C', 'C', 'C', 'C', 'C', 'C', 'C', 'C', 'C', 'C',
                          'C', 'C', 'C', 'C', 'C', 'H', 'H', 'H', 'H', 'H', 'H', 'H', 'H', 'H', 'H', 'H', 'H', 'H', 'H',
                          'H', 'H', 'H', 'H', 'H', 'H', 'C', 'C', 'C', 'C', 'C', 'C', 'C', 'C', 'C', 'C', 'C', 'C', 'C',
                          'C', 'C', 'C', 'C', 'C', 'C', 'C', 'C', 'C', 'C', 'C', 'H', 'H', 'H', 'H', 'H', 'H', 'H', 'H',
                          'H', 'H', 'H', 'H', 'H', 'H', 'H', 'H', 'H', 'H', 'H', 'H'],
              'validated': True},
 'protocols': {},
 'provenance': {'creator': 'QCElemental', 'routine': 'qcelemental.models.results', 'version': '0.29.0'},
 'schema_name': 'qcschema_input',
 'schema_version': 1}
--------------------------------------------------------------------------

Scratch directory: /tmp/tmp30qz5a7q_psi_scratch/
   => Libint2 <=

    Primary   basis highest AM E, G, H:  6, 6, 3
    Auxiliary basis highest AM E, G, H:  7, 7, 4
    Onebody   basis highest AM E, G, H:  -, -, -
    Solid Harmonics ordering:            Gaussian

*** tstart() called on atl1-1-03-004-8-2.pace.gatech.edu
*** at Sat Jun 13 20:46:22 2026

   => Loading Basis Set <=

    Name: AUG-CC-PVTZ
    Role: ORBITAL
    Keyword: BASIS
    atoms 1-24, 45-68  entry C          line   239 file /storage/home/hcoda1/5/vlita3/.conda/envs/p4_qcml/share/psi4/basis/aug-cc-pvtz.gbs 
    atoms 25-44, 69-88 entry H          line    40 file /storage/home/hcoda1/5/vlita3/.conda/envs/p4_qcml/share/psi4/basis/aug-cc-pvtz.gbs 

   => B2PLYP-D3: Empirical Dispersion <=

    Grimme's -D3 (zero-damping) Dispersion Correction
    Grimme S.; Antony J.; Ehrlich S.; Krieg H. (2010), J. Chem. Phys., 132: 154104
    Parametrisation from:    L. Goerigk, S. Grimme, J. Chem. Theory Comput. 7, 291-309, 2011

        s6 =       0.640000
        s8 =       1.022000
       sr6 =       1.427000
    alpha6 =      14.000000
       sr8 =       1.000000


         ---------------------------------------------------------
                                   SCF
               by Justin Turney, Rob Parrish, Andy Simmonett
                          and Daniel G. A. Smith
                              RKS Reference
                       10 Threads, 256000 MiB Core
         ---------------------------------------------------------

  ==> Geometry <==

    Molecular point group: c1
    Full point group: C1

    Geometry (in Bohr), charge = 0, multiplicity = 1:

       Center              X                  Y                   Z               Mass       
    ------------   -----------------  -----------------  -----------------  -----------------
         C           25.479637810000    23.083510490000    43.129689600000    12.000000000000
         C           24.896909540000    20.520123310000    43.887087000000    12.000000000000
         C           25.070571980000    18.486994040000    42.073536410000    12.000000000000
         C           25.842487700000    19.048809440000    39.520136630000    12.000000000000
         C           26.469036070000    21.614526750000    38.851995930000    12.000000000000
         C           26.303188210000    23.593300660000    40.544601030000    12.000000000000
         C           24.465771760000    15.927909200000    42.770360870000    12.000000000000
         C           23.768117170000    15.376956290000    45.408380810000    12.000000000000
         C           23.598594760000    17.388800580000    47.222658440000    12.000000000000
         C           24.108101800000    20.020076710000    46.443464130000    12.000000000000
         C           22.966940770000    16.772676120000    49.771927580000    12.000000000000
         C           22.510627380000    14.291306260000    50.585971850000    12.000000000000
         C           22.674270550000    12.321779990000    48.762315570000    12.000000000000
         C           23.279713060000    12.863093260000    46.252260430000    12.000000000000
         C           25.974674970000    17.072705200000    37.710681540000    12.000000000000
         C           25.347895860000    14.591234630000    38.394370830000    12.000000000000
         C           24.599697080000    14.027751800000    40.887843470000    12.000000000000
         C           25.200399920000    25.058872700000    44.921111260000    12.000000000000
         C           24.353210710000    24.595251030000    47.399460730000    12.000000000000
         C           23.840848770000    22.080992080000    48.127952370000    12.000000000000
         C           21.860468380000    13.695569320000    53.322351710000    12.000000000000
         C           24.045553830000    26.763706540000    49.278897730000    12.000000000000
         C           26.509156330000    27.411789790000    50.733751290000    12.000000000000
         C           26.931085990000    26.270948390000    39.723560460000    12.000000000000
         H           27.103115780000    21.981635650000    36.899069840000     1.007825032230
         H           22.322652990000    10.345837990000    49.336668340000     1.007825032230
         H           23.393720810000    11.283003050000    44.904895040000     1.007825032230
         H           26.576120380000    17.519739590000    35.765961340000     1.007825032230
         H           25.436649360000    13.062039060000    36.978008980000     1.007825032230
         H           24.120029470000    12.058549190000    41.352740800000     1.007825032230
         H           25.628178250000    27.017617670000    44.361717930000     1.007825032230
         H           23.187243320000    21.752196070000    50.076083940000     1.007825032230
         H           23.270131450000    12.385102940000    54.178573280000     1.007825032230
         H           21.796292730000    15.428039660000    54.506877690000     1.007825032230
         H           19.987054020000    12.744872520000    53.475279140000     1.007825032230
         H           22.531679060000    26.281983860000    50.661914800000     1.007825032230
         H           23.380697930000    28.481028980000    48.256122670000     1.007825032230
         H           27.195692660000    25.756506700000    51.833100190000     1.007825032230
         H           28.041562670000    27.969653920000    49.408212630000     1.007825032230
         H           28.391454410000    27.142865100000    40.955135150000     1.007825032230
         H           25.234562060000    27.518974610000    39.798920280000     1.007825032230
         H           27.662079220000    26.299541150000    37.757550150000     1.007825032230
         H           26.202216600000    29.000711950000    52.078089900000     1.007825032230
         H           22.836115370000    18.291349250000    51.188147300000     1.007825032230
         C           30.813421930000    18.710179890000    45.993590290000    12.000000000000
         C           31.578823900000    19.745559730000    43.580271130000    12.000000000000
         C           32.189229210000    22.397465740000    43.360098410000    12.000000000000
         C           32.047314730000    23.980561610000    45.575781450000    12.000000000000
         C           31.255620950000    22.884853550000    47.941863750000    12.000000000000
         C           30.640656550000    20.362968120000    48.197593240000    12.000000000000
         C           32.960988580000    23.468755580000    40.980685430000    12.000000000000
         C           32.977687900000    21.849817700000    38.715632150000    12.000000000000
         C           32.396880510000    19.207546730000    38.927834280000    12.000000000000
         C           31.751082620000    18.111964400000    41.410400420000    12.000000000000
         C           32.385101480000    17.708590010000    36.688368100000    12.000000000000
         C           32.898848690000    18.703884230000    34.286270150000    12.000000000000
         C           33.460457470000    21.327874290000    34.106035820000    12.000000000000
         C           33.500205440000    22.844137850000    36.264713590000    12.000000000000
         C           32.710841680000    26.575199020000    45.394308130000    12.000000000000
         C           33.517460540000    27.592296260000    43.083391200000    12.000000000000
         C           33.640713650000    26.059331560000    40.907872200000    12.000000000000
         C           30.268343150000    16.091662710000    46.167200610000    12.000000000000
         C           30.497465480000    14.474318260000    44.069103850000    12.000000000000
         C           31.239648410000    15.507577850000    41.725807430000    12.000000000000
         C           32.852458580000    17.056601230000    31.930071820000    12.000000000000
         C           30.035239600000    11.643867980000    44.339121940000    12.000000000000
         C           32.456447310000    10.162768560000    45.086276230000    12.000000000000
         C           29.837412290000    19.309373450000    50.744532490000    12.000000000000
         H           31.159443530000    24.136923780000    49.605980370000     1.007825032230
         H           33.861152590000    22.175472380000    32.240633180000     1.007825032230
         H           33.924036130000    24.868284610000    36.039314520000     1.007825032230
         H           32.606932640000    27.771442760000    47.100428900000     1.007825032230
         H           34.057050160000    29.603312720000    42.956883010000     1.007825032230
         H           34.278074760000    26.923081740000    39.126552190000     1.007825032230
         H           29.647227910000    15.287136960000    47.983027870000     1.007825032230
         H           31.381455070000    14.216153210000    40.102684710000     1.007825032230
         H           34.735737000000    17.013088920000    30.986800810000     1.007825032230
         H           32.314437750000    15.075477300000    32.371704950000     1.007825032230
         H           31.485891230000    17.791222970000    30.505346590000     1.007825032230
         H           29.280499330000    10.884780840000    42.526494070000     1.007825032230
         H           28.543576180000    11.317994430000    45.786901480000     1.007825032230
         H           33.972694550000    10.410591710000    43.649755710000     1.007825032230
         H           33.219220700000    10.841257010000    46.924945230000     1.007825032230
         H           31.182216520000    17.844652760000    51.440638090000     1.007825032230
         H           27.948963570000    18.392733420000    50.643940790000     1.007825032230
         H           29.741258730000    20.827140160000    52.190338820000     1.007825032230
         H           32.066132320000     8.102977330000    45.267040020000     1.007825032230
         H           31.918462080000    15.686526690000    36.818604170000     1.007825032230

  Running in c1 symmetry.

  Rotational constants: A =      0.00210  B =      0.00003  C =      0.00003 [cm^-1]
  Rotational constants: A =     62.96897  B =      0.94325  C =      0.93874 [MHz]
  Nuclear repulsion = 6199.614502676580742

  Charge       = 0
  Multiplicity = 1
  Electrons    = 328
  Nalpha       = 164
  Nbeta        = 164

  ==> Algorithm <==

  SCF Algorithm Type is DF.
  DIIS enabled.
  MOM disabled.
  Fractional occupation disabled.
  Guess Type is SAD.
  Energy threshold   = 1.00e-06
  Density threshold  = 1.00e-06
  Integral threshold = 1.00e-12

  ==> Primary Basis <==

  Basis Set: AUG-CC-PVTZ
    Blend: AUG-CC-PVTZ
    Number of shells: 1032
    Number of basis functions: 3128
    Number of Cartesian functions: 3640
    Spherical Harmonics?: true
    Max angular momentum: 3

  ==> DFT Potential <==

   => LibXC <=

    Version 7.0.0
    S. Lehtola, C. Steigemann, M. J.T. Oliveira, and M. A.L. Marques.,  SoftwareX 7, 1–5 (2018) (10.1016/j.softx.2017.11.002)

   => Composite Functional: B2PLYP-D3ZERO2B <= 

    B2PLYP Double Hybrid Exchange-Correlation Functional

    S. Grimme, J. Chem. Phys., 124, 034108, 2006


    Deriv               =              1
    GGA                 =           TRUE
    Meta                =          FALSE

    Exchange Hybrid     =           TRUE
    MP2 Hybrid          =           TRUE

   => Exchange Functionals <=

    0.4700     XC_GGA_X_B88

   => Exact (HF) Exchange <=

    0.5300               HF 

   => Correlation Functionals <=

    0.7300     XC_GGA_C_LYP

   => MP2 Correlation <=

    0.2700       MP2 

   => LibXC Density Thresholds  <==

    XC_GGA_C_LYP:  1.00E-14 
    XC_GGA_X_B88:  1.00E-15 

   => Molecular Quadrature <=

    Radial Scheme          =       TREUTLER
    Pruning Scheme         =           NONE
    Nuclear Scheme         =       TREUTLER

    Blocking Scheme        =         OCTREE
    BS radius alpha        =              1
    Pruning alpha          =              1
    Radial Points          =             75
    Spherical Points       =            302
    Total Points           =        1755895
    Total Blocks           =          12038
    Max Points             =            256
    Max Functions          =           2202
    Weights Tolerance      =       1.00E-15

   => Loading Basis Set <=

    Name: (AUG-CC-PVTZ AUX)
    Role: JKFIT
    Keyword: DF_BASIS_SCF
    atoms 1-24, 45-68  entry C          line   162 file /storage/home/hcoda1/5/vlita3/.conda/envs/p4_qcml/share/psi4/basis/aug-cc-pvtz-jkfit.gbs 
    atoms 25-44, 69-88 entry H          line    70 file /storage/home/hcoda1/5/vlita3/.conda/envs/p4_qcml/share/psi4/basis/aug-cc-pvtz-jkfit.gbs 

  ==> Integral Setup <==

  ==> DiskDFJK: Density-Fitted J/K Matrices <==

    J tasked:                  Yes
    K tasked:                  Yes
    wK tasked:                  No
    OpenMP threads:             10
    Integrals threads:          10
    Memory [MiB]:           172800
    Algorithm:                Disk
    Integral Cache:           NONE
    Schwarz Cutoff:          1E-12
    Fitting Condition:       1E-10

   => Auxiliary Basis Set <=

  Basis Set: (AUG-CC-PVTZ AUX)
    Blend: AUG-CC-PVTZ-JKFIT
    Number of shells: 2000
    Number of basis functions: 6832
    Number of Cartesian functions: 8488
    Spherical Harmonics?: true
    Max angular momentum: 4

  Minimum eigenvalue in the overlap matrix is 6.3711160731E-10.
  Reciprocal condition number of the overlap matrix is 1.7895063395E-11.
    Using canonical orthogonalization.
  Overall, 29 of 3128 possible MOs eliminated.


  ==> Pre-Iterations <==

  SCF Guess: Superposition of Atomic Densities via on-the-fly atomic UHF (no occupation information).

   -------------------------
    Irrep   Nso     Nmo    
   -------------------------
     A       3128    3099 
   -------------------------
    Total    3128    3099
   -------------------------

  ==> Iterations <==

                           Total Energy        Delta E     RMS |[F,P]|

   @DF-RKS iter SAD: -1849.30329001060886   -1.84930e+03   0.00000e+00 
   @DF-RKS iter   1: -1847.81930544194461    1.48398e+00   6.14403e-04 ADIIS/DIIS
   @DF-RKS iter   2: -1848.45748919763878   -6.38184e-01   5.07848e-04 ADIIS/DIIS
   @DF-RKS iter   3: -1849.74245497769834   -1.28497e+00   1.29394e-04 ADIIS/DIIS
   @DF-RKS iter   4: -1849.81115798339670   -6.87030e-02   5.77408e-05 DIIS
   @DF-RKS iter   5: -1849.82682481173356   -1.56668e-02   1.62001e-05 DIIS
   @DF-RKS iter   6: -1849.82803460552145   -1.20979e-03   4.81819e-06 DIIS
   @DF-RKS iter   7: -1849.82814740434424   -1.12799e-04   1.47723e-06 DIIS
   @DF-RKS iter   8: -1849.82815861629138   -1.12119e-05   4.78222e-07 DIIS
   @DF-RKS iter   9: -1849.82815994660496   -1.33031e-06   1.94134e-07 DIIS
   @DF-RKS iter  10: -1849.82816017918549   -2.32581e-07   7.20174e-08 DIIS
  Energy and wave function converged.


  ==> Post-Iterations <==

   Electrons on quadrature grid:
      Ntotal   =  328.0004907680 ; deviation = 4.908e-04 

    Orbital Energies [Eh]
    ---------------------

    Doubly Occupied:                                                      

       1A    -10.639860     2A    -10.637623     3A    -10.637273  
       4A    -10.636916     5A    -10.636148     6A    -10.636073  
       7A    -10.635650     8A    -10.635131     9A    -10.635016  
      10A    -10.633126    11A    -10.631868    12A    -10.631355  
      13A    -10.631098    14A    -10.630740    15A    -10.630670  
      16A    -10.630386    17A    -10.629958    18A    -10.629483  
      19A    -10.629222    20A    -10.628916    21A    -10.628521  
      22A    -10.628467    23A    -10.626489    24A    -10.625870  
      25A    -10.625003    26A    -10.625000    27A    -10.624800  
      28A    -10.624775    29A    -10.623994    30A    -10.623910  
      31A    -10.623703    32A    -10.622960    33A    -10.622549  
      34A    -10.622357    35A    -10.622254    36A    -10.621575  
      37A    -10.620564    38A    -10.620026    39A    -10.619095  
      40A    -10.617672    41A    -10.616253    42A    -10.616128  
      43A    -10.615091    44A    -10.615080    45A    -10.614751  
      46A    -10.613770    47A    -10.609900    48A    -10.609832  
      49A     -1.011946    50A     -1.007618    51A     -0.976599  
      52A     -0.975193    53A     -0.966605    54A     -0.963730  
      55A     -0.931881    56A     -0.930506    57A     -0.914124  
      58A     -0.912298    59A     -0.891334    60A     -0.889652  
      61A     -0.870747    62A     -0.868981    63A     -0.865880  
      64A     -0.864901    65A     -0.850280    66A     -0.848839  
      67A     -0.821672    68A     -0.819963    69A     -0.816124  
      70A     -0.813796    71A     -0.784634    72A     -0.783314  
      73A     -0.781383    74A     -0.779184    75A     -0.733039  
      76A     -0.730114    77A     -0.721092    78A     -0.719226  
      79A     -0.702634    80A     -0.701924    81A     -0.695377  
      82A     -0.694720    83A     -0.685864    84A     -0.683613  
      85A     -0.660483    86A     -0.659523    87A     -0.622357  
      88A     -0.620512    89A     -0.604933    90A     -0.604099  
      91A     -0.595525    92A     -0.593133    93A     -0.571568  
      94A     -0.570617    95A     -0.563088    96A     -0.561578  
      97A     -0.536936    98A     -0.536215    99A     -0.533891  
     100A     -0.532315   101A     -0.527933   102A     -0.526423  
     103A     -0.515070   104A     -0.513489   105A     -0.511206  
     106A     -0.509067   107A     -0.499321   108A     -0.496742  
     109A     -0.492864   110A     -0.488075   111A     -0.485793  
     112A     -0.484616   113A     -0.482388   114A     -0.481280  
     115A     -0.479294   116A     -0.478682   117A     -0.477002  
     118A     -0.476144   119A     -0.467891   120A     -0.467654  
     121A     -0.462997   122A     -0.461442   123A     -0.456042  
     124A     -0.453217   125A     -0.447097   126A     -0.446822  
     127A     -0.443906   128A     -0.443416   129A     -0.440859  
     130A     -0.436884   131A     -0.432466   132A     -0.431726  
     133A     -0.426992   134A     -0.424297   135A     -0.421513  
     136A     -0.420138   137A     -0.417895   138A     -0.412625  
     139A     -0.408825   140A     -0.407822   141A     -0.404351  
     142A     -0.401480   143A     -0.399596   144A     -0.398744  
     145A     -0.396795   146A     -0.393800   147A     -0.373018  
     148A     -0.371563   149A     -0.370871   150A     -0.370368  
     151A     -0.353265   152A     -0.347793   153A     -0.331410  
     154A     -0.321413   155A     -0.320720   156A     -0.312816  
     157A     -0.281402   158A     -0.278243   159A     -0.271947  
     160A     -0.267705   161A     -0.241171   162A     -0.238672  
     163A     -0.222137   164A     -0.220075  

    Virtual:                                                              

     165A     -0.014504   166A     -0.011661   167A      0.002339  
     168A      0.004713   169A      0.005957   170A      0.007428  
     171A      0.009369   172A      0.014387   173A      0.014462  
     174A      0.016186   175A      0.020559   176A      0.021040  
     177A      0.023143   178A      0.025802   179A      0.025928  
     180A      0.027585   181A      0.030876   182A      0.032069  
     183A      0.033763   184A      0.036175   185A      0.036535  
     186A      0.038111   187A      0.040143   188A      0.043613  
     189A      0.045299   190A      0.046343   191A      0.047878  
     192A      0.049721   193A      0.051412   194A      0.053148  
     195A      0.054604   196A      0.056698   197A      0.058070  
     198A      0.061389   199A      0.062507   200A      0.063947  
     201A      0.065108   202A      0.067375   203A      0.069042  
     204A      0.070503   205A      0.073394   206A      0.073558  
     207A      0.075225   208A      0.075831   209A      0.076637  
     210A      0.077657   211A      0.078817   212A      0.082621  
     213A      0.083518   214A      0.084097   215A      0.085928  
     216A      0.086585   217A      0.086983   218A      0.088156  
     219A      0.089867   220A      0.090692   221A      0.092806  
     222A      0.094023   223A      0.095359   224A      0.096906  
     225A      0.097077   226A      0.098018   227A      0.099347  
     228A      0.100641   229A      0.101312   230A      0.102946  
     231A      0.103922   232A      0.105811   233A      0.107333  
     234A      0.108271   235A      0.110064   236A      0.111649  
     237A      0.112113   238A      0.113301   239A      0.116028  
     240A      0.116970   241A      0.117654   242A      0.118891  
     243A      0.119127   244A      0.120291   245A      0.122097  
     246A      0.123575   247A      0.123936   248A      0.124975  
     249A      0.126369   250A      0.128760   251A      0.129176  
     252A      0.130510   253A      0.131884   254A      0.134114  
     255A      0.134310   256A      0.134639   257A      0.137692  
     258A      0.138699   259A      0.139498   260A      0.141173  
     261A      0.141487   262A      0.142896   263A      0.144211  
     264A      0.147351   265A      0.149377   266A      0.149717  
     267A      0.150912   268A      0.151968   269A      0.152352  
     270A      0.154107   271A      0.154510   272A      0.155633  
     273A      0.157979   274A      0.158633   275A      0.159872  
     276A      0.162406   277A      0.162552   278A      0.163209  
     279A      0.165082   280A      0.167726   281A      0.168810  
     282A      0.169938   283A      0.172235   284A      0.173199  
     285A      0.174031   286A      0.174728   287A      0.175795  
     288A      0.176515   289A      0.179090   290A      0.179978  
     291A      0.180934   292A      0.181743   293A      0.184233  
     294A      0.186263   295A      0.187344   296A      0.190616  
     297A      0.191841   298A      0.193249   299A      0.194514  
     300A      0.196855   301A      0.197484   302A      0.198166  
     303A      0.198721   304A      0.200060   305A      0.202525  
     306A      0.203503   307A      0.204897   308A      0.206583  
     309A      0.207144   310A      0.207567   311A      0.209984  
     312A      0.210651   313A      0.211847   314A      0.212705  
     315A      0.213675   316A      0.215174   317A      0.216645  
     318A      0.216902   319A      0.218996   320A      0.219742  
     321A      0.220130   322A      0.220423   323A      0.221939  
     324A      0.223424   325A      0.224182   326A      0.226211  
     327A      0.227288   328A      0.227668   329A      0.228349  
     330A      0.229767   331A      0.231048   332A      0.231719  
     333A      0.233443   334A      0.234541   335A      0.235068  
     336A      0.236234   337A      0.237161   338A      0.238624  
     339A      0.239988   340A      0.240655   341A      0.241311  
     342A      0.243679   343A      0.244408   344A      0.245520  
     345A      0.247467   346A      0.247644   347A      0.249104  
     348A      0.249428   349A      0.250177   350A      0.251159  
     351A      0.253262   352A      0.254251   353A      0.254985  
     354A      0.255591   355A      0.256162   356A      0.256692  
     357A      0.258270   358A      0.259738   359A      0.261969  
     360A      0.263024   361A      0.263806   362A      0.265592  
     363A      0.266232   364A      0.267958   365A      0.268301  
     366A      0.269926   367A      0.270693   368A      0.272202  
     369A      0.273241   370A      0.273857   371A      0.274341  
     372A      0.275639   373A      0.276388   374A      0.276825  
     375A      0.280016   376A      0.280965   377A      0.281737  
     378A      0.282958   379A      0.284698   380A      0.285442  
     381A      0.286040   382A      0.287123   383A      0.289208  
     384A      0.290162   385A      0.290924   386A      0.291326  
     387A      0.292082   388A      0.293888   389A      0.295555  
     390A      0.296116   391A      0.296565   392A      0.299165  
     393A      0.299744   394A      0.300115   395A      0.301025  
     396A      0.302457   397A      0.302923   398A      0.305657  
     399A      0.305920   400A      0.307897   401A      0.308713  
     402A      0.309756   403A      0.309964   404A      0.310791  
     405A      0.312183   406A      0.313194   407A      0.313932  
     408A      0.315138   409A      0.316475   410A      0.317401  
     411A      0.318355   412A      0.320171   413A      0.320627  
     414A      0.322177   415A      0.323267   416A      0.324855  
     417A      0.326510   418A      0.327102   419A      0.329008  
     420A      0.329516   421A      0.330210   422A      0.332119  
     423A      0.333096   424A      0.333468   425A      0.335518  
     426A      0.336601   427A      0.336971   428A      0.338012  
     429A      0.338783   430A      0.340594   431A      0.341502  
     432A      0.344133   433A      0.344454   434A      0.346117  
     435A      0.346511   436A      0.347780   437A      0.348952  
     438A      0.349655   439A      0.350443   440A      0.352716  
     441A      0.352991   442A      0.353751   443A      0.355670  
     444A      0.356673   445A      0.357977   446A      0.358910  
     447A      0.359183   448A      0.361656   449A      0.362324  
     450A      0.363370   451A      0.365215   452A      0.367746  
     453A      0.368490   454A      0.368869   455A      0.369233  
     456A      0.370933   457A      0.371689   458A      0.372137  
     459A      0.373759   460A      0.374265   461A      0.376199  
     462A      0.377468   463A      0.379159   464A      0.381451  
     465A      0.383082   466A      0.383683   467A      0.385063  
     468A      0.385447   469A      0.386841   470A      0.388545  
     471A      0.390408   472A      0.391920   473A      0.392964  
     474A      0.393455   475A      0.395530   476A      0.397524  
     477A      0.398895   478A      0.399990   479A      0.402129  
     480A      0.403313   481A      0.403572   482A      0.405955  
     483A      0.407346   484A      0.408608   485A      0.409582  
     486A      0.410411   487A      0.410816   488A      0.413639  
     489A      0.415865   490A      0.416180   491A      0.417897  
     492A      0.419755   493A      0.420472   494A      0.420969  
     495A      0.422584   496A      0.423827   497A      0.425529  
     498A      0.427691   499A      0.428792   500A      0.429989  
     501A      0.431460   502A      0.432770   503A      0.433594  
     504A      0.434680   505A      0.436857   506A      0.436889  
     507A      0.438392   508A      0.439301   509A      0.440473  
     510A      0.442055   511A      0.443932   512A      0.444908  
     513A      0.447114   514A      0.448287   515A      0.449616  
     516A      0.451087   517A      0.452727   518A      0.453432  
     519A      0.454243   520A      0.454710   521A      0.455938  
     522A      0.456973   523A      0.458295   524A      0.459190  
     525A      0.460636   526A      0.462035   527A      0.463743  
     528A      0.464518   529A      0.465852   530A      0.467716  
     531A      0.467866   532A      0.469543   533A      0.470422  
     534A      0.470961   535A      0.471922   536A      0.472756  
     537A      0.474442   538A      0.474946   539A      0.476054  
     540A      0.477235   541A      0.478070   542A      0.478749  
     543A      0.479079   544A      0.480284   545A      0.481006  
     546A      0.482420   547A      0.483485   548A      0.483842  
     549A      0.485396   550A      0.485618   551A      0.487542  
     552A      0.488788   553A      0.490878   554A      0.490935  
     555A      0.491777   556A      0.493657   557A      0.493909  
     558A      0.494719   559A      0.495485   560A      0.496927  
     561A      0.497247   562A      0.498485   563A      0.499512  
     564A      0.500329   565A      0.502103   566A      0.503239  
     567A      0.503846   568A      0.504336   569A      0.506605  
     570A      0.506880   571A      0.507901   572A      0.508151  
     573A      0.510060   574A      0.511015   575A      0.512162  
     576A      0.513189   577A      0.514262   578A      0.514796  
     579A      0.516196   580A      0.517000   581A      0.518251  
     582A      0.519247   583A      0.520751   584A      0.521807  
     585A      0.523105   586A      0.524033   587A      0.525731  
     588A      0.526913   589A      0.527702   590A      0.529143  
     591A      0.529703   592A      0.531063   593A      0.531449  
     594A      0.533858   595A      0.534633   596A      0.535616  
     597A      0.537642   598A      0.538111   599A      0.539393  
     600A      0.540453   601A      0.541947   602A      0.542848  
     603A      0.543716   604A      0.544562   605A      0.545724  
     606A      0.545997   607A      0.547525   608A      0.548910  
     609A      0.550460   610A      0.551650   611A      0.553928  
     612A      0.554320   613A      0.554683   614A      0.555428  
     615A      0.557402   616A      0.558277   617A      0.560444  
     618A      0.561190   619A      0.562647   620A      0.563293  
     621A      0.564076   622A      0.565895   623A      0.566755  
     624A      0.568589   625A      0.570404   626A      0.570911  
     627A      0.572016   628A      0.574588   629A      0.574816  
     630A      0.575769   631A      0.577787   632A      0.578589  
     633A      0.579378   634A      0.580657   635A      0.582562  
     636A      0.584078   637A      0.585316   638A      0.586917  
     639A      0.589187   640A      0.590483   641A      0.593611  
     642A      0.593807   643A      0.596172   644A      0.596599  
     645A      0.597382   646A      0.599242   647A      0.600323  
     648A      0.602020   649A      0.605192   650A      0.605789  
     651A      0.605884   652A      0.607238   653A      0.608603  
     654A      0.610304   655A      0.612152   656A      0.613065  
     657A      0.616067   658A      0.617379   659A      0.617643  
     660A      0.619132   661A      0.621514   662A      0.622003  
     663A      0.622792   664A      0.624504   665A      0.624823  
     666A      0.626921   667A      0.628079   668A      0.630616  
     669A      0.633915   670A      0.634962   671A      0.636519  
     672A      0.637757   673A      0.639765   674A      0.640391  
     675A      0.641748   676A      0.642994   677A      0.643840  
     678A      0.646412   679A      0.650261   680A      0.651195  
     681A      0.653131   682A      0.654793   683A      0.656830  
     684A      0.657199   685A      0.659542   686A      0.659859  
     687A      0.660749   688A      0.661259   689A      0.664772  
     690A      0.665618   691A      0.668047   692A      0.670131  
     693A      0.671147   694A      0.671981   695A      0.672603  
     696A      0.676463   697A      0.677075   698A      0.678700  
     699A      0.679874   700A      0.682068   701A      0.682297  
     702A      0.685415   703A      0.686105   704A      0.688420  
     705A      0.690298   706A      0.691471   707A      0.694204  
     708A      0.695780   709A      0.696369   710A      0.697444  
     711A      0.698409   712A      0.699919   713A      0.701934  
     714A      0.703647   715A      0.707045   716A      0.707627  
     717A      0.708604   718A      0.709039   719A      0.710735  
     720A      0.711067   721A      0.712518   722A      0.715401  
     723A      0.715912   724A      0.718283   725A      0.718876  
     726A      0.720979   727A      0.722605   728A      0.723744  
     729A      0.726788   730A      0.727753   731A      0.730522  
     732A      0.731340   733A      0.733122   734A      0.734434  
     735A      0.734519   736A      0.736311   737A      0.737619  
     738A      0.741015   739A      0.741395   740A      0.742318  
     741A      0.744118   742A      0.746422   743A      0.747215  
     744A      0.748904   745A      0.751286   746A      0.752328  
     747A      0.753284   748A      0.755516   749A      0.755864  
     750A      0.758667   751A      0.759931   752A      0.761410  
     753A      0.762445   754A      0.765126   755A      0.766154  
     756A      0.768095   757A      0.769192   758A      0.771300  
     759A      0.772609   760A      0.773750   761A      0.776886  
     762A      0.777466   763A      0.777702   764A      0.779833  
     765A      0.780335   766A      0.781604   767A      0.783925  
     768A      0.785202   769A      0.786735   770A      0.787411  
     771A      0.788502   772A      0.789768   773A      0.791426  
     774A      0.793024   775A      0.793473   776A      0.795573  
     777A      0.797409   778A      0.798533   779A      0.800641  
     780A      0.801550   781A      0.803256   782A      0.805137  
     783A      0.806007   784A      0.806698   785A      0.808711  
     786A      0.810307   787A      0.811354   788A      0.814163  
     789A      0.814685   790A      0.816985   791A      0.817393  
     792A      0.819564   793A      0.820003   794A      0.821036  
     795A      0.822757   796A      0.824367   797A      0.825923  
     798A      0.827156   799A      0.829198   800A      0.829947  
     801A      0.831535   802A      0.833053   803A      0.834409  
     804A      0.834927   805A      0.835237   806A      0.836663  
     807A      0.838174   808A      0.838753   809A      0.839335  
     810A      0.840418   811A      0.843060   812A      0.844040  
     813A      0.845634   814A      0.848179   815A      0.849616  
     816A      0.851054   817A      0.852001   818A      0.853122  
     819A      0.853945   820A      0.855535   821A      0.856832  
     822A      0.858590   823A      0.859497   824A      0.860997  
     825A      0.861824   826A      0.863153   827A      0.865152  
     828A      0.866128   829A      0.867011   830A      0.868872  
     831A      0.870850   832A      0.872513   833A      0.873386  
     834A      0.875174   835A      0.875880   836A      0.877640  
     837A      0.879054   838A      0.880017   839A      0.881879  
     840A      0.883089   841A      0.883642   842A      0.885538  
     843A      0.886857   844A      0.888297   845A      0.889472  
     846A      0.890270   847A      0.891315   848A      0.892564  
     849A      0.893444   850A      0.894350   851A      0.896685  
     852A      0.898088   853A      0.898489   854A      0.900956  
     855A      0.902183   856A      0.903254   857A      0.904142  
     858A      0.905833   859A      0.907653   860A      0.907832  
     861A      0.909298   862A      0.911043   863A      0.912197  
     864A      0.912419   865A      0.912986   866A      0.914796  
     867A      0.917199   868A      0.917826   869A      0.919307  
     870A      0.919877   871A      0.920546   872A      0.922814  
     873A      0.923589   874A      0.925285   875A      0.926127  
     876A      0.927562   877A      0.929450   878A      0.930623  
     879A      0.931752   880A      0.933178   881A      0.934514  
     882A      0.936706   883A      0.937533   884A      0.938019  
     885A      0.939460   886A      0.940752   887A      0.942247  
     888A      0.943812   889A      0.943961   890A      0.944969  
     891A      0.946907   892A      0.948822   893A      0.950934  
     894A      0.951122   895A      0.953818   896A      0.953920  
     897A      0.955873   898A      0.956584   899A      0.958428  
     900A      0.959432   901A      0.960493   902A      0.961975  
     903A      0.963101   904A      0.963374   905A      0.965372  
     906A      0.966233   907A      0.967850   908A      0.970299  
     909A      0.971637   910A      0.972373   911A      0.973059  
     912A      0.974868   913A      0.975761   914A      0.977541  
     915A      0.979084   916A      0.979922   917A      0.982216  
     918A      0.983345   919A      0.984817   920A      0.988456  
     921A      0.988724   922A      0.989321   923A      0.990857  
     924A      0.991301   925A      0.993097   926A      0.993959  
     927A      0.995919   928A      0.996926   929A      0.998752  
     930A      0.999926   931A      1.001507   932A      1.002730  
     933A      1.004872   934A      1.005514   935A      1.009604  
     936A      1.010425   937A      1.011350   938A      1.013088  
     939A      1.013174   940A      1.014930   941A      1.016108  
     942A      1.018956   943A      1.020585   944A      1.021539  
     945A      1.023057   946A      1.024181   947A      1.025586  
     948A      1.028206   949A      1.029899   950A      1.030202  
     951A      1.030763   952A      1.032507   953A      1.033395  
     954A      1.034955   955A      1.035871   956A      1.037290  
     957A      1.038052   958A      1.039738   959A      1.040804  
     960A      1.042506   961A      1.044437   962A      1.045247  
     963A      1.046434   964A      1.046999   965A      1.049091  
     966A      1.051308   967A      1.053467   968A      1.055190  
     969A      1.055512   970A      1.057401   971A      1.058145  
     972A      1.060856   973A      1.062866   974A      1.063336  
     975A      1.064134   976A      1.065201   977A      1.067247  
     978A      1.068820   979A      1.069143   980A      1.070491  
     981A      1.073355   982A      1.075241   983A      1.077841  
     984A      1.079162   985A      1.080942   986A      1.081844  
     987A      1.082921   988A      1.083738   989A      1.083747  
     990A      1.085352   991A      1.088649   992A      1.088961  
     993A      1.090554   994A      1.091636   995A      1.093394  
     996A      1.094217   997A      1.095367   998A      1.098261  
     999A      1.098741  1000A      1.099423  1001A      1.100428  
    1002A      1.102742  1003A      1.104427  1004A      1.106150  
    1005A      1.107346  1006A      1.110046  1007A      1.110838  
    1008A      1.112753  1009A      1.113107  1010A      1.113994  
    1011A      1.115612  1012A      1.116898  1013A      1.118356  
    1014A      1.118453  1015A      1.121279  1016A      1.123410  
    1017A      1.125165  1018A      1.127614  1019A      1.128038  
    1020A      1.129963  1021A      1.130695  1022A      1.133831  
    1023A      1.135513  1024A      1.135766  1025A      1.137378  
    1026A      1.138369  1027A      1.141254  1028A      1.142122  
    1029A      1.142294  1030A      1.143670  1031A      1.146402  
    1032A      1.147289  1033A      1.149074  1034A      1.151058  
    1035A      1.152387  1036A      1.153218  1037A      1.154857  
    1038A      1.155093  1039A      1.157266  1040A      1.158388  
    1041A      1.159036  1042A      1.161019  1043A      1.162151  
    1044A      1.166142  1045A      1.167568  1046A      1.168936  
    1047A      1.169768  1048A      1.171815  1049A      1.172799  
    1050A      1.173811  1051A      1.174559  1052A      1.176216  
    1053A      1.177110  1054A      1.180755  1055A      1.181615  
    1056A      1.184253  1057A      1.184829  1058A      1.185998  
    1059A      1.187672  1060A      1.188736  1061A      1.191265  
    1062A      1.191460  1063A      1.194214  1064A      1.196031  
    1065A      1.196864  1066A      1.199479  1067A      1.200794  
    1068A      1.202762  1069A      1.205511  1070A      1.207543  
    1071A      1.208306  1072A      1.210663  1073A      1.211166  
    1074A      1.213487  1075A      1.213785  1076A      1.215253  
    1077A      1.218668  1078A      1.219769  1079A      1.220632  
    1080A      1.222855  1081A      1.223191  1082A      1.225054  
    1083A      1.225954  1084A      1.229133  1085A      1.229547  
    1086A      1.232143  1087A      1.233382  1088A      1.234100  
    1089A      1.237058  1090A      1.238432  1091A      1.239850  
    1092A      1.242038  1093A      1.244610  1094A      1.246613  
    1095A      1.248596  1096A      1.250626  1097A      1.250997  
    1098A      1.252140  1099A      1.252660  1100A      1.254183  
    1101A      1.256215  1102A      1.257808  1103A      1.258676  
    1104A      1.262056  1105A      1.264087  1106A      1.265936  
    1107A      1.267172  1108A      1.269709  1109A      1.270530  
    1110A      1.271771  1111A      1.272706  1112A      1.274660  
    1113A      1.276464  1114A      1.278069  1115A      1.279829  
    1116A      1.280715  1117A      1.281682  1118A      1.283848  
    1119A      1.285701  1120A      1.286554  1121A      1.289341  
    1122A      1.290812  1123A      1.293036  1124A      1.296466  
    1125A      1.297225  1126A      1.299324  1127A      1.300318  
    1128A      1.301565  1129A      1.303587  1130A      1.304633  
    1131A      1.307492  1132A      1.308989  1133A      1.309843  
    1134A      1.310859  1135A      1.312327  1136A      1.312731  
    1137A      1.315371  1138A      1.319020  1139A      1.319619  
    1140A      1.320457  1141A      1.321537  1142A      1.323047  
    1143A      1.325149  1144A      1.326811  1145A      1.327762  
    1146A      1.331283  1147A      1.333063  1148A      1.335856  
    1149A      1.338093  1150A      1.339962  1151A      1.341477  
    1152A      1.343589  1153A      1.344199  1154A      1.345099  
    1155A      1.347013  1156A      1.347988  1157A      1.349905  
    1158A      1.350940  1159A      1.353504  1160A      1.354664  
    1161A      1.355030  1162A      1.356989  1163A      1.358238  
    1164A      1.358862  1165A      1.361183  1166A      1.362836  
    1167A      1.364806  1168A      1.365680  1169A      1.367960  
    1170A      1.371535  1171A      1.371878  1172A      1.374268  
    1173A      1.376102  1174A      1.377413  1175A      1.378590  
    1176A      1.380968  1177A      1.381633  1178A      1.384242  
    1179A      1.386715  1180A      1.386898  1181A      1.389047  
    1182A      1.390023  1183A      1.392419  1184A      1.393882  
    1185A      1.395989  1186A      1.397042  1187A      1.398146  
    1188A      1.400734  1189A      1.402740  1190A      1.403508  
    1191A      1.406072  1192A      1.406668  1193A      1.408536  
    1194A      1.409195  1195A      1.411353  1196A      1.414523  
    1197A      1.415725  1198A      1.416698  1199A      1.417407  
    1200A      1.420514  1201A      1.421099  1202A      1.421459  
    1203A      1.423132  1204A      1.426609  1205A      1.427561  
    1206A      1.429214  1207A      1.430976  1208A      1.432046  
    1209A      1.433468  1210A      1.434448  1211A      1.434949  
    1212A      1.438027  1213A      1.438953  1214A      1.441915  
    1215A      1.442218  1216A      1.444233  1217A      1.445752  
    1218A      1.447744  1219A      1.451720  1220A      1.452439  
    1221A      1.454925  1222A      1.456111  1223A      1.457830  
    1224A      1.458590  1225A      1.460573  1226A      1.463881  
    1227A      1.464554  1228A      1.465703  1229A      1.467390  
    1230A      1.469283  1231A      1.470977  1232A      1.472222  
    1233A      1.472533  1234A      1.473840  1235A      1.475660  
    1236A      1.477285  1237A      1.477477  1238A      1.479651  
    1239A      1.481648  1240A      1.483940  1241A      1.484921  
    1242A      1.486924  1243A      1.488588  1244A      1.490413  
    1245A      1.492353  1246A      1.494365  1247A      1.494765  
    1248A      1.496392  1249A      1.497630  1250A      1.498804  
    1251A      1.500536  1252A      1.503869  1253A      1.505105  
    1254A      1.507836  1255A      1.509169  1256A      1.510162  
    1257A      1.512019  1258A      1.513951  1259A      1.514236  
    1260A      1.515928  1261A      1.516732  1262A      1.517893  
    1263A      1.520641  1264A      1.523294  1265A      1.524620  
    1266A      1.525130  1267A      1.525890  1268A      1.528873  
    1269A      1.531143  1270A      1.532109  1271A      1.533770  
    1272A      1.535056  1273A      1.536318  1274A      1.537959  
    1275A      1.539737  1276A      1.541793  1277A      1.542859  
    1278A      1.544928  1279A      1.545784  1280A      1.547845  
    1281A      1.549184  1282A      1.549887  1283A      1.550731  
    1284A      1.551283  1285A      1.552325  1286A      1.553079  
    1287A      1.554327  1288A      1.556648  1289A      1.557415  
    1290A      1.559865  1291A      1.561522  1292A      1.562150  
    1293A      1.563722  1294A      1.565516  1295A      1.567537  
    1296A      1.569280  1297A      1.570584  1298A      1.571442  
    1299A      1.572875  1300A      1.574362  1301A      1.575893  
    1302A      1.577772  1303A      1.578447  1304A      1.581067  
    1305A      1.582845  1306A      1.583694  1307A      1.584774  
    1308A      1.587504  1309A      1.587690  1310A      1.589237  
    1311A      1.590061  1312A      1.591087  1313A      1.594335  
    1314A      1.594952  1315A      1.596694  1316A      1.597875  
    1317A      1.599260  1318A      1.601987  1319A      1.602268  
    1320A      1.604184  1321A      1.605683  1322A      1.608011  
    1323A      1.610020  1324A      1.610466  1325A      1.612162  
    1326A      1.615288  1327A      1.615343  1328A      1.616657  
    1329A      1.618728  1330A      1.621266  1331A      1.623006  
    1332A      1.623430  1333A      1.624449  1334A      1.625368  
    1335A      1.626408  1336A      1.628316  1337A      1.628963  
    1338A      1.630815  1339A      1.631778  1340A      1.635158  
    1341A      1.636282  1342A      1.639204  1343A      1.641552  
    1344A      1.642454  1345A      1.643089  1346A      1.644305  
    1347A      1.646332  1348A      1.647980  1349A      1.649279  
    1350A      1.650437  1351A      1.652016  1352A      1.653302  
    1353A      1.653915  1354A      1.655487  1355A      1.656467  
    1356A      1.659062  1357A      1.659840  1358A      1.663157  
    1359A      1.663683  1360A      1.664407  1361A      1.667170  
    1362A      1.668353  1363A      1.670104  1364A      1.670840  
    1365A      1.672025  1366A      1.673511  1367A      1.674954  
    1368A      1.678035  1369A      1.679298  1370A      1.679872  
    1371A      1.681112  1372A      1.683600  1373A      1.684949  
    1374A      1.685538  1375A      1.687655  1376A      1.688886  
    1377A      1.690167  1378A      1.692042  1379A      1.693947  
    1380A      1.694917  1381A      1.697863  1382A      1.698831  
    1383A      1.700736  1384A      1.701682  1385A      1.703443  
    1386A      1.704148  1387A      1.706223  1388A      1.707836  
    1389A      1.709542  1390A      1.712151  1391A      1.712601  
    1392A      1.713623  1393A      1.716723  1394A      1.717807  
    1395A      1.718938  1396A      1.720012  1397A      1.721155  
    1398A      1.723140  1399A      1.724418  1400A      1.725619  
    1401A      1.727463  1402A      1.728779  1403A      1.730038  
    1404A      1.731888  1405A      1.733452  1406A      1.734909  
    1407A      1.736040  1408A      1.737914  1409A      1.739418  
    1410A      1.741085  1411A      1.742596  1412A      1.744436  
    1413A      1.747198  1414A      1.748390  1415A      1.749023  
    1416A      1.752367  1417A      1.753114  1418A      1.754773  
    1419A      1.757231  1420A      1.759492  1421A      1.761871  
    1422A      1.764876  1423A      1.766204  1424A      1.767808  
    1425A      1.768152  1426A      1.769483  1427A      1.771437  
    1428A      1.772496  1429A      1.774892  1430A      1.776979  
    1431A      1.778329  1432A      1.779739  1433A      1.782548  
    1434A      1.782778  1435A      1.784701  1436A      1.786481  
    1437A      1.788657  1438A      1.789733  1439A      1.791912  
    1440A      1.792338  1441A      1.794605  1442A      1.797310  
    1443A      1.798453  1444A      1.800400  1445A      1.802422  
    1446A      1.803205  1447A      1.804652  1448A      1.806066  
    1449A      1.807593  1450A      1.809307  1451A      1.811392  
    1452A      1.811990  1453A      1.812825  1454A      1.815842  
    1455A      1.818216  1456A      1.819435  1457A      1.820605  
    1458A      1.822602  1459A      1.824674  1460A      1.825024  
    1461A      1.828029  1462A      1.829269  1463A      1.831940  
    1464A      1.832332  1465A      1.833743  1466A      1.837004  
    1467A      1.838042  1468A      1.840053  1469A      1.843148  
    1470A      1.845396  1471A      1.847506  1472A      1.848099  
    1473A      1.851174  1474A      1.851971  1475A      1.854747  
    1476A      1.855936  1477A      1.856526  1478A      1.860720  
    1479A      1.863195  1480A      1.864210  1481A      1.867118  
    1482A      1.867863  1483A      1.871004  1484A      1.872515  
    1485A      1.872716  1486A      1.875357  1487A      1.877172  
    1488A      1.879201  1489A      1.880666  1490A      1.882933  
    1491A      1.883638  1492A      1.884984  1493A      1.888621  
    1494A      1.891457  1495A      1.894736  1496A      1.899231  
    1497A      1.900668  1498A      1.901888  1499A      1.902568  
    1500A      1.903975  1501A      1.905607  1502A      1.908796  
    1503A      1.909203  1504A      1.912341  1505A      1.915353  
    1506A      1.916533  1507A      1.917155  1508A      1.920179  
    1509A      1.922557  1510A      1.924460  1511A      1.926612  
    1512A      1.928018  1513A      1.929488  1514A      1.931507  
    1515A      1.933400  1516A      1.935773  1517A      1.937095  
    1518A      1.938439  1519A      1.941035  1520A      1.941470  
    1521A      1.946417  1522A      1.946813  1523A      1.948875  
    1524A      1.950835  1525A      1.952660  1526A      1.954119  
    1527A      1.957762  1528A      1.958670  1529A      1.961117  
    1530A      1.962845  1531A      1.964388  1532A      1.965742  
    1533A      1.968842  1534A      1.970518  1535A      1.974057  
    1536A      1.974404  1537A      1.976577  1538A      1.979852  
    1539A      1.982244  1540A      1.984722  1541A      1.985800  
    1542A      1.986789  1543A      1.987776  1544A      1.990391  
    1545A      1.991864  1546A      1.995106  1547A      1.995940  
    1548A      1.996238  1549A      1.998730  1550A      2.001012  
    1551A      2.004060  1552A      2.004981  1553A      2.007060  
    1554A      2.009267  1555A      2.012395  1556A      2.013354  
    1557A      2.015620  1558A      2.018040  1559A      2.019627  
    1560A      2.022823  1561A      2.024146  1562A      2.026562  
    1563A      2.029879  1564A      2.030741  1565A      2.033818  
    1566A      2.036074  1567A      2.037674  1568A      2.039024  
    1569A      2.040298  1570A      2.044021  1571A      2.044953  
    1572A      2.047090  1573A      2.050256  1574A      2.053330  
    1575A      2.055688  1576A      2.056211  1577A      2.057254  
    1578A      2.060070  1579A      2.061877  1580A      2.063151  
    1581A      2.065354  1582A      2.067769  1583A      2.069479  
    1584A      2.070990  1585A      2.073531  1586A      2.074930  
    1587A      2.076419  1588A      2.078978  1589A      2.079612  
    1590A      2.081789  1591A      2.084061  1592A      2.085695  
    1593A      2.088438  1594A      2.092307  1595A      2.092531  
    1596A      2.093889  1597A      2.096926  1598A      2.098730  
    1599A      2.099538  1600A      2.104474  1601A      2.107964  
    1602A      2.109390  1603A      2.110427  1604A      2.115519  
    1605A      2.116422  1606A      2.117258  1607A      2.119654  
    1608A      2.120939  1609A      2.121927  1610A      2.123630  
    1611A      2.127304  1612A      2.129837  1613A      2.131263  
    1614A      2.133505  1615A      2.134759  1616A      2.135812  
    1617A      2.136941  1618A      2.141917  1619A      2.143916  
    1620A      2.145873  1621A      2.147326  1622A      2.147634  
    1623A      2.148119  1624A      2.149873  1625A      2.150427  
    1626A      2.152272  1627A      2.155483  1628A      2.158498  
    1629A      2.158778  1630A      2.159805  1631A      2.160235  
    1632A      2.165462  1633A      2.166060  1634A      2.168139  
    1635A      2.171067  1636A      2.172966  1637A      2.175542  
    1638A      2.176423  1639A      2.178668  1640A      2.180501  
    1641A      2.180883  1642A      2.183516  1643A      2.184281  
    1644A      2.187332  1645A      2.190336  1646A      2.191248  
    1647A      2.192734  1648A      2.195999  1649A      2.197185  
    1650A      2.201004  1651A      2.203196  1652A      2.204329  
    1653A      2.207383  1654A      2.209500  1655A      2.211802  
    1656A      2.213555  1657A      2.214967  1658A      2.216699  
    1659A      2.219005  1660A      2.222371  1661A      2.223659  
    1662A      2.224769  1663A      2.227114  1664A      2.228856  
    1665A      2.230864  1666A      2.235332  1667A      2.235797  
    1668A      2.239705  1669A      2.241432  1670A      2.242466  
    1671A      2.245146  1672A      2.247374  1673A      2.248541  
    1674A      2.249909  1675A      2.254462  1676A      2.255598  
    1677A      2.255892  1678A      2.257777  1679A      2.259465  
    1680A      2.262359  1681A      2.264296  1682A      2.267144  
    1683A      2.267922  1684A      2.270333  1685A      2.275976  
    1686A      2.276931  1687A      2.278324  1688A      2.280938  
    1689A      2.282965  1690A      2.283958  1691A      2.287644  
    1692A      2.291657  1693A      2.292913  1694A      2.296165  
    1695A      2.299472  1696A      2.300835  1697A      2.304222  
    1698A      2.304502  1699A      2.308367  1700A      2.310405  
    1701A      2.313963  1702A      2.314832  1703A      2.316540  
    1704A      2.317902  1705A      2.320386  1706A      2.321215  
    1707A      2.323170  1708A      2.325171  1709A      2.329105  
    1710A      2.330844  1711A      2.332016  1712A      2.335731  
    1713A      2.337927  1714A      2.342062  1715A      2.345010  
    1716A      2.345376  1717A      2.348851  1718A      2.352019  
    1719A      2.352473  1720A      2.355491  1721A      2.357131  
    1722A      2.358059  1723A      2.361134  1724A      2.362595  
    1725A      2.365019  1726A      2.367503  1727A      2.373406  
    1728A      2.373704  1729A      2.375311  1730A      2.376898  
    1731A      2.378014  1732A      2.380111  1733A      2.383095  
    1734A      2.384364  1735A      2.384968  1736A      2.391479  
    1737A      2.393418  1738A      2.394954  1739A      2.399257  
    1740A      2.400232  1741A      2.402089  1742A      2.403952  
    1743A      2.407033  1744A      2.408587  1745A      2.413809  
    1746A      2.414941  1747A      2.417923  1748A      2.421513  
    1749A      2.422817  1750A      2.424468  1751A      2.425819  
    1752A      2.430092  1753A      2.430502  1754A      2.433918  
    1755A      2.436944  1756A      2.437708  1757A      2.440356  
    1758A      2.441627  1759A      2.444135  1760A      2.447397  
    1761A      2.449044  1762A      2.452505  1763A      2.457324  
    1764A      2.460333  1765A      2.462019  1766A      2.464348  
    1767A      2.466509  1768A      2.467685  1769A      2.468527  
    1770A      2.473108  1771A      2.474337  1772A      2.476676  
    1773A      2.479374  1774A      2.482265  1775A      2.483253  
    1776A      2.487442  1777A      2.489815  1778A      2.491401  
    1779A      2.496729  1780A      2.499034  1781A      2.501798  
    1782A      2.504166  1783A      2.506404  1784A      2.509415  
    1785A      2.511419  1786A      2.514693  1787A      2.515624  
    1788A      2.519682  1789A      2.520670  1790A      2.525860  
    1791A      2.526716  1792A      2.529958  1793A      2.533477  
    1794A      2.535630  1795A      2.535858  1796A      2.538716  
    1797A      2.544987  1798A      2.546424  1799A      2.548444  
    1800A      2.549392  1801A      2.554795  1802A      2.557795  
    1803A      2.559151  1804A      2.565241  1805A      2.567057  
    1806A      2.568399  1807A      2.572741  1808A      2.574622  
    1809A      2.578798  1810A      2.581333  1811A      2.583673  
    1812A      2.587754  1813A      2.590640  1814A      2.593280  
    1815A      2.596252  1816A      2.598145  1817A      2.602906  
    1818A      2.605706  1819A      2.606403  1820A      2.611410  
    1821A      2.614262  1822A      2.615814  1823A      2.619681  
    1824A      2.620284  1825A      2.624383  1826A      2.626396  
    1827A      2.630348  1828A      2.635034  1829A      2.639267  
    1830A      2.641111  1831A      2.646091  1832A      2.647916  
    1833A      2.649454  1834A      2.652136  1835A      2.655078  
    1836A      2.657659  1837A      2.660725  1838A      2.662978  
    1839A      2.667837  1840A      2.669593  1841A      2.673922  
    1842A      2.676693  1843A      2.681818  1844A      2.682823  
    1845A      2.685521  1846A      2.689848  1847A      2.695781  
    1848A      2.698803  1849A      2.701498  1850A      2.705307  
    1851A      2.709373  1852A      2.712727  1853A      2.713428  
    1854A      2.716110  1855A      2.718967  1856A      2.723518  
    1857A      2.726966  1858A      2.730266  1859A      2.733233  
    1860A      2.737210  1861A      2.739337  1862A      2.745937  
    1863A      2.746546  1864A      2.748106  1865A      2.753386  
    1866A      2.759338  1867A      2.760466  1868A      2.762042  
    1869A      2.770720  1870A      2.771496  1871A      2.774468  
    1872A      2.777897  1873A      2.780815  1874A      2.785387  
    1875A      2.788133  1876A      2.791841  1877A      2.796518  
    1878A      2.798601  1879A      2.800037  1880A      2.802982  
    1881A      2.808292  1882A      2.812268  1883A      2.821495  
    1884A      2.825352  1885A      2.832901  1886A      2.834327  
    1887A      2.837160  1888A      2.839603  1889A      2.845183  
    1890A      2.846600  1891A      2.852949  1892A      2.859629  
    1893A      2.863080  1894A      2.873858  1895A      2.877869  
    1896A      2.879395  1897A      2.883374  1898A      2.890136  
    1899A      2.894821  1900A      2.898807  1901A      2.900236  
    1902A      2.906734  1903A      2.909015  1904A      2.922846  
    1905A      2.929074  1906A      2.933837  1907A      2.940267  
    1908A      2.942162  1909A      2.946178  1910A      2.948408  
    1911A      2.952720  1912A      2.955455  1913A      2.958881  
    1914A      2.964687  1915A      2.972833  1916A      2.974397  
    1917A      2.980128  1918A      2.984560  1919A      2.987070  
    1920A      2.991571  1921A      2.999961  1922A      3.006528  
    1923A      3.018209  1924A      3.019536  1925A      3.025809  
    1926A      3.028662  1927A      3.032588  1928A      3.042352  
    1929A      3.044961  1930A      3.050830  1931A      3.055668  
    1932A      3.061593  1933A      3.072858  1934A      3.077217  
    1935A      3.081049  1936A      3.099389  1937A      3.106669  
    1938A      3.110676  1939A      3.116626  1940A      3.124220  
    1941A      3.137181  1942A      3.142211  1943A      3.143102  
    1944A      3.149682  1945A      3.157587  1946A      3.160417  
    1947A      3.162700  1948A      3.171078  1949A      3.173248  
    1950A      3.178293  1951A      3.184348  1952A      3.185968  
    1953A      3.189976  1954A      3.193164  1955A      3.198345  
    1956A      3.202906  1957A      3.208204  1958A      3.213836  
    1959A      3.221015  1960A      3.221916  1961A      3.225188  
    1962A      3.228081  1963A      3.236727  1964A      3.237957  
    1965A      3.244011  1966A      3.244904  1967A      3.251260  
    1968A      3.253002  1969A      3.255907  1970A      3.263258  
    1971A      3.267125  1972A      3.271517  1973A      3.277004  
    1974A      3.279084  1975A      3.285129  1976A      3.286968  
    1977A      3.290157  1978A      3.295049  1979A      3.297293  
    1980A      3.300841  1981A      3.304013  1982A      3.306105  
    1983A      3.307110  1984A      3.310344  1985A      3.314409  
    1986A      3.316065  1987A      3.319880  1988A      3.324532  
    1989A      3.331314  1990A      3.333058  1991A      3.335003  
    1992A      3.337829  1993A      3.342998  1994A      3.344579  
    1995A      3.346330  1996A      3.348976  1997A      3.350500  
    1998A      3.355560  1999A      3.359762  2000A      3.362597  
    2001A      3.366618  2002A      3.368408  2003A      3.372025  
    2004A      3.372981  2005A      3.376528  2006A      3.380891  
    2007A      3.383447  2008A      3.386107  2009A      3.388217  
    2010A      3.390848  2011A      3.392432  2012A      3.396188  
    2013A      3.397523  2014A      3.402506  2015A      3.403406  
    2016A      3.406855  2017A      3.408643  2018A      3.410241  
    2019A      3.414402  2020A      3.416560  2021A      3.418259  
    2022A      3.421804  2023A      3.423975  2024A      3.425693  
    2025A      3.427515  2026A      3.429448  2027A      3.432697  
    2028A      3.434349  2029A      3.438942  2030A      3.440295  
    2031A      3.442771  2032A      3.445365  2033A      3.448832  
    2034A      3.449960  2035A      3.451309  2036A      3.454537  
    2037A      3.455456  2038A      3.459386  2039A      3.460640  
    2040A      3.463124  2041A      3.465430  2042A      3.468192  
    2043A      3.469419  2044A      3.471329  2045A      3.473620  
    2046A      3.477438  2047A      3.479399  2048A      3.483957  
    2049A      3.485449  2050A      3.489072  2051A      3.490988  
    2052A      3.491910  2053A      3.493453  2054A      3.495709  
    2055A      3.499284  2056A      3.501920  2057A      3.503811  
    2058A      3.504952  2059A      3.505998  2060A      3.508560  
    2061A      3.512110  2062A      3.514965  2063A      3.515533  
    2064A      3.517816  2065A      3.521240  2066A      3.523010  
    2067A      3.524506  2068A      3.525739  2069A      3.526664  
    2070A      3.528584  2071A      3.529804  2072A      3.533632  
    2073A      3.536680  2074A      3.538012  2075A      3.541065  
    2076A      3.543207  2077A      3.544525  2078A      3.550444  
    2079A      3.551295  2080A      3.553065  2081A      3.553581  
    2082A      3.556853  2083A      3.557496  2084A      3.561151  
    2085A      3.563467  2086A      3.564287  2087A      3.567743  
    2088A      3.569045  2089A      3.571952  2090A      3.572583  
    2091A      3.575547  2092A      3.575916  2093A      3.577234  
    2094A      3.579352  2095A      3.581167  2096A      3.584486  
    2097A      3.585053  2098A      3.585591  2099A      3.590760  
    2100A      3.591142  2101A      3.593213  2102A      3.594831  
    2103A      3.597992  2104A      3.598895  2105A      3.602146  
    2106A      3.605284  2107A      3.606175  2108A      3.607548  
    2109A      3.609586  2110A      3.610762  2111A      3.616152  
    2112A      3.617126  2113A      3.618467  2114A      3.620119  
    2115A      3.625183  2116A      3.626322  2117A      3.628666  
    2118A      3.629898  2119A      3.630349  2120A      3.634289  
    2121A      3.637797  2122A      3.639166  2123A      3.640469  
    2124A      3.642925  2125A      3.644744  2126A      3.645869  
    2127A      3.647859  2128A      3.652315  2129A      3.654006  
    2130A      3.656815  2131A      3.659023  2132A      3.659374  
    2133A      3.660902  2134A      3.662745  2135A      3.664456  
    2136A      3.666814  2137A      3.670051  2138A      3.670553  
    2139A      3.672505  2140A      3.675809  2141A      3.678015  
    2142A      3.679931  2143A      3.680160  2144A      3.683874  
    2145A      3.685401  2146A      3.688041  2147A      3.690137  
    2148A      3.691061  2149A      3.692504  2150A      3.694220  
    2151A      3.697080  2152A      3.700740  2153A      3.701326  
    2154A      3.703638  2155A      3.706489  2156A      3.710028  
    2157A      3.712378  2158A      3.712668  2159A      3.714958  
    2160A      3.717627  2161A      3.720061  2162A      3.721852  
    2163A      3.724794  2164A      3.726071  2165A      3.726244  
    2166A      3.727515  2167A      3.731052  2168A      3.733118  
    2169A      3.734086  2170A      3.736765  2171A      3.739776  
    2172A      3.741931  2173A      3.745123  2174A      3.747036  
    2175A      3.748512  2176A      3.752771  2177A      3.754491  
    2178A      3.755107  2179A      3.756950  2180A      3.758079  
    2181A      3.760193  2182A      3.762991  2183A      3.765559  
    2184A      3.766339  2185A      3.767282  2186A      3.770605  
    2187A      3.771654  2188A      3.772295  2189A      3.773717  
    2190A      3.776945  2191A      3.780544  2192A      3.782624  
    2193A      3.783350  2194A      3.787697  2195A      3.790349  
    2196A      3.792258  2197A      3.792308  2198A      3.794224  
    2199A      3.796547  2200A      3.798562  2201A      3.799421  
    2202A      3.801537  2203A      3.804533  2204A      3.806262  
    2205A      3.807407  2206A      3.810269  2207A      3.815657  
    2208A      3.816679  2209A      3.818359  2210A      3.821966  
    2211A      3.824113  2212A      3.825996  2213A      3.827987  
    2214A      3.829575  2215A      3.830779  2216A      3.835466  
    2217A      3.837386  2218A      3.839995  2219A      3.841622  
    2220A      3.843629  2221A      3.846352  2222A      3.848272  
    2223A      3.851769  2224A      3.852220  2225A      3.854811  
    2226A      3.855457  2227A      3.858943  2228A      3.860435  
    2229A      3.861088  2230A      3.865041  2231A      3.867547  
    2232A      3.868053  2233A      3.870739  2234A      3.872059  
    2235A      3.874074  2236A      3.878603  2237A      3.879633  
    2238A      3.880488  2239A      3.884203  2240A      3.885566  
    2241A      3.887561  2242A      3.888466  2243A      3.890272  
    2244A      3.895009  2245A      3.895420  2246A      3.896596  
    2247A      3.899550  2248A      3.900625  2249A      3.902306  
    2250A      3.903668  2251A      3.906735  2252A      3.909286  
    2253A      3.910122  2254A      3.911517  2255A      3.913193  
    2256A      3.914364  2257A      3.916448  2258A      3.920787  
    2259A      3.922742  2260A      3.924576  2261A      3.927273  
    2262A      3.928790  2263A      3.931922  2264A      3.932178  
    2265A      3.933963  2266A      3.935734  2267A      3.937639  
    2268A      3.940072  2269A      3.941301  2270A      3.944637  
    2271A      3.946189  2272A      3.946604  2273A      3.949848  
    2274A      3.950995  2275A      3.953376  2276A      3.955955  
    2277A      3.959448  2278A      3.960674  2279A      3.961872  
    2280A      3.964062  2281A      3.965713  2282A      3.967978  
    2283A      3.969605  2284A      3.971235  2285A      3.971510  
    2286A      3.975159  2287A      3.976083  2288A      3.978127  
    2289A      3.979715  2290A      3.985814  2291A      3.986429  
    2292A      3.987515  2293A      3.988681  2294A      3.990875  
    2295A      3.992693  2296A      3.994200  2297A      3.996422  
    2298A      3.998675  2299A      4.001802  2300A      4.005897  
    2301A      4.007809  2302A      4.009373  2303A      4.009749  
    2304A      4.012124  2305A      4.014198  2306A      4.015982  
    2307A      4.016802  2308A      4.018927  2309A      4.021604  
    2310A      4.022669  2311A      4.023575  2312A      4.026612  
    2313A      4.029155  2314A      4.030544  2315A      4.033486  
    2316A      4.037025  2317A      4.039511  2318A      4.039853  
    2319A      4.043573  2320A      4.045820  2321A      4.047624  
    2322A      4.049921  2323A      4.051673  2324A      4.052852  
    2325A      4.057398  2326A      4.059385  2327A      4.059937  
    2328A      4.063003  2329A      4.064120  2330A      4.066069  
    2331A      4.066360  2332A      4.069231  2333A      4.072309  
    2334A      4.075260  2335A      4.078410  2336A      4.079219  
    2337A      4.081076  2338A      4.082568  2339A      4.085349  
    2340A      4.087074  2341A      4.088015  2342A      4.090241  
    2343A      4.094761  2344A      4.096788  2345A      4.098458  
    2346A      4.099688  2347A      4.101798  2348A      4.104358  
    2349A      4.106781  2350A      4.108370  2351A      4.112377  
    2352A      4.115618  2353A      4.117085  2354A      4.117933  
    2355A      4.118530  2356A      4.122732  2357A      4.124633  
    2358A      4.126386  2359A      4.128267  2360A      4.128538  
    2361A      4.131806  2362A      4.134623  2363A      4.136761  
    2364A      4.138962  2365A      4.141613  2366A      4.142835  
    2367A      4.145218  2368A      4.145442  2369A      4.148166  
    2370A      4.149860  2371A      4.152080  2372A      4.154259  
    2373A      4.155815  2374A      4.156337  2375A      4.161404  
    2376A      4.164065  2377A      4.165240  2378A      4.166591  
    2379A      4.169352  2380A      4.171184  2381A      4.171417  
    2382A      4.175795  2383A      4.178022  2384A      4.179331  
    2385A      4.182232  2386A      4.182866  2387A      4.185363  
    2388A      4.189539  2389A      4.190752  2390A      4.191761  
    2391A      4.194557  2392A      4.196542  2393A      4.199691  
    2394A      4.200607  2395A      4.201274  2396A      4.204935  
    2397A      4.208396  2398A      4.210883  2399A      4.212755  
    2400A      4.213243  2401A      4.214714  2402A      4.219176  
    2403A      4.221093  2404A      4.221823  2405A      4.225499  
    2406A      4.228566  2407A      4.229781  2408A      4.233542  
    2409A      4.234115  2410A      4.235849  2411A      4.235993  
    2412A      4.239672  2413A      4.241840  2414A      4.242417  
    2415A      4.249258  2416A      4.249932  2417A      4.252821  
    2418A      4.253279  2419A      4.255693  2420A      4.257184  
    2421A      4.258476  2422A      4.259229  2423A      4.260510  
    2424A      4.265779  2425A      4.267465  2426A      4.269574  
    2427A      4.271668  2428A      4.272146  2429A      4.274632  
    2430A      4.276667  2431A      4.280311  2432A      4.282421  
    2433A      4.284844  2434A      4.287002  2435A      4.287668  
    2436A      4.288649  2437A      4.291411  2438A      4.293687  
    2439A      4.294501  2440A      4.296308  2441A      4.297869  
    2442A      4.300046  2443A      4.302908  2444A      4.304077  
    2445A      4.307175  2446A      4.309277  2447A      4.309721  
    2448A      4.312890  2449A      4.316493  2450A      4.316821  
    2451A      4.319496  2452A      4.322700  2453A      4.326727  
    2454A      4.328945  2455A      4.330412  2456A      4.331909  
    2457A      4.334877  2458A      4.336924  2459A      4.339466  
    2460A      4.340792  2461A      4.342430  2462A      4.345832  
    2463A      4.348230  2464A      4.350680  2465A      4.351516  
    2466A      4.354710  2467A      4.357728  2468A      4.360057  
    2469A      4.361071  2470A      4.362477  2471A      4.364609  
    2472A      4.366506  2473A      4.369302  2474A      4.371424  
    2475A      4.373416  2476A      4.377067  2477A      4.378616  
    2478A      4.380128  2479A      4.382812  2480A      4.384466  
    2481A      4.386406  2482A      4.388761  2483A      4.390142  
    2484A      4.392429  2485A      4.393923  2486A      4.396634  
    2487A      4.401786  2488A      4.403522  2489A      4.404997  
    2490A      4.406350  2491A      4.410435  2492A      4.411890  
    2493A      4.412821  2494A      4.415088  2495A      4.419641  
    2496A      4.422105  2497A      4.423687  2498A      4.426449  
    2499A      4.427124  2500A      4.430463  2501A      4.431991  
    2502A      4.433550  2503A      4.436291  2504A      4.439371  
    2505A      4.443464  2506A      4.444546  2507A      4.445941  
    2508A      4.449700  2509A      4.451688  2510A      4.453453  
    2511A      4.454057  2512A      4.459100  2513A      4.461651  
    2514A      4.462465  2515A      4.465490  2516A      4.469787  
    2517A      4.471411  2518A      4.473379  2519A      4.476130  
    2520A      4.478736  2521A      4.479450  2522A      4.481820  
    2523A      4.484454  2524A      4.487139  2525A      4.489790  
    2526A      4.491950  2527A      4.492663  2528A      4.496062  
    2529A      4.499631  2530A      4.500279  2531A      4.504274  
    2532A      4.504950  2533A      4.508986  2534A      4.509514  
    2535A      4.513612  2536A      4.515274  2537A      4.516895  
    2538A      4.518230  2539A      4.520129  2540A      4.523436  
    2541A      4.526180  2542A      4.529240  2543A      4.530647  
    2544A      4.531832  2545A      4.534004  2546A      4.537725  
    2547A      4.538034  2548A      4.543091  2549A      4.544600  
    2550A      4.545937  2551A      4.549516  2552A      4.552239  
    2553A      4.553033  2554A      4.557194  2555A      4.559238  
    2556A      4.561296  2557A      4.563065  2558A      4.563253  
    2559A      4.565249  2560A      4.569988  2561A      4.572021  
    2562A      4.573803  2563A      4.576189  2564A      4.579277  
    2565A      4.579772  2566A      4.581126  2567A      4.586530  
    2568A      4.588452  2569A      4.589542  2570A      4.591765  
    2571A      4.593086  2572A      4.595258  2573A      4.596718  
    2574A      4.599890  2575A      4.603900  2576A      4.604493  
    2577A      4.607873  2578A      4.609724  2579A      4.611968  
    2580A      4.613369  2581A      4.616325  2582A      4.621299  
    2583A      4.622279  2584A      4.624610  2585A      4.627273  
    2586A      4.629415  2587A      4.633550  2588A      4.634067  
    2589A      4.634854  2590A      4.637879  2591A      4.640294  
    2592A      4.642236  2593A      4.647156  2594A      4.649580  
    2595A      4.651299  2596A      4.654165  2597A      4.657117  
    2598A      4.659097  2599A      4.659735  2600A      4.661544  
    2601A      4.664840  2602A      4.669089  2603A      4.671864  
    2604A      4.674550  2605A      4.675812  2606A      4.678986  
    2607A      4.681130  2608A      4.682525  2609A      4.684320  
    2610A      4.690361  2611A      4.691578  2612A      4.692614  
    2613A      4.693961  2614A      4.698332  2615A      4.699925  
    2616A      4.701738  2617A      4.705407  2618A      4.706897  
    2619A      4.707802  2620A      4.709459  2621A      4.713277  
    2622A      4.714252  2623A      4.717591  2624A      4.719381  
    2625A      4.719989  2626A      4.724665  2627A      4.725391  
    2628A      4.729979  2629A      4.730592  2630A      4.734005  
    2631A      4.736187  2632A      4.739850  2633A      4.744490  
    2634A      4.745141  2635A      4.749969  2636A      4.750486  
    2637A      4.752441  2638A      4.754423  2639A      4.755932  
    2640A      4.757837  2641A      4.758567  2642A      4.763076  
    2643A      4.766933  2644A      4.769415  2645A      4.773051  
    2646A      4.774130  2647A      4.776240  2648A      4.778463  
    2649A      4.782464  2650A      4.783766  2651A      4.788338  
    2652A      4.789878  2653A      4.790971  2654A      4.795338  
    2655A      4.798268  2656A      4.799987  2657A      4.804574  
    2658A      4.807198  2659A      4.808075  2660A      4.810414  
    2661A      4.814896  2662A      4.816817  2663A      4.822915  
    2664A      4.823767  2665A      4.827019  2666A      4.828003  
    2667A      4.833124  2668A      4.837208  2669A      4.839780  
    2670A      4.842028  2671A      4.844303  2672A      4.847256  
    2673A      4.848690  2674A      4.853329  2675A      4.855328  
    2676A      4.857266  2677A      4.859588  2678A      4.864186  
    2679A      4.866689  2680A      4.870866  2681A      4.873570  
    2682A      4.875967  2683A      4.878288  2684A      4.880406  
    2685A      4.884035  2686A      4.886815  2687A      4.889333  
    2688A      4.892274  2689A      4.893285  2690A      4.897660  
    2691A      4.901162  2692A      4.903847  2693A      4.907173  
    2694A      4.907280  2695A      4.907953  2696A      4.912610  
    2697A      4.915148  2698A      4.916944  2699A      4.920037  
    2700A      4.923837  2701A      4.925707  2702A      4.927105  
    2703A      4.932655  2704A      4.933938  2705A      4.937237  
    2706A      4.941870  2707A      4.942287  2708A      4.947184  
    2709A      4.948561  2710A      4.950573  2711A      4.953508  
    2712A      4.954053  2713A      4.960511  2714A      4.963124  
    2715A      4.964744  2716A      4.965255  2717A      4.968040  
    2718A      4.972156  2719A      4.972839  2720A      4.977980  
    2721A      4.978738  2722A      4.982260  2723A      4.983134  
    2724A      4.989186  2725A      4.992630  2726A      4.998490  
    2727A      4.998926  2728A      5.001061  2729A      5.006400  
    2730A      5.008919  2731A      5.011543  2732A      5.013368  
    2733A      5.015841  2734A      5.019389  2735A      5.023019  
    2736A      5.026256  2737A      5.027766  2738A      5.030747  
    2739A      5.034115  2740A      5.036640  2741A      5.041048  
    2742A      5.041927  2743A      5.044273  2744A      5.047366  
    2745A      5.048623  2746A      5.054506  2747A      5.056928  
    2748A      5.060579  2749A      5.063407  2750A      5.066591  
    2751A      5.067460  2752A      5.069481  2753A      5.076194  
    2754A      5.079465  2755A      5.081855  2756A      5.083095  
    2757A      5.083567  2758A      5.087989  2759A      5.091396  
    2760A      5.098289  2761A      5.099675  2762A      5.104248  
    2763A      5.105672  2764A      5.109296  2765A      5.112168  
    2766A      5.115536  2767A      5.121187  2768A      5.122252  
    2769A      5.124764  2770A      5.128024  2771A      5.130381  
    2772A      5.134096  2773A      5.139835  2774A      5.142626  
    2775A      5.144193  2776A      5.144822  2777A      5.149858  
    2778A      5.154162  2779A      5.157566  2780A      5.160305  
    2781A      5.163768  2782A      5.167329  2783A      5.173435  
    2784A      5.174998  2785A      5.180003  2786A      5.181781  
    2787A      5.184035  2788A      5.186080  2789A      5.190001  
    2790A      5.191192  2791A      5.192610  2792A      5.197209  
    2793A      5.202130  2794A      5.203692  2795A      5.212485  
    2796A      5.213376  2797A      5.221538  2798A      5.224450  
    2799A      5.225047  2800A      5.229148  2801A      5.232418  
    2802A      5.235616  2803A      5.241067  2804A      5.246166  
    2805A      5.248648  2806A      5.254358  2807A      5.256152  
    2808A      5.261650  2809A      5.262955  2810A      5.264860  
    2811A      5.272077  2812A      5.276025  2813A      5.279493  
    2814A      5.282941  2815A      5.285926  2816A      5.291935  
    2817A      5.293055  2818A      5.295042  2819A      5.299041  
    2820A      5.302237  2821A      5.309270  2822A      5.311371  
    2823A      5.316744  2824A      5.317938  2825A      5.322199  
    2826A      5.324726  2827A      5.332481  2828A      5.338153  
    2829A      5.340010  2830A      5.343233  2831A      5.347378  
    2832A      5.350128  2833A      5.354654  2834A      5.356958  
    2835A      5.361030  2836A      5.365654  2837A      5.371272  
    2838A      5.373021  2839A      5.376439  2840A      5.377969  
    2841A      5.383645  2842A      5.386874  2843A      5.394294  
    2844A      5.397123  2845A      5.399338  2846A      5.407663  
    2847A      5.411734  2848A      5.414613  2849A      5.417308  
    2850A      5.419227  2851A      5.423723  2852A      5.424653  
    2853A      5.431230  2854A      5.433809  2855A      5.440520  
    2856A      5.450325  2857A      5.454141  2858A      5.456564  
    2859A      5.464561  2860A      5.467285  2861A      5.472525  
    2862A      5.479129  2863A      5.483013  2864A      5.486242  
    2865A      5.488154  2866A      5.492517  2867A      5.493743  
    2868A      5.497985  2869A      5.500848  2870A      5.506174  
    2871A      5.506653  2872A      5.508585  2873A      5.511995  
    2874A      5.514143  2875A      5.520031  2876A      5.522603  
    2877A      5.528059  2878A      5.533028  2879A      5.541218  
    2880A      5.542617  2881A      5.548478  2882A      5.549438  
    2883A      5.564614  2884A      5.569186  2885A      5.574583  
    2886A      5.577105  2887A      5.582775  2888A      5.588934  
    2889A      5.590216  2890A      5.595309  2891A      5.602176  
    2892A      5.605841  2893A      5.615419  2894A      5.621067  
    2895A      5.629251  2896A      5.636447  2897A      5.642951  
    2898A      5.645995  2899A      5.650856  2900A      5.661484  
    2901A      5.666963  2902A      5.670248  2903A      5.678956  
    2904A      5.692201  2905A      5.703600  2906A      5.708284  
    2907A      5.713729  2908A      5.719404  2909A      5.728022  
    2910A      5.739056  2911A      5.743990  2912A      5.752332  
    2913A      5.756228  2914A      5.764801  2915A      5.778891  
    2916A      5.780962  2917A      5.787147  2918A      5.804073  
    2919A      5.811970  2920A      5.821392  2921A      5.830935  
    2922A      5.832225  2923A      5.836534  2924A      5.858432  
    2925A      5.860116  2926A      5.867400  2927A      5.870168  
    2928A      5.876126  2929A      5.882283  2930A      5.886396  
    2931A      5.893736  2932A      5.908298  2933A      5.913907  
    2934A      5.935538  2935A      5.946137  2936A      5.948625  
    2937A      5.954377  2938A      5.967076  2939A      5.970161  
    2940A      5.978803  2941A      5.987143  2942A      5.989837  
    2943A      5.998434  2944A      6.004196  2945A      6.014450  
    2946A      6.021240  2947A      6.028732  2948A      6.030641  
    2949A      6.039660  2950A      6.040470  2951A      6.045133  
    2952A      6.051617  2953A      6.063075  2954A      6.078632  
    2955A      6.089919  2956A      6.090851  2957A      6.107829  
    2958A      6.115877  2959A      6.128392  2960A      6.132046  
    2961A      6.137416  2962A      6.144457  2963A      6.148515  
    2964A      6.158319  2965A      6.175652  2966A      6.187127  
    2967A      6.196432  2968A      6.206460  2969A      6.219151  
    2970A      6.239291  2971A      6.243845  2972A      6.246862  
    2973A      6.256655  2974A      6.281328  2975A      6.297733  
    2976A      6.303834  2977A      6.310181  2978A      6.327995  
    2979A      6.334669  2980A      6.354689  2981A      6.359809  
    2982A      6.368650  2983A      6.373772  2984A      6.380620  
    2985A      6.387871  2986A      6.397203  2987A      6.406664  
    2988A      6.414950  2989A      6.418219  2990A      6.427408  
    2991A      6.430945  2992A      6.433219  2993A      6.459957  
    2994A      6.468700  2995A      6.474381  2996A      6.482876  
    2997A      6.488836  2998A      6.494125  2999A      6.501543  
    3000A      6.510095  3001A      6.525613  3002A      6.549235  
    3003A      6.558240  3004A      6.562343  3005A      6.583037  
    3006A      6.596080  3007A      6.601853  3008A      6.606493  
    3009A      6.623428  3010A      6.628594  3011A      6.641778  
    3012A      6.651261  3013A      6.658233  3014A      6.671173  
    3015A      6.673294  3016A      6.680626  3017A      6.683444  
    3018A      6.687114  3019A      6.692336  3020A      6.699124  
    3021A      6.703237  3022A      6.725622  3023A      6.732805  
    3024A      6.736789  3025A      6.752024  3026A      6.758623  
    3027A      6.759956  3028A      6.766644  3029A      6.769984  
    3030A      6.791194  3031A      6.801416  3032A      6.815650  
    3033A      6.819544  3034A      6.823422  3035A      6.831984  
    3036A      6.836340  3037A      6.837819  3038A      6.856087  
    3039A      6.858485  3040A      6.864586  3041A      6.872038  
    3042A      6.879735  3043A      6.894612  3044A      6.895764  
    3045A      6.927263  3046A      6.935913  3047A      6.954810  
    3048A      7.008991  3049A      7.011475  3050A      7.108030  
    3051A      7.108776  3052A     15.403701  3053A     15.490025  
    3054A     15.815873  3055A     15.885459  3056A     16.219749  
    3057A     16.264106  3058A     16.674678  3059A     16.718720  
    3060A     16.973372  3061A     17.041323  3062A     17.259883  
    3063A     17.307402  3064A     17.411253  3065A     17.562070  
    3066A     17.790576  3067A     17.908230  3068A     18.272930  
    3069A     18.311219  3070A     18.579672  3071A     18.666639  
    3072A     19.026462  3073A     19.124944  3074A     19.399479  
    3075A     19.472970  3076A     19.792673  3077A     19.864908  
    3078A     20.361227  3079A     20.436382  3080A     20.885067  
    3081A     20.978462  3082A     21.249204  3083A     21.495020  
    3084A     21.619859  3085A     21.754341  3086A     21.915909  
    3087A     21.981420  3088A     22.022274  3089A     22.027785  
    3090A     22.263294  3091A     22.343413  3092A     22.421757  
    3093A     22.493329  3094A     22.998305  3095A     23.048743  
    3096A     23.201266  3097A     23.309638  3098A     23.385042  
    3099A     23.435334  

    Final Occupation by Irrep:
              A 
    DOCC [   164 ]
    NA   [   164 ]
    NB   [   164 ]

  @DF-RKS Final Energy: -1849.82816017918549

   => Energetics <=

    Nuclear Repulsion Energy =           6199.6145026765807415
    One-Electron Energy =              -14852.1737633288503275
    Two-Electron Energy =                6934.5809176089178436
    DFT Exchange-Correlation Energy =    -131.7803323684355519
    Empirical Dispersion Energy =          -0.0694847673986061
    VV10 Nonlocal Energy =                  0.0000000000000000
    Total Energy =                      -1849.8281601791859430

Computation Completed


Properties will be evaluated at   0.000000,   0.000000,   0.000000 [a0]

Properties computed using the SCF density matrix


 Multipole Moments:

 ------------------------------------------------------------------------------------
     Multipole            Electronic (a.u.)      Nuclear  (a.u.)        Total (a.u.)
 ------------------------------------------------------------------------------------

 L = 1.  Multiply by 2.5417464519 to convert [e a0] to [Debye]
 Dipole X            :      -9279.8231389         9279.6775776           -0.1455613
 Dipole Y            :      -6403.5916232         6403.4265459           -0.1650773
 Dipole Z            :     -14279.0301709        14279.2482355            0.2180647
 Magnitude           :                                                    0.3098238

 ------------------------------------------------------------------------------------

*** tstop() called on atl1-1-03-004-8-2.pace.gatech.edu at Sat Jun 13 22:14:48 2026
Module time:
	user time   =   36415.60 seconds =     606.93 minutes
	system time =    1845.31 seconds =      30.76 minutes
	total time  =       5306 seconds =      88.43 minutes
Total time:
	user time   =   36415.60 seconds =     606.93 minutes
	system time =    1845.31 seconds =      30.76 minutes
	total time  =       5306 seconds =      88.43 minutes

*** tstart() called on atl1-1-03-004-8-2.pace.gatech.edu
*** at Sat Jun 13 22:14:48 2026

   => Loading Basis Set <=

    Name: (AUG-CC-PVTZ AUX)
    Role: RIFIT
    Keyword: DF_BASIS_MP2
    atoms 1-24, 45-68  entry C          line   148 file /storage/home/hcoda1/5/vlita3/.conda/envs/p4_qcml/share/psi4/basis/aug-cc-pvtz-ri.gbs 
    atoms 25-44, 69-88 entry H          line    30 file /storage/home/hcoda1/5/vlita3/.conda/envs/p4_qcml/share/psi4/basis/aug-cc-pvtz-ri.gbs 

	 --------------------------------------------------------
	                          DF-MP2                         
	      2nd-Order Density-Fitted Moller-Plesset Theory     
	              RMP2 Wavefunction,  10 Threads             
	                                                         
	        Rob Parrish, Justin Turney, Andy Simmonett,      
	           Ed Hohenstein, and C. David Sherrill          
	 --------------------------------------------------------

   => Auxiliary Basis Set <=

  Basis Set: (AUG-CC-PVTZ AUX)
    Blend: AUG-CC-PVTZ-RI
    Number of shells: 1904
    Number of basis functions: 6928
    Number of Cartesian functions: 8728
    Spherical Harmonics?: true
    Max angular momentum: 4

	 --------------------------------------------------------
	                 NBF =  3128, NAUX =  6928
	 --------------------------------------------------------
	   CLASS    FOCC     OCC    AOCC    AVIR     VIR    FVIR
	   PAIRS       0     164     164    2935    2935       0
	 --------------------------------------------------------

	-----------------------------------------------------------
	 ==================> DF-MP2 Energies <==================== 
	-----------------------------------------------------------
	 Reference Energy          =   -1849.8281601791854882 [Eh]
	 Singles Energy            =      -0.0000000000000000 [Eh]
	 Same-Spin Energy          =      -2.6842070074754467 [Eh]
	 Opposite-Spin Energy      =      -7.9544729913635059 [Eh]
	 Correlation Energy        =     -10.6386799988389527 [Eh]
	 Total Energy              =   -1860.4668401780245404 [Eh]
	-----------------------------------------------------------
	 ================> DF-SCS-MP2 Energies <================== 
	-----------------------------------------------------------
	 SCS Same-Spin Scale       =       0.3333333333333333 [-]
	 SCS Opposite-Spin Scale   =       1.2000000000000000 [-]
	 SCS Same-Spin Energy      =      -0.8947356691584822 [Eh]
	 SCS Opposite-Spin Energy  =      -9.5453675896362071 [Eh]
	 SCS Correlation Energy    =     -10.4401032587946894 [Eh]
	 SCS Total Energy          =   -1860.2682634379800675 [Eh]
	-----------------------------------------------------------



    B2PLYP-D3 Energy Summary
    ------------------------
    DFT Reference Energy                  = -1849.8281601791854882
    Scaled MP2 Correlation                =    -2.8724435996865174
    @Final double-hybrid DFT total energy = -1852.7006037788719368


*** tstop() called on atl1-1-03-004-8-2.pace.gatech.edu at Sat Jun 13 23:05:48 2026
Module time:
	user time   =   28020.94 seconds =     467.02 minutes
	system time =     143.98 seconds =       2.40 minutes
	total time  =       3060 seconds =      51.00 minutes
Total time:
	user time   =   64436.54 seconds =    1073.94 minutes
	system time =    1989.29 seconds =      33.15 minutes
	total time  =       8366 seconds =     139.43 minutes

    Psi4 stopped on: Saturday, 13 June 2026 11:05PM
    Psi4 wall time for execution: 2:19:29.76

*** Psi4 exiting successfully. Buy a developer a beer!
