
    -----------------------------------------------------------------------
          Psi4: An Open-Source Ab Initio Electronic Structure Package
                               Psi4 1.9.1 release

                         Git: Rev {} zzzzzzz 


    D. G. A. Smith, L. A. Burns, A. C. Simmonett, R. M. Parrish,
    M. C. Schieber, R. Galvelis, P. Kraus, H. Kruse, R. Di Remigio,
    A. Alenaizan, A. M. James, S. Lehtola, J. P. Misiewicz, M. Scheurer,
    R. A. Shaw, J. B. Schriber, Y. Xie, Z. L. Glick, D. A. Sirianni,
    J. S. O'Brien, J. M. Waldrop, A. Kumar, E. G. Hohenstein,
    B. P. Pritchard, B. R. Brooks, H. F. Schaefer III, A. Yu. Sokolov,
    K. Patkowski, A. E. DePrince III, U. Bozkaya, R. A. King,
    F. A. Evangelista, J. M. Turney, T. D. Crawford, C. D. Sherrill,
    J. Chem. Phys. 152(18) 184108 (2020). https://doi.org/10.1063/5.0006002

                            Additional Code Authors
    E. T. Seidl, C. L. Janssen, E. F. Valeev, M. L. Leininger,
    J. F. Gonthier, R. M. Richard, H. R. McAlexander, M. Saitow, X. Wang,
    P. Verma, M. H. Lechner, A. Jiang, S. Behnle, A. G. Heide,
    M. F. Herbst, and D. L. Poole

             Previous Authors, Complete List of Code Contributors,
                       and Citations for Specific Modules
    https://github.com/psi4/psi4/blob/master/codemeta.json
    https://github.com/psi4/psi4/graphs/contributors
    http://psicode.org/psi4manual/master/introduction.html#citing-psifour

    -----------------------------------------------------------------------


    Psi4 started on: Monday, 15 June 2026 01:58PM

    Process ID: 770862
    Host:       atl1-1-03-004-11-1.pace.gatech.edu
    PSIDATADIR: /storage/home/hcoda1/5/vlita3/.conda/envs/p4_qcml/share/psi4
    Memory:     250.0 GiB
    Threads:    10
    
  ==> Input QCSchema <==

--------------------------------------------------------------------------
{'driver': 'energy',
 'extras': {},
 'id': '364',
 'keywords': {},
 'model': {'basis': 'aug-cc-pvtz', 'method': 'b2plyp-d3'},
 'molecule': {'extras': {},
              'fix_com': True,
              'fix_orientation': True,
              'fragment_charges': [0.0, 0.0],
              'fragment_multiplicities': [1, 1],
              'fragments': [[0, 1, 2, 3, 4, 5, 6, 7, 8, 9, 10, 11, 12, 13, 14, 15, 16, 17, 18, 19, 20, 21, 22, 23, 24,
                             25, 26, 27, 28, 29, 30, 31, 32, 33, 34, 35, 36, 37, 38, 39, 40, 41, 42, 43],
                            [44, 45, 46, 47, 48, 49, 50, 51, 52, 53, 54, 55, 56, 57, 58, 59, 60, 61, 62, 63, 64, 65, 66,
                             67, 68, 69, 70, 71, 72, 73, 74, 75, 76, 77, 78, 79, 80, 81, 82, 83, 84, 85, 86, 87]],
              'geometry': [25.47963781, 23.08351049, 43.1296896, 24.89690954, 20.52012331, 43.887087, 25.07057198,
                           18.48699404, 42.07353641, 25.8424877, 19.04880944, 39.52013663, 26.46903607, 21.61452675,
                           38.85199593, 26.30318821, 23.59330066, 40.54460103, 24.46577176, 15.9279092, 42.77036087,
                           23.76811717, 15.37695629, 45.40838081, 23.59859476, 17.38880058, 47.22265844, 24.1081018,
                           20.02007671, 46.44346413, 22.96694077, 16.77267612, 49.77192758, 22.51062738, 14.29130626,
                           50.58597185, 22.67427055, 12.32177999, 48.76231557, 23.27971306, 12.86309326, 46.25226043,
                           25.97467497, 17.0727052, 37.71068154, 25.34789586, 14.59123463, 38.39437083, 24.59969708,
                           14.0277518, 40.88784347, 25.20039992, 25.0588727, 44.92111126, 24.35321071, 24.59525103,
                           47.39946073, 23.84084877, 22.08099208, 48.12795237, 21.86046838, 13.69556932, 53.32235171,
                           24.04555383, 26.76370654, 49.27889773, 26.50915633, 27.41178979, 50.73375129, 26.93108599,
                           26.27094839, 39.72356046, 27.10311578, 21.98163565, 36.89906984, 22.32265299, 10.34583799,
                           49.33666834, 23.39372081, 11.28300305, 44.90489504, 26.57612038, 17.51973959, 35.76596134,
                           25.43664936, 13.06203906, 36.97800898, 24.12002947, 12.05854919, 41.3527408, 25.62817825,
                           27.01761767, 44.36171793, 23.18724332, 21.75219607, 50.07608394, 23.27013145, 12.38510294,
                           54.17857328, 21.79629273, 15.42803966, 54.50687769, 19.98705402, 12.74487252, 53.47527914,
                           22.53167906, 26.28198386, 50.6619148, 23.38069793, 28.48102898, 48.25612267, 27.19569266,
                           25.7565067, 51.83310019, 28.04156267, 27.96965392, 49.40821263, 28.39145441, 27.1428651,
                           40.95513515, 25.23456206, 27.51897461, 39.79892028, 27.66207922, 26.29954115, 37.75755015,
                           26.2022166, 29.00071195, 52.0780899, 22.83611537, 18.29134925, 51.1881473, 30.81342193,
                           18.71017989, 45.99359029, 31.5788239, 19.74555973, 43.58027113, 32.18922921, 22.39746574,
                           43.36009841, 32.04731473, 23.98056161, 45.57578145, 31.25562095, 22.88485355, 47.94186375,
                           30.64065655, 20.36296812, 48.19759324, 32.96098858, 23.46875558, 40.98068543, 32.9776879,
                           21.8498177, 38.71563215, 32.39688051, 19.20754673, 38.92783428, 31.75108262, 18.1119644,
                           41.41040042, 32.38510148, 17.70859001, 36.6883681, 32.89884869, 18.70388423, 34.28627015,
                           33.46045747, 21.32787429, 34.10603582, 33.50020544, 22.84413785, 36.26471359, 32.71084168,
                           26.57519902, 45.39430813, 33.51746054, 27.59229626, 43.0833912, 33.64071365, 26.05933156,
                           40.9078722, 30.26834315, 16.09166271, 46.16720061, 30.49746548, 14.47431826, 44.06910385,
                           31.23964841, 15.50757785, 41.72580743, 32.85245858, 17.05660123, 31.93007182, 30.0352396,
                           11.64386798, 44.33912194, 32.45644731, 10.16276856, 45.08627623, 29.83741229, 19.30937345,
                           50.74453249, 31.15944353, 24.13692378, 49.60598037, 33.86115259, 22.17547238, 32.24063318,
                           33.92403613, 24.86828461, 36.03931452, 32.60693264, 27.77144276, 47.1004289, 34.05705016,
                           29.60331272, 42.95688301, 34.27807476, 26.92308174, 39.12655219, 29.64722791, 15.28713696,
                           47.98302787, 31.38145507, 14.21615321, 40.10268471, 34.735737, 17.01308892, 30.98680081,
                           32.31443775, 15.0754773, 32.37170495, 31.48589123, 17.79122297, 30.50534659, 29.28049933,
                           10.88478084, 42.52649407, 28.54357618, 11.31799443, 45.78690148, 33.97269455, 10.41059171,
                           43.64975571, 33.2192207, 10.84125701, 46.92494523, 31.18221652, 17.84465276, 51.44063809,
                           27.94896357, 18.39273342, 50.64394079, 29.74125873, 20.82714016, 52.19033882, 32.06613232,
                           8.10297733, 45.26704002, 31.91846208, 15.68652669, 36.81860417],
              'id': 16,
              'identifiers': {'molecular_formula': 'C48H40',
                              'molecule_hash': 'c7032f6b2da4c5ceb2b85b46228cc9bc6b33b25c'},
              'masses': [12.0, 12.0, 12.0, 12.0, 12.0, 12.0, 12.0, 12.0, 12.0, 12.0, 12.0, 12.0, 12.0, 12.0, 12.0, 12.0,
                         12.0, 12.0, 12.0, 12.0, 12.0, 12.0, 12.0, 12.0, 1.00782503223, 1.00782503223, 1.00782503223,
                         1.00782503223, 1.00782503223, 1.00782503223, 1.00782503223, 1.00782503223, 1.00782503223,
                         1.00782503223, 1.00782503223, 1.00782503223, 1.00782503223, 1.00782503223, 1.00782503223,
                         1.00782503223, 1.00782503223, 1.00782503223, 1.00782503223, 1.00782503223, 12.0, 12.0, 12.0,
                         12.0, 12.0, 12.0, 12.0, 12.0, 12.0, 12.0, 12.0, 12.0, 12.0, 12.0, 12.0, 12.0, 12.0, 12.0, 12.0,
                         12.0, 12.0, 12.0, 12.0, 12.0, 1.00782503223, 1.00782503223, 1.00782503223, 1.00782503223,
                         1.00782503223, 1.00782503223, 1.00782503223, 1.00782503223, 1.00782503223, 1.00782503223,
                         1.00782503223, 1.00782503223, 1.00782503223, 1.00782503223, 1.00782503223, 1.00782503223,
                         1.00782503223, 1.00782503223, 1.00782503223, 1.00782503223],
              'molecular_charge': 0.0,
              'molecular_multiplicity': 1,
              'name': 'C48H40 ([0],[1])',
              'provenance': {'creator': 'QCElemental',
                             'routine': 'qcelemental.molparse.from_schema',
                             'version': '0.29.0'},
              'real': [True, True, True, True, True, True, True, True, True, True, True, True, True, True, True, True,
                       True, True, True, True, True, True, True, True, True, True, True, True, True, True, True, True,
                       True, True, True, True, True, True, True, True, True, True, True, True, False, False, False,
                       False, False, False, False, False, False, False, False, False, False, False, False, False, False,
                       False, False, False, False, False, False, False, False, False, False, False, False, False, False,
                       False, False, False, False, False, False, False, False, False, False, False, False, False],
              'schema_name': 'qcschema_molecule',
              'schema_version': 2,
              'symbols': ['C', 'C', 'C', 'C', 'C', 'C', 'C', 'C', 'C', 'C', 'C', 'C', 'C', 'C', 'C', 'C', 'C', 'C', 'C',
                          'C', 'C', 'C', 'C', 'C', 'H', 'H', 'H', 'H', 'H', 'H', 'H', 'H', 'H', 'H', 'H', 'H', 'H', 'H',
                          'H', 'H', 'H', 'H', 'H', 'H', 'C', 'C', 'C', 'C', 'C', 'C', 'C', 'C', 'C', 'C', 'C', 'C', 'C',
                          'C', 'C', 'C', 'C', 'C', 'C', 'C', 'C', 'C', 'C', 'C', 'H', 'H', 'H', 'H', 'H', 'H', 'H', 'H',
                          'H', 'H', 'H', 'H', 'H', 'H', 'H', 'H', 'H', 'H', 'H', 'H'],
              'validated': True},
 'protocols': {},
 'provenance': {'creator': 'QCElemental', 'routine': 'qcelemental.models.results', 'version': '0.29.0'},
 'schema_name': 'qcschema_input',
 'schema_version': 1}
--------------------------------------------------------------------------

Scratch directory: /tmp/tmpqqgu0s53_psi_scratch/
   => Libint2 <=

    Primary   basis highest AM E, G, H:  6, 6, 3
    Auxiliary basis highest AM E, G, H:  7, 7, 4
    Onebody   basis highest AM E, G, H:  -, -, -
    Solid Harmonics ordering:            Gaussian

*** tstart() called on atl1-1-03-004-11-1.pace.gatech.edu
*** at Mon Jun 15 13:58:20 2026

   => Loading Basis Set <=

    Name: AUG-CC-PVTZ
    Role: ORBITAL
    Keyword: BASIS
    atoms 1-24, 45-68  entry C          line   239 file /storage/home/hcoda1/5/vlita3/.conda/envs/p4_qcml/share/psi4/basis/aug-cc-pvtz.gbs 
    atoms 25-44, 69-88 entry H          line    40 file /storage/home/hcoda1/5/vlita3/.conda/envs/p4_qcml/share/psi4/basis/aug-cc-pvtz.gbs 

   => B2PLYP-D3: Empirical Dispersion <=

    Grimme's -D3 (zero-damping) Dispersion Correction
    Grimme S.; Antony J.; Ehrlich S.; Krieg H. (2010), J. Chem. Phys., 132: 154104
    Parametrisation from:    L. Goerigk, S. Grimme, J. Chem. Theory Comput. 7, 291-309, 2011

        s6 =       0.640000
        s8 =       1.022000
       sr6 =       1.427000
    alpha6 =      14.000000
       sr8 =       1.000000


         ---------------------------------------------------------
                                   SCF
               by Justin Turney, Rob Parrish, Andy Simmonett
                          and Daniel G. A. Smith
                              RKS Reference
                       10 Threads, 256000 MiB Core
         ---------------------------------------------------------

  ==> Geometry <==

    Molecular point group: c1
    Full point group: C1

    Geometry (in Bohr), charge = 0, multiplicity = 1:

       Center              X                  Y                   Z               Mass       
    ------------   -----------------  -----------------  -----------------  -----------------
         C           25.479637810000    23.083510490000    43.129689600000    12.000000000000
         C           24.896909540000    20.520123310000    43.887087000000    12.000000000000
         C           25.070571980000    18.486994040000    42.073536410000    12.000000000000
         C           25.842487700000    19.048809440000    39.520136630000    12.000000000000
         C           26.469036070000    21.614526750000    38.851995930000    12.000000000000
         C           26.303188210000    23.593300660000    40.544601030000    12.000000000000
         C           24.465771760000    15.927909200000    42.770360870000    12.000000000000
         C           23.768117170000    15.376956290000    45.408380810000    12.000000000000
         C           23.598594760000    17.388800580000    47.222658440000    12.000000000000
         C           24.108101800000    20.020076710000    46.443464130000    12.000000000000
         C           22.966940770000    16.772676120000    49.771927580000    12.000000000000
         C           22.510627380000    14.291306260000    50.585971850000    12.000000000000
         C           22.674270550000    12.321779990000    48.762315570000    12.000000000000
         C           23.279713060000    12.863093260000    46.252260430000    12.000000000000
         C           25.974674970000    17.072705200000    37.710681540000    12.000000000000
         C           25.347895860000    14.591234630000    38.394370830000    12.000000000000
         C           24.599697080000    14.027751800000    40.887843470000    12.000000000000
         C           25.200399920000    25.058872700000    44.921111260000    12.000000000000
         C           24.353210710000    24.595251030000    47.399460730000    12.000000000000
         C           23.840848770000    22.080992080000    48.127952370000    12.000000000000
         C           21.860468380000    13.695569320000    53.322351710000    12.000000000000
         C           24.045553830000    26.763706540000    49.278897730000    12.000000000000
         C           26.509156330000    27.411789790000    50.733751290000    12.000000000000
         C           26.931085990000    26.270948390000    39.723560460000    12.000000000000
         H           27.103115780000    21.981635650000    36.899069840000     1.007825032230
         H           22.322652990000    10.345837990000    49.336668340000     1.007825032230
         H           23.393720810000    11.283003050000    44.904895040000     1.007825032230
         H           26.576120380000    17.519739590000    35.765961340000     1.007825032230
         H           25.436649360000    13.062039060000    36.978008980000     1.007825032230
         H           24.120029470000    12.058549190000    41.352740800000     1.007825032230
         H           25.628178250000    27.017617670000    44.361717930000     1.007825032230
         H           23.187243320000    21.752196070000    50.076083940000     1.007825032230
         H           23.270131450000    12.385102940000    54.178573280000     1.007825032230
         H           21.796292730000    15.428039660000    54.506877690000     1.007825032230
         H           19.987054020000    12.744872520000    53.475279140000     1.007825032230
         H           22.531679060000    26.281983860000    50.661914800000     1.007825032230
         H           23.380697930000    28.481028980000    48.256122670000     1.007825032230
         H           27.195692660000    25.756506700000    51.833100190000     1.007825032230
         H           28.041562670000    27.969653920000    49.408212630000     1.007825032230
         H           28.391454410000    27.142865100000    40.955135150000     1.007825032230
         H           25.234562060000    27.518974610000    39.798920280000     1.007825032230
         H           27.662079220000    26.299541150000    37.757550150000     1.007825032230
         H           26.202216600000    29.000711950000    52.078089900000     1.007825032230
         H           22.836115370000    18.291349250000    51.188147300000     1.007825032230
      Gh(C)          30.813421930000    18.710179890000    45.993590290000    12.000000000000
      Gh(C)          31.578823900000    19.745559730000    43.580271130000    12.000000000000
      Gh(C)          32.189229210000    22.397465740000    43.360098410000    12.000000000000
      Gh(C)          32.047314730000    23.980561610000    45.575781450000    12.000000000000
      Gh(C)          31.255620950000    22.884853550000    47.941863750000    12.000000000000
      Gh(C)          30.640656550000    20.362968120000    48.197593240000    12.000000000000
      Gh(C)          32.960988580000    23.468755580000    40.980685430000    12.000000000000
      Gh(C)          32.977687900000    21.849817700000    38.715632150000    12.000000000000
      Gh(C)          32.396880510000    19.207546730000    38.927834280000    12.000000000000
      Gh(C)          31.751082620000    18.111964400000    41.410400420000    12.000000000000
      Gh(C)          32.385101480000    17.708590010000    36.688368100000    12.000000000000
      Gh(C)          32.898848690000    18.703884230000    34.286270150000    12.000000000000
      Gh(C)          33.460457470000    21.327874290000    34.106035820000    12.000000000000
      Gh(C)          33.500205440000    22.844137850000    36.264713590000    12.000000000000
      Gh(C)          32.710841680000    26.575199020000    45.394308130000    12.000000000000
      Gh(C)          33.517460540000    27.592296260000    43.083391200000    12.000000000000
      Gh(C)          33.640713650000    26.059331560000    40.907872200000    12.000000000000
      Gh(C)          30.268343150000    16.091662710000    46.167200610000    12.000000000000
      Gh(C)          30.497465480000    14.474318260000    44.069103850000    12.000000000000
      Gh(C)          31.239648410000    15.507577850000    41.725807430000    12.000000000000
      Gh(C)          32.852458580000    17.056601230000    31.930071820000    12.000000000000
      Gh(C)          30.035239600000    11.643867980000    44.339121940000    12.000000000000
      Gh(C)          32.456447310000    10.162768560000    45.086276230000    12.000000000000
      Gh(C)          29.837412290000    19.309373450000    50.744532490000    12.000000000000
      Gh(H)          31.159443530000    24.136923780000    49.605980370000     1.007825032230
      Gh(H)          33.861152590000    22.175472380000    32.240633180000     1.007825032230
      Gh(H)          33.924036130000    24.868284610000    36.039314520000     1.007825032230
      Gh(H)          32.606932640000    27.771442760000    47.100428900000     1.007825032230
      Gh(H)          34.057050160000    29.603312720000    42.956883010000     1.007825032230
      Gh(H)          34.278074760000    26.923081740000    39.126552190000     1.007825032230
      Gh(H)          29.647227910000    15.287136960000    47.983027870000     1.007825032230
      Gh(H)          31.381455070000    14.216153210000    40.102684710000     1.007825032230
      Gh(H)          34.735737000000    17.013088920000    30.986800810000     1.007825032230
      Gh(H)          32.314437750000    15.075477300000    32.371704950000     1.007825032230
      Gh(H)          31.485891230000    17.791222970000    30.505346590000     1.007825032230
      Gh(H)          29.280499330000    10.884780840000    42.526494070000     1.007825032230
      Gh(H)          28.543576180000    11.317994430000    45.786901480000     1.007825032230
      Gh(H)          33.972694550000    10.410591710000    43.649755710000     1.007825032230
      Gh(H)          33.219220700000    10.841257010000    46.924945230000     1.007825032230
      Gh(H)          31.182216520000    17.844652760000    51.440638090000     1.007825032230
      Gh(H)          27.948963570000    18.392733420000    50.643940790000     1.007825032230
      Gh(H)          29.741258730000    20.827140160000    52.190338820000     1.007825032230
      Gh(H)          32.066132320000     8.102977330000    45.267040020000     1.007825032230
      Gh(H)          31.918462080000    15.686526690000    36.818604170000     1.007825032230

  Running in c1 symmetry.

  Rotational constants: A =      0.00210  B =      0.00003  C =      0.00003 [cm^-1]
  Rotational constants: A =     62.96897  B =      0.94325  C =      0.93874 [MHz]
  Nuclear repulsion = 1863.800486968835230

  Charge       = 0
  Multiplicity = 1
  Electrons    = 164
  Nalpha       = 82
  Nbeta        = 82

  ==> Algorithm <==

  SCF Algorithm Type is DF.
  DIIS enabled.
  MOM disabled.
  Fractional occupation disabled.
  Guess Type is SAD.
  Energy threshold   = 1.00e-06
  Density threshold  = 1.00e-06
  Integral threshold = 1.00e-12

  ==> Primary Basis <==

  Basis Set: AUG-CC-PVTZ
    Blend: AUG-CC-PVTZ
    Number of shells: 1032
    Number of basis functions: 3128
    Number of Cartesian functions: 3640
    Spherical Harmonics?: true
    Max angular momentum: 3

  ==> DFT Potential <==

   => LibXC <=

    Version 7.0.0
    S. Lehtola, C. Steigemann, M. J.T. Oliveira, and M. A.L. Marques.,  SoftwareX 7, 1–5 (2018) (10.1016/j.softx.2017.11.002)

   => Composite Functional: B2PLYP-D3ZERO2B <= 

    B2PLYP Double Hybrid Exchange-Correlation Functional

    S. Grimme, J. Chem. Phys., 124, 034108, 2006


    Deriv               =              1
    GGA                 =           TRUE
    Meta                =          FALSE

    Exchange Hybrid     =           TRUE
    MP2 Hybrid          =           TRUE

   => Exchange Functionals <=

    0.4700     XC_GGA_X_B88

   => Exact (HF) Exchange <=

    0.5300               HF 

   => Correlation Functionals <=

    0.7300     XC_GGA_C_LYP

   => MP2 Correlation <=

    0.2700       MP2 

   => LibXC Density Thresholds  <==

    XC_GGA_C_LYP:  1.00E-14 
    XC_GGA_X_B88:  1.00E-15 

   => Molecular Quadrature <=

    Radial Scheme          =       TREUTLER
    Pruning Scheme         =           NONE
    Nuclear Scheme         =       TREUTLER

    Blocking Scheme        =         OCTREE
    BS radius alpha        =              1
    Pruning alpha          =              1
    Radial Points          =             75
    Spherical Points       =            302
    Total Points           =        1755895
    Total Blocks           =          12038
    Max Points             =            256
    Max Functions          =           2202
    Weights Tolerance      =       1.00E-15

   => Loading Basis Set <=

    Name: (AUG-CC-PVTZ AUX)
    Role: JKFIT
    Keyword: DF_BASIS_SCF
    atoms 1-24, 45-68  entry C          line   162 file /storage/home/hcoda1/5/vlita3/.conda/envs/p4_qcml/share/psi4/basis/aug-cc-pvtz-jkfit.gbs 
    atoms 25-44, 69-88 entry H          line    70 file /storage/home/hcoda1/5/vlita3/.conda/envs/p4_qcml/share/psi4/basis/aug-cc-pvtz-jkfit.gbs 

  ==> Integral Setup <==

  ==> DiskDFJK: Density-Fitted J/K Matrices <==

    J tasked:                  Yes
    K tasked:                  Yes
    wK tasked:                  No
    OpenMP threads:             10
    Integrals threads:          10
    Memory [MiB]:           172800
    Algorithm:                Disk
    Integral Cache:           NONE
    Schwarz Cutoff:          1E-12
    Fitting Condition:       1E-10

   => Auxiliary Basis Set <=

  Basis Set: (AUG-CC-PVTZ AUX)
    Blend: AUG-CC-PVTZ-JKFIT
    Number of shells: 2000
    Number of basis functions: 6832
    Number of Cartesian functions: 8488
    Spherical Harmonics?: true
    Max angular momentum: 4

  Minimum eigenvalue in the overlap matrix is 6.3711160731E-10.
  Reciprocal condition number of the overlap matrix is 1.7895063395E-11.
    Using canonical orthogonalization.
  Overall, 29 of 3128 possible MOs eliminated.


  ==> Pre-Iterations <==

  SCF Guess: Superposition of Atomic Densities via on-the-fly atomic UHF (no occupation information).

   -------------------------
    Irrep   Nso     Nmo    
   -------------------------
     A       3128    3099 
   -------------------------
    Total    3128    3099
   -------------------------

  ==> Iterations <==

                           Total Energy        Delta E     RMS |[F,P]|

   @DF-RKS iter SAD:  -924.24941860085551   -9.24249e+02   0.00000e+00 
   @DF-RKS iter   1:  -923.89292463117226    3.56494e-01   4.35593e-04 ADIIS/DIIS
   @DF-RKS iter   2:  -924.35085185410185   -4.57927e-01   3.23920e-04 ADIIS/DIIS
   @DF-RKS iter   3:  -924.90285933148527   -5.52007e-01   3.79197e-05 DIIS
   @DF-RKS iter   4:  -924.90747408609832   -4.61475e-03   2.50783e-05 DIIS
   @DF-RKS iter   5:  -924.91049963035812   -3.02554e-03   6.27447e-06 DIIS
   @DF-RKS iter   6:  -924.91068140331367   -1.81773e-04   2.17292e-06 DIIS
   @DF-RKS iter   7:  -924.91070545370815   -2.40504e-05   5.35545e-07 DIIS
   @DF-RKS iter   8:  -924.91070691716743   -1.46346e-06   2.22779e-07 DIIS
   @DF-RKS iter   9:  -924.91070720944845   -2.92281e-07   7.29989e-08 DIIS
  Energy and wave function converged.


  ==> Post-Iterations <==

   Electrons on quadrature grid:
      Ntotal   =  164.0007708697 ; deviation = 7.709e-04 

    Orbital Energies [Eh]
    ---------------------

    Doubly Occupied:                                                      

       1A    -10.641466     2A    -10.640912     3A    -10.639969  
       4A    -10.638599     5A    -10.638047     6A    -10.637576  
       7A    -10.637212     8A    -10.637052     9A    -10.635958  
      10A    -10.635195    11A    -10.633800    12A    -10.628433  
      13A    -10.627507    14A    -10.627308    15A    -10.626051  
      16A    -10.625734    17A    -10.625596    18A    -10.624821  
      19A    -10.624498    20A    -10.624055    21A    -10.623338  
      22A    -10.622649    23A    -10.621417    24A    -10.615182  
      25A     -1.014394    26A     -0.978663    27A     -0.970068  
      28A     -0.936230    29A     -0.917098    30A     -0.893876  
      31A     -0.874105    32A     -0.869857    33A     -0.852343  
      34A     -0.825600    35A     -0.819265    36A     -0.787094  
      37A     -0.785323    38A     -0.735708    39A     -0.724326  
      40A     -0.705279    41A     -0.699602    42A     -0.689047  
      43A     -0.663307    44A     -0.625027    45A     -0.608876  
      46A     -0.599309    47A     -0.575569    48A     -0.565772  
      49A     -0.540240    50A     -0.536933    51A     -0.530649  
      52A     -0.517369    53A     -0.514530    54A     -0.499833  
      55A     -0.490965    56A     -0.488224    57A     -0.484037  
      58A     -0.483365    59A     -0.481173    60A     -0.472516  
      61A     -0.466019    62A     -0.461168    63A     -0.450622  
      64A     -0.448597    65A     -0.442556    66A     -0.438162  
      67A     -0.427838    68A     -0.425366    69A     -0.416070  
      70A     -0.412017    71A     -0.406079    72A     -0.405943  
      73A     -0.401415    74A     -0.376906    75A     -0.375723  
      76A     -0.353841    77A     -0.328808    78A     -0.325410  
      79A     -0.278405    80A     -0.277681    81A     -0.245167  
      82A     -0.226419  

    Virtual:                                                              

      83A     -0.017151    84A      0.001736    85A      0.004889  
      86A      0.007867    87A      0.008797    88A      0.015215  
      89A      0.016965    90A      0.017625    91A      0.020121  
      92A      0.023798    93A      0.025630    94A      0.027562  
      95A      0.028878    96A      0.031167    97A      0.034057  
      98A      0.035944    99A      0.036645   100A      0.038847  
     101A      0.041327   102A      0.044027   103A      0.044474  
     104A      0.046179   105A      0.048729   106A      0.049839  
     107A      0.051590   108A      0.053559   109A      0.055639  
     110A      0.055915   111A      0.059083   112A      0.060165  
     113A      0.061804   114A      0.063050   115A      0.064461  
     116A      0.066289   117A      0.067799   118A      0.069497  
     119A      0.071714   120A      0.073228   121A      0.075679  
     122A      0.076731   123A      0.077227   124A      0.078561  
     125A      0.081033   126A      0.082353   127A      0.082731  
     128A      0.084027   129A      0.086041   130A      0.086784  
     131A      0.087005   132A      0.089549   133A      0.089824  
     134A      0.091271   135A      0.094695   136A      0.095614  
     137A      0.096767   138A      0.097547   139A      0.098152  
     140A      0.100153   141A      0.100921   142A      0.101711  
     143A      0.103190   144A      0.104813   145A      0.106891  
     146A      0.108765   147A      0.109741   148A      0.111865  
     149A      0.112973   150A      0.114751   151A      0.115514  
     152A      0.116293   153A      0.117986   154A      0.121031  
     155A      0.121256   156A      0.121769   157A      0.122720  
     158A      0.124010   159A      0.125614   160A      0.128347  
     161A      0.128638   162A      0.129315   163A      0.130401  
     164A      0.131704   165A      0.133051   166A      0.135036  
     167A      0.135408   168A      0.136378   169A      0.138646  
     170A      0.140752   171A      0.142222   172A      0.142839  
     173A      0.144906   174A      0.145264   175A      0.147495  
     176A      0.148413   177A      0.149878   178A      0.151399  
     179A      0.152590   180A      0.152782   181A      0.154081  
     182A      0.156447   183A      0.158125   184A      0.158907  
     185A      0.161152   186A      0.162855   187A      0.163775  
     188A      0.164388   189A      0.165093   190A      0.166564  
     191A      0.167130   192A      0.168775   193A      0.170062  
     194A      0.170190   195A      0.173811   196A      0.174481  
     197A      0.175743   198A      0.176603   199A      0.178338  
     200A      0.179237   201A      0.180136   202A      0.181794  
     203A      0.182828   204A      0.184476   205A      0.185634  
     206A      0.188397   207A      0.190163   208A      0.191234  
     209A      0.192465   210A      0.194989   211A      0.195602  
     212A      0.197365   213A      0.198305   214A      0.199746  
     215A      0.200960   216A      0.201883   217A      0.203000  
     218A      0.206264   219A      0.207393   220A      0.207544  
     221A      0.209537   222A      0.210530   223A      0.211228  
     224A      0.212205   225A      0.213646   226A      0.214139  
     227A      0.216176   228A      0.217012   229A      0.217592  
     230A      0.219490   231A      0.220897   232A      0.222401  
     233A      0.222743   234A      0.223447   235A      0.224351  
     236A      0.226125   237A      0.226768   238A      0.227428  
     239A      0.228619   240A      0.229122   241A      0.230866  
     242A      0.232385   243A      0.234043   244A      0.234578  
     245A      0.235542   246A      0.237446   247A      0.238703  
     248A      0.239715   249A      0.240426   250A      0.241498  
     251A      0.242916   252A      0.244100   253A      0.246802  
     254A      0.248438   255A      0.249613   256A      0.249742  
     257A      0.250753   258A      0.251529   259A      0.255252  
     260A      0.256354   261A      0.256880   262A      0.258811  
     263A      0.260440   264A      0.261357   265A      0.261447  
     266A      0.262964   267A      0.264169   268A      0.264662  
     269A      0.264953   270A      0.267893   271A      0.268283  
     272A      0.270160   273A      0.271487   274A      0.272053  
     275A      0.274635   276A      0.275182   277A      0.277546  
     278A      0.277907   279A      0.278913   280A      0.279954  
     281A      0.280231   282A      0.281407   283A      0.282244  
     284A      0.283546   285A      0.283958   286A      0.286274  
     287A      0.287550   288A      0.288395   289A      0.289588  
     290A      0.291630   291A      0.292721   292A      0.294917  
     293A      0.295529   294A      0.296568   295A      0.297507  
     296A      0.299725   297A      0.301519   298A      0.302606  
     299A      0.303150   300A      0.304635   301A      0.305594  
     302A      0.305913   303A      0.306936   304A      0.309339  
     305A      0.311186   306A      0.313015   307A      0.313588  
     308A      0.316215   309A      0.317001   310A      0.317707  
     311A      0.320254   312A      0.320544   313A      0.322070  
     314A      0.323076   315A      0.324149   316A      0.324629  
     317A      0.326378   318A      0.327824   319A      0.330044  
     320A      0.330347   321A      0.331209   322A      0.332353  
     323A      0.333295   324A      0.334174   325A      0.335728  
     326A      0.336723   327A      0.338636   328A      0.339258  
     329A      0.340494   330A      0.341425   331A      0.343370  
     332A      0.344412   333A      0.346936   334A      0.347612  
     335A      0.349003   336A      0.349766   337A      0.351374  
     338A      0.352752   339A      0.354167   340A      0.355359  
     341A      0.355933   342A      0.357170   343A      0.359101  
     344A      0.361830   345A      0.362914   346A      0.364296  
     347A      0.365485   348A      0.367555   349A      0.368499  
     350A      0.369523   351A      0.370395   352A      0.370879  
     353A      0.373125   354A      0.375365   355A      0.376982  
     356A      0.377848   357A      0.379044   358A      0.379311  
     359A      0.381968   360A      0.382492   361A      0.382650  
     362A      0.384885   363A      0.385963   364A      0.386976  
     365A      0.389254   366A      0.389858   367A      0.392104  
     368A      0.393745   369A      0.394460   370A      0.394758  
     371A      0.396369   372A      0.398699   373A      0.400282  
     374A      0.400746   375A      0.402776   376A      0.403251  
     377A      0.404770   378A      0.406344   379A      0.407264  
     380A      0.408754   381A      0.410271   382A      0.411082  
     383A      0.412140   384A      0.414153   385A      0.417583  
     386A      0.418626   387A      0.419113   388A      0.421310  
     389A      0.421821   390A      0.422133   391A      0.423311  
     392A      0.424795   393A      0.425949   394A      0.428576  
     395A      0.430168   396A      0.432637   397A      0.433518  
     398A      0.434601   399A      0.435500   400A      0.436366  
     401A      0.438054   402A      0.439032   403A      0.440651  
     404A      0.441007   405A      0.442889   406A      0.444815  
     407A      0.445467   408A      0.446407   409A      0.447561  
     410A      0.448344   411A      0.449078   412A      0.449199  
     413A      0.452797   414A      0.454472   415A      0.455422  
     416A      0.456068   417A      0.458223   418A      0.459322  
     419A      0.459814   420A      0.461451   421A      0.462241  
     422A      0.464154   423A      0.464921   424A      0.465922  
     425A      0.467836   426A      0.468188   427A      0.469668  
     428A      0.470645   429A      0.471658   430A      0.472144  
     431A      0.473015   432A      0.475352   433A      0.477151  
     434A      0.478581   435A      0.479320   436A      0.481293  
     437A      0.482538   438A      0.483290   439A      0.485147  
     440A      0.485433   441A      0.486029   442A      0.487490  
     443A      0.488420   444A      0.489628   445A      0.490743  
     446A      0.491303   447A      0.492623   448A      0.493563  
     449A      0.494803   450A      0.495412   451A      0.496007  
     452A      0.497481   453A      0.499705   454A      0.500501  
     455A      0.502422   456A      0.503842   457A      0.504318  
     458A      0.506224   459A      0.506991   460A      0.507386  
     461A      0.509728   462A      0.510049   463A      0.510880  
     464A      0.511489   465A      0.513592   466A      0.515013  
     467A      0.516475   468A      0.517915   469A      0.519051  
     470A      0.520219   471A      0.520901   472A      0.522641  
     473A      0.524468   474A      0.524832   475A      0.526342  
     476A      0.526921   477A      0.528986   478A      0.530412  
     479A      0.531203   480A      0.532245   481A      0.532690  
     482A      0.534542   483A      0.535817   484A      0.536586  
     485A      0.537311   486A      0.538958   487A      0.540970  
     488A      0.542078   489A      0.543257   490A      0.543564  
     491A      0.545869   492A      0.546993   493A      0.550249  
     494A      0.550786   495A      0.551658   496A      0.553914  
     497A      0.555108   498A      0.555542   499A      0.555630  
     500A      0.557616   501A      0.559795   502A      0.561034  
     503A      0.562681   504A      0.563562   505A      0.564777  
     506A      0.566640   507A      0.568466   508A      0.569481  
     509A      0.570483   510A      0.570883   511A      0.572341  
     512A      0.574437   513A      0.577194   514A      0.578379  
     515A      0.579594   516A      0.580368   517A      0.582396  
     518A      0.582577   519A      0.584588   520A      0.585394  
     521A      0.587800   522A      0.588225   523A      0.591128  
     524A      0.592839   525A      0.593720   526A      0.594590  
     527A      0.596518   528A      0.599378   529A      0.600192  
     530A      0.601073   531A      0.602002   532A      0.603555  
     533A      0.604180   534A      0.606732   535A      0.608110  
     536A      0.608478   537A      0.610149   538A      0.611970  
     539A      0.613212   540A      0.615010   541A      0.615672  
     542A      0.617613   543A      0.619603   544A      0.620407  
     545A      0.621753   546A      0.624071   547A      0.625053  
     548A      0.628075   549A      0.628509   550A      0.629591  
     551A      0.630700   552A      0.633501   553A      0.634399  
     554A      0.636259   555A      0.636713   556A      0.638298  
     557A      0.640245   558A      0.641414   559A      0.642617  
     560A      0.644137   561A      0.647429   562A      0.648368  
     563A      0.649511   564A      0.650420   565A      0.651390  
     566A      0.652667   567A      0.654287   568A      0.657146  
     569A      0.657444   570A      0.660237   571A      0.661425  
     572A      0.664348   573A      0.665461   574A      0.666612  
     575A      0.667745   576A      0.669409   577A      0.670730  
     578A      0.672781   579A      0.674815   580A      0.675660  
     581A      0.676962   582A      0.677960   583A      0.679100  
     584A      0.680732   585A      0.682208   586A      0.683391  
     587A      0.684688   588A      0.687330   589A      0.688250  
     590A      0.690566   591A      0.691148   592A      0.693184  
     593A      0.696240   594A      0.697567   595A      0.698124  
     596A      0.698370   597A      0.700069   598A      0.703292  
     599A      0.704390   600A      0.705012   601A      0.707720  
     602A      0.708454   603A      0.710651   604A      0.711561  
     605A      0.712216   606A      0.715247   607A      0.715480  
     608A      0.716896   609A      0.719161   610A      0.720870  
     611A      0.721953   612A      0.723264   613A      0.725311  
     614A      0.726146   615A      0.728441   616A      0.729891  
     617A      0.731213   618A      0.733859   619A      0.734728  
     620A      0.735837   621A      0.736668   622A      0.737331  
     623A      0.738967   624A      0.740555   625A      0.742741  
     626A      0.744924   627A      0.745538   628A      0.746764  
     629A      0.748041   630A      0.749735   631A      0.751486  
     632A      0.754201   633A      0.754546   634A      0.755880  
     635A      0.757739   636A      0.758951   637A      0.761017  
     638A      0.761661   639A      0.763880   640A      0.764939  
     641A      0.766173   642A      0.767130   643A      0.768094  
     644A      0.768449   645A      0.770733   646A      0.771394  
     647A      0.773354   648A      0.774990   649A      0.776016  
     650A      0.778672   651A      0.778830   652A      0.779793  
     653A      0.781737   654A      0.782487   655A      0.785456  
     656A      0.786822   657A      0.789188   658A      0.789705  
     659A      0.792489   660A      0.793636   661A      0.795627  
     662A      0.796272   663A      0.797232   664A      0.799254  
     665A      0.801205   666A      0.801752   667A      0.802745  
     668A      0.804904   669A      0.805352   670A      0.808509  
     671A      0.808783   672A      0.809858   673A      0.812486  
     674A      0.814282   675A      0.816062   676A      0.817082  
     677A      0.817883   678A      0.820214   679A      0.821378  
     680A      0.822422   681A      0.823507   682A      0.825296  
     683A      0.827589   684A      0.829316   685A      0.830804  
     686A      0.832342   687A      0.832589   688A      0.834574  
     689A      0.836190   690A      0.837664   691A      0.838620  
     692A      0.840358   693A      0.841357   694A      0.842905  
     695A      0.844960   696A      0.846087   697A      0.847165  
     698A      0.848905   699A      0.849516   700A      0.851138  
     701A      0.851741   702A      0.853496   703A      0.854843  
     704A      0.855559   705A      0.857577   706A      0.859326  
     707A      0.860922   708A      0.862167   709A      0.863868  
     710A      0.867726   711A      0.867940   712A      0.869088  
     713A      0.871711   714A      0.873972   715A      0.875151  
     716A      0.875493   717A      0.877234   718A      0.879314  
     719A      0.879623   720A      0.880610   721A      0.881622  
     722A      0.883438   723A      0.884961   724A      0.886310  
     725A      0.888948   726A      0.891428   727A      0.891554  
     728A      0.892631   729A      0.894450   730A      0.896390  
     731A      0.897981   732A      0.899684   733A      0.900000  
     734A      0.901386   735A      0.903110   736A      0.903721  
     737A      0.907050   738A      0.907596   739A      0.908718  
     740A      0.911464   741A      0.912114   742A      0.913924  
     743A      0.916026   744A      0.916167   745A      0.917685  
     746A      0.919200   747A      0.920839   748A      0.922752  
     749A      0.923743   750A      0.924987   751A      0.926289  
     752A      0.927682   753A      0.929223   754A      0.929550  
     755A      0.931977   756A      0.934088   757A      0.935043  
     758A      0.936294   759A      0.936792   760A      0.939037  
     761A      0.940200   762A      0.940983   763A      0.943197  
     764A      0.944156   765A      0.944948   766A      0.946517  
     767A      0.948123   768A      0.949020   769A      0.950965  
     770A      0.951689   771A      0.952587   772A      0.955392  
     773A      0.957532   774A      0.959174   775A      0.960850  
     776A      0.962060   777A      0.962547   778A      0.965578  
     779A      0.967581   780A      0.968362   781A      0.970154  
     782A      0.972315   783A      0.973312   784A      0.975018  
     785A      0.975339   786A      0.977228   787A      0.979449  
     788A      0.980371   789A      0.982291   790A      0.983599  
     791A      0.984054   792A      0.986090   793A      0.987302  
     794A      0.988292   795A      0.990256   796A      0.992037  
     797A      0.994128   798A      0.995642   799A      0.996008  
     800A      0.998006   801A      0.998676   802A      0.999774  
     803A      1.002069   804A      1.004593   805A      1.005371  
     806A      1.007760   807A      1.009851   808A      1.010499  
     809A      1.011542   810A      1.012917   811A      1.015633  
     812A      1.018434   813A      1.019575   814A      1.021432  
     815A      1.023087   816A      1.023671   817A      1.025718  
     818A      1.026477   819A      1.028827   820A      1.031354  
     821A      1.032128   822A      1.033750   823A      1.036601  
     824A      1.038536   825A      1.038843   826A      1.040104  
     827A      1.040724   828A      1.042628   829A      1.043667  
     830A      1.047092   831A      1.047189   832A      1.048460  
     833A      1.048818   834A      1.049844   835A      1.053546  
     836A      1.056164   837A      1.056526   838A      1.058873  
     839A      1.059411   840A      1.061096   841A      1.061482  
     842A      1.063548   843A      1.065184   844A      1.066483  
     845A      1.067939   846A      1.069561   847A      1.070462  
     848A      1.072576   849A      1.073457   850A      1.076222  
     851A      1.077389   852A      1.078490   853A      1.080027  
     854A      1.082858   855A      1.084196   856A      1.085847  
     857A      1.087221   858A      1.089254   859A      1.090021  
     860A      1.091989   861A      1.094185   862A      1.096376  
     863A      1.097304   864A      1.099732   865A      1.100251  
     866A      1.101573   867A      1.103553   868A      1.104480  
     869A      1.105960   870A      1.106701   871A      1.108499  
     872A      1.109915   873A      1.113118   874A      1.113603  
     875A      1.114402   876A      1.116367   877A      1.116878  
     878A      1.119716   879A      1.121190   880A      1.122128  
     881A      1.123824   882A      1.125172   883A      1.126614  
     884A      1.127738   885A      1.128499   886A      1.130390  
     887A      1.131473   888A      1.134096   889A      1.134687  
     890A      1.136465   891A      1.138593   892A      1.139313  
     893A      1.141341   894A      1.142385   895A      1.143233  
     896A      1.146056   897A      1.146998   898A      1.149397  
     899A      1.149768   900A      1.150781   901A      1.153528  
     902A      1.155899   903A      1.158734   904A      1.159976  
     905A      1.161048   906A      1.162138   907A      1.163745  
     908A      1.164094   909A      1.165341   910A      1.168321  
     911A      1.169836   912A      1.170589   913A      1.171835  
     914A      1.172361   915A      1.176093   916A      1.176391  
     917A      1.177980   918A      1.179810   919A      1.180647  
     920A      1.183644   921A      1.184557   922A      1.187420  
     923A      1.189410   924A      1.189653   925A      1.191356  
     926A      1.192364   927A      1.196688   928A      1.197549  
     929A      1.198182   930A      1.199772   931A      1.201273  
     932A      1.203126   933A      1.206073   934A      1.206949  
     935A      1.207574   936A      1.208953   937A      1.210776  
     938A      1.210844   939A      1.214314   940A      1.215352  
     941A      1.219149   942A      1.220487   943A      1.221499  
     944A      1.222422   945A      1.226564   946A      1.227337  
     947A      1.229269   948A      1.230190   949A      1.232357  
     950A      1.234464   951A      1.237375   952A      1.239316  
     953A      1.239636   954A      1.240920   955A      1.242106  
     956A      1.243429   957A      1.245453   958A      1.247145  
     959A      1.250691   960A      1.251526   961A      1.252276  
     962A      1.254183   963A      1.255551   964A      1.256760  
     965A      1.259283   966A      1.261032   967A      1.262585  
     968A      1.263423   969A      1.264927   970A      1.265905  
     971A      1.267169   972A      1.268029   973A      1.269651  
     974A      1.273022   975A      1.274777   976A      1.276816  
     977A      1.277504   978A      1.280578   979A      1.281424  
     980A      1.282601   981A      1.283745   982A      1.286970  
     983A      1.288047   984A      1.288852   985A      1.290821  
     986A      1.293248   987A      1.294013   988A      1.295437  
     989A      1.297537   990A      1.298401   991A      1.300222  
     992A      1.302464   993A      1.302817   994A      1.303353  
     995A      1.305224   996A      1.307328   997A      1.308403  
     998A      1.309811   999A      1.311575  1000A      1.312040  
    1001A      1.313751  1002A      1.314428  1003A      1.317404  
    1004A      1.319113  1005A      1.322231  1006A      1.322789  
    1007A      1.324214  1008A      1.325953  1009A      1.327917  
    1010A      1.329821  1011A      1.330544  1012A      1.332297  
    1013A      1.333029  1014A      1.334152  1015A      1.335438  
    1016A      1.337112  1017A      1.339874  1018A      1.341436  
    1019A      1.341905  1020A      1.343869  1021A      1.346193  
    1022A      1.347803  1023A      1.348491  1024A      1.352079  
    1025A      1.353988  1026A      1.354531  1027A      1.356591  
    1028A      1.358156  1029A      1.361049  1030A      1.362557  
    1031A      1.362622  1032A      1.363928  1033A      1.366810  
    1034A      1.367569  1035A      1.369598  1036A      1.370625  
    1037A      1.372767  1038A      1.373976  1039A      1.376260  
    1040A      1.377294  1041A      1.377835  1042A      1.379954  
    1043A      1.380652  1044A      1.381976  1045A      1.383524  
    1046A      1.386386  1047A      1.386528  1048A      1.389036  
    1049A      1.391336  1050A      1.393059  1051A      1.393564  
    1052A      1.395443  1053A      1.395940  1054A      1.398989  
    1055A      1.399757  1056A      1.403167  1057A      1.403738  
    1058A      1.404442  1059A      1.407018  1060A      1.408570  
    1061A      1.410899  1062A      1.413688  1063A      1.414854  
    1064A      1.415184  1065A      1.417269  1066A      1.418123  
    1067A      1.420307  1068A      1.421426  1069A      1.423522  
    1070A      1.425833  1071A      1.427993  1072A      1.428923  
    1073A      1.429747  1074A      1.431224  1075A      1.432833  
    1076A      1.436042  1077A      1.437328  1078A      1.437821  
    1079A      1.438559  1080A      1.440603  1081A      1.443754  
    1082A      1.445214  1083A      1.446287  1084A      1.446559  
    1085A      1.446931  1086A      1.450533  1087A      1.451203  
    1088A      1.452933  1089A      1.454641  1090A      1.457259  
    1091A      1.457716  1092A      1.458692  1093A      1.461326  
    1094A      1.462692  1095A      1.463370  1096A      1.465609  
    1097A      1.466302  1098A      1.468763  1099A      1.470912  
    1100A      1.472366  1101A      1.474312  1102A      1.476499  
    1103A      1.477518  1104A      1.479813  1105A      1.480195  
    1106A      1.482363  1107A      1.482736  1108A      1.484323  
    1109A      1.485754  1110A      1.487878  1111A      1.489668  
    1112A      1.492099  1113A      1.493290  1114A      1.495452  
    1115A      1.496959  1116A      1.498375  1117A      1.499225  
    1118A      1.500745  1119A      1.503072  1120A      1.505483  
    1121A      1.507092  1122A      1.507575  1123A      1.509681  
    1124A      1.512446  1125A      1.512739  1126A      1.514540  
    1127A      1.514873  1128A      1.518085  1129A      1.518615  
    1130A      1.521264  1131A      1.522274  1132A      1.523869  
    1133A      1.525568  1134A      1.527186  1135A      1.529658  
    1136A      1.530764  1137A      1.532465  1138A      1.533512  
    1139A      1.535124  1140A      1.535858  1141A      1.539120  
    1142A      1.540522  1143A      1.540834  1144A      1.542698  
    1145A      1.544200  1146A      1.545730  1147A      1.546138  
    1148A      1.548942  1149A      1.550167  1150A      1.552152  
    1151A      1.553069  1152A      1.554292  1153A      1.555918  
    1154A      1.558435  1155A      1.559601  1156A      1.561567  
    1157A      1.562835  1158A      1.563632  1159A      1.565509  
    1160A      1.565806  1161A      1.566547  1162A      1.568980  
    1163A      1.570871  1164A      1.573949  1165A      1.574107  
    1166A      1.575797  1167A      1.578896  1168A      1.579274  
    1169A      1.579786  1170A      1.581937  1171A      1.583653  
    1172A      1.585654  1173A      1.586491  1174A      1.587526  
    1175A      1.589404  1176A      1.590577  1177A      1.592830  
    1178A      1.594852  1179A      1.596711  1180A      1.598049  
    1181A      1.599368  1182A      1.601220  1183A      1.603194  
    1184A      1.605672  1185A      1.607279  1186A      1.607951  
    1187A      1.611352  1188A      1.612407  1189A      1.613526  
    1190A      1.614027  1191A      1.618093  1192A      1.619671  
    1193A      1.621260  1194A      1.622558  1195A      1.623694  
    1196A      1.625786  1197A      1.626873  1198A      1.629526  
    1199A      1.629869  1200A      1.631199  1201A      1.631614  
    1202A      1.633694  1203A      1.635193  1204A      1.636445  
    1205A      1.637899  1206A      1.639425  1207A      1.640173  
    1208A      1.643792  1209A      1.644784  1210A      1.647486  
    1211A      1.648805  1212A      1.651122  1213A      1.651907  
    1214A      1.653509  1215A      1.654503  1216A      1.657192  
    1217A      1.659074  1218A      1.659955  1219A      1.662776  
    1220A      1.663239  1221A      1.665883  1222A      1.666834  
    1223A      1.667884  1224A      1.669039  1225A      1.669699  
    1226A      1.673033  1227A      1.674704  1228A      1.675343  
    1229A      1.677096  1230A      1.678038  1231A      1.679096  
    1232A      1.681390  1233A      1.682814  1234A      1.685189  
    1235A      1.689133  1236A      1.689643  1237A      1.691451  
    1238A      1.693025  1239A      1.693527  1240A      1.694632  
    1241A      1.696442  1242A      1.697575  1243A      1.699005  
    1244A      1.700733  1245A      1.704013  1246A      1.705741  
    1247A      1.708281  1248A      1.709676  1249A      1.710697  
    1250A      1.710932  1251A      1.713151  1252A      1.714299  
    1253A      1.714960  1254A      1.718991  1255A      1.720349  
    1256A      1.721284  1257A      1.723165  1258A      1.724009  
    1259A      1.726403  1260A      1.727991  1261A      1.730340  
    1262A      1.731361  1263A      1.732143  1264A      1.733881  
    1265A      1.735788  1266A      1.736917  1267A      1.739450  
    1268A      1.740626  1269A      1.740971  1270A      1.745805  
    1271A      1.746801  1272A      1.748530  1273A      1.749661  
    1274A      1.751683  1275A      1.752839  1276A      1.755855  
    1277A      1.756885  1278A      1.758896  1279A      1.760438  
    1280A      1.762351  1281A      1.763360  1282A      1.766737  
    1283A      1.767346  1284A      1.769706  1285A      1.771308  
    1286A      1.772439  1287A      1.775996  1288A      1.777003  
    1289A      1.778664  1290A      1.782193  1291A      1.783724  
    1292A      1.785295  1293A      1.787281  1294A      1.789032  
    1295A      1.790149  1296A      1.792555  1297A      1.793467  
    1298A      1.795094  1299A      1.795649  1300A      1.797773  
    1301A      1.798260  1302A      1.799993  1303A      1.800894  
    1304A      1.803042  1305A      1.804400  1306A      1.806371  
    1307A      1.809580  1308A      1.811100  1309A      1.812806  
    1310A      1.815285  1311A      1.816079  1312A      1.818150  
    1313A      1.819390  1314A      1.821363  1315A      1.824829  
    1316A      1.825067  1317A      1.826952  1318A      1.827588  
    1319A      1.829852  1320A      1.830563  1321A      1.831536  
    1322A      1.833809  1323A      1.836823  1324A      1.840386  
    1325A      1.842307  1326A      1.843316  1327A      1.846204  
    1328A      1.848379  1329A      1.849994  1330A      1.850783  
    1331A      1.851514  1332A      1.853069  1333A      1.854805  
    1334A      1.857724  1335A      1.857975  1336A      1.859942  
    1337A      1.863731  1338A      1.865775  1339A      1.866826  
    1340A      1.867700  1341A      1.871659  1342A      1.873089  
    1343A      1.874032  1344A      1.875967  1345A      1.877227  
    1346A      1.878285  1347A      1.880906  1348A      1.882568  
    1349A      1.884100  1350A      1.884616  1351A      1.888679  
    1352A      1.889533  1353A      1.891060  1354A      1.893207  
    1355A      1.894046  1356A      1.895415  1357A      1.898328  
    1358A      1.901574  1359A      1.903781  1360A      1.905926  
    1361A      1.906053  1362A      1.907651  1363A      1.908452  
    1364A      1.911753  1365A      1.913458  1366A      1.914579  
    1367A      1.917068  1368A      1.918713  1369A      1.921820  
    1370A      1.922306  1371A      1.925017  1372A      1.927304  
    1373A      1.929078  1374A      1.929891  1375A      1.931158  
    1376A      1.934283  1377A      1.936218  1378A      1.938261  
    1379A      1.940939  1380A      1.941854  1381A      1.943042  
    1382A      1.946122  1383A      1.947265  1384A      1.949662  
    1385A      1.951961  1386A      1.953016  1387A      1.956145  
    1388A      1.956680  1389A      1.959119  1390A      1.960899  
    1391A      1.961479  1392A      1.963198  1393A      1.965255  
    1394A      1.966572  1395A      1.967865  1396A      1.969800  
    1397A      1.972080  1398A      1.974028  1399A      1.974113  
    1400A      1.976851  1401A      1.979201  1402A      1.983108  
    1403A      1.985454  1404A      1.986763  1405A      1.989025  
    1406A      1.989876  1407A      1.990903  1408A      1.991823  
    1409A      1.994814  1410A      1.997051  1411A      1.997986  
    1412A      1.999321  1413A      2.001766  1414A      2.002883  
    1415A      2.005279  1416A      2.007569  1417A      2.008812  
    1418A      2.010614  1419A      2.013553  1420A      2.014709  
    1421A      2.017451  1422A      2.019893  1423A      2.020914  
    1424A      2.021703  1425A      2.024430  1426A      2.026909  
    1427A      2.028144  1428A      2.031750  1429A      2.032238  
    1430A      2.032961  1431A      2.034648  1432A      2.037509  
    1433A      2.039333  1434A      2.040165  1435A      2.043148  
    1436A      2.045648  1437A      2.046991  1438A      2.048656  
    1439A      2.051116  1440A      2.052393  1441A      2.053769  
    1442A      2.056168  1443A      2.059351  1444A      2.061202  
    1445A      2.062047  1446A      2.063378  1447A      2.063860  
    1448A      2.065532  1449A      2.069642  1450A      2.071387  
    1451A      2.071910  1452A      2.076465  1453A      2.076696  
    1454A      2.078092  1455A      2.080478  1456A      2.081081  
    1457A      2.084759  1458A      2.089053  1459A      2.089840  
    1460A      2.090656  1461A      2.091790  1462A      2.096909  
    1463A      2.097969  1464A      2.102409  1465A      2.104650  
    1466A      2.105912  1467A      2.106498  1468A      2.108142  
    1469A      2.109252  1470A      2.112756  1471A      2.113641  
    1472A      2.114943  1473A      2.117282  1474A      2.120970  
    1475A      2.122961  1476A      2.126050  1477A      2.126478  
    1478A      2.127170  1479A      2.127733  1480A      2.132743  
    1481A      2.134567  1482A      2.136725  1483A      2.137835  
    1484A      2.139341  1485A      2.143051  1486A      2.144296  
    1487A      2.145981  1488A      2.147931  1489A      2.150646  
    1490A      2.152047  1491A      2.155409  1492A      2.155778  
    1493A      2.159288  1494A      2.159898  1495A      2.162863  
    1496A      2.164754  1497A      2.166225  1498A      2.168868  
    1499A      2.171358  1500A      2.173296  1501A      2.173503  
    1502A      2.178145  1503A      2.179719  1504A      2.180578  
    1505A      2.182668  1506A      2.183582  1507A      2.185621  
    1508A      2.187666  1509A      2.189710  1510A      2.190552  
    1511A      2.192752  1512A      2.193384  1513A      2.201467  
    1514A      2.203078  1515A      2.205110  1516A      2.207138  
    1517A      2.208890  1518A      2.210230  1519A      2.212347  
    1520A      2.214241  1521A      2.217861  1522A      2.219141  
    1523A      2.221534  1524A      2.223449  1525A      2.224556  
    1526A      2.228231  1527A      2.228999  1528A      2.231435  
    1529A      2.233462  1530A      2.234270  1531A      2.235943  
    1532A      2.238542  1533A      2.240460  1534A      2.242778  
    1535A      2.244728  1536A      2.247260  1537A      2.251858  
    1538A      2.252958  1539A      2.254442  1540A      2.257284  
    1541A      2.259119  1542A      2.261658  1543A      2.263249  
    1544A      2.268639  1545A      2.269128  1546A      2.272876  
    1547A      2.273787  1548A      2.277320  1549A      2.279559  
    1550A      2.280026  1551A      2.283389  1552A      2.285815  
    1553A      2.288191  1554A      2.289388  1555A      2.292191  
    1556A      2.294109  1557A      2.295709  1558A      2.298555  
    1559A      2.302990  1560A      2.304058  1561A      2.308992  
    1562A      2.312049  1563A      2.313968  1564A      2.316564  
    1565A      2.318861  1566A      2.319874  1567A      2.320463  
    1568A      2.324407  1569A      2.326420  1570A      2.327889  
    1571A      2.330928  1572A      2.333325  1573A      2.334186  
    1574A      2.335635  1575A      2.336894  1576A      2.338416  
    1577A      2.340258  1578A      2.346726  1579A      2.347890  
    1580A      2.348154  1581A      2.352195  1582A      2.354788  
    1583A      2.358436  1584A      2.360107  1585A      2.362897  
    1586A      2.363578  1587A      2.365663  1588A      2.367877  
    1589A      2.368959  1590A      2.370449  1591A      2.374534  
    1592A      2.377049  1593A      2.378081  1594A      2.379559  
    1595A      2.383568  1596A      2.384916  1597A      2.385530  
    1598A      2.388364  1599A      2.389419  1600A      2.394351  
    1601A      2.395411  1602A      2.396302  1603A      2.398713  
    1604A      2.399392  1605A      2.403604  1606A      2.405238  
    1607A      2.407693  1608A      2.410028  1609A      2.412265  
    1610A      2.415403  1611A      2.419107  1612A      2.420642  
    1613A      2.423272  1614A      2.425288  1615A      2.427782  
    1616A      2.430600  1617A      2.433691  1618A      2.434869  
    1619A      2.437277  1620A      2.438701  1621A      2.440965  
    1622A      2.443094  1623A      2.445620  1624A      2.447968  
    1625A      2.448544  1626A      2.451825  1627A      2.454113  
    1628A      2.456256  1629A      2.460625  1630A      2.462105  
    1631A      2.463260  1632A      2.466402  1633A      2.473333  
    1634A      2.475218  1635A      2.476881  1636A      2.478384  
    1637A      2.480947  1638A      2.485418  1639A      2.486457  
    1640A      2.488060  1641A      2.490608  1642A      2.493503  
    1643A      2.495204  1644A      2.500596  1645A      2.502004  
    1646A      2.505638  1647A      2.509422  1648A      2.510665  
    1649A      2.512328  1650A      2.514700  1651A      2.516426  
    1652A      2.518197  1653A      2.520360  1654A      2.522768  
    1655A      2.528669  1656A      2.530057  1657A      2.531476  
    1658A      2.532946  1659A      2.535176  1660A      2.537525  
    1661A      2.540449  1662A      2.544717  1663A      2.547420  
    1664A      2.549922  1665A      2.551266  1666A      2.554337  
    1667A      2.555130  1668A      2.557892  1669A      2.560215  
    1670A      2.562230  1671A      2.566744  1672A      2.568961  
    1673A      2.572159  1674A      2.574161  1675A      2.576111  
    1676A      2.577901  1677A      2.581032  1678A      2.583620  
    1679A      2.587208  1680A      2.589560  1681A      2.593762  
    1682A      2.595495  1683A      2.598217  1684A      2.600038  
    1685A      2.600690  1686A      2.603709  1687A      2.605537  
    1688A      2.609265  1689A      2.611197  1690A      2.615798  
    1691A      2.616829  1692A      2.620423  1693A      2.622208  
    1694A      2.624096  1695A      2.627671  1696A      2.630684  
    1697A      2.632462  1698A      2.634729  1699A      2.635482  
    1700A      2.640446  1701A      2.645620  1702A      2.647304  
    1703A      2.647868  1704A      2.652592  1705A      2.655184  
    1706A      2.658460  1707A      2.659755  1708A      2.662246  
    1709A      2.665117  1710A      2.668892  1711A      2.669631  
    1712A      2.672946  1713A      2.673830  1714A      2.675427  
    1715A      2.680602  1716A      2.681480  1717A      2.684557  
    1718A      2.686820  1719A      2.689754  1720A      2.693419  
    1721A      2.695425  1722A      2.701500  1723A      2.704965  
    1724A      2.706373  1725A      2.708014  1726A      2.712556  
    1727A      2.714320  1728A      2.716533  1729A      2.718809  
    1730A      2.719550  1731A      2.721477  1732A      2.723855  
    1733A      2.726448  1734A      2.728256  1735A      2.732098  
    1736A      2.736740  1737A      2.737985  1738A      2.741362  
    1739A      2.745817  1740A      2.746993  1741A      2.749232  
    1742A      2.752474  1743A      2.754611  1744A      2.755556  
    1745A      2.761531  1746A      2.765688  1747A      2.767163  
    1748A      2.769908  1749A      2.771480  1750A      2.775852  
    1751A      2.777400  1752A      2.778567  1753A      2.782167  
    1754A      2.787126  1755A      2.789397  1756A      2.791280  
    1757A      2.795004  1758A      2.796035  1759A      2.798363  
    1760A      2.802811  1761A      2.803548  1762A      2.806967  
    1763A      2.807767  1764A      2.813064  1765A      2.817222  
    1766A      2.818867  1767A      2.821249  1768A      2.823856  
    1769A      2.825535  1770A      2.828996  1771A      2.832938  
    1772A      2.834576  1773A      2.836502  1774A      2.841613  
    1775A      2.844411  1776A      2.847480  1777A      2.848978  
    1778A      2.854702  1779A      2.855463  1780A      2.860912  
    1781A      2.864134  1782A      2.867984  1783A      2.868953  
    1784A      2.875429  1785A      2.880188  1786A      2.881911  
    1787A      2.882450  1788A      2.886403  1789A      2.889582  
    1790A      2.893443  1791A      2.894555  1792A      2.899041  
    1793A      2.900598  1794A      2.904737  1795A      2.908133  
    1796A      2.911963  1797A      2.914376  1798A      2.918764  
    1799A      2.921751  1800A      2.923947  1801A      2.924388  
    1802A      2.927573  1803A      2.936350  1804A      2.939021  
    1805A      2.943159  1806A      2.948415  1807A      2.948940  
    1808A      2.952757  1809A      2.956685  1810A      2.962466  
    1811A      2.964805  1812A      2.969554  1813A      2.973813  
    1814A      2.977862  1815A      2.979894  1816A      2.982480  
    1817A      2.985435  1818A      2.989552  1819A      2.994162  
    1820A      3.003387  1821A      3.005864  1822A      3.007163  
    1823A      3.009555  1824A      3.016072  1825A      3.021750  
    1826A      3.025106  1827A      3.028510  1828A      3.031652  
    1829A      3.036215  1830A      3.040144  1831A      3.043259  
    1832A      3.048866  1833A      3.054856  1834A      3.058036  
    1835A      3.062109  1836A      3.065003  1837A      3.072022  
    1838A      3.078275  1839A      3.079237  1840A      3.084295  
    1841A      3.086409  1842A      3.093796  1843A      3.098756  
    1844A      3.099990  1845A      3.108955  1846A      3.115517  
    1847A      3.121020  1848A      3.122268  1849A      3.123477  
    1850A      3.130413  1851A      3.132415  1852A      3.140726  
    1853A      3.142934  1854A      3.149831  1855A      3.151558  
    1856A      3.152339  1857A      3.163574  1858A      3.166070  
    1859A      3.171729  1860A      3.175310  1861A      3.182312  
    1862A      3.187171  1863A      3.191496  1864A      3.195362  
    1865A      3.202408  1866A      3.204835  1867A      3.209756  
    1868A      3.214682  1869A      3.220558  1870A      3.222924  
    1871A      3.230302  1872A      3.233615  1873A      3.236430  
    1874A      3.243389  1875A      3.246988  1876A      3.251104  
    1877A      3.256904  1878A      3.262786  1879A      3.263957  
    1880A      3.268957  1881A      3.272271  1882A      3.279435  
    1883A      3.282566  1884A      3.283708  1885A      3.285953  
    1886A      3.292869  1887A      3.298551  1888A      3.302293  
    1889A      3.306184  1890A      3.311849  1891A      3.315241  
    1892A      3.317889  1893A      3.324462  1894A      3.328422  
    1895A      3.331352  1896A      3.334837  1897A      3.335869  
    1898A      3.338624  1899A      3.343709  1900A      3.350543  
    1901A      3.355704  1902A      3.359958  1903A      3.364235  
    1904A      3.366314  1905A      3.368072  1906A      3.372781  
    1907A      3.375698  1908A      3.380059  1909A      3.382499  
    1910A      3.385862  1911A      3.388721  1912A      3.396080  
    1913A      3.400415  1914A      3.406242  1915A      3.408907  
    1916A      3.413344  1917A      3.415442  1918A      3.424368  
    1919A      3.428790  1920A      3.430565  1921A      3.434413  
    1922A      3.435184  1923A      3.441052  1924A      3.446548  
    1925A      3.448168  1926A      3.449625  1927A      3.453886  
    1928A      3.457152  1929A      3.460035  1930A      3.461245  
    1931A      3.467509  1932A      3.471472  1933A      3.473421  
    1934A      3.475318  1935A      3.480913  1936A      3.481433  
    1937A      3.481923  1938A      3.487201  1939A      3.492494  
    1940A      3.497319  1941A      3.499491  1942A      3.501983  
    1943A      3.506834  1944A      3.509012  1945A      3.511001  
    1946A      3.514355  1947A      3.516384  1948A      3.520009  
    1949A      3.524915  1950A      3.527316  1951A      3.531608  
    1952A      3.534525  1953A      3.537047  1954A      3.538716  
    1955A      3.541025  1956A      3.544409  1957A      3.550038  
    1958A      3.552525  1959A      3.553315  1960A      3.554483  
    1961A      3.560288  1962A      3.562873  1963A      3.565520  
    1964A      3.570623  1965A      3.570864  1966A      3.574589  
    1967A      3.577841  1968A      3.579915  1969A      3.584321  
    1970A      3.584664  1971A      3.587870  1972A      3.589378  
    1973A      3.592605  1974A      3.596278  1975A      3.598354  
    1976A      3.601979  1977A      3.606969  1978A      3.610387  
    1979A      3.614550  1980A      3.616851  1981A      3.618838  
    1982A      3.621936  1983A      3.626422  1984A      3.631079  
    1985A      3.632692  1986A      3.634586  1987A      3.639879  
    1988A      3.644371  1989A      3.647091  1990A      3.649242  
    1991A      3.650660  1992A      3.651969  1993A      3.654411  
    1994A      3.661139  1995A      3.663182  1996A      3.665414  
    1997A      3.667351  1998A      3.671863  1999A      3.673744  
    2000A      3.676244  2001A      3.678492  2002A      3.683013  
    2003A      3.687722  2004A      3.690984  2005A      3.693994  
    2006A      3.697833  2007A      3.701332  2008A      3.704318  
    2009A      3.707354  2010A      3.708630  2011A      3.712334  
    2012A      3.716104  2013A      3.717930  2014A      3.721326  
    2015A      3.725223  2016A      3.726932  2017A      3.730648  
    2018A      3.732822  2019A      3.734955  2020A      3.741085  
    2021A      3.743285  2022A      3.746241  2023A      3.749423  
    2024A      3.753107  2025A      3.754953  2026A      3.761187  
    2027A      3.762124  2028A      3.765269  2029A      3.769013  
    2030A      3.773443  2031A      3.776817  2032A      3.778151  
    2033A      3.781355  2034A      3.783084  2035A      3.788327  
    2036A      3.789990  2037A      3.794411  2038A      3.797040  
    2039A      3.802847  2040A      3.804802  2041A      3.807484  
    2042A      3.809750  2043A      3.816089  2044A      3.818669  
    2045A      3.820762  2046A      3.823759  2047A      3.825418  
    2048A      3.828619  2049A      3.832766  2050A      3.834348  
    2051A      3.840105  2052A      3.842907  2053A      3.846102  
    2054A      3.849651  2055A      3.851329  2056A      3.858617  
    2057A      3.861236  2058A      3.864658  2059A      3.867788  
    2060A      3.869296  2061A      3.872905  2062A      3.875411  
    2063A      3.877872  2064A      3.881919  2065A      3.884179  
    2066A      3.886965  2067A      3.889679  2068A      3.893016  
    2069A      3.897764  2070A      3.901824  2071A      3.905649  
    2072A      3.907762  2073A      3.910304  2074A      3.910839  
    2075A      3.912759  2076A      3.917786  2077A      3.921563  
    2078A      3.922434  2079A      3.928659  2080A      3.934223  
    2081A      3.939532  2082A      3.942263  2083A      3.943515  
    2084A      3.946907  2085A      3.949981  2086A      3.952569  
    2087A      3.957106  2088A      3.958293  2089A      3.960573  
    2090A      3.962848  2091A      3.965183  2092A      3.970282  
    2093A      3.973065  2094A      3.978414  2095A      3.980881  
    2096A      3.983255  2097A      3.984590  2098A      3.989866  
    2099A      3.993546  2100A      3.996524  2101A      4.000465  
    2102A      4.001912  2103A      4.011786  2104A      4.014874  
    2105A      4.016395  2106A      4.020112  2107A      4.022488  
    2108A      4.024506  2109A      4.026762  2110A      4.029098  
    2111A      4.033050  2112A      4.035739  2113A      4.038918  
    2114A      4.039610  2115A      4.043639  2116A      4.047419  
    2117A      4.051876  2118A      4.052841  2119A      4.057174  
    2120A      4.057629  2121A      4.059988  2122A      4.061453  
    2123A      4.064356  2124A      4.066005  2125A      4.073216  
    2126A      4.075223  2127A      4.080569  2128A      4.081446  
    2129A      4.086399  2130A      4.086724  2131A      4.090246  
    2132A      4.093683  2133A      4.094236  2134A      4.099239  
    2135A      4.103769  2136A      4.108118  2137A      4.109307  
    2138A      4.110591  2139A      4.114925  2140A      4.116555  
    2141A      4.119464  2142A      4.122663  2143A      4.123986  
    2144A      4.129598  2145A      4.132137  2146A      4.133083  
    2147A      4.134938  2148A      4.139557  2149A      4.143866  
    2150A      4.145632  2151A      4.147379  2152A      4.150622  
    2153A      4.154055  2154A      4.158799  2155A      4.160944  
    2156A      4.162343  2157A      4.164920  2158A      4.167651  
    2159A      4.168456  2160A      4.171823  2161A      4.174729  
    2162A      4.179977  2163A      4.182012  2164A      4.184171  
    2165A      4.186253  2166A      4.190098  2167A      4.190877  
    2168A      4.195832  2169A      4.196507  2170A      4.197615  
    2171A      4.204344  2172A      4.207377  2173A      4.209243  
    2174A      4.212530  2175A      4.214716  2176A      4.216038  
    2177A      4.220282  2178A      4.220583  2179A      4.222903  
    2180A      4.225206  2181A      4.228261  2182A      4.229647  
    2183A      4.233785  2184A      4.237206  2185A      4.240341  
    2186A      4.241903  2187A      4.243450  2188A      4.244872  
    2189A      4.247733  2190A      4.250111  2191A      4.254804  
    2192A      4.255675  2193A      4.257910  2194A      4.261749  
    2195A      4.264407  2196A      4.269129  2197A      4.269822  
    2198A      4.273403  2199A      4.273697  2200A      4.276331  
    2201A      4.279318  2202A      4.280133  2203A      4.282771  
    2204A      4.284979  2205A      4.286632  2206A      4.288348  
    2207A      4.290509  2208A      4.294129  2209A      4.298008  
    2210A      4.302887  2211A      4.304175  2212A      4.305880  
    2213A      4.307234  2214A      4.309496  2215A      4.311353  
    2216A      4.312013  2217A      4.314004  2218A      4.314884  
    2219A      4.316084  2220A      4.318899  2221A      4.322176  
    2222A      4.324525  2223A      4.327449  2224A      4.329422  
    2225A      4.332724  2226A      4.333729  2227A      4.335702  
    2228A      4.337781  2229A      4.338884  2230A      4.345034  
    2231A      4.346458  2232A      4.348085  2233A      4.349324  
    2234A      4.354273  2235A      4.355707  2236A      4.358340  
    2237A      4.362076  2238A      4.365355  2239A      4.368435  
    2240A      4.372504  2241A      4.373131  2242A      4.377787  
    2243A      4.378700  2244A      4.380644  2245A      4.382287  
    2246A      4.385274  2247A      4.385767  2248A      4.388887  
    2249A      4.391680  2250A      4.393389  2251A      4.393910  
    2252A      4.398514  2253A      4.401748  2254A      4.403603  
    2255A      4.404875  2256A      4.406724  2257A      4.408520  
    2258A      4.409980  2259A      4.415219  2260A      4.418901  
    2261A      4.421472  2262A      4.425071  2263A      4.426455  
    2264A      4.426959  2265A      4.428989  2266A      4.431903  
    2267A      4.434000  2268A      4.436473  2269A      4.438710  
    2270A      4.441983  2271A      4.443893  2272A      4.446689  
    2273A      4.450413  2274A      4.450920  2275A      4.453748  
    2276A      4.456519  2277A      4.462131  2278A      4.463366  
    2279A      4.464760  2280A      4.468480  2281A      4.470216  
    2282A      4.473079  2283A      4.475171  2284A      4.477246  
    2285A      4.479057  2286A      4.480068  2287A      4.485495  
    2288A      4.487973  2289A      4.489952  2290A      4.492413  
    2291A      4.493802  2292A      4.495404  2293A      4.498507  
    2294A      4.502516  2295A      4.505844  2296A      4.507321  
    2297A      4.510035  2298A      4.510787  2299A      4.513772  
    2300A      4.514158  2301A      4.517532  2302A      4.519090  
    2303A      4.520628  2304A      4.523838  2305A      4.525367  
    2306A      4.527291  2307A      4.529124  2308A      4.531512  
    2309A      4.534263  2310A      4.537654  2311A      4.539707  
    2312A      4.542803  2313A      4.544455  2314A      4.547979  
    2315A      4.549184  2316A      4.550198  2317A      4.551784  
    2318A      4.553933  2319A      4.555951  2320A      4.559493  
    2321A      4.563355  2322A      4.565714  2323A      4.570385  
    2324A      4.572016  2325A      4.575493  2326A      4.577681  
    2327A      4.579332  2328A      4.581578  2329A      4.587653  
    2330A      4.588504  2331A      4.589946  2332A      4.591181  
    2333A      4.592595  2334A      4.598164  2335A      4.600660  
    2336A      4.603011  2337A      4.604208  2338A      4.606178  
    2339A      4.609198  2340A      4.611208  2341A      4.613501  
    2342A      4.617649  2343A      4.619617  2344A      4.623561  
    2345A      4.625352  2346A      4.627821  2347A      4.631239  
    2348A      4.633876  2349A      4.635064  2350A      4.635851  
    2351A      4.638820  2352A      4.642289  2353A      4.643690  
    2354A      4.644561  2355A      4.647341  2356A      4.651433  
    2357A      4.653678  2358A      4.655485  2359A      4.658731  
    2360A      4.660138  2361A      4.664518  2362A      4.666028  
    2363A      4.669910  2364A      4.670898  2365A      4.671877  
    2366A      4.677203  2367A      4.679720  2368A      4.682039  
    2369A      4.684661  2370A      4.686295  2371A      4.687878  
    2372A      4.691395  2373A      4.692149  2374A      4.696615  
    2375A      4.698916  2376A      4.700337  2377A      4.704062  
    2378A      4.705524  2379A      4.708400  2380A      4.710835  
    2381A      4.711481  2382A      4.713651  2383A      4.717009  
    2384A      4.718848  2385A      4.721677  2386A      4.722646  
    2387A      4.729485  2388A      4.732967  2389A      4.734079  
    2390A      4.736831  2391A      4.739708  2392A      4.740343  
    2393A      4.743252  2394A      4.746401  2395A      4.748383  
    2396A      4.750485  2397A      4.752148  2398A      4.756117  
    2399A      4.760402  2400A      4.761533  2401A      4.762884  
    2402A      4.765788  2403A      4.767446  2404A      4.770052  
    2405A      4.772701  2406A      4.774600  2407A      4.777788  
    2408A      4.782158  2409A      4.785432  2410A      4.787486  
    2411A      4.790796  2412A      4.791815  2413A      4.796424  
    2414A      4.798485  2415A      4.801652  2416A      4.806573  
    2417A      4.807711  2418A      4.810873  2419A      4.812550  
    2420A      4.813876  2421A      4.816898  2422A      4.822035  
    2423A      4.822208  2424A      4.825373  2425A      4.827173  
    2426A      4.827861  2427A      4.832173  2428A      4.837166  
    2429A      4.838380  2430A      4.842568  2431A      4.843818  
    2432A      4.846939  2433A      4.850465  2434A      4.854649  
    2435A      4.856725  2436A      4.858285  2437A      4.860498  
    2438A      4.863723  2439A      4.864813  2440A      4.866148  
    2441A      4.869205  2442A      4.875044  2443A      4.878280  
    2444A      4.881032  2445A      4.883507  2446A      4.886043  
    2447A      4.888579  2448A      4.889267  2449A      4.891160  
    2450A      4.895271  2451A      4.896585  2452A      4.899623  
    2453A      4.904689  2454A      4.907529  2455A      4.910953  
    2456A      4.912503  2457A      4.915099  2458A      4.917621  
    2459A      4.918844  2460A      4.921041  2461A      4.922809  
    2462A      4.926417  2463A      4.928260  2464A      4.932424  
    2465A      4.934576  2466A      4.936725  2467A      4.940051  
    2468A      4.943053  2469A      4.944218  2470A      4.947036  
    2471A      4.952194  2472A      4.955870  2473A      4.958624  
    2474A      4.960002  2475A      4.961030  2476A      4.964261  
    2477A      4.970991  2478A      4.972161  2479A      4.973133  
    2480A      4.975958  2481A      4.980139  2482A      4.982930  
    2483A      4.987219  2484A      4.991334  2485A      4.995812  
    2486A      4.997471  2487A      4.999770  2488A      5.002983  
    2489A      5.004380  2490A      5.008154  2491A      5.011092  
    2492A      5.012420  2493A      5.015775  2494A      5.017795  
    2495A      5.021231  2496A      5.023312  2497A      5.025524  
    2498A      5.030142  2499A      5.031976  2500A      5.033564  
    2501A      5.034526  2502A      5.040644  2503A      5.042258  
    2504A      5.043372  2505A      5.046942  2506A      5.049148  
    2507A      5.053247  2508A      5.055698  2509A      5.057285  
    2510A      5.059242  2511A      5.062748  2512A      5.064410  
    2513A      5.066244  2514A      5.068025  2515A      5.071755  
    2516A      5.077254  2517A      5.080241  2518A      5.082621  
    2519A      5.083119  2520A      5.089106  2521A      5.090537  
    2522A      5.096370  2523A      5.098934  2524A      5.101278  
    2525A      5.101712  2526A      5.106508  2527A      5.107668  
    2528A      5.111928  2529A      5.115155  2530A      5.119200  
    2531A      5.120118  2532A      5.122014  2533A      5.123500  
    2534A      5.127301  2535A      5.128050  2536A      5.133660  
    2537A      5.135293  2538A      5.140697  2539A      5.141649  
    2540A      5.143652  2541A      5.146275  2542A      5.151470  
    2543A      5.153671  2544A      5.156693  2545A      5.160799  
    2546A      5.164431  2547A      5.166008  2548A      5.171390  
    2549A      5.173324  2550A      5.174327  2551A      5.178336  
    2552A      5.181435  2553A      5.184779  2554A      5.187334  
    2555A      5.189328  2556A      5.191693  2557A      5.196516  
    2558A      5.198155  2559A      5.199949  2560A      5.203750  
    2561A      5.211912  2562A      5.213061  2563A      5.218823  
    2564A      5.219237  2565A      5.226550  2566A      5.231677  
    2567A      5.232970  2568A      5.234552  2569A      5.238620  
    2570A      5.241628  2571A      5.242287  2572A      5.246201  
    2573A      5.247837  2574A      5.251729  2575A      5.253806  
    2576A      5.255812  2577A      5.258766  2578A      5.262027  
    2579A      5.270528  2580A      5.271080  2581A      5.272977  
    2582A      5.276196  2583A      5.280453  2584A      5.286168  
    2585A      5.287924  2586A      5.292894  2587A      5.295259  
    2588A      5.296831  2589A      5.300157  2590A      5.301612  
    2591A      5.306294  2592A      5.306945  2593A      5.312681  
    2594A      5.317088  2595A      5.320315  2596A      5.324915  
    2597A      5.331062  2598A      5.332430  2599A      5.333613  
    2600A      5.338656  2601A      5.338913  2602A      5.341120  
    2603A      5.343258  2604A      5.346548  2605A      5.350483  
    2606A      5.355191  2607A      5.358789  2608A      5.361890  
    2609A      5.362290  2610A      5.366075  2611A      5.368685  
    2612A      5.377252  2613A      5.379216  2614A      5.381053  
    2615A      5.385022  2616A      5.388291  2617A      5.390700  
    2618A      5.396811  2619A      5.398175  2620A      5.400378  
    2621A      5.404878  2622A      5.405489  2623A      5.409208  
    2624A      5.412393  2625A      5.415845  2626A      5.419145  
    2627A      5.420724  2628A      5.423773  2629A      5.429283  
    2630A      5.434446  2631A      5.437358  2632A      5.439723  
    2633A      5.443141  2634A      5.448023  2635A      5.450231  
    2636A      5.455948  2637A      5.458337  2638A      5.461348  
    2639A      5.466551  2640A      5.470229  2641A      5.472488  
    2642A      5.472903  2643A      5.478204  2644A      5.479551  
    2645A      5.482981  2646A      5.485471  2647A      5.490218  
    2648A      5.493346  2649A      5.497207  2650A      5.500208  
    2651A      5.503368  2652A      5.506052  2653A      5.507913  
    2654A      5.512024  2655A      5.515855  2656A      5.520416  
    2657A      5.522633  2658A      5.524504  2659A      5.527217  
    2660A      5.529408  2661A      5.532918  2662A      5.533426  
    2663A      5.537334  2664A      5.539406  2665A      5.544936  
    2666A      5.546695  2667A      5.549098  2668A      5.551287  
    2669A      5.553250  2670A      5.555963  2671A      5.561344  
    2672A      5.565024  2673A      5.569178  2674A      5.574779  
    2675A      5.576430  2676A      5.578389  2677A      5.581987  
    2678A      5.584271  2679A      5.585622  2680A      5.592939  
    2681A      5.595120  2682A      5.596879  2683A      5.600426  
    2684A      5.604342  2685A      5.606187  2686A      5.611392  
    2687A      5.612922  2688A      5.613061  2689A      5.619268  
    2690A      5.624045  2691A      5.629044  2692A      5.630640  
    2693A      5.637062  2694A      5.646797  2695A      5.648366  
    2696A      5.650952  2697A      5.653152  2698A      5.658459  
    2699A      5.661318  2700A      5.666841  2701A      5.668048  
    2702A      5.675917  2703A      5.677543  2704A      5.682028  
    2705A      5.685583  2706A      5.689932  2707A      5.693137  
    2708A      5.700796  2709A      5.705785  2710A      5.711057  
    2711A      5.714016  2712A      5.715453  2713A      5.718912  
    2714A      5.721580  2715A      5.725087  2716A      5.726793  
    2717A      5.731070  2718A      5.733447  2719A      5.739700  
    2720A      5.747144  2721A      5.747521  2722A      5.754505  
    2723A      5.760242  2724A      5.765366  2725A      5.774227  
    2726A      5.775352  2727A      5.777768  2728A      5.782216  
    2729A      5.786084  2730A      5.789757  2731A      5.795290  
    2732A      5.806436  2733A      5.807376  2734A      5.810186  
    2735A      5.814164  2736A      5.824234  2737A      5.824723  
    2738A      5.829688  2739A      5.831462  2740A      5.838092  
    2741A      5.841128  2742A      5.842930  2743A      5.848972  
    2744A      5.855730  2745A      5.860253  2746A      5.862922  
    2747A      5.868677  2748A      5.872884  2749A      5.876489  
    2750A      5.879142  2751A      5.880451  2752A      5.885579  
    2753A      5.897252  2754A      5.899736  2755A      5.904588  
    2756A      5.908170  2757A      5.912185  2758A      5.915152  
    2759A      5.919144  2760A      5.924365  2761A      5.927546  
    2762A      5.935123  2763A      5.938272  2764A      5.941372  
    2765A      5.949453  2766A      5.951227  2767A      5.954994  
    2768A      5.961267  2769A      5.968044  2770A      5.971572  
    2771A      5.974739  2772A      5.980414  2773A      5.985098  
    2774A      5.990439  2775A      5.991829  2776A      5.997038  
    2777A      6.004870  2778A      6.011038  2779A      6.014993  
    2780A      6.018809  2781A      6.021725  2782A      6.026725  
    2783A      6.028423  2784A      6.034053  2785A      6.038394  
    2786A      6.045278  2787A      6.047599  2788A      6.049411  
    2789A      6.058768  2790A      6.063506  2791A      6.072261  
    2792A      6.079026  2793A      6.079543  2794A      6.084717  
    2795A      6.090030  2796A      6.092472  2797A      6.099603  
    2798A      6.103707  2799A      6.109657  2800A      6.114785  
    2801A      6.117052  2802A      6.120344  2803A      6.130275  
    2804A      6.134686  2805A      6.137640  2806A      6.148408  
    2807A      6.154342  2808A      6.161134  2809A      6.164613  
    2810A      6.173330  2811A      6.176317  2812A      6.184989  
    2813A      6.190836  2814A      6.195948  2815A      6.201971  
    2816A      6.205191  2817A      6.218257  2818A      6.226352  
    2819A      6.228857  2820A      6.237500  2821A      6.239707  
    2822A      6.244852  2823A      6.248377  2824A      6.255981  
    2825A      6.262078  2826A      6.264237  2827A      6.271827  
    2828A      6.278708  2829A      6.284164  2830A      6.287030  
    2831A      6.300839  2832A      6.304420  2833A      6.312525  
    2834A      6.315177  2835A      6.325098  2836A      6.325507  
    2837A      6.329317  2838A      6.338859  2839A      6.344578  
    2840A      6.353195  2841A      6.371782  2842A      6.376682  
    2843A      6.383381  2844A      6.392995  2845A      6.396233  
    2846A      6.401982  2847A      6.408893  2848A      6.415659  
    2849A      6.417515  2850A      6.424199  2851A      6.429613  
    2852A      6.434378  2853A      6.443852  2854A      6.464108  
    2855A      6.468946  2856A      6.475450  2857A      6.485346  
    2858A      6.494789  2859A      6.518837  2860A      6.537036  
    2861A      6.544915  2862A      6.554231  2863A      6.556413  
    2864A      6.565681  2865A      6.584457  2866A      6.593746  
    2867A      6.600234  2868A      6.603044  2869A      6.624118  
    2870A      6.635394  2871A      6.644838  2872A      6.645712  
    2873A      6.657090  2874A      6.665991  2875A      6.674732  
    2876A      6.678509  2877A      6.691891  2878A      6.699867  
    2879A      6.720417  2880A      6.725355  2881A      6.729514  
    2882A      6.742591  2883A      6.753551  2884A      6.753942  
    2885A      6.762643  2886A      6.769267  2887A      6.779045  
    2888A      6.789178  2889A      6.808351  2890A      6.816034  
    2891A      6.818747  2892A      6.827352  2893A      6.830508  
    2894A      6.834606  2895A      6.840698  2896A      6.844601  
    2897A      6.851966  2898A      6.858519  2899A      6.867389  
    2900A      6.876771  2901A      6.879837  2902A      6.900519  
    2903A      6.907863  2904A      6.913447  2905A      6.918725  
    2906A      6.943446  2907A      6.958185  2908A      6.984215  
    2909A      6.995232  2910A      7.004007  2911A      7.018512  
    2912A      7.021069  2913A      7.030752  2914A      7.049073  
    2915A      7.068922  2916A      7.081066  2917A      7.103456  
    2918A      7.112136  2919A      7.126868  2920A      7.139475  
    2921A      7.147611  2922A      7.169205  2923A      7.177472  
    2924A      7.198886  2925A      7.204038  2926A      7.224604  
    2927A      7.236037  2928A      7.242856  2929A      7.260867  
    2930A      7.285973  2931A      7.299674  2932A      7.309166  
    2933A      7.340368  2934A      7.356304  2935A      7.375383  
    2936A      7.379993  2937A      7.412662  2938A      7.427867  
    2939A      7.449620  2940A      7.456125  2941A      7.473744  
    2942A      7.486903  2943A      7.493362  2944A      7.510588  
    2945A      7.535170  2946A      7.538065  2947A      7.554185  
    2948A      7.582809  2949A      7.585097  2950A      7.613824  
    2951A      7.626855  2952A      7.653488  2953A      7.676371  
    2954A      7.677546  2955A      7.694668  2956A      7.711330  
    2957A      7.734825  2958A      7.747435  2959A      7.758108  
    2960A      7.766305  2961A      7.770066  2962A      7.776386  
    2963A      7.787272  2964A      7.790183  2965A      7.801452  
    2966A      7.811913  2967A      7.839192  2968A      7.846558  
    2969A      7.878342  2970A      7.887881  2971A      7.902531  
    2972A      7.917770  2973A      7.939418  2974A      7.966517  
    2975A      7.977989  2976A      8.003873  2977A      8.058010  
    2978A      8.086816  2979A      8.127817  2980A      8.157629  
    2981A      8.185215  2982A      8.213661  2983A      8.239907  
    2984A      8.247871  2985A      8.277381  2986A      8.290679  
    2987A      8.312979  2988A      8.326886  2989A      8.369676  
    2990A      8.388926  2991A      8.404131  2992A      8.434560  
    2993A      8.459236  2994A      8.493423  2995A      8.577220  
    2996A      8.597646  2997A      8.640095  2998A      8.661069  
    2999A      8.682339  3000A      8.730872  3001A      8.836037  
    3002A      8.872653  3003A      8.907016  3004A      8.991212  
    3005A      9.011695  3006A      9.080108  3007A      9.211502  
    3008A      9.300411  3009A      9.397306  3010A      9.412336  
    3011A      9.562888  3012A      9.628675  3013A      9.651722  
    3014A      9.716561  3015A      9.750895  3016A      9.808437  
    3017A      9.912352  3018A      9.964702  3019A      9.983945  
    3020A     10.025323  3021A     10.040072  3022A     10.112148  
    3023A     10.140267  3024A     10.231476  3025A     10.278622  
    3026A     10.361108  3027A     10.415498  3028A     10.488327  
    3029A     10.564866  3030A     10.685504  3031A     10.742788  
    3032A     10.815019  3033A     10.976190  3034A     11.053210  
    3035A     11.165531  3036A     11.197430  3037A     11.273499  
    3038A     11.375308  3039A     11.381672  3040A     11.440562  
    3041A     11.649263  3042A     11.834676  3043A     11.848627  
    3044A     11.960220  3045A     12.154229  3046A     12.202846  
    3047A     12.252509  3048A     12.301868  3049A     12.521050  
    3050A     12.636112  3051A     12.685816  3052A     15.439752  
    3053A     15.868959  3054A     16.248798  3055A     16.689803  
    3056A     16.976308  3057A     17.280614  3058A     17.568494  
    3059A     17.854947  3060A     18.274878  3061A     18.579956  
    3062A     19.057350  3063A     19.394927  3064A     19.795178  
    3065A     20.441431  3066A     20.985498  3067A     21.408186  
    3068A     21.550381  3069A     21.965374  3070A     22.026288  
    3071A     22.282591  3072A     22.470941  3073A     23.019956  
    3074A     23.200364  3075A     23.367218  3076A     49.727975  
    3077A     50.608576  3078A     51.384925  3079A     52.236846  
    3080A     52.926747  3081A     53.181974  3082A     53.470168  
    3083A     54.241992  3084A     55.145653  3085A     55.950019  
    3086A     56.687862  3087A     57.561966  3088A     58.105746  
    3089A     58.544183  3090A     59.580875  3091A     60.627889  
    3092A     61.357600  3093A     61.526149  3094A     61.759800  
    3095A     62.380735  3096A     62.630011  3097A     63.535624  
    3098A     64.117262  3099A     64.323662  

    Final Occupation by Irrep:
              A 
    DOCC [    82 ]
    NA   [    82 ]
    NB   [    82 ]

  @DF-RKS Final Energy:  -924.91070720944845

   => Energetics <=

    Nuclear Repulsion Energy =           1863.8004869688352301
    One-Electron Energy =               -4953.4132822337742255
    Two-Electron Energy =                2230.6006405415237168
    DFT Exchange-Correlation Energy =     -65.8764530064042759
    Empirical Dispersion Energy =          -0.0220994796289181
    VV10 Nonlocal Energy =                  0.0000000000000000
    Total Energy =                       -924.9107072094484465

Computation Completed


Properties will be evaluated at   0.000000,   0.000000,   0.000000 [a0]

Properties computed using the SCF density matrix


 Multipole Moments:

 ------------------------------------------------------------------------------------
     Multipole            Electronic (a.u.)      Nuclear  (a.u.)        Total (a.u.)
 ------------------------------------------------------------------------------------

 L = 1.  Multiply by 2.5417464519 to convert [e a0] to [Debye]
 Dipole X            :      -4034.9006570         4034.8790109           -0.0216461
 Dipole Y            :      -3189.3671807         3189.5933564            0.2261757
 Dipole Z            :      -7377.8253263         7378.1192754            0.2939491
 Magnitude           :                                                    0.3715240

 ------------------------------------------------------------------------------------

*** tstop() called on atl1-1-03-004-11-1.pace.gatech.edu at Mon Jun 15 15:16:29 2026
Module time:
	user time   =   31212.53 seconds =     520.21 minutes
	system time =    1697.25 seconds =      28.29 minutes
	total time  =       4689 seconds =      78.15 minutes
Total time:
	user time   =   31212.53 seconds =     520.21 minutes
	system time =    1697.25 seconds =      28.29 minutes
	total time  =       4689 seconds =      78.15 minutes

*** tstart() called on atl1-1-03-004-11-1.pace.gatech.edu
*** at Mon Jun 15 15:16:29 2026

   => Loading Basis Set <=

    Name: (AUG-CC-PVTZ AUX)
    Role: RIFIT
    Keyword: DF_BASIS_MP2
    atoms 1-24, 45-68  entry C          line   148 file /storage/home/hcoda1/5/vlita3/.conda/envs/p4_qcml/share/psi4/basis/aug-cc-pvtz-ri.gbs 
    atoms 25-44, 69-88 entry H          line    30 file /storage/home/hcoda1/5/vlita3/.conda/envs/p4_qcml/share/psi4/basis/aug-cc-pvtz-ri.gbs 

	 --------------------------------------------------------
	                          DF-MP2                         
	      2nd-Order Density-Fitted Moller-Plesset Theory     
	              RMP2 Wavefunction,  10 Threads             
	                                                         
	        Rob Parrish, Justin Turney, Andy Simmonett,      
	           Ed Hohenstein, and C. David Sherrill          
	 --------------------------------------------------------

   => Auxiliary Basis Set <=

  Basis Set: (AUG-CC-PVTZ AUX)
    Blend: AUG-CC-PVTZ-RI
    Number of shells: 1904
    Number of basis functions: 6928
    Number of Cartesian functions: 8728
    Spherical Harmonics?: true
    Max angular momentum: 4

	 --------------------------------------------------------
	                 NBF =  3128, NAUX =  6928
	 --------------------------------------------------------
	   CLASS    FOCC     OCC    AOCC    AVIR     VIR    FVIR
	   PAIRS       0      82      82    3017    3017       0
	 --------------------------------------------------------

	-----------------------------------------------------------
	 ==================> DF-MP2 Energies <==================== 
	-----------------------------------------------------------
	 Reference Energy          =    -924.9107072094484465 [Eh]
	 Singles Energy            =      -0.0000000000000000 [Eh]
	 Same-Spin Energy          =      -1.3175888579322239 [Eh]
	 Opposite-Spin Energy      =      -3.9515396503773181 [Eh]
	 Correlation Energy        =      -5.2691285083095423 [Eh]
	 Total Energy              =    -930.1798357177580101 [Eh]
	-----------------------------------------------------------
	 ================> DF-SCS-MP2 Energies <================== 
	-----------------------------------------------------------
	 SCS Same-Spin Scale       =       0.3333333333333333 [-]
	 SCS Opposite-Spin Scale   =       1.2000000000000000 [-]
	 SCS Same-Spin Energy      =      -0.4391962859774080 [Eh]
	 SCS Opposite-Spin Energy  =      -4.7418475804527818 [Eh]
	 SCS Correlation Energy    =      -5.1810438664301897 [Eh]
	 SCS Total Energy          =    -930.0917510758786193 [Eh]
	-----------------------------------------------------------



    B2PLYP-D3 Energy Summary
    ------------------------
    DFT Reference Energy                  =  -924.9107072094484465
    Scaled MP2 Correlation                =    -1.4226646972435766
    @Final double-hybrid DFT total energy =  -926.3333719066920366


*** tstop() called on atl1-1-03-004-11-1.pace.gatech.edu at Mon Jun 15 15:37:33 2026
Module time:
	user time   =   10393.61 seconds =     173.23 minutes
	system time =      98.63 seconds =       1.64 minutes
	total time  =       1264 seconds =      21.07 minutes
Total time:
	user time   =   41606.14 seconds =     693.44 minutes
	system time =    1795.88 seconds =      29.93 minutes
	total time  =       5953 seconds =      99.22 minutes

    Psi4 stopped on: Monday, 15 June 2026 03:37PM
    Psi4 wall time for execution: 1:39:18.06

*** Psi4 exiting successfully. Buy a developer a beer!
