
    -----------------------------------------------------------------------
          Psi4: An Open-Source Ab Initio Electronic Structure Package
                               Psi4 1.9.1 release

                         Git: Rev {} zzzzzzz 


    D. G. A. Smith, L. A. Burns, A. C. Simmonett, R. M. Parrish,
    M. C. Schieber, R. Galvelis, P. Kraus, H. Kruse, R. Di Remigio,
    A. Alenaizan, A. M. James, S. Lehtola, J. P. Misiewicz, M. Scheurer,
    R. A. Shaw, J. B. Schriber, Y. Xie, Z. L. Glick, D. A. Sirianni,
    J. S. O'Brien, J. M. Waldrop, A. Kumar, E. G. Hohenstein,
    B. P. Pritchard, B. R. Brooks, H. F. Schaefer III, A. Yu. Sokolov,
    K. Patkowski, A. E. DePrince III, U. Bozkaya, R. A. King,
    F. A. Evangelista, J. M. Turney, T. D. Crawford, C. D. Sherrill,
    J. Chem. Phys. 152(18) 184108 (2020). https://doi.org/10.1063/5.0006002

                            Additional Code Authors
    E. T. Seidl, C. L. Janssen, E. F. Valeev, M. L. Leininger,
    J. F. Gonthier, R. M. Richard, H. R. McAlexander, M. Saitow, X. Wang,
    P. Verma, M. H. Lechner, A. Jiang, S. Behnle, A. G. Heide,
    M. F. Herbst, and D. L. Poole

             Previous Authors, Complete List of Code Contributors,
                       and Citations for Specific Modules
    https://github.com/psi4/psi4/blob/master/codemeta.json
    https://github.com/psi4/psi4/graphs/contributors
    http://psicode.org/psi4manual/master/introduction.html#citing-psifour

    -----------------------------------------------------------------------


    Psi4 started on: Monday, 15 June 2026 02:10PM

    Process ID: 3257940
    Host:       atl1-1-03-004-12-2.pace.gatech.edu
    PSIDATADIR: /storage/home/hcoda1/5/vlita3/.conda/envs/p4_qcml/share/psi4
    Memory:     250.0 GiB
    Threads:    10
    
  ==> Input QCSchema <==

--------------------------------------------------------------------------
{'driver': 'energy',
 'extras': {},
 'id': '367',
 'keywords': {},
 'model': {'basis': 'aug-cc-pvtz', 'method': 'b2plyp-d3'},
 'molecule': {'extras': {},
              'fix_com': True,
              'fix_orientation': True,
              'fragment_charges': [0.0, 0.0],
              'fragment_multiplicities': [1, 1],
              'fragments': [[0, 1, 2, 3, 4, 5, 6, 7, 8, 9, 10, 11, 12, 13, 14, 15, 16, 17, 18, 19, 20, 21, 22, 23, 24,
                             25, 26, 27, 28, 29, 30, 31, 32, 33, 34, 35, 36, 37, 38, 39, 40, 41, 42, 43, 44, 45, 46, 47,
                             48, 49, 50, 51, 52, 53, 54, 55, 56, 57, 58, 59, 60, 61, 62, 63, 64, 65, 66, 67],
                            [68, 69, 70, 71, 72, 73, 74, 75, 76, 77, 78, 79, 80, 81, 82, 83]],
              'geometry': [-5.34620642, -4.85206741, -0.42040662, -6.29696543, -3.97249137, -2.73196591, -7.16652857,
                           -1.39360971, -2.91024059, -7.07225732, 0.1478346, -0.75712917, -6.06055521, -0.70522859,
                           1.52779916, -5.14660825, -3.28275871, 1.6937689, -8.00940954, -0.47795161, -5.29622845,
                           -8.00389532, -2.01265111, -7.39175445, -7.1739962, -4.55869367, -7.20967896, -6.3482405,
                           -5.51081404, -4.93971915, -5.79174545, 0.94432733, 3.66064233, -4.5983628, 0.0799819,
                           5.76970066, -3.62293398, -2.4551662, 5.90550866, -3.92400421, -4.11631993, 3.96419018,
                           -2.16569152, -2.61945029, 8.3885177, 0.07636213, -0.84617571, 7.95116799, -0.9078112,
                           1.61784783, 7.8674416, -3.76570071, 1.39135281, 8.20497635, -3.85671125, -0.88804523,
                           10.06281411, 2.58001171, -1.3655127, 7.31184057, 4.1057488, 0.7110172, 6.7716308, 3.12911434,
                           3.1826792, 6.68292857, 0.58226752, 3.66820181, 7.1546987, 5.22477035, 4.85680231, 5.5947568,
                           5.45773257, 3.95265056, 2.86034162, 6.48712479, 1.44012834, 2.99187034, 6.82098554,
                           0.8515344, 5.79382301, 7.56885523, 3.52377684, 6.77238443, 6.80325367, 0.01007923,
                           0.87853632, 6.01230407, 0.99764822, -1.51581981, 4.9476594, 3.51769873, -1.64633715,
                           4.72513697, 4.9862546, 0.62058001, 6.12205861, -0.46131862, -3.71310038, 5.15756848,
                           0.40687221, -6.02295948, 4.08395781, 2.91056166, -6.14884699, 4.05329983, 4.41018879,
                           -3.96462935, 5.13306837, -1.12454068, -8.23614739, 4.07851898, -0.25961114, -10.44460058,
                           2.99478619, 2.19392857, -10.56107574, 3.00851807, 3.73807424, -8.47334713, 3.50361025,
                           -3.823107, 7.21233591, -0.52564981, 6.01194181, 6.93361699, 5.05829719, 6.89567715,
                           5.87089814, 8.0356414, -0.74107273, 6.26352729, 7.58901842, 3.63875572, 8.83518962,
                           9.35421802, 4.19783591, 5.97522954, -5.76611566, -1.64188193, 10.31542343, -2.98864212,
                           -0.45542891, 11.88758146, -4.77253092, 3.11242428, 8.71181923, -1.70891184, -4.50721847,
                           9.0671295, 7.55489696, -1.89976737, 0.96862939, 3.89947197, 6.86430373, 0.5027639,
                           -6.46680418, 2.87873678, 3.51311765, -3.18323648, -6.03153223, 4.04964208, 3.22722344,
                           6.29110633, -4.05969977, 6.91726822, -2.35617478, -3.61337858, 2.17488807, 5.6139636,
                           -8.5558299, 2.15939666, 2.84829877, -12.31851423, 4.06363758, -1.45295543, -12.11512622,
                           5.94772646, -3.00842661, -8.1365677, -4.65219392, -6.78410677, -0.29846731, -7.72607119,
                           2.09308409, -0.89347536, -5.69192784, -7.45269585, -4.79824367, -8.63836085, 1.47325902,
                           -5.4323305, -8.64382367, -1.28398557, -9.20131008, -7.19028923, -5.75067773, -8.88116704,
                           0.69471926, 7.16657411, 6.19908801, 3.21943853, -4.43255237, 5.4924338, -1.01804176,
                           -2.06721752, -6.41424693, -0.04006805, -3.69463605, -4.59993014, 0.29508244, -2.88730801,
                           -2.09508758, -0.32679714, -0.42272984, -1.41690966, -1.32071561, 1.15392876, -3.24915277,
                           -1.68814035, 0.37514049, -5.74325186, 0.62349756, -6.02367305, -5.33266218, 1.25684872,
                           -4.55988854, -0.10878832, -2.01790096, 3.74535177, -2.52671085, -2.46962752, 1.68011751,
                           -7.10722613, -0.06092458, 0.2181685, 0.50639917, -1.23619836, -2.74752497, -8.33105453,
                           2.06085935, -3.52195874, 1.83306118, 1.18336559, -6.86024705, -0.44470452, -2.90698951,
                           5.11929396, -4.19647021, -1.67462389, 4.39177019, -0.3135118],
              'id': 18,
              'identifiers': {'molecular_formula': 'C46FH29N2O6',
                              'molecule_hash': '8bccfcee32ad0571285e1e50b558eedd7c431b17'},
              'masses': [12.0, 12.0, 12.0, 12.0, 12.0, 12.0, 12.0, 12.0, 12.0, 12.0, 12.0, 12.0, 12.0, 12.0, 12.0, 12.0,
                         12.0, 12.0, 12.0, 12.0, 12.0, 12.0, 12.0, 12.0, 12.0, 12.0, 12.0, 12.0, 12.0, 12.0, 12.0, 12.0,
                         12.0, 12.0, 12.0, 12.0, 12.0, 12.0, 12.0, 12.0, 15.99491461957, 15.99491461957, 1.00782503223,
                         1.00782503223, 1.00782503223, 1.00782503223, 1.00782503223, 1.00782503223, 1.00782503223,
                         1.00782503223, 1.00782503223, 1.00782503223, 1.00782503223, 1.00782503223, 1.00782503223,
                         1.00782503223, 1.00782503223, 1.00782503223, 1.00782503223, 1.00782503223, 1.00782503223,
                         1.00782503223, 1.00782503223, 1.00782503223, 1.00782503223, 1.00782503223, 1.00782503223,
                         1.00782503223, 12.0, 12.0, 12.0, 12.0, 12.0, 12.0, 18.99840316273, 14.00307400443,
                         14.00307400443, 1.00782503223, 1.00782503223, 1.00782503223, 15.99491461957, 15.99491461957,
                         15.99491461957, 15.99491461957],
              'molecular_charge': 0.0,
              'molecular_multiplicity': 1,
              'name': 'C46FH29N2O6 ([0],[1])',
              'provenance': {'creator': 'QCElemental',
                             'routine': 'qcelemental.molparse.from_schema',
                             'version': '0.29.0'},
              'real': [True, True, True, True, True, True, True, True, True, True, True, True, True, True, True, True,
                       True, True, True, True, True, True, True, True, True, True, True, True, True, True, True, True,
                       True, True, True, True, True, True, True, True, True, True, True, True, True, True, True, True,
                       True, True, True, True, True, True, True, True, True, True, True, True, True, True, True, True,
                       True, True, True, True, False, False, False, False, False, False, False, False, False, False,
                       False, False, False, False, False, False],
              'schema_name': 'qcschema_molecule',
              'schema_version': 2,
              'symbols': ['C', 'C', 'C', 'C', 'C', 'C', 'C', 'C', 'C', 'C', 'C', 'C', 'C', 'C', 'C', 'C', 'C', 'C', 'C',
                          'C', 'C', 'C', 'C', 'C', 'C', 'C', 'C', 'C', 'C', 'C', 'C', 'C', 'C', 'C', 'C', 'C', 'C', 'C',
                          'C', 'C', 'O', 'O', 'H', 'H', 'H', 'H', 'H', 'H', 'H', 'H', 'H', 'H', 'H', 'H', 'H', 'H', 'H',
                          'H', 'H', 'H', 'H', 'H', 'H', 'H', 'H', 'H', 'H', 'H', 'C', 'C', 'C', 'C', 'C', 'C', 'F', 'N',
                          'N', 'H', 'H', 'H', 'O', 'O', 'O', 'O'],
              'validated': True},
 'protocols': {},
 'provenance': {'creator': 'QCElemental', 'routine': 'qcelemental.models.results', 'version': '0.29.0'},
 'schema_name': 'qcschema_input',
 'schema_version': 1}
--------------------------------------------------------------------------

Scratch directory: /tmp/tmp6r2zw_lm_psi_scratch/
   => Libint2 <=

    Primary   basis highest AM E, G, H:  6, 6, 3
    Auxiliary basis highest AM E, G, H:  7, 7, 4
    Onebody   basis highest AM E, G, H:  -, -, -
    Solid Harmonics ordering:            Gaussian

*** tstart() called on atl1-1-03-004-12-2.pace.gatech.edu
*** at Mon Jun 15 14:10:33 2026

   => Loading Basis Set <=

    Name: AUG-CC-PVTZ
    Role: ORBITAL
    Keyword: BASIS
    atoms 1-40, 69-74  entry C          line   239 file /storage/home/hcoda1/5/vlita3/.conda/envs/p4_qcml/share/psi4/basis/aug-cc-pvtz.gbs 
    atoms 41-42, 81-84 entry O          line   331 file /storage/home/hcoda1/5/vlita3/.conda/envs/p4_qcml/share/psi4/basis/aug-cc-pvtz.gbs 
    atoms 43-68, 78-80 entry H          line    40 file /storage/home/hcoda1/5/vlita3/.conda/envs/p4_qcml/share/psi4/basis/aug-cc-pvtz.gbs 
    atoms 75           entry F          line   377 file /storage/home/hcoda1/5/vlita3/.conda/envs/p4_qcml/share/psi4/basis/aug-cc-pvtz.gbs 
    atoms 76-77        entry N          line   285 file /storage/home/hcoda1/5/vlita3/.conda/envs/p4_qcml/share/psi4/basis/aug-cc-pvtz.gbs 

   => B2PLYP-D3: Empirical Dispersion <=

    Grimme's -D3 (zero-damping) Dispersion Correction
    Grimme S.; Antony J.; Ehrlich S.; Krieg H. (2010), J. Chem. Phys., 132: 154104
    Parametrisation from:    L. Goerigk, S. Grimme, J. Chem. Theory Comput. 7, 291-309, 2011

        s6 =       0.640000
        s8 =       1.022000
       sr6 =       1.427000
    alpha6 =      14.000000
       sr8 =       1.000000


         ---------------------------------------------------------
                                   SCF
               by Justin Turney, Rob Parrish, Andy Simmonett
                          and Daniel G. A. Smith
                              RKS Reference
                       10 Threads, 256000 MiB Core
         ---------------------------------------------------------

  ==> Geometry <==

    Molecular point group: c1
    Full point group: C1

    Geometry (in Bohr), charge = 0, multiplicity = 1:

       Center              X                  Y                   Z               Mass       
    ------------   -----------------  -----------------  -----------------  -----------------
         C           -5.346206420000    -4.852067410000    -0.420406620000    12.000000000000
         C           -6.296965430000    -3.972491370000    -2.731965910000    12.000000000000
         C           -7.166528570000    -1.393609710000    -2.910240590000    12.000000000000
         C           -7.072257320000     0.147834600000    -0.757129170000    12.000000000000
         C           -6.060555210000    -0.705228590000     1.527799160000    12.000000000000
         C           -5.146608250000    -3.282758710000     1.693768900000    12.000000000000
         C           -8.009409540000    -0.477951610000    -5.296228450000    12.000000000000
         C           -8.003895320000    -2.012651110000    -7.391754450000    12.000000000000
         C           -7.173996200000    -4.558693670000    -7.209678960000    12.000000000000
         C           -6.348240500000    -5.510814040000    -4.939719150000    12.000000000000
         C           -5.791745450000     0.944327330000     3.660642330000    12.000000000000
         C           -4.598362800000     0.079981900000     5.769700660000    12.000000000000
         C           -3.622933980000    -2.455166200000     5.905508660000    12.000000000000
         C           -3.924004210000    -4.116319930000     3.964190180000    12.000000000000
         C           -2.165691520000    -2.619450290000     8.388517700000    12.000000000000
         C            0.076362130000    -0.846175710000     7.951167990000    12.000000000000
         C           -0.907811200000     1.617847830000     7.867441600000    12.000000000000
         C           -3.765700710000     1.391352810000     8.204976350000    12.000000000000
         C           -3.856711250000    -0.888045230000    10.062814110000    12.000000000000
         C            2.580011710000    -1.365512700000     7.311840570000    12.000000000000
         C            4.105748800000     0.711017200000     6.771630800000    12.000000000000
         C            3.129114340000     3.182679200000     6.682928570000    12.000000000000
         C            0.582267520000     3.668201810000     7.154698700000    12.000000000000
         C            5.224770350000     4.856802310000     5.594756800000    12.000000000000
         C            5.457732570000     3.952650560000     2.860341620000    12.000000000000
         C            6.487124790000     1.440128340000     2.991870340000    12.000000000000
         C            6.820985540000     0.851534400000     5.793823010000    12.000000000000
         C            7.568855230000     3.523776840000     6.772384430000    12.000000000000
         C            6.803253670000     0.010079230000     0.878536320000    12.000000000000
         C            6.012304070000     0.997648220000    -1.515819810000    12.000000000000
         C            4.947659400000     3.517698730000    -1.646337150000    12.000000000000
         C            4.725136970000     4.986254600000     0.620580010000    12.000000000000
         C            6.122058610000    -0.461318620000    -3.713100380000    12.000000000000
         C            5.157568480000     0.406872210000    -6.022959480000    12.000000000000
         C            4.083957810000     2.910561660000    -6.148846990000    12.000000000000
         C            4.053299830000     4.410188790000    -3.964629350000    12.000000000000
         C            5.133068370000    -1.124540680000    -8.236147390000    12.000000000000
         C            4.078518980000    -0.259611140000   -10.444600580000    12.000000000000
         C            2.994786190000     2.193928570000   -10.561075740000    12.000000000000
         C            3.008518070000     3.738074240000    -8.473347130000    12.000000000000
         O            3.503610250000    -3.823107000000     7.212335910000    15.994914619570
         O           -0.525649810000     6.011941810000     6.933616990000    15.994914619570
         H            5.058297190000     6.895677150000     5.870898140000     1.007825032230
         H            8.035641400000    -0.741072730000     6.263527290000     1.007825032230
         H            7.589018420000     3.638755720000     8.835189620000     1.007825032230
         H            9.354218020000     4.197835910000     5.975229540000     1.007825032230
         H           -5.766115660000    -1.641881930000    10.315423430000     1.007825032230
         H           -2.988642120000    -0.455428910000    11.887581460000     1.007825032230
         H           -4.772530920000     3.112424280000     8.711819230000     1.007825032230
         H           -1.708911840000    -4.507218470000     9.067129500000     1.007825032230
         H            7.554896960000    -1.899767370000     0.968629390000     1.007825032230
         H            3.899471970000     6.864303730000     0.502763900000     1.007825032230
         H           -6.466804180000     2.878736780000     3.513117650000     1.007825032230
         H           -3.183236480000    -6.031532230000     4.049642080000     1.007825032230
         H            3.227223440000     6.291106330000    -4.059699770000     1.007825032230
         H            6.917268220000    -2.356174780000    -3.613378580000     1.007825032230
         H            2.174888070000     5.613963600000    -8.555829900000     1.007825032230
         H            2.159396660000     2.848298770000   -12.318514230000     1.007825032230
         H            4.063637580000    -1.452955430000   -12.115126220000     1.007825032230
         H            5.947726460000    -3.008426610000    -8.136567700000     1.007825032230
         H           -4.652193920000    -6.784106770000    -0.298467310000     1.007825032230
         H           -7.726071190000     2.093084090000    -0.893475360000     1.007825032230
         H           -5.691927840000    -7.452695850000    -4.798243670000     1.007825032230
         H           -8.638360850000     1.473259020000    -5.432330500000     1.007825032230
         H           -8.643823670000    -1.283985570000    -9.201310080000     1.007825032230
         H           -7.190289230000    -5.750677730000    -8.881167040000     1.007825032230
         H            0.694719260000     7.166574110000     6.199088010000     1.007825032230
         H            3.219438530000    -4.432552370000     5.492433800000     1.007825032230
      Gh(C)          -1.018041760000    -2.067217520000    -6.414246930000    12.000000000000
      Gh(C)          -0.040068050000    -3.694636050000    -4.599930140000    12.000000000000
      Gh(C)           0.295082440000    -2.887308010000    -2.095087580000    12.000000000000
      Gh(C)          -0.326797140000    -0.422729840000    -1.416909660000    12.000000000000
      Gh(C)          -1.320715610000     1.153928760000    -3.249152770000    12.000000000000
      Gh(C)          -1.688140350000     0.375140490000    -5.743251860000    12.000000000000
      Gh(F)           0.623497560000    -6.023673050000    -5.332662180000    18.998403162730
      Gh(N)           1.256848720000    -4.559888540000    -0.108788320000    14.003074004430
      Gh(N)          -2.017900960000     3.745351770000    -2.526710850000    14.003074004430
      Gh(H)          -2.469627520000     1.680117510000    -7.107226130000     1.007825032230
      Gh(H)          -0.060924580000     0.218168500000     0.506399170000     1.007825032230
      Gh(H)          -1.236198360000    -2.747524970000    -8.331054530000     1.007825032230
      Gh(O)           2.060859350000    -3.521958740000     1.833061180000    15.994914619570
      Gh(O)           1.183365590000    -6.860247050000    -0.444704520000    15.994914619570
      Gh(O)          -2.906989510000     5.119293960000    -4.196470210000    15.994914619570
      Gh(O)          -1.674623890000     4.391770190000    -0.313511800000    15.994914619570

  Running in c1 symmetry.

  Rotational constants: A =      0.00269  B =      0.00202  C =      0.00154 [cm^-1]
  Rotational constants: A =     80.53073  B =     60.67005  C =     46.28054 [MHz]
  Nuclear repulsion = 4517.267906260053678

  Charge       = 0
  Multiplicity = 1
  Electrons    = 282
  Nalpha       = 141
  Nbeta        = 141

  ==> Algorithm <==

  SCF Algorithm Type is DF.
  DIIS enabled.
  MOM disabled.
  Fractional occupation disabled.
  Guess Type is SAD.
  Energy threshold   = 1.00e-06
  Density threshold  = 1.00e-06
  Integral threshold = 1.00e-12

  ==> Primary Basis <==

  Basis Set: AUG-CC-PVTZ
    Blend: AUG-CC-PVTZ
    Number of shells: 1031
    Number of basis functions: 3197
    Number of Cartesian functions: 3750
    Spherical Harmonics?: true
    Max angular momentum: 3

  ==> DFT Potential <==

   => LibXC <=

    Version 7.0.0
    S. Lehtola, C. Steigemann, M. J.T. Oliveira, and M. A.L. Marques.,  SoftwareX 7, 1–5 (2018) (10.1016/j.softx.2017.11.002)

   => Composite Functional: B2PLYP-D3ZERO2B <= 

    B2PLYP Double Hybrid Exchange-Correlation Functional

    S. Grimme, J. Chem. Phys., 124, 034108, 2006


    Deriv               =              1
    GGA                 =           TRUE
    Meta                =          FALSE

    Exchange Hybrid     =           TRUE
    MP2 Hybrid          =           TRUE

   => Exchange Functionals <=

    0.4700     XC_GGA_X_B88

   => Exact (HF) Exchange <=

    0.5300               HF 

   => Correlation Functionals <=

    0.7300     XC_GGA_C_LYP

   => MP2 Correlation <=

    0.2700       MP2 

   => LibXC Density Thresholds  <==

    XC_GGA_C_LYP:  1.00E-14 
    XC_GGA_X_B88:  1.00E-15 

   => Molecular Quadrature <=

    Radial Scheme          =       TREUTLER
    Pruning Scheme         =           NONE
    Nuclear Scheme         =       TREUTLER

    Blocking Scheme        =         OCTREE
    BS radius alpha        =              1
    Pruning alpha          =              1
    Radial Points          =             75
    Spherical Points       =            302
    Total Points           =        1660585
    Total Blocks           =          11397
    Max Points             =            256
    Max Functions          =           2139
    Weights Tolerance      =       1.00E-15

   => Loading Basis Set <=

    Name: (AUG-CC-PVTZ AUX)
    Role: JKFIT
    Keyword: DF_BASIS_SCF
    atoms 1-40, 69-74  entry C          line   162 file /storage/home/hcoda1/5/vlita3/.conda/envs/p4_qcml/share/psi4/basis/aug-cc-pvtz-jkfit.gbs 
    atoms 41-42, 81-84 entry O          line   286 file /storage/home/hcoda1/5/vlita3/.conda/envs/p4_qcml/share/psi4/basis/aug-cc-pvtz-jkfit.gbs 
    atoms 43-68, 78-80 entry H          line    70 file /storage/home/hcoda1/5/vlita3/.conda/envs/p4_qcml/share/psi4/basis/aug-cc-pvtz-jkfit.gbs 
    atoms 75           entry F          line   348 file /storage/home/hcoda1/5/vlita3/.conda/envs/p4_qcml/share/psi4/basis/aug-cc-pvtz-jkfit.gbs 
    atoms 76-77        entry N          line   224 file /storage/home/hcoda1/5/vlita3/.conda/envs/p4_qcml/share/psi4/basis/aug-cc-pvtz-jkfit.gbs 

  ==> Integral Setup <==

  ==> DiskDFJK: Density-Fitted J/K Matrices <==

    J tasked:                  Yes
    K tasked:                  Yes
    wK tasked:                  No
    OpenMP threads:             10
    Integrals threads:          10
    Memory [MiB]:           172800
    Algorithm:                Disk
    Integral Cache:           NONE
    Schwarz Cutoff:          1E-12
    Fitting Condition:       1E-10

   => Auxiliary Basis Set <=

  Basis Set: (AUG-CC-PVTZ AUX)
    Blend: AUG-CC-PVTZ-JKFIT
    Number of shells: 2056
    Number of basis functions: 7054
    Number of Cartesian functions: 8800
    Spherical Harmonics?: true
    Max angular momentum: 4

  Minimum eigenvalue in the overlap matrix is 8.4696743678E-09.
  Reciprocal condition number of the overlap matrix is 2.5542464085E-10.
    Using canonical orthogonalization.
  Overall, 16 of 3197 possible MOs eliminated.


  ==> Pre-Iterations <==

  SCF Guess: Superposition of Atomic Densities via on-the-fly atomic UHF (no occupation information).

   -------------------------
    Irrep   Nso     Nmo    
   -------------------------
     A       3197    3181 
   -------------------------
    Total    3197    3181
   -------------------------

  ==> Iterations <==

                           Total Energy        Delta E     RMS |[F,P]|

   @DF-RKS iter SAD: -1688.66827439361259   -1.68867e+03   0.00000e+00 
   @DF-RKS iter   1: -1685.66876310345560    2.99951e+00   5.53152e-04 ADIIS/DIIS
   @DF-RKS iter   2: -1686.07538137305164   -4.06618e-01   4.94583e-04 ADIIS/DIIS
   @DF-RKS iter   3: -1687.28250295839007   -1.20712e+00   9.97664e-05 DIIS
   @DF-RKS iter   4: -1687.32171251613318   -3.92096e-02   4.02275e-05 DIIS
   @DF-RKS iter   5: -1687.32916967255869   -7.45716e-03   1.29024e-05 DIIS
   @DF-RKS iter   6: -1687.32998944107385   -8.19769e-04   3.31099e-06 DIIS
   @DF-RKS iter   7: -1687.33004355731509   -5.41162e-05   9.72337e-07 DIIS
   @DF-RKS iter   8: -1687.33004884965339   -5.29234e-06   3.64213e-07 DIIS
   @DF-RKS iter   9: -1687.33004977799555   -9.28342e-07   1.08718e-07 DIIS
  Energy and wave function converged.


  ==> Post-Iterations <==

   Electrons on quadrature grid:
      Ntotal   =  281.9999599980 ; deviation = -4.000e-05 

    Orbital Energies [Eh]
    ---------------------

    Doubly Occupied:                                                      

       1A    -19.764007     2A    -19.749889     3A    -10.686037  
       4A    -10.674495     5A    -10.649307     6A    -10.641451  
       7A    -10.637217     8A    -10.636457     9A    -10.634595  
      10A    -10.633911    11A    -10.633354    12A    -10.631774  
      13A    -10.630929    14A    -10.630396    15A    -10.630272  
      16A    -10.630102    17A    -10.629575    18A    -10.628954  
      19A    -10.627966    20A    -10.627501    21A    -10.627462  
      22A    -10.626822    23A    -10.626782    24A    -10.626352  
      25A    -10.625922    26A    -10.624779    27A    -10.623284  
      28A    -10.623050    29A    -10.622882    30A    -10.622741  
      31A    -10.622685    32A    -10.622581    33A    -10.621715  
      34A    -10.621163    35A    -10.620458    36A    -10.619948  
      37A    -10.619793    38A    -10.619097    39A    -10.618947  
      40A    -10.618913    41A    -10.618798    42A    -10.618346  
      43A     -1.204943    44A     -1.187675    45A     -1.044074  
      46A     -1.033724    47A     -1.005636    48A     -1.001358  
      49A     -0.971845    50A     -0.963261    51A     -0.937469  
      52A     -0.908831    53A     -0.905263    54A     -0.900812  
      55A     -0.895918    56A     -0.880408    57A     -0.873708  
      58A     -0.857757    59A     -0.847019    60A     -0.838098  
      61A     -0.835717    62A     -0.817099    63A     -0.814870  
      64A     -0.795549    65A     -0.773930    66A     -0.748267  
      67A     -0.743173    68A     -0.719496    69A     -0.704748  
      70A     -0.695779    71A     -0.695095    72A     -0.690407  
      73A     -0.688859    74A     -0.685956    75A     -0.675006  
      76A     -0.659741    77A     -0.656583    78A     -0.627200  
      79A     -0.613221    80A     -0.608562    81A     -0.606328  
      82A     -0.601327    83A     -0.599222    84A     -0.585513  
      85A     -0.573192    86A     -0.567319    87A     -0.557921  
      88A     -0.549784    89A     -0.535525    90A     -0.530167  
      91A     -0.527128    92A     -0.524928    93A     -0.523309  
      94A     -0.516355    95A     -0.509270    96A     -0.500274  
      97A     -0.496578    98A     -0.492793    99A     -0.492041  
     100A     -0.489615   101A     -0.487680   102A     -0.487182  
     103A     -0.484725   104A     -0.480901   105A     -0.479941  
     106A     -0.469577   107A     -0.466352   108A     -0.464092  
     109A     -0.453867   110A     -0.450996   111A     -0.448874  
     112A     -0.444804   113A     -0.441964   114A     -0.440052  
     115A     -0.427401   116A     -0.421407   117A     -0.419406  
     118A     -0.416881   119A     -0.409575   120A     -0.405903  
     121A     -0.404422   122A     -0.401649   123A     -0.399008  
     124A     -0.396794   125A     -0.394263   126A     -0.389085  
     127A     -0.382312   128A     -0.376389   129A     -0.366605  
     130A     -0.347608   131A     -0.343481   132A     -0.342911  
     133A     -0.338680   134A     -0.299606   135A     -0.294997  
     136A     -0.280442   137A     -0.265407   138A     -0.262110  
     139A     -0.247822   140A     -0.224563   141A     -0.220497  

    Virtual:                                                              

     142A     -0.021373   143A     -0.014519   144A      0.002478  
     145A      0.005446   146A      0.008871   147A      0.013616  
     148A      0.014427   149A      0.017179   150A      0.017878  
     151A      0.019087   152A      0.020971   153A      0.023705  
     154A      0.027669   155A      0.029561   156A      0.029918  
     157A      0.031746   158A      0.033243   159A      0.034880  
     160A      0.038472   161A      0.040075   162A      0.041838  
     163A      0.043102   164A      0.044503   165A      0.047191  
     166A      0.049954   167A      0.050456   168A      0.051334  
     169A      0.052325   170A      0.054423   171A      0.056075  
     172A      0.056422   173A      0.061285   174A      0.062238  
     175A      0.063391   176A      0.063458   177A      0.064748  
     178A      0.069983   179A      0.070504   180A      0.071970  
     181A      0.074857   182A      0.076125   183A      0.076761  
     184A      0.077778   185A      0.080027   186A      0.080896  
     187A      0.081828   188A      0.082929   189A      0.084030  
     190A      0.084619   191A      0.085144   192A      0.087379  
     193A      0.088442   194A      0.089653   195A      0.090515  
     196A      0.093968   197A      0.094823   198A      0.095276  
     199A      0.095774   200A      0.097130   201A      0.098199  
     202A      0.098466   203A      0.100958   204A      0.102346  
     205A      0.103242   206A      0.105799   207A      0.106232  
     208A      0.108802   209A      0.109021   210A      0.110542  
     211A      0.111982   212A      0.112908   213A      0.114902  
     214A      0.115320   215A      0.118868   216A      0.119930  
     217A      0.120151   218A      0.121942   219A      0.122685  
     220A      0.123830   221A      0.125237   222A      0.126098  
     223A      0.126633   224A      0.127751   225A      0.129304  
     226A      0.134882   227A      0.135043   228A      0.136969  
     229A      0.137710   230A      0.138171   231A      0.139136  
     232A      0.140814   233A      0.141747   234A      0.143199  
     235A      0.145416   236A      0.146512   237A      0.147094  
     238A      0.148974   239A      0.151841   240A      0.152194  
     241A      0.152512   242A      0.155067   243A      0.156604  
     244A      0.157785   245A      0.158975   246A      0.160104  
     247A      0.162239   248A      0.162515   249A      0.166403  
     250A      0.166976   251A      0.169457   252A      0.173037  
     253A      0.173243   254A      0.174748   255A      0.175192  
     256A      0.176044   257A      0.177274   258A      0.178933  
     259A      0.179696   260A      0.180167   261A      0.181642  
     262A      0.183330   263A      0.183721   264A      0.184699  
     265A      0.186295   266A      0.188808   267A      0.189269  
     268A      0.191273   269A      0.193028   270A      0.193864  
     271A      0.194564   272A      0.197613   273A      0.198082  
     274A      0.198326   275A      0.199052   276A      0.199799  
     277A      0.203249   278A      0.203769   279A      0.204500  
     280A      0.205318   281A      0.206042   282A      0.207231  
     283A      0.207517   284A      0.207892   285A      0.209967  
     286A      0.211323   287A      0.211511   288A      0.213227  
     289A      0.214030   290A      0.214962   291A      0.215757  
     292A      0.216960   293A      0.217341   294A      0.218752  
     295A      0.218986   296A      0.220046   297A      0.221038  
     298A      0.222163   299A      0.222755   300A      0.223691  
     301A      0.224064   302A      0.226942   303A      0.227359  
     304A      0.228595   305A      0.229046   306A      0.230102  
     307A      0.231181   308A      0.231616   309A      0.232251  
     310A      0.233529   311A      0.233808   312A      0.235731  
     313A      0.235952   314A      0.236678   315A      0.237712  
     316A      0.239015   317A      0.240370   318A      0.241386  
     319A      0.242941   320A      0.243957   321A      0.245557  
     322A      0.246713   323A      0.247656   324A      0.247817  
     325A      0.250810   326A      0.251159   327A      0.252251  
     328A      0.252991   329A      0.253602   330A      0.254764  
     331A      0.256209   332A      0.256736   333A      0.257877  
     334A      0.258641   335A      0.259499   336A      0.260446  
     337A      0.262898   338A      0.263276   339A      0.263880  
     340A      0.264667   341A      0.265982   342A      0.267182  
     343A      0.268602   344A      0.269325   345A      0.270687  
     346A      0.272448   347A      0.273607   348A      0.275342  
     349A      0.276317   350A      0.277187   351A      0.278328  
     352A      0.280159   353A      0.282500   354A      0.283541  
     355A      0.284703   356A      0.285809   357A      0.286147  
     358A      0.288143   359A      0.289936   360A      0.290764  
     361A      0.292155   362A      0.294295   363A      0.294936  
     364A      0.296249   365A      0.298305   366A      0.298989  
     367A      0.299343   368A      0.300721   369A      0.302762  
     370A      0.303762   371A      0.304762   372A      0.305543  
     373A      0.306174   374A      0.306981   375A      0.309125  
     376A      0.309980   377A      0.312209   378A      0.313308  
     379A      0.314961   380A      0.315785   381A      0.317785  
     382A      0.318496   383A      0.320510   384A      0.320745  
     385A      0.322515   386A      0.324851   387A      0.325403  
     388A      0.327111   389A      0.328227   390A      0.329604  
     391A      0.331333   392A      0.331520   393A      0.331736  
     394A      0.333025   395A      0.334312   396A      0.335344  
     397A      0.335982   398A      0.337108   399A      0.339419  
     400A      0.340661   401A      0.341304   402A      0.342302  
     403A      0.343773   404A      0.345849   405A      0.346601  
     406A      0.347615   407A      0.348549   408A      0.349094  
     409A      0.349907   410A      0.353814   411A      0.354970  
     412A      0.357482   413A      0.358607   414A      0.360480  
     415A      0.362717   416A      0.363779   417A      0.365403  
     418A      0.365738   419A      0.367505   420A      0.368029  
     421A      0.371567   422A      0.373482   423A      0.374089  
     424A      0.375441   425A      0.376702   426A      0.378177  
     427A      0.378527   428A      0.380097   429A      0.382617  
     430A      0.383784   431A      0.384298   432A      0.385553  
     433A      0.386820   434A      0.387865   435A      0.390132  
     436A      0.390594   437A      0.392554   438A      0.392876  
     439A      0.393391   440A      0.393723   441A      0.394929  
     442A      0.397198   443A      0.398370   444A      0.398648  
     445A      0.400770   446A      0.401934   447A      0.402600  
     448A      0.403835   449A      0.406989   450A      0.408278  
     451A      0.408886   452A      0.410300   453A      0.412112  
     454A      0.412774   455A      0.414156   456A      0.415742  
     457A      0.416753   458A      0.417759   459A      0.420187  
     460A      0.420782   461A      0.423089   462A      0.425175  
     463A      0.426036   464A      0.426849   465A      0.427750  
     466A      0.428933   467A      0.429979   468A      0.431044  
     469A      0.432663   470A      0.434076   471A      0.435142  
     472A      0.435755   473A      0.436123   474A      0.437434  
     475A      0.440029   476A      0.440251   477A      0.442100  
     478A      0.444338   479A      0.444686   480A      0.445843  
     481A      0.446500   482A      0.447576   483A      0.448833  
     484A      0.450506   485A      0.451415   486A      0.451887  
     487A      0.454199   488A      0.454869   489A      0.456139  
     490A      0.457035   491A      0.457308   492A      0.458687  
     493A      0.459210   494A      0.460596   495A      0.461084  
     496A      0.462413   497A      0.463587   498A      0.465023  
     499A      0.465855   500A      0.467340   501A      0.469989  
     502A      0.470388   503A      0.470905   504A      0.472137  
     505A      0.473123   506A      0.475903   507A      0.476119  
     508A      0.476836   509A      0.478494   510A      0.478871  
     511A      0.480119   512A      0.480848   513A      0.483362  
     514A      0.483642   515A      0.485109   516A      0.486163  
     517A      0.486896   518A      0.487984   519A      0.488323  
     520A      0.489862   521A      0.490874   522A      0.492838  
     523A      0.493765   524A      0.495422   525A      0.495569  
     526A      0.497261   527A      0.498601   528A      0.499448  
     529A      0.499834   530A      0.500680   531A      0.503036  
     532A      0.503626   533A      0.504685   534A      0.507015  
     535A      0.507621   536A      0.508228   537A      0.509763  
     538A      0.510885   539A      0.511102   540A      0.513052  
     541A      0.513714   542A      0.516014   543A      0.516771  
     544A      0.517129   545A      0.518324   546A      0.519081  
     547A      0.520146   548A      0.521966   549A      0.523442  
     550A      0.524490   551A      0.525729   552A      0.527256  
     553A      0.528565   554A      0.529821   555A      0.531288  
     556A      0.532475   557A      0.533849   558A      0.535483  
     559A      0.535636   560A      0.537134   561A      0.537765  
     562A      0.539247   563A      0.540590   564A      0.541976  
     565A      0.543162   566A      0.544076   567A      0.544676  
     568A      0.544941   569A      0.546908   570A      0.549303  
     571A      0.549885   572A      0.550761   573A      0.551265  
     574A      0.554578   575A      0.555825   576A      0.556493  
     577A      0.559563   578A      0.560626   579A      0.561373  
     580A      0.562126   581A      0.562915   582A      0.564142  
     583A      0.566520   584A      0.567511   585A      0.567921  
     586A      0.570636   587A      0.572101   588A      0.572619  
     589A      0.573703   590A      0.575141   591A      0.576325  
     592A      0.577512   593A      0.577696   594A      0.579825  
     595A      0.580622   596A      0.582236   597A      0.582620  
     598A      0.583285   599A      0.587893   600A      0.589246  
     601A      0.590933   602A      0.591907   603A      0.593197  
     604A      0.594363   605A      0.594992   606A      0.596385  
     607A      0.599568   608A      0.600701   609A      0.601285  
     610A      0.601742   611A      0.603373   612A      0.605519  
     613A      0.607950   614A      0.610122   615A      0.611426  
     616A      0.612276   617A      0.614006   618A      0.615434  
     619A      0.616546   620A      0.618440   621A      0.619170  
     622A      0.620261   623A      0.622055   624A      0.623777  
     625A      0.625669   626A      0.627179   627A      0.627810  
     628A      0.628659   629A      0.630620   630A      0.631633  
     631A      0.633320   632A      0.635539   633A      0.637044  
     634A      0.637545   635A      0.639917   636A      0.640998  
     637A      0.642839   638A      0.645038   639A      0.646320  
     640A      0.647303   641A      0.648262   642A      0.650728  
     643A      0.651861   644A      0.652903   645A      0.654990  
     646A      0.655745   647A      0.656915   648A      0.660013  
     649A      0.661713   650A      0.664198   651A      0.664862  
     652A      0.665896   653A      0.667179   654A      0.668481  
     655A      0.669853   656A      0.673283   657A      0.673809  
     658A      0.674997   659A      0.677140   660A      0.677746  
     661A      0.678866   662A      0.679987   663A      0.680808  
     664A      0.681675   665A      0.684311   666A      0.685778  
     667A      0.686562   668A      0.689110   669A      0.692846  
     670A      0.692949   671A      0.693622   672A      0.696342  
     673A      0.697955   674A      0.700116   675A      0.700739  
     676A      0.702076   677A      0.702655   678A      0.705541  
     679A      0.706026   680A      0.709074   681A      0.709391  
     682A      0.710820   683A      0.712217   684A      0.714636  
     685A      0.715723   686A      0.718105   687A      0.720037  
     688A      0.721319   689A      0.722242   690A      0.723857  
     691A      0.726610   692A      0.727764   693A      0.728538  
     694A      0.730604   695A      0.731890   696A      0.733869  
     697A      0.734331   698A      0.736768   699A      0.738147  
     700A      0.739354   701A      0.739785   702A      0.742125  
     703A      0.743343   704A      0.745268   705A      0.745873  
     706A      0.746451   707A      0.749148   708A      0.750368  
     709A      0.751921   710A      0.752822   711A      0.753604  
     712A      0.756060   713A      0.756764   714A      0.757568  
     715A      0.761533   716A      0.762471   717A      0.763269  
     718A      0.764335   719A      0.764568   720A      0.767315  
     721A      0.769717   722A      0.771507   723A      0.773071  
     724A      0.773645   725A      0.775277   726A      0.777094  
     727A      0.778382   728A      0.780056   729A      0.782212  
     730A      0.783515   731A      0.785029   732A      0.786435  
     733A      0.787572   734A      0.788353   735A      0.789441  
     736A      0.790959   737A      0.793895   738A      0.795436  
     739A      0.798299   740A      0.798970   741A      0.800635  
     742A      0.802176   743A      0.803162   744A      0.805671  
     745A      0.806294   746A      0.806729   747A      0.810305  
     748A      0.811638   749A      0.812279   750A      0.812903  
     751A      0.814459   752A      0.816869   753A      0.818632  
     754A      0.820247   755A      0.822866   756A      0.823773  
     757A      0.824296   758A      0.824790   759A      0.826660  
     760A      0.827411   761A      0.829810   762A      0.832062  
     763A      0.834314   764A      0.835694   765A      0.836141  
     766A      0.837817   767A      0.838619   768A      0.839575  
     769A      0.842017   770A      0.842319   771A      0.844728  
     772A      0.846154   773A      0.848255   774A      0.848939  
     775A      0.850764   776A      0.852270   777A      0.854369  
     778A      0.855089   779A      0.856093   780A      0.856581  
     781A      0.858527   782A      0.859373   783A      0.861251  
     784A      0.862527   785A      0.863233   786A      0.864417  
     787A      0.865851   788A      0.867258   789A      0.869126  
     790A      0.870635   791A      0.872454   792A      0.873014  
     793A      0.875988   794A      0.876265   795A      0.877288  
     796A      0.879787   797A      0.880503   798A      0.882371  
     799A      0.882945   800A      0.884247   801A      0.885489  
     802A      0.886042   803A      0.886467   804A      0.889413  
     805A      0.890919   806A      0.891093   807A      0.892562  
     808A      0.893736   809A      0.894854   810A      0.896638  
     811A      0.898697   812A      0.900626   813A      0.901619  
     814A      0.902752   815A      0.903907   816A      0.906138  
     817A      0.906376   818A      0.908078   819A      0.908567  
     820A      0.910882   821A      0.913330   822A      0.913861  
     823A      0.915353   824A      0.915895   825A      0.916678  
     826A      0.919073   827A      0.919138   828A      0.920345  
     829A      0.922231   830A      0.923032   831A      0.923920  
     832A      0.925255   833A      0.926012   834A      0.929391  
     835A      0.930205   836A      0.932179   837A      0.933124  
     838A      0.933991   839A      0.936551   840A      0.936985  
     841A      0.939897   842A      0.941595   843A      0.943117  
     844A      0.943566   845A      0.944405   846A      0.944747  
     847A      0.947786   848A      0.949712   849A      0.951701  
     850A      0.952156   851A      0.953342   852A      0.955252  
     853A      0.956454   854A      0.958220   855A      0.958480  
     856A      0.960427   857A      0.961273   858A      0.962097  
     859A      0.962890   860A      0.964520   861A      0.965715  
     862A      0.968526   863A      0.969725   864A      0.971710  
     865A      0.974070   866A      0.974158   867A      0.976409  
     868A      0.977264   869A      0.980201   870A      0.981205  
     871A      0.982460   872A      0.984262   873A      0.985771  
     874A      0.987143   875A      0.989728   876A      0.990221  
     877A      0.991705   878A      0.993592   879A      0.995171  
     880A      0.996271   881A      0.998705   882A      0.998990  
     883A      1.000560   884A      1.001379   885A      1.002247  
     886A      1.005810   887A      1.006450   888A      1.007931  
     889A      1.009653   890A      1.011084   891A      1.012689  
     892A      1.014186   893A      1.015430   894A      1.019546  
     895A      1.020775   896A      1.023149   897A      1.023402  
     898A      1.026798   899A      1.027302   900A      1.030047  
     901A      1.030314   902A      1.031709   903A      1.033629  
     904A      1.034741   905A      1.036205   906A      1.037720  
     907A      1.039454   908A      1.040952   909A      1.042642  
     910A      1.043302   911A      1.044775   912A      1.048648  
     913A      1.049421   914A      1.050552   915A      1.050809  
     916A      1.052862   917A      1.053553   918A      1.055969  
     919A      1.056603   920A      1.056948   921A      1.060801  
     922A      1.060979   923A      1.063606   924A      1.065340  
     925A      1.066463   926A      1.067373   927A      1.069896  
     928A      1.070916   929A      1.072464   930A      1.073244  
     931A      1.074387   932A      1.076013   933A      1.077999  
     934A      1.078290   935A      1.082144   936A      1.083976  
     937A      1.084745   938A      1.086230   939A      1.087042  
     940A      1.089044   941A      1.089890   942A      1.090300  
     943A      1.093454   944A      1.094652   945A      1.096024  
     946A      1.097105   947A      1.097526   948A      1.099300  
     949A      1.100555   950A      1.102994   951A      1.105839  
     952A      1.106041   953A      1.109181   954A      1.111379  
     955A      1.112616   956A      1.113888   957A      1.115671  
     958A      1.116099   959A      1.119330   960A      1.119958  
     961A      1.121717   962A      1.122817   963A      1.122999  
     964A      1.123975   965A      1.125570   966A      1.127624  
     967A      1.129742   968A      1.130031   969A      1.130464  
     970A      1.131051   971A      1.132692   972A      1.134441  
     973A      1.136231   974A      1.138493   975A      1.139148  
     976A      1.142911   977A      1.144923   978A      1.145605  
     979A      1.146491   980A      1.147270   981A      1.150956  
     982A      1.152724   983A      1.154675   984A      1.157041  
     985A      1.159274   986A      1.161358   987A      1.162344  
     988A      1.163126   989A      1.164165   990A      1.165236  
     991A      1.166168   992A      1.168313   993A      1.169899  
     994A      1.170168   995A      1.173231   996A      1.173840  
     997A      1.174828   998A      1.176838   999A      1.179024  
    1000A      1.180108  1001A      1.181720  1002A      1.184829  
    1003A      1.188318  1004A      1.189053  1005A      1.190476  
    1006A      1.190931  1007A      1.192156  1008A      1.193144  
    1009A      1.196561  1010A      1.196721  1011A      1.198001  
    1012A      1.200648  1013A      1.202062  1014A      1.204027  
    1015A      1.205533  1016A      1.207623  1017A      1.207869  
    1018A      1.209777  1019A      1.211040  1020A      1.213122  
    1021A      1.214286  1022A      1.215868  1023A      1.216634  
    1024A      1.219594  1025A      1.220795  1026A      1.222280  
    1027A      1.222958  1028A      1.225406  1029A      1.226580  
    1030A      1.229361  1031A      1.231491  1032A      1.233236  
    1033A      1.235311  1034A      1.237016  1035A      1.237905  
    1036A      1.239417  1037A      1.241835  1038A      1.243234  
    1039A      1.244165  1040A      1.245752  1041A      1.248097  
    1042A      1.249411  1043A      1.250004  1044A      1.251919  
    1045A      1.252356  1046A      1.253975  1047A      1.256287  
    1048A      1.257068  1049A      1.258323  1050A      1.261419  
    1051A      1.262009  1052A      1.262977  1053A      1.264137  
    1054A      1.266555  1055A      1.267604  1056A      1.270273  
    1057A      1.272041  1058A      1.272538  1059A      1.274005  
    1060A      1.275192  1061A      1.276893  1062A      1.279107  
    1063A      1.281633  1064A      1.282497  1065A      1.286315  
    1066A      1.287365  1067A      1.288586  1068A      1.291617  
    1069A      1.293465  1070A      1.294219  1071A      1.294847  
    1072A      1.295264  1073A      1.297956  1074A      1.300301  
    1075A      1.304804  1076A      1.305361  1077A      1.306408  
    1078A      1.307048  1079A      1.308586  1080A      1.311860  
    1081A      1.314274  1082A      1.314800  1083A      1.315792  
    1084A      1.318601  1085A      1.320865  1086A      1.321142  
    1087A      1.322774  1088A      1.323743  1089A      1.324879  
    1090A      1.326883  1091A      1.328392  1092A      1.329410  
    1093A      1.330699  1094A      1.332495  1095A      1.333111  
    1096A      1.335454  1097A      1.337466  1098A      1.341569  
    1099A      1.343472  1100A      1.345650  1101A      1.346345  
    1102A      1.349908  1103A      1.350143  1104A      1.350547  
    1105A      1.354485  1106A      1.357603  1107A      1.359180  
    1108A      1.359997  1109A      1.361806  1110A      1.363452  
    1111A      1.364628  1112A      1.365764  1113A      1.366965  
    1114A      1.369457  1115A      1.370016  1116A      1.373107  
    1117A      1.374572  1118A      1.376069  1119A      1.376666  
    1120A      1.378375  1121A      1.379477  1122A      1.380355  
    1123A      1.383035  1124A      1.383524  1125A      1.385554  
    1126A      1.386227  1127A      1.387486  1128A      1.388597  
    1129A      1.390024  1130A      1.391358  1131A      1.392973  
    1132A      1.395024  1133A      1.396302  1134A      1.398008  
    1135A      1.400299  1136A      1.403478  1137A      1.405721  
    1138A      1.406569  1139A      1.408163  1140A      1.409619  
    1141A      1.411093  1142A      1.413683  1143A      1.414241  
    1144A      1.416402  1145A      1.417792  1146A      1.419246  
    1147A      1.420177  1148A      1.421592  1149A      1.422844  
    1150A      1.423795  1151A      1.426257  1152A      1.427218  
    1153A      1.429247  1154A      1.429586  1155A      1.431159  
    1156A      1.432634  1157A      1.433302  1158A      1.434027  
    1159A      1.437865  1160A      1.438373  1161A      1.439108  
    1162A      1.442900  1163A      1.444332  1164A      1.446925  
    1165A      1.449200  1166A      1.450061  1167A      1.452141  
    1168A      1.453291  1169A      1.454702  1170A      1.456218  
    1171A      1.458079  1172A      1.458129  1173A      1.459957  
    1174A      1.461622  1175A      1.463188  1176A      1.466390  
    1177A      1.469090  1178A      1.470932  1179A      1.471167  
    1180A      1.472526  1181A      1.475571  1182A      1.476932  
    1183A      1.478842  1184A      1.479714  1185A      1.481658  
    1186A      1.482922  1187A      1.483286  1188A      1.484506  
    1189A      1.488160  1190A      1.490861  1191A      1.492055  
    1192A      1.494303  1193A      1.495649  1194A      1.498384  
    1195A      1.499567  1196A      1.501507  1197A      1.502842  
    1198A      1.503970  1199A      1.504132  1200A      1.505107  
    1201A      1.509364  1202A      1.510986  1203A      1.511739  
    1204A      1.513138  1205A      1.515405  1206A      1.515972  
    1207A      1.516818  1208A      1.519355  1209A      1.520721  
    1210A      1.522831  1211A      1.524964  1212A      1.528270  
    1213A      1.529786  1214A      1.532375  1215A      1.533118  
    1216A      1.535012  1217A      1.535577  1218A      1.536605  
    1219A      1.538693  1220A      1.540611  1221A      1.541853  
    1222A      1.544239  1223A      1.545739  1224A      1.547962  
    1225A      1.550654  1226A      1.552302  1227A      1.554632  
    1228A      1.555414  1229A      1.557591  1230A      1.558547  
    1231A      1.560244  1232A      1.560440  1233A      1.564661  
    1234A      1.565680  1235A      1.566918  1236A      1.569492  
    1237A      1.570936  1238A      1.571681  1239A      1.573260  
    1240A      1.575483  1241A      1.575902  1242A      1.577545  
    1243A      1.579068  1244A      1.580777  1245A      1.581517  
    1246A      1.582067  1247A      1.585823  1248A      1.587341  
    1249A      1.587621  1250A      1.588968  1251A      1.592075  
    1252A      1.593295  1253A      1.594514  1254A      1.596768  
    1255A      1.597968  1256A      1.599280  1257A      1.601715  
    1258A      1.603121  1259A      1.605069  1260A      1.606218  
    1261A      1.608632  1262A      1.609965  1263A      1.610775  
    1264A      1.613023  1265A      1.613934  1266A      1.615496  
    1267A      1.618018  1268A      1.619085  1269A      1.621617  
    1270A      1.623011  1271A      1.624051  1272A      1.625774  
    1273A      1.627724  1274A      1.629189  1275A      1.630724  
    1276A      1.632931  1277A      1.633733  1278A      1.634930  
    1279A      1.635691  1280A      1.637492  1281A      1.638745  
    1282A      1.639416  1283A      1.643147  1284A      1.643184  
    1285A      1.645658  1286A      1.646067  1287A      1.649170  
    1288A      1.649715  1289A      1.651449  1290A      1.653268  
    1291A      1.654513  1292A      1.658521  1293A      1.658966  
    1294A      1.662801  1295A      1.663231  1296A      1.664407  
    1297A      1.667368  1298A      1.670142  1299A      1.670605  
    1300A      1.672971  1301A      1.675506  1302A      1.677506  
    1303A      1.678885  1304A      1.681496  1305A      1.683359  
    1306A      1.684121  1307A      1.685541  1308A      1.685810  
    1309A      1.689388  1310A      1.690341  1311A      1.691629  
    1312A      1.693112  1313A      1.694584  1314A      1.695477  
    1315A      1.698304  1316A      1.700416  1317A      1.704011  
    1318A      1.705304  1319A      1.706418  1320A      1.707995  
    1321A      1.710386  1322A      1.710971  1323A      1.711238  
    1324A      1.714988  1325A      1.716767  1326A      1.719061  
    1327A      1.720709  1328A      1.722445  1329A      1.724978  
    1330A      1.725095  1331A      1.726853  1332A      1.728096  
    1333A      1.731560  1334A      1.732656  1335A      1.734257  
    1336A      1.735998  1337A      1.737941  1338A      1.738347  
    1339A      1.739975  1340A      1.741578  1341A      1.743234  
    1342A      1.745019  1343A      1.746585  1344A      1.748070  
    1345A      1.750470  1346A      1.751827  1347A      1.752868  
    1348A      1.756797  1349A      1.757620  1350A      1.758631  
    1351A      1.760141  1352A      1.760968  1353A      1.762941  
    1354A      1.765993  1355A      1.768713  1356A      1.770078  
    1357A      1.771663  1358A      1.773999  1359A      1.775189  
    1360A      1.778185  1361A      1.779765  1362A      1.781663  
    1363A      1.782547  1364A      1.784153  1365A      1.785121  
    1366A      1.786759  1367A      1.790954  1368A      1.791047  
    1369A      1.792052  1370A      1.793243  1371A      1.797509  
    1372A      1.800260  1373A      1.800937  1374A      1.802617  
    1375A      1.803837  1376A      1.804867  1377A      1.807478  
    1378A      1.810113  1379A      1.810178  1380A      1.811533  
    1381A      1.813213  1382A      1.815743  1383A      1.816910  
    1384A      1.819459  1385A      1.822704  1386A      1.824571  
    1387A      1.824952  1388A      1.826011  1389A      1.826619  
    1390A      1.828214  1391A      1.828464  1392A      1.835088  
    1393A      1.836344  1394A      1.839051  1395A      1.840854  
    1396A      1.842850  1397A      1.846659  1398A      1.848083  
    1399A      1.849301  1400A      1.851209  1401A      1.852999  
    1402A      1.854949  1403A      1.855412  1404A      1.860971  
    1405A      1.863447  1406A      1.865850  1407A      1.868179  
    1408A      1.869028  1409A      1.869672  1410A      1.870700  
    1411A      1.873308  1412A      1.875475  1413A      1.877788  
    1414A      1.879136  1415A      1.880940  1416A      1.883080  
    1417A      1.883699  1418A      1.886276  1419A      1.887132  
    1420A      1.889414  1421A      1.891948  1422A      1.894670  
    1423A      1.896222  1424A      1.897539  1425A      1.897863  
    1426A      1.901553  1427A      1.903814  1428A      1.904512  
    1429A      1.906060  1430A      1.908303  1431A      1.910237  
    1432A      1.913322  1433A      1.914019  1434A      1.915770  
    1435A      1.918320  1436A      1.920448  1437A      1.922965  
    1438A      1.925363  1439A      1.927061  1440A      1.928703  
    1441A      1.929962  1442A      1.931937  1443A      1.933771  
    1444A      1.935867  1445A      1.939651  1446A      1.941420  
    1447A      1.942578  1448A      1.945640  1449A      1.946417  
    1450A      1.949401  1451A      1.951951  1452A      1.953418  
    1453A      1.957271  1454A      1.957597  1455A      1.958750  
    1456A      1.962502  1457A      1.963185  1458A      1.964519  
    1459A      1.967642  1460A      1.968077  1461A      1.970609  
    1462A      1.972441  1463A      1.977553  1464A      1.978882  
    1465A      1.979445  1466A      1.980479  1467A      1.983025  
    1468A      1.983762  1469A      1.986410  1470A      1.987417  
    1471A      1.990983  1472A      1.991411  1473A      1.994577  
    1474A      1.995218  1475A      1.996457  1476A      1.999328  
    1477A      2.002214  1478A      2.002990  1479A      2.003855  
    1480A      2.005027  1481A      2.009353  1482A      2.011980  
    1483A      2.012979  1484A      2.014322  1485A      2.017054  
    1486A      2.017312  1487A      2.018660  1488A      2.020524  
    1489A      2.022537  1490A      2.024415  1491A      2.025560  
    1492A      2.027385  1493A      2.030384  1494A      2.031243  
    1495A      2.033119  1496A      2.036090  1497A      2.037818  
    1498A      2.039830  1499A      2.040830  1500A      2.042696  
    1501A      2.044316  1502A      2.046365  1503A      2.047845  
    1504A      2.052725  1505A      2.054130  1506A      2.055791  
    1507A      2.058863  1508A      2.061354  1509A      2.062808  
    1510A      2.064649  1511A      2.070020  1512A      2.070852  
    1513A      2.072560  1514A      2.075285  1515A      2.075475  
    1516A      2.077596  1517A      2.080347  1518A      2.080667  
    1519A      2.082330  1520A      2.083670  1521A      2.088199  
    1522A      2.089489  1523A      2.090423  1524A      2.092257  
    1525A      2.095474  1526A      2.097450  1527A      2.097636  
    1528A      2.099462  1529A      2.101874  1530A      2.103278  
    1531A      2.105364  1532A      2.108763  1533A      2.109634  
    1534A      2.110677  1535A      2.113063  1536A      2.115539  
    1537A      2.117729  1538A      2.118127  1539A      2.121438  
    1540A      2.122955  1541A      2.127151  1542A      2.129163  
    1543A      2.129858  1544A      2.133211  1545A      2.135279  
    1546A      2.135809  1547A      2.140186  1548A      2.141269  
    1549A      2.144899  1550A      2.146923  1551A      2.147462  
    1552A      2.151175  1553A      2.152026  1554A      2.153797  
    1555A      2.156508  1556A      2.157338  1557A      2.158537  
    1558A      2.161659  1559A      2.162421  1560A      2.166450  
    1561A      2.169455  1562A      2.172191  1563A      2.174430  
    1564A      2.177135  1565A      2.177915  1566A      2.179434  
    1567A      2.181025  1568A      2.185737  1569A      2.186524  
    1570A      2.188279  1571A      2.191439  1572A      2.192067  
    1573A      2.195724  1574A      2.197331  1575A      2.198180  
    1576A      2.199709  1577A      2.203695  1578A      2.203931  
    1579A      2.208016  1580A      2.209752  1581A      2.210203  
    1582A      2.211058  1583A      2.215297  1584A      2.216364  
    1585A      2.219847  1586A      2.222946  1587A      2.225054  
    1588A      2.229032  1589A      2.230665  1590A      2.233146  
    1591A      2.234527  1592A      2.237081  1593A      2.239337  
    1594A      2.242012  1595A      2.244247  1596A      2.247511  
    1597A      2.248954  1598A      2.251429  1599A      2.252719  
    1600A      2.254901  1601A      2.256890  1602A      2.258966  
    1603A      2.259362  1604A      2.264844  1605A      2.265696  
    1606A      2.267653  1607A      2.269015  1608A      2.273760  
    1609A      2.276297  1610A      2.277847  1611A      2.279710  
    1612A      2.282994  1613A      2.284512  1614A      2.286915  
    1615A      2.288163  1616A      2.291662  1617A      2.292987  
    1618A      2.296730  1619A      2.297871  1620A      2.299030  
    1621A      2.301779  1622A      2.304597  1623A      2.306201  
    1624A      2.306923  1625A      2.310177  1626A      2.313710  
    1627A      2.314388  1628A      2.316556  1629A      2.318415  
    1630A      2.320871  1631A      2.324654  1632A      2.325252  
    1633A      2.327370  1634A      2.329062  1635A      2.330434  
    1636A      2.333487  1637A      2.334334  1638A      2.336827  
    1639A      2.339733  1640A      2.342487  1641A      2.343247  
    1642A      2.346084  1643A      2.347416  1644A      2.349211  
    1645A      2.352047  1646A      2.355286  1647A      2.356648  
    1648A      2.358614  1649A      2.358729  1650A      2.362045  
    1651A      2.363400  1652A      2.366293  1653A      2.367272  
    1654A      2.369102  1655A      2.370542  1656A      2.372435  
    1657A      2.375329  1658A      2.377267  1659A      2.379570  
    1660A      2.381442  1661A      2.381919  1662A      2.384279  
    1663A      2.387844  1664A      2.391804  1665A      2.392604  
    1666A      2.397452  1667A      2.400476  1668A      2.400976  
    1669A      2.403303  1670A      2.407986  1671A      2.408868  
    1672A      2.412037  1673A      2.413829  1674A      2.416790  
    1675A      2.418402  1676A      2.419756  1677A      2.423832  
    1678A      2.425439  1679A      2.426053  1680A      2.432083  
    1681A      2.432265  1682A      2.433332  1683A      2.434215  
    1684A      2.440734  1685A      2.441185  1686A      2.445981  
    1687A      2.447665  1688A      2.451222  1689A      2.454969  
    1690A      2.455484  1691A      2.457577  1692A      2.460875  
    1693A      2.462500  1694A      2.465200  1695A      2.466826  
    1696A      2.468222  1697A      2.470340  1698A      2.473606  
    1699A      2.474121  1700A      2.479538  1701A      2.480345  
    1702A      2.484778  1703A      2.487488  1704A      2.491488  
    1705A      2.494070  1706A      2.494741  1707A      2.496472  
    1708A      2.499389  1709A      2.502129  1710A      2.507762  
    1711A      2.509706  1712A      2.512020  1713A      2.515446  
    1714A      2.518231  1715A      2.518739  1716A      2.521363  
    1717A      2.523530  1718A      2.527117  1719A      2.528898  
    1720A      2.529825  1721A      2.531717  1722A      2.533150  
    1723A      2.535107  1724A      2.537628  1725A      2.543334  
    1726A      2.544270  1727A      2.546925  1728A      2.550122  
    1729A      2.552501  1730A      2.554697  1731A      2.556698  
    1732A      2.559223  1733A      2.561090  1734A      2.564847  
    1735A      2.568434  1736A      2.570814  1737A      2.572733  
    1738A      2.577207  1739A      2.578200  1740A      2.582579  
    1741A      2.584614  1742A      2.588465  1743A      2.591170  
    1744A      2.592830  1745A      2.597415  1746A      2.598958  
    1747A      2.601201  1748A      2.603076  1749A      2.606165  
    1750A      2.610015  1751A      2.612247  1752A      2.614790  
    1753A      2.619234  1754A      2.621637  1755A      2.627545  
    1756A      2.628778  1757A      2.629712  1758A      2.633126  
    1759A      2.636178  1760A      2.636579  1761A      2.639680  
    1762A      2.643251  1763A      2.646456  1764A      2.648765  
    1765A      2.653246  1766A      2.655816  1767A      2.658289  
    1768A      2.660675  1769A      2.663344  1770A      2.663775  
    1771A      2.665112  1772A      2.668552  1773A      2.671539  
    1774A      2.673436  1775A      2.676333  1776A      2.680555  
    1777A      2.682351  1778A      2.684019  1779A      2.686212  
    1780A      2.690211  1781A      2.692135  1782A      2.695088  
    1783A      2.695496  1784A      2.698264  1785A      2.702422  
    1786A      2.705382  1787A      2.707090  1788A      2.708662  
    1789A      2.713241  1790A      2.716219  1791A      2.718150  
    1792A      2.719599  1793A      2.724194  1794A      2.727170  
    1795A      2.729586  1796A      2.734696  1797A      2.735414  
    1798A      2.737178  1799A      2.742788  1800A      2.743973  
    1801A      2.745435  1802A      2.748774  1803A      2.751274  
    1804A      2.752787  1805A      2.757384  1806A      2.759095  
    1807A      2.764474  1808A      2.768547  1809A      2.771239  
    1810A      2.774803  1811A      2.775928  1812A      2.781195  
    1813A      2.783144  1814A      2.784757  1815A      2.786769  
    1816A      2.789363  1817A      2.797495  1818A      2.800026  
    1819A      2.801967  1820A      2.803895  1821A      2.805877  
    1822A      2.809170  1823A      2.810002  1824A      2.811101  
    1825A      2.812902  1826A      2.814978  1827A      2.819213  
    1828A      2.824993  1829A      2.825785  1830A      2.831683  
    1831A      2.834039  1832A      2.834781  1833A      2.838206  
    1834A      2.840840  1835A      2.844333  1836A      2.847331  
    1837A      2.850800  1838A      2.855036  1839A      2.857525  
    1840A      2.858574  1841A      2.866118  1842A      2.866989  
    1843A      2.868393  1844A      2.874762  1845A      2.878712  
    1846A      2.880386  1847A      2.886558  1848A      2.888875  
    1849A      2.891301  1850A      2.894763  1851A      2.900238  
    1852A      2.903555  1853A      2.906531  1854A      2.910137  
    1855A      2.911464  1856A      2.912842  1857A      2.916992  
    1858A      2.920144  1859A      2.922494  1860A      2.927081  
    1861A      2.929924  1862A      2.932318  1863A      2.940980  
    1864A      2.942670  1865A      2.944021  1866A      2.950740  
    1867A      2.954937  1868A      2.958190  1869A      2.960342  
    1870A      2.961958  1871A      2.967119  1872A      2.973925  
    1873A      2.979076  1874A      2.979750  1875A      2.982222  
    1876A      2.987209  1877A      2.989030  1878A      2.998330  
    1879A      3.000483  1880A      3.003303  1881A      3.011452  
    1882A      3.017077  1883A      3.020561  1884A      3.025733  
    1885A      3.030963  1886A      3.033513  1887A      3.037729  
    1888A      3.038922  1889A      3.042852  1890A      3.046114  
    1891A      3.046379  1892A      3.049008  1893A      3.055643  
    1894A      3.059404  1895A      3.062663  1896A      3.065650  
    1897A      3.070408  1898A      3.076276  1899A      3.080257  
    1900A      3.084453  1901A      3.088431  1902A      3.090935  
    1903A      3.094161  1904A      3.094886  1905A      3.101134  
    1906A      3.107460  1907A      3.112004  1908A      3.115358  
    1909A      3.118209  1910A      3.119274  1911A      3.128774  
    1912A      3.133556  1913A      3.136630  1914A      3.138889  
    1915A      3.142459  1916A      3.146792  1917A      3.149079  
    1918A      3.154253  1919A      3.161432  1920A      3.163147  
    1921A      3.168443  1922A      3.171502  1923A      3.172517  
    1924A      3.176953  1925A      3.180053  1926A      3.182129  
    1927A      3.187493  1928A      3.190559  1929A      3.193918  
    1930A      3.196702  1931A      3.201620  1932A      3.206629  
    1933A      3.210383  1934A      3.212810  1935A      3.219020  
    1936A      3.221915  1937A      3.225311  1938A      3.228664  
    1939A      3.231345  1940A      3.233159  1941A      3.237289  
    1942A      3.240516  1943A      3.242160  1944A      3.250674  
    1945A      3.251595  1946A      3.254455  1947A      3.256058  
    1948A      3.262233  1949A      3.267303  1950A      3.269925  
    1951A      3.273949  1952A      3.279166  1953A      3.279736  
    1954A      3.283466  1955A      3.288058  1956A      3.291338  
    1957A      3.295690  1958A      3.296224  1959A      3.301247  
    1960A      3.304004  1961A      3.307670  1962A      3.309588  
    1963A      3.316256  1964A      3.320898  1965A      3.323666  
    1966A      3.326044  1967A      3.329869  1968A      3.331700  
    1969A      3.335138  1970A      3.336068  1971A      3.339127  
    1972A      3.344040  1973A      3.346684  1974A      3.349221  
    1975A      3.351443  1976A      3.354509  1977A      3.357180  
    1978A      3.363249  1979A      3.363462  1980A      3.367998  
    1981A      3.370601  1982A      3.372112  1983A      3.374856  
    1984A      3.377064  1985A      3.380981  1986A      3.384072  
    1987A      3.385601  1988A      3.391526  1989A      3.391565  
    1990A      3.392792  1991A      3.394609  1992A      3.398289  
    1993A      3.403314  1994A      3.403599  1995A      3.406739  
    1996A      3.407211  1997A      3.410983  1998A      3.412112  
    1999A      3.414560  2000A      3.420921  2001A      3.422382  
    2002A      3.424010  2003A      3.426970  2004A      3.429669  
    2005A      3.430899  2006A      3.435009  2007A      3.438838  
    2008A      3.443984  2009A      3.445968  2010A      3.449591  
    2011A      3.450912  2012A      3.454153  2013A      3.456180  
    2014A      3.459205  2015A      3.459845  2016A      3.463250  
    2017A      3.467347  2018A      3.468062  2019A      3.474253  
    2020A      3.474745  2021A      3.476361  2022A      3.480960  
    2023A      3.483359  2024A      3.487174  2025A      3.488048  
    2026A      3.489851  2027A      3.493016  2028A      3.494260  
    2029A      3.496267  2030A      3.497927  2031A      3.502337  
    2032A      3.506068  2033A      3.507677  2034A      3.510573  
    2035A      3.511285  2036A      3.512117  2037A      3.515325  
    2038A      3.516034  2039A      3.517281  2040A      3.523592  
    2041A      3.524683  2042A      3.527621  2043A      3.529102  
    2044A      3.530636  2045A      3.532185  2046A      3.534739  
    2047A      3.535356  2048A      3.537982  2049A      3.540777  
    2050A      3.542917  2051A      3.544428  2052A      3.549545  
    2053A      3.552352  2054A      3.554583  2055A      3.556825  
    2056A      3.558954  2057A      3.559788  2058A      3.564149  
    2059A      3.567696  2060A      3.569732  2061A      3.571802  
    2062A      3.575058  2063A      3.576330  2064A      3.578650  
    2065A      3.579074  2066A      3.582976  2067A      3.586258  
    2068A      3.587845  2069A      3.589122  2070A      3.592476  
    2071A      3.594716  2072A      3.596052  2073A      3.597934  
    2074A      3.600763  2075A      3.603591  2076A      3.605290  
    2077A      3.608542  2078A      3.611217  2079A      3.612164  
    2080A      3.615082  2081A      3.615902  2082A      3.617561  
    2083A      3.622408  2084A      3.622854  2085A      3.623997  
    2086A      3.628738  2087A      3.630247  2088A      3.633570  
    2089A      3.637116  2090A      3.640434  2091A      3.642282  
    2092A      3.644032  2093A      3.644917  2094A      3.646316  
    2095A      3.647705  2096A      3.651372  2097A      3.655958  
    2098A      3.658007  2099A      3.658703  2100A      3.659474  
    2101A      3.661445  2102A      3.663422  2103A      3.667525  
    2104A      3.671702  2105A      3.673573  2106A      3.676111  
    2107A      3.678586  2108A      3.680421  2109A      3.681640  
    2110A      3.688925  2111A      3.691668  2112A      3.691987  
    2113A      3.694193  2114A      3.696252  2115A      3.696467  
    2116A      3.698330  2117A      3.701928  2118A      3.703697  
    2119A      3.705136  2120A      3.707732  2121A      3.710387  
    2122A      3.713172  2123A      3.714982  2124A      3.716456  
    2125A      3.718214  2126A      3.720876  2127A      3.722176  
    2128A      3.726684  2129A      3.728294  2130A      3.730363  
    2131A      3.732199  2132A      3.734310  2133A      3.737541  
    2134A      3.740398  2135A      3.741860  2136A      3.742734  
    2137A      3.745203  2138A      3.748815  2139A      3.751092  
    2140A      3.751392  2141A      3.753970  2142A      3.756043  
    2143A      3.758025  2144A      3.759613  2145A      3.760982  
    2146A      3.764978  2147A      3.766602  2148A      3.768273  
    2149A      3.771084  2150A      3.772789  2151A      3.774959  
    2152A      3.775778  2153A      3.779291  2154A      3.781608  
    2155A      3.783670  2156A      3.785637  2157A      3.787649  
    2158A      3.789873  2159A      3.792914  2160A      3.793573  
    2161A      3.797233  2162A      3.799201  2163A      3.803499  
    2164A      3.805321  2165A      3.808523  2166A      3.812216  
    2167A      3.813308  2168A      3.816007  2169A      3.818067  
    2170A      3.819505  2171A      3.821625  2172A      3.824805  
    2173A      3.825428  2174A      3.828776  2175A      3.829287  
    2176A      3.830775  2177A      3.835030  2178A      3.839210  
    2179A      3.840361  2180A      3.840759  2181A      3.844967  
    2182A      3.845492  2183A      3.848398  2184A      3.849157  
    2185A      3.853039  2186A      3.856462  2187A      3.859048  
    2188A      3.860590  2189A      3.863473  2190A      3.863928  
    2191A      3.865605  2192A      3.867479  2193A      3.871767  
    2194A      3.872228  2195A      3.873052  2196A      3.874257  
    2197A      3.877751  2198A      3.880979  2199A      3.884582  
    2200A      3.886021  2201A      3.887878  2202A      3.889895  
    2203A      3.892798  2204A      3.896357  2205A      3.898071  
    2206A      3.900199  2207A      3.903508  2208A      3.905094  
    2209A      3.906676  2210A      3.908912  2211A      3.912099  
    2212A      3.915119  2213A      3.918681  2214A      3.919721  
    2215A      3.922401  2216A      3.924002  2217A      3.925400  
    2218A      3.925735  2219A      3.931818  2220A      3.932074  
    2221A      3.934471  2222A      3.935104  2223A      3.937622  
    2224A      3.939366  2225A      3.941166  2226A      3.944288  
    2227A      3.944933  2228A      3.947711  2229A      3.949437  
    2230A      3.949700  2231A      3.952537  2232A      3.955405  
    2233A      3.959379  2234A      3.960424  2235A      3.964658  
    2236A      3.966154  2237A      3.968765  2238A      3.969752  
    2239A      3.972206  2240A      3.977240  2241A      3.977601  
    2242A      3.978890  2243A      3.982706  2244A      3.984085  
    2245A      3.987386  2246A      3.989790  2247A      3.993438  
    2248A      3.996181  2249A      3.998102  2250A      3.999437  
    2251A      4.001545  2252A      4.003973  2253A      4.005265  
    2254A      4.008016  2255A      4.009582  2256A      4.013531  
    2257A      4.015512  2258A      4.017158  2259A      4.018894  
    2260A      4.024866  2261A      4.027389  2262A      4.030057  
    2263A      4.030546  2264A      4.034483  2265A      4.036885  
    2266A      4.039740  2267A      4.042978  2268A      4.044974  
    2269A      4.046381  2270A      4.049540  2271A      4.050653  
    2272A      4.053998  2273A      4.054887  2274A      4.059364  
    2275A      4.060080  2276A      4.061941  2277A      4.062498  
    2278A      4.066709  2279A      4.068664  2280A      4.072950  
    2281A      4.074692  2282A      4.076721  2283A      4.077950  
    2284A      4.080279  2285A      4.083251  2286A      4.085705  
    2287A      4.087763  2288A      4.091701  2289A      4.094568  
    2290A      4.095326  2291A      4.097555  2292A      4.099847  
    2293A      4.102370  2294A      4.103023  2295A      4.108356  
    2296A      4.111304  2297A      4.112542  2298A      4.113365  
    2299A      4.115709  2300A      4.118711  2301A      4.120532  
    2302A      4.122783  2303A      4.123271  2304A      4.129373  
    2305A      4.131462  2306A      4.134344  2307A      4.136090  
    2308A      4.140282  2309A      4.142087  2310A      4.143010  
    2311A      4.146724  2312A      4.148526  2313A      4.150907  
    2314A      4.153121  2315A      4.156273  2316A      4.159430  
    2317A      4.160686  2318A      4.165565  2319A      4.166061  
    2320A      4.168439  2321A      4.172504  2322A      4.174764  
    2323A      4.177835  2324A      4.182149  2325A      4.183011  
    2326A      4.184590  2327A      4.190385  2328A      4.191539  
    2329A      4.193329  2330A      4.196893  2331A      4.200878  
    2332A      4.202223  2333A      4.204496  2334A      4.206290  
    2335A      4.208080  2336A      4.210439  2337A      4.212428  
    2338A      4.215987  2339A      4.216802  2340A      4.220075  
    2341A      4.220353  2342A      4.221934  2343A      4.225022  
    2344A      4.225868  2345A      4.229005  2346A      4.231322  
    2347A      4.235066  2348A      4.236628  2349A      4.237386  
    2350A      4.238469  2351A      4.243215  2352A      4.245005  
    2353A      4.247802  2354A      4.250375  2355A      4.252572  
    2356A      4.253575  2357A      4.254742  2358A      4.258694  
    2359A      4.259609  2360A      4.262006  2361A      4.262931  
    2362A      4.264297  2363A      4.266353  2364A      4.270283  
    2365A      4.272219  2366A      4.275077  2367A      4.276268  
    2368A      4.280168  2369A      4.280829  2370A      4.283100  
    2371A      4.287161  2372A      4.289511  2373A      4.292554  
    2374A      4.293396  2375A      4.299043  2376A      4.299330  
    2377A      4.303605  2378A      4.304658  2379A      4.305473  
    2380A      4.307342  2381A      4.310110  2382A      4.312380  
    2383A      4.315918  2384A      4.317702  2385A      4.319539  
    2386A      4.321820  2387A      4.323584  2388A      4.328245  
    2389A      4.330656  2390A      4.331748  2391A      4.334233  
    2392A      4.334864  2393A      4.336331  2394A      4.340179  
    2395A      4.342976  2396A      4.344932  2397A      4.346646  
    2398A      4.352057  2399A      4.352918  2400A      4.354337  
    2401A      4.356533  2402A      4.358947  2403A      4.360843  
    2404A      4.361497  2405A      4.366242  2406A      4.368380  
    2407A      4.370083  2408A      4.373283  2409A      4.376136  
    2410A      4.378286  2411A      4.379153  2412A      4.385588  
    2413A      4.386462  2414A      4.390687  2415A      4.392232  
    2416A      4.394965  2417A      4.396377  2418A      4.398657  
    2419A      4.402617  2420A      4.404654  2421A      4.407209  
    2422A      4.407653  2423A      4.410276  2424A      4.414547  
    2425A      4.416708  2426A      4.419861  2427A      4.422211  
    2428A      4.422304  2429A      4.424121  2430A      4.429561  
    2431A      4.433697  2432A      4.438823  2433A      4.442169  
    2434A      4.445317  2435A      4.446961  2436A      4.447324  
    2437A      4.454600  2438A      4.455889  2439A      4.457896  
    2440A      4.460484  2441A      4.462971  2442A      4.463344  
    2443A      4.464977  2444A      4.467972  2445A      4.471412  
    2446A      4.473813  2447A      4.476600  2448A      4.479235  
    2449A      4.481572  2450A      4.484111  2451A      4.487098  
    2452A      4.489726  2453A      4.492392  2454A      4.494706  
    2455A      4.495755  2456A      4.496629  2457A      4.501494  
    2458A      4.502501  2459A      4.505141  2460A      4.508941  
    2461A      4.512267  2462A      4.515393  2463A      4.517418  
    2464A      4.519264  2465A      4.521246  2466A      4.524533  
    2467A      4.527188  2468A      4.527751  2469A      4.529400  
    2470A      4.534109  2471A      4.535831  2472A      4.537316  
    2473A      4.541976  2474A      4.542543  2475A      4.546387  
    2476A      4.548097  2477A      4.549497  2478A      4.552570  
    2479A      4.556707  2480A      4.559467  2481A      4.560109  
    2482A      4.561577  2483A      4.563354  2484A      4.567576  
    2485A      4.570214  2486A      4.572924  2487A      4.573554  
    2488A      4.576239  2489A      4.579733  2490A      4.580645  
    2491A      4.585806  2492A      4.587941  2493A      4.592681  
    2494A      4.593339  2495A      4.595231  2496A      4.599086  
    2497A      4.602325  2498A      4.604718  2499A      4.607456  
    2500A      4.607928  2501A      4.612931  2502A      4.614009  
    2503A      4.616567  2504A      4.619482  2505A      4.621729  
    2506A      4.623982  2507A      4.628269  2508A      4.630789  
    2509A      4.633259  2510A      4.634230  2511A      4.641343  
    2512A      4.645179  2513A      4.645575  2514A      4.651359  
    2515A      4.652059  2516A      4.656275  2517A      4.657762  
    2518A      4.659869  2519A      4.660851  2520A      4.665557  
    2521A      4.666681  2522A      4.669048  2523A      4.671065  
    2524A      4.674151  2525A      4.674745  2526A      4.677076  
    2527A      4.680750  2528A      4.686055  2529A      4.687645  
    2530A      4.693170  2531A      4.697863  2532A      4.700509  
    2533A      4.700688  2534A      4.703549  2535A      4.705562  
    2536A      4.708608  2537A      4.713683  2538A      4.714345  
    2539A      4.717282  2540A      4.722542  2541A      4.725532  
    2542A      4.728368  2543A      4.731825  2544A      4.733540  
    2545A      4.737454  2546A      4.739953  2547A      4.742082  
    2548A      4.744678  2549A      4.750028  2550A      4.753957  
    2551A      4.755347  2552A      4.756152  2553A      4.760648  
    2554A      4.762783  2555A      4.767299  2556A      4.771175  
    2557A      4.774299  2558A      4.776157  2559A      4.777314  
    2560A      4.779617  2561A      4.781639  2562A      4.785455  
    2563A      4.787554  2564A      4.789868  2565A      4.794339  
    2566A      4.796168  2567A      4.800681  2568A      4.802896  
    2569A      4.803630  2570A      4.805141  2571A      4.811072  
    2572A      4.814359  2573A      4.817392  2574A      4.817711  
    2575A      4.822177  2576A      4.823436  2577A      4.825412  
    2578A      4.829783  2579A      4.834094  2580A      4.837791  
    2581A      4.841278  2582A      4.842542  2583A      4.843484  
    2584A      4.846146  2585A      4.848837  2586A      4.852161  
    2587A      4.853794  2588A      4.854641  2589A      4.855548  
    2590A      4.863056  2591A      4.866767  2592A      4.869307  
    2593A      4.870693  2594A      4.875251  2595A      4.876967  
    2596A      4.880622  2597A      4.883081  2598A      4.889673  
    2599A      4.890422  2600A      4.892497  2601A      4.895333  
    2602A      4.899258  2603A      4.903045  2604A      4.904985  
    2605A      4.910058  2606A      4.910232  2607A      4.915392  
    2608A      4.917886  2609A      4.918963  2610A      4.920711  
    2611A      4.924444  2612A      4.925049  2613A      4.927234  
    2614A      4.932188  2615A      4.935199  2616A      4.940700  
    2617A      4.948412  2618A      4.948947  2619A      4.955089  
    2620A      4.956614  2621A      4.963074  2622A      4.966040  
    2623A      4.970976  2624A      4.974148  2625A      4.978080  
    2626A      4.979866  2627A      4.984116  2628A      4.986950  
    2629A      4.987969  2630A      4.989709  2631A      4.996226  
    2632A      4.998392  2633A      5.004081  2634A      5.005795  
    2635A      5.008326  2636A      5.008928  2637A      5.011976  
    2638A      5.016431  2639A      5.017977  2640A      5.021941  
    2641A      5.030048  2642A      5.032183  2643A      5.033034  
    2644A      5.038451  2645A      5.039762  2646A      5.042684  
    2647A      5.043863  2648A      5.049571  2649A      5.052829  
    2650A      5.055507  2651A      5.058577  2652A      5.060152  
    2653A      5.063782  2654A      5.065512  2655A      5.068352  
    2656A      5.071709  2657A      5.074553  2658A      5.081449  
    2659A      5.083022  2660A      5.085583  2661A      5.087861  
    2662A      5.091802  2663A      5.096557  2664A      5.099129  
    2665A      5.101354  2666A      5.106750  2667A      5.107297  
    2668A      5.109125  2669A      5.111723  2670A      5.117846  
    2671A      5.125401  2672A      5.128597  2673A      5.133948  
    2674A      5.134591  2675A      5.137502  2676A      5.142494  
    2677A      5.147732  2678A      5.148820  2679A      5.151423  
    2680A      5.156431  2681A      5.157321  2682A      5.164477  
    2683A      5.165906  2684A      5.172790  2685A      5.174327  
    2686A      5.177038  2687A      5.179488  2688A      5.180819  
    2689A      5.186446  2690A      5.187705  2691A      5.191238  
    2692A      5.196821  2693A      5.201777  2694A      5.205472  
    2695A      5.206410  2696A      5.213795  2697A      5.216206  
    2698A      5.220335  2699A      5.224089  2700A      5.227338  
    2701A      5.229940  2702A      5.231940  2703A      5.233343  
    2704A      5.237385  2705A      5.244402  2706A      5.244989  
    2707A      5.248039  2708A      5.250400  2709A      5.252152  
    2710A      5.257840  2711A      5.259083  2712A      5.260834  
    2713A      5.268460  2714A      5.271510  2715A      5.273283  
    2716A      5.274864  2717A      5.283145  2718A      5.289252  
    2719A      5.292476  2720A      5.294106  2721A      5.299960  
    2722A      5.304660  2723A      5.308805  2724A      5.311709  
    2725A      5.313655  2726A      5.317598  2727A      5.324433  
    2728A      5.327470  2729A      5.329384  2730A      5.331530  
    2731A      5.339409  2732A      5.342895  2733A      5.350713  
    2734A      5.352058  2735A      5.355291  2736A      5.358061  
    2737A      5.361460  2738A      5.366112  2739A      5.371809  
    2740A      5.373288  2741A      5.377280  2742A      5.378864  
    2743A      5.384690  2744A      5.385203  2745A      5.389008  
    2746A      5.392146  2747A      5.398307  2748A      5.400644  
    2749A      5.407711  2750A      5.411616  2751A      5.416346  
    2752A      5.421981  2753A      5.424339  2754A      5.433032  
    2755A      5.436426  2756A      5.440307  2757A      5.442918  
    2758A      5.453971  2759A      5.456126  2760A      5.461018  
    2761A      5.465423  2762A      5.468309  2763A      5.471501  
    2764A      5.475358  2765A      5.481817  2766A      5.483873  
    2767A      5.487981  2768A      5.490066  2769A      5.496212  
    2770A      5.498988  2771A      5.505086  2772A      5.509582  
    2773A      5.511537  2774A      5.512467  2775A      5.518479  
    2776A      5.522159  2777A      5.525571  2778A      5.530660  
    2779A      5.535771  2780A      5.537481  2781A      5.539428  
    2782A      5.541706  2783A      5.543327  2784A      5.548446  
    2785A      5.551478  2786A      5.553654  2787A      5.564248  
    2788A      5.569279  2789A      5.571394  2790A      5.574016  
    2791A      5.579554  2792A      5.585680  2793A      5.590233  
    2794A      5.597009  2795A      5.599763  2796A      5.604012  
    2797A      5.606741  2798A      5.610328  2799A      5.615573  
    2800A      5.624698  2801A      5.629696  2802A      5.633274  
    2803A      5.637691  2804A      5.646302  2805A      5.646674  
    2806A      5.654330  2807A      5.656545  2808A      5.662866  
    2809A      5.675038  2810A      5.679911  2811A      5.689301  
    2812A      5.695062  2813A      5.696212  2814A      5.713353  
    2815A      5.715331  2816A      5.722669  2817A      5.726687  
    2818A      5.733766  2819A      5.737480  2820A      5.742327  
    2821A      5.744134  2822A      5.750747  2823A      5.757118  
    2824A      5.760238  2825A      5.765026  2826A      5.773143  
    2827A      5.782156  2828A      5.788345  2829A      5.794855  
    2830A      5.801047  2831A      5.803970  2832A      5.807589  
    2833A      5.814573  2834A      5.816906  2835A      5.829175  
    2836A      5.834201  2837A      5.843473  2838A      5.854000  
    2839A      5.856604  2840A      5.866119  2841A      5.870091  
    2842A      5.879829  2843A      5.891491  2844A      5.897439  
    2845A      5.900406  2846A      5.903332  2847A      5.908137  
    2848A      5.923238  2849A      5.934744  2850A      5.949567  
    2851A      5.956008  2852A      5.961324  2853A      5.970974  
    2854A      5.976198  2855A      5.982595  2856A      5.990895  
    2857A      6.004952  2858A      6.011677  2859A      6.023280  
    2860A      6.035667  2861A      6.039423  2862A      6.048727  
    2863A      6.050403  2864A      6.057689  2865A      6.060460  
    2866A      6.066888  2867A      6.074939  2868A      6.081434  
    2869A      6.085242  2870A      6.090888  2871A      6.103756  
    2872A      6.114754  2873A      6.125463  2874A      6.140541  
    2875A      6.151216  2876A      6.157149  2877A      6.170419  
    2878A      6.175858  2879A      6.184684  2880A      6.204192  
    2881A      6.209827  2882A      6.238660  2883A      6.247161  
    2884A      6.262623  2885A      6.267628  2886A      6.270038  
    2887A      6.279993  2888A      6.299886  2889A      6.307547  
    2890A      6.310994  2891A      6.318855  2892A      6.321365  
    2893A      6.327836  2894A      6.337248  2895A      6.347924  
    2896A      6.353010  2897A      6.361329  2898A      6.372026  
    2899A      6.380406  2900A      6.389356  2901A      6.400610  
    2902A      6.402551  2903A      6.408701  2904A      6.413689  
    2905A      6.417101  2906A      6.420455  2907A      6.423564  
    2908A      6.430936  2909A      6.438775  2910A      6.454065  
    2911A      6.455433  2912A      6.466875  2913A      6.479586  
    2914A      6.482409  2915A      6.485254  2916A      6.488498  
    2917A      6.503166  2918A      6.514396  2919A      6.519397  
    2920A      6.537144  2921A      6.544390  2922A      6.549192  
    2923A      6.553529  2924A      6.570711  2925A      6.573491  
    2926A      6.580072  2927A      6.588695  2928A      6.592671  
    2929A      6.601126  2930A      6.614296  2931A      6.638282  
    2932A      6.650111  2933A      6.664457  2934A      6.672444  
    2935A      6.684683  2936A      6.696313  2937A      6.698888  
    2938A      6.710874  2939A      6.728094  2940A      6.731131  
    2941A      6.735545  2942A      6.741997  2943A      6.749289  
    2944A      6.754854  2945A      6.768825  2946A      6.781595  
    2947A      6.790222  2948A      6.795046  2949A      6.803764  
    2950A      6.827941  2951A      6.844422  2952A      6.849044  
    2953A      6.853367  2954A      6.859424  2955A      6.868978  
    2956A      6.873584  2957A      6.879771  2958A      6.883023  
    2959A      6.895919  2960A      6.905080  2961A      6.917522  
    2962A      6.929176  2963A      6.936278  2964A      6.958537  
    2965A      6.967275  2966A      6.971154  2967A      6.980987  
    2968A      6.985819  2969A      7.002629  2970A      7.093493  
    2971A      7.107956  2972A      7.112529  2973A      7.120009  
    2974A      7.156065  2975A      7.163212  2976A      7.189908  
    2977A      7.199700  2978A      7.210516  2979A      7.212414  
    2980A      7.225757  2981A      7.241551  2982A      7.255682  
    2983A      7.277106  2984A      7.314097  2985A      7.319196  
    2986A      7.327632  2987A      7.348867  2988A      7.357222  
    2989A      7.374713  2990A      7.395668  2991A      7.405919  
    2992A      7.442093  2993A      7.452782  2994A      7.475528  
    2995A      7.491297  2996A      7.513104  2997A      7.523853  
    2998A      7.534247  2999A      7.550843  3000A      7.573726  
    3001A      7.590049  3002A      7.613718  3003A      7.620414  
    3004A      7.695917  3005A      7.699302  3006A      7.728703  
    3007A      7.742806  3008A      7.751896  3009A      7.769985  
    3010A      7.779081  3011A      7.787372  3012A      7.792151  
    3013A      7.806389  3014A      7.812933  3015A      7.848108  
    3016A      7.857588  3017A      7.862434  3018A      7.882262  
    3019A      7.929256  3020A      7.939217  3021A      7.944040  
    3022A      7.958908  3023A      7.970882  3024A      7.981735  
    3025A      7.996559  3026A      8.019211  3027A      8.030683  
    3028A      8.033096  3029A      8.079048  3030A      8.114977  
    3031A      8.150347  3032A      8.161518  3033A      8.195273  
    3034A      8.230183  3035A      8.279693  3036A      8.365557  
    3037A      8.374527  3038A      8.433379  3039A      8.453649  
    3040A      8.469629  3041A      8.479582  3042A      8.545673  
    3043A      8.553954  3044A      8.575621  3045A      8.692795  
    3046A      8.702579  3047A      8.757599  3048A      8.804878  
    3049A      8.996013  3050A      9.030019  3051A      9.127571  
    3052A      9.154668  3053A      9.291898  3054A      9.395444  
    3055A      9.517428  3056A      9.581732  3057A      9.700120  
    3058A      9.974946  3059A     10.007561  3060A     10.025103  
    3061A     10.033644  3062A     10.054111  3063A     10.094573  
    3064A     10.125973  3065A     10.127515  3066A     10.159161  
    3067A     10.178731  3068A     10.213652  3069A     10.223474  
    3070A     10.259850  3071A     10.327640  3072A     10.365415  
    3073A     10.386836  3074A     10.395485  3075A     10.399208  
    3076A     10.418183  3077A     10.499012  3078A     10.532692  
    3079A     10.557977  3080A     10.597820  3081A     10.642337  
    3082A     10.699556  3083A     10.757786  3084A     10.764619  
    3085A     10.778455  3086A     10.789533  3087A     10.816555  
    3088A     10.984682  3089A     11.000583  3090A     11.102442  
    3091A     11.161980  3092A     11.327378  3093A     11.358666  
    3094A     11.445725  3095A     11.453453  3096A     11.484248  
    3097A     11.960196  3098A     12.135854  3099A     12.230895  
    3100A     12.274591  3101A     12.349574  3102A     12.357364  
    3103A     12.391451  3104A     12.400537  3105A     12.427103  
    3106A     12.487083  3107A     12.586919  3108A     12.649180  
    3109A     12.722722  3110A     13.266390  3111A     13.351436  
    3112A     13.432523  3113A     13.459874  3114A     13.507276  
    3115A     13.526156  3116A     13.740327  3117A     14.694362  
    3118A     14.725678  3119A     14.793711  3120A     15.157470  
    3121A     15.189712  3122A     15.199024  3123A     15.362217  
    3124A     15.402600  3125A     15.503077  3126A     15.651247  
    3127A     15.704642  3128A     16.333525  3129A     16.514556  
    3130A     16.555999  3131A     16.621463  3132A     16.665834  
    3133A     16.842830  3134A     17.125868  3135A     17.609265  
    3136A     17.855832  3137A     17.872281  3138A     17.928688  
    3139A     18.161071  3140A     18.250286  3141A     18.368246  
    3142A     18.537763  3143A     18.597431  3144A     19.142331  
    3145A     19.343033  3146A     19.358933  3147A     19.668100  
    3148A     19.928622  3149A     19.944621  3150A     20.654394  
    3151A     20.931810  3152A     20.971596  3153A     21.100013  
    3154A     21.239283  3155A     21.569444  3156A     21.583567  
    3157A     21.607246  3158A     21.712705  3159A     21.781497  
    3160A     21.896838  3161A     22.024567  3162A     22.093401  
    3163A     22.183791  3164A     22.259380  3165A     22.507454  
    3166A     22.594976  3167A     22.904377  3168A     22.916081  
    3169A     52.114824  3170A     52.839933  3171A     58.114296  
    3172A     60.247003  3173A     61.331934  3174A     62.329409  
    3175A     65.106702  3176A     65.254410  3177A     69.150836  
    3178A     69.696040  3179A     76.161231  3180A     76.289949  
    3181A     81.635733  

    Final Occupation by Irrep:
              A 
    DOCC [   141 ]
    NA   [   141 ]
    NB   [   141 ]

  @DF-RKS Final Energy: -1687.33004977799555

   => Energetics <=

    Nuclear Repulsion Energy =           4517.2679062600536781
    One-Electron Energy =              -11278.9888974480163597
    Two-Electron Energy =                5191.4322891034462373
    DFT Exchange-Correlation Energy =    -117.0021279149029709
    Empirical Dispersion Energy =          -0.0392197785762392
    VV10 Nonlocal Energy =                  0.0000000000000000
    Total Energy =                      -1687.3300497779955549

Computation Completed


Properties will be evaluated at   0.000000,   0.000000,   0.000000 [a0]

Properties computed using the SCF density matrix


 Multipole Moments:

 ------------------------------------------------------------------------------------
     Multipole            Electronic (a.u.)      Nuclear  (a.u.)        Total (a.u.)
 ------------------------------------------------------------------------------------

 L = 1.  Multiply by 2.5417464519 to convert [e a0] to [Debye]
 Dipole X            :        -49.2473842           49.6634951            0.4161109
 Dipole Y            :        -74.2186349           74.6084292            0.3897943
 Dipole Z            :       -278.9184087          278.7915749           -0.1268338
 Magnitude           :                                                    0.5841016

 ------------------------------------------------------------------------------------

*** tstop() called on atl1-1-03-004-12-2.pace.gatech.edu at Mon Jun 15 15:43:53 2026
Module time:
	user time   =   37929.96 seconds =     632.17 minutes
	system time =    1949.26 seconds =      32.49 minutes
	total time  =       5600 seconds =      93.33 minutes
Total time:
	user time   =   37929.96 seconds =     632.17 minutes
	system time =    1949.26 seconds =      32.49 minutes
	total time  =       5600 seconds =      93.33 minutes

*** tstart() called on atl1-1-03-004-12-2.pace.gatech.edu
*** at Mon Jun 15 15:43:53 2026

   => Loading Basis Set <=

    Name: (AUG-CC-PVTZ AUX)
    Role: RIFIT
    Keyword: DF_BASIS_MP2
    atoms 1-40, 69-74  entry C          line   148 file /storage/home/hcoda1/5/vlita3/.conda/envs/p4_qcml/share/psi4/basis/aug-cc-pvtz-ri.gbs 
    atoms 41-42, 81-84 entry O          line   264 file /storage/home/hcoda1/5/vlita3/.conda/envs/p4_qcml/share/psi4/basis/aug-cc-pvtz-ri.gbs 
    atoms 43-68, 78-80 entry H          line    30 file /storage/home/hcoda1/5/vlita3/.conda/envs/p4_qcml/share/psi4/basis/aug-cc-pvtz-ri.gbs 
    atoms 75           entry F          line   322 file /storage/home/hcoda1/5/vlita3/.conda/envs/p4_qcml/share/psi4/basis/aug-cc-pvtz-ri.gbs 
    atoms 76-77        entry N          line   206 file /storage/home/hcoda1/5/vlita3/.conda/envs/p4_qcml/share/psi4/basis/aug-cc-pvtz-ri.gbs 

	 --------------------------------------------------------
	                          DF-MP2                         
	      2nd-Order Density-Fitted Moller-Plesset Theory     
	              RMP2 Wavefunction,  10 Threads             
	                                                         
	        Rob Parrish, Justin Turney, Andy Simmonett,      
	           Ed Hohenstein, and C. David Sherrill          
	 --------------------------------------------------------

   => Auxiliary Basis Set <=

  Basis Set: (AUG-CC-PVTZ AUX)
    Blend: AUG-CC-PVTZ-RI
    Number of shells: 1946
    Number of basis functions: 7164
    Number of Cartesian functions: 9075
    Spherical Harmonics?: true
    Max angular momentum: 4

	 --------------------------------------------------------
	                 NBF =  3197, NAUX =  7164
	 --------------------------------------------------------
	   CLASS    FOCC     OCC    AOCC    AVIR     VIR    FVIR
	   PAIRS       0     141     141    3040    3040       0
	 --------------------------------------------------------

	-----------------------------------------------------------
	 ==================> DF-MP2 Energies <==================== 
	-----------------------------------------------------------
	 Reference Energy          =   -1687.3300497779955549 [Eh]
	 Singles Energy            =      -0.0000000000000000 [Eh]
	 Same-Spin Energy          =      -2.3752342117344849 [Eh]
	 Opposite-Spin Energy      =      -6.9012523011492402 [Eh]
	 Correlation Energy        =      -9.2764865128837251 [Eh]
	 Total Energy              =   -1696.6065362908793759 [Eh]
	-----------------------------------------------------------
	 ================> DF-SCS-MP2 Energies <================== 
	-----------------------------------------------------------
	 SCS Same-Spin Scale       =       0.3333333333333333 [-]
	 SCS Opposite-Spin Scale   =       1.2000000000000000 [-]
	 SCS Same-Spin Energy      =      -0.7917447372448283 [Eh]
	 SCS Opposite-Spin Energy  =      -8.2815027613790875 [Eh]
	 SCS Correlation Energy    =      -9.0732474986239158 [Eh]
	 SCS Total Energy          =   -1696.4032972766194689 [Eh]
	-----------------------------------------------------------



    B2PLYP-D3 Energy Summary
    ------------------------
    DFT Reference Energy                  = -1687.3300497779955549
    Scaled MP2 Correlation                =    -2.5046513584786059
    @Final double-hybrid DFT total energy = -1689.8347011364742229


*** tstop() called on atl1-1-03-004-12-2.pace.gatech.edu at Mon Jun 15 16:28:01 2026
Module time:
	user time   =   23501.13 seconds =     391.69 minutes
	system time =     177.14 seconds =       2.95 minutes
	total time  =       2648 seconds =      44.13 minutes
Total time:
	user time   =   61431.09 seconds =    1023.85 minutes
	system time =    2126.40 seconds =      35.44 minutes
	total time  =       8248 seconds =     137.47 minutes

    Psi4 stopped on: Monday, 15 June 2026 04:28PM
    Psi4 wall time for execution: 2:17:33.15

*** Psi4 exiting successfully. Buy a developer a beer!
