
    -----------------------------------------------------------------------
          Psi4: An Open-Source Ab Initio Electronic Structure Package
                               Psi4 1.9.1 release

                         Git: Rev {} zzzzzzz 


    D. G. A. Smith, L. A. Burns, A. C. Simmonett, R. M. Parrish,
    M. C. Schieber, R. Galvelis, P. Kraus, H. Kruse, R. Di Remigio,
    A. Alenaizan, A. M. James, S. Lehtola, J. P. Misiewicz, M. Scheurer,
    R. A. Shaw, J. B. Schriber, Y. Xie, Z. L. Glick, D. A. Sirianni,
    J. S. O'Brien, J. M. Waldrop, A. Kumar, E. G. Hohenstein,
    B. P. Pritchard, B. R. Brooks, H. F. Schaefer III, A. Yu. Sokolov,
    K. Patkowski, A. E. DePrince III, U. Bozkaya, R. A. King,
    F. A. Evangelista, J. M. Turney, T. D. Crawford, C. D. Sherrill,
    J. Chem. Phys. 152(18) 184108 (2020). https://doi.org/10.1063/5.0006002

                            Additional Code Authors
    E. T. Seidl, C. L. Janssen, E. F. Valeev, M. L. Leininger,
    J. F. Gonthier, R. M. Richard, H. R. McAlexander, M. Saitow, X. Wang,
    P. Verma, M. H. Lechner, A. Jiang, S. Behnle, A. G. Heide,
    M. F. Herbst, and D. L. Poole

             Previous Authors, Complete List of Code Contributors,
                       and Citations for Specific Modules
    https://github.com/psi4/psi4/blob/master/codemeta.json
    https://github.com/psi4/psi4/graphs/contributors
    http://psicode.org/psi4manual/master/introduction.html#citing-psifour

    -----------------------------------------------------------------------


    Psi4 started on: Monday, 15 June 2026 01:37PM

    Process ID: 1725685
    Host:       atl1-1-03-004-8-2.pace.gatech.edu
    PSIDATADIR: /storage/home/hcoda1/5/vlita3/.conda/envs/p4_qcml/share/psi4
    Memory:     250.0 GiB
    Threads:    10
    
  ==> Input QCSchema <==

--------------------------------------------------------------------------
{'driver': 'energy',
 'extras': {},
 'id': '357',
 'keywords': {},
 'model': {'basis': 'aug-cc-pvtz', 'method': 'b2plyp-d3'},
 'molecule': {'extras': {},
              'fix_com': True,
              'fix_orientation': True,
              'fragment_charges': [0.0, 0.0],
              'fragment_multiplicities': [1, 1],
              'fragments': [[0, 1, 2, 3, 4, 5, 6, 7, 8, 9, 10, 11, 12, 13, 14, 15, 16, 17, 18, 19, 20, 21, 22, 23, 24,
                             25, 26, 27, 28, 29, 30, 31, 32, 33, 34, 35, 36, 37, 38, 39, 40, 41, 42, 43, 44, 45, 46, 47,
                             48, 49, 50, 51, 52, 53, 54, 55, 56, 57, 58, 59, 60, 61, 62, 63, 64, 65, 66, 67, 68, 69, 70,
                             71],
                            [72, 73, 74, 75, 76, 77, 78, 79, 80, 81, 82, 83, 84, 85, 86, 87, 88, 89, 90, 91]],
              'geometry': [-0.27392714, 6.18819166, -1.19323544, -2.46344698, 5.77825337, -2.60449614, -4.6940608,
                           5.39705781, -1.25234985, -4.71896739, 5.33938337, 1.40379628, -2.51326016, 5.65638493,
                           2.81229042, -0.29786241, 6.1264921, 1.46128175, -7.4236946, 4.94664159, -2.11437677,
                           -8.0102089, 2.21933216, -1.3518118, -8.03725088, 2.16388759, 1.30730308, -7.46490952,
                           4.85601033, 2.19433108, -8.21278754, 0.01810099, -2.78449255, -8.41651891, -2.24308601,
                           -1.44718061, -8.44656555, -2.29788807, 1.20944929, -8.27108559, -0.09424159, 2.64331111,
                           -8.82968863, 6.36030791, 0.05739419, 2.39027678, 6.99321499, -1.97848656, 2.35234998,
                           6.89052727, 2.33048585, 4.24147139, 4.87579576, 1.47132186, 4.26509297, 4.93957402,
                           -1.18371122, 5.91295305, 3.35513315, 2.83024282, 7.66850862, 1.97164575, 1.43096487,
                           7.69269711, 2.03631218, -1.22332744, 5.96134893, 3.48626124, -2.58482409, 2.91214355,
                           8.90127146, 0.22748523, 9.87956377, 0.34201964, -2.07607202, 9.16122218, -2.35520346,
                           -1.32189933, 9.13548411, -2.42066358, 1.33912796, 9.83927481, 0.23553924, 2.23913649,
                           8.55002806, -4.47912335, -2.729596, 7.90073706, -6.7005909, -1.42801501, 7.87418641,
                           -6.76523843, 1.20657123, 8.49702124, -4.61078057, 2.62830668, 11.77284258, 0.92596769,
                           0.1150709, -8.31764844, -5.08264518, 1.9809621, -5.66577687, -5.91321761, 1.16915466,
                           -5.63425624, -5.85826437, -1.48990165, -8.26696598, -4.99384695, -2.32929532, -3.49926256,
                           -6.47956853, 2.52781105, -1.27490751, -7.03089613, 1.18478458, -1.24350593, -6.97650981,
                           -1.44679133, -3.43540871, -6.36901955, -2.81856431, -9.87669139, -6.270716, -0.2182029,
                           -2.4529401, 5.84171037, -4.65828828, -2.54030214, 5.62747212, 4.86674397, -7.86022133,
                           5.46728004, -4.05896164, -7.93792687, 5.29540945, 4.15038659, -8.11773431, 0.05695332,
                           -4.83605482, -8.21892915, -0.14041005, 4.69617729, -8.40519945, 8.38335422, 0.10379812,
                           -10.87140543, 6.03249712, 0.03110168, 2.58575005, 7.68646102, -3.90969218, 2.51428061,
                           7.49055311, 4.29570653, 5.92036077, 3.32542665, 4.88460188, 6.00539845, 3.55672913,
                           -4.63769027, 1.57808761, 10.48166831, 0.25357668, 4.86729199, 9.57563912, 0.26070473,
                           10.52462179, 0.60197793, -4.01470426, 10.44833354, 0.39868497, 4.19987852, 8.5531839,
                           -4.43267388, -4.7823677, 7.42214502, -8.39155563, -2.48982755, 7.37512864, -8.50599744,
                           2.1742055, 8.4600204, -4.66543145, 4.68064374, 12.34503276, 2.91199237, 0.16959272,
                           13.42257349, -0.321261, 0.09956022, -8.86591468, -5.52843157, 3.91606055, -8.76902842,
                           -5.35979242, -4.29349555, -3.50574432, -6.49980749, 4.58215122, 0.4449946, -7.48906022,
                           2.20842844, 0.50076797, -7.39238184, -2.44683628, -3.39254972, -6.30418305, -4.87158167,
                           -11.84561594, -5.6407569, -0.22849246, -9.76051103, -8.33473156, -0.2592572, 0.45225115,
                           -0.84580551, -2.67537976, 2.67838443, -1.53842793, -1.2866805, 2.65068104, -1.59445642,
                           1.27425178, 0.39459182, -0.96458424, 2.64450164, -1.86313012, -0.39368286, 1.25325503,
                           -1.83502422, -0.33633346, -1.30877329, 0.51180775, -0.67721548, -5.30584073, 2.77402347,
                           -1.11680357, -6.67834882, 4.65792923, -1.46517081, -7.76197447, -1.67832057, -0.01779464,
                           -6.70601441, -3.49875233, 0.52904962, -7.81566159, 0.39835616, -0.91584254, 5.28048061,
                           2.63210503, -1.41763286, 6.67793308, 4.4946569, -1.81660506, 7.78079614, -1.82246132,
                           -0.32547131, 6.66298535, -3.66775054, 0.16586372, 7.75745803, 4.38153789, -2.03474371,
                           -2.30489896, 4.33176251, -2.13518265, 2.30622176, -3.59287959, 0.00412869, 2.26776584,
                           -3.54227272, 0.1076148, -2.34208877],
              'id': 11,
              'identifiers': {'molecular_formula': 'C54H34N4',
                              'molecule_hash': '4c8c81f85cb59bc3d701ac2a728348ee32004706'},
              'masses': [12.0, 12.0, 12.0, 12.0, 12.0, 12.0, 12.0, 12.0, 12.0, 12.0, 12.0, 12.0, 12.0, 12.0, 12.0, 12.0,
                         12.0, 12.0, 12.0, 12.0, 12.0, 12.0, 12.0, 12.0, 12.0, 12.0, 12.0, 12.0, 12.0, 12.0, 12.0, 12.0,
                         12.0, 12.0, 12.0, 12.0, 12.0, 12.0, 12.0, 12.0, 12.0, 12.0, 1.00782503223, 1.00782503223,
                         1.00782503223, 1.00782503223, 1.00782503223, 1.00782503223, 1.00782503223, 1.00782503223,
                         1.00782503223, 1.00782503223, 1.00782503223, 1.00782503223, 1.00782503223, 1.00782503223,
                         1.00782503223, 1.00782503223, 1.00782503223, 1.00782503223, 1.00782503223, 1.00782503223,
                         1.00782503223, 1.00782503223, 1.00782503223, 1.00782503223, 1.00782503223, 1.00782503223,
                         1.00782503223, 1.00782503223, 1.00782503223, 1.00782503223, 12.0, 12.0, 12.0, 12.0, 12.0, 12.0,
                         12.0, 12.0, 14.00307400443, 12.0, 14.00307400443, 12.0, 12.0, 14.00307400443, 12.0,
                         14.00307400443, 1.00782503223, 1.00782503223, 1.00782503223, 1.00782503223],
              'molecular_charge': 0.0,
              'molecular_multiplicity': 1,
              'name': 'C54H34N4 ([1],[0])',
              'provenance': {'creator': 'QCElemental',
                             'routine': 'qcelemental.molparse.from_schema',
                             'version': '0.29.0'},
              'real': [False, False, False, False, False, False, False, False, False, False, False, False, False, False,
                       False, False, False, False, False, False, False, False, False, False, False, False, False, False,
                       False, False, False, False, False, False, False, False, False, False, False, False, False, False,
                       False, False, False, False, False, False, False, False, False, False, False, False, False, False,
                       False, False, False, False, False, False, False, False, False, False, False, False, False, False,
                       False, False, True, True, True, True, True, True, True, True, True, True, True, True, True, True,
                       True, True, True, True, True, True],
              'schema_name': 'qcschema_molecule',
              'schema_version': 2,
              'symbols': ['C', 'C', 'C', 'C', 'C', 'C', 'C', 'C', 'C', 'C', 'C', 'C', 'C', 'C', 'C', 'C', 'C', 'C', 'C',
                          'C', 'C', 'C', 'C', 'C', 'C', 'C', 'C', 'C', 'C', 'C', 'C', 'C', 'C', 'C', 'C', 'C', 'C', 'C',
                          'C', 'C', 'C', 'C', 'H', 'H', 'H', 'H', 'H', 'H', 'H', 'H', 'H', 'H', 'H', 'H', 'H', 'H', 'H',
                          'H', 'H', 'H', 'H', 'H', 'H', 'H', 'H', 'H', 'H', 'H', 'H', 'H', 'H', 'H', 'C', 'C', 'C', 'C',
                          'C', 'C', 'C', 'C', 'N', 'C', 'N', 'C', 'C', 'N', 'C', 'N', 'H', 'H', 'H', 'H'],
              'validated': True},
 'protocols': {},
 'provenance': {'creator': 'QCElemental', 'routine': 'qcelemental.models.results', 'version': '0.29.0'},
 'schema_name': 'qcschema_input',
 'schema_version': 1}
--------------------------------------------------------------------------

Scratch directory: /tmp/tmpn3g8nm4i_psi_scratch/
   => Libint2 <=

    Primary   basis highest AM E, G, H:  6, 6, 3
    Auxiliary basis highest AM E, G, H:  7, 7, 4
    Onebody   basis highest AM E, G, H:  -, -, -
    Solid Harmonics ordering:            Gaussian

*** tstart() called on atl1-1-03-004-8-2.pace.gatech.edu
*** at Mon Jun 15 13:37:35 2026

   => Loading Basis Set <=

    Name: AUG-CC-PVTZ
    Role: ORBITAL
    Keyword: BASIS
    atoms 1-42, 73-80, 82, 84-85, 87 entry C          line   239 file /storage/home/hcoda1/5/vlita3/.conda/envs/p4_qcml/share/psi4/basis/aug-cc-pvtz.gbs 
    atoms 43-72, 89-92               entry H          line    40 file /storage/home/hcoda1/5/vlita3/.conda/envs/p4_qcml/share/psi4/basis/aug-cc-pvtz.gbs 
    atoms 81, 83, 86, 88             entry N          line   285 file /storage/home/hcoda1/5/vlita3/.conda/envs/p4_qcml/share/psi4/basis/aug-cc-pvtz.gbs 

   => B2PLYP-D3: Empirical Dispersion <=

    Grimme's -D3 (zero-damping) Dispersion Correction
    Grimme S.; Antony J.; Ehrlich S.; Krieg H. (2010), J. Chem. Phys., 132: 154104
    Parametrisation from:    L. Goerigk, S. Grimme, J. Chem. Theory Comput. 7, 291-309, 2011

        s6 =       0.640000
        s8 =       1.022000
       sr6 =       1.427000
    alpha6 =      14.000000
       sr8 =       1.000000


         ---------------------------------------------------------
                                   SCF
               by Justin Turney, Rob Parrish, Andy Simmonett
                          and Daniel G. A. Smith
                              RKS Reference
                       10 Threads, 256000 MiB Core
         ---------------------------------------------------------

  ==> Geometry <==

    Molecular point group: c1
    Full point group: C1

    Geometry (in Bohr), charge = 0, multiplicity = 1:

       Center              X                  Y                   Z               Mass       
    ------------   -----------------  -----------------  -----------------  -----------------
      Gh(C)          -0.273927140000     6.188191660000    -1.193235440000    12.000000000000
      Gh(C)          -2.463446980000     5.778253370000    -2.604496140000    12.000000000000
      Gh(C)          -4.694060800000     5.397057810000    -1.252349850000    12.000000000000
      Gh(C)          -4.718967390000     5.339383370000     1.403796280000    12.000000000000
      Gh(C)          -2.513260160000     5.656384930000     2.812290420000    12.000000000000
      Gh(C)          -0.297862410000     6.126492100000     1.461281750000    12.000000000000
      Gh(C)          -7.423694600000     4.946641590000    -2.114376770000    12.000000000000
      Gh(C)          -8.010208900000     2.219332160000    -1.351811800000    12.000000000000
      Gh(C)          -8.037250880000     2.163887590000     1.307303080000    12.000000000000
      Gh(C)          -7.464909520000     4.856010330000     2.194331080000    12.000000000000
      Gh(C)          -8.212787540000     0.018100990000    -2.784492550000    12.000000000000
      Gh(C)          -8.416518910000    -2.243086010000    -1.447180610000    12.000000000000
      Gh(C)          -8.446565550000    -2.297888070000     1.209449290000    12.000000000000
      Gh(C)          -8.271085590000    -0.094241590000     2.643311110000    12.000000000000
      Gh(C)          -8.829688630000     6.360307910000     0.057394190000    12.000000000000
      Gh(C)           2.390276780000     6.993214990000    -1.978486560000    12.000000000000
      Gh(C)           2.352349980000     6.890527270000     2.330485850000    12.000000000000
      Gh(C)           4.241471390000     4.875795760000     1.471321860000    12.000000000000
      Gh(C)           4.265092970000     4.939574020000    -1.183711220000    12.000000000000
      Gh(C)           5.912953050000     3.355133150000     2.830242820000    12.000000000000
      Gh(C)           7.668508620000     1.971645750000     1.430964870000    12.000000000000
      Gh(C)           7.692697110000     2.036312180000    -1.223327440000    12.000000000000
      Gh(C)           5.961348930000     3.486261240000    -2.584824090000    12.000000000000
      Gh(C)           2.912143550000     8.901271460000     0.227485230000    12.000000000000
      Gh(C)           9.879563770000     0.342019640000    -2.076072020000    12.000000000000
      Gh(C)           9.161222180000    -2.355203460000    -1.321899330000    12.000000000000
      Gh(C)           9.135484110000    -2.420663580000     1.339127960000    12.000000000000
      Gh(C)           9.839274810000     0.235539240000     2.239136490000    12.000000000000
      Gh(C)           8.550028060000    -4.479123350000    -2.729596000000    12.000000000000
      Gh(C)           7.900737060000    -6.700590900000    -1.428015010000    12.000000000000
      Gh(C)           7.874186410000    -6.765238430000     1.206571230000    12.000000000000
      Gh(C)           8.497021240000    -4.610780570000     2.628306680000    12.000000000000
      Gh(C)          11.772842580000     0.925967690000     0.115070900000    12.000000000000
      Gh(C)          -8.317648440000    -5.082645180000     1.980962100000    12.000000000000
      Gh(C)          -5.665776870000    -5.913217610000     1.169154660000    12.000000000000
      Gh(C)          -5.634256240000    -5.858264370000    -1.489901650000    12.000000000000
      Gh(C)          -8.266965980000    -4.993846950000    -2.329295320000    12.000000000000
      Gh(C)          -3.499262560000    -6.479568530000     2.527811050000    12.000000000000
      Gh(C)          -1.274907510000    -7.030896130000     1.184784580000    12.000000000000
      Gh(C)          -1.243505930000    -6.976509810000    -1.446791330000    12.000000000000
      Gh(C)          -3.435408710000    -6.369019550000    -2.818564310000    12.000000000000
      Gh(C)          -9.876691390000    -6.270716000000    -0.218202900000    12.000000000000
      Gh(H)          -2.452940100000     5.841710370000    -4.658288280000     1.007825032230
      Gh(H)          -2.540302140000     5.627472120000     4.866743970000     1.007825032230
      Gh(H)          -7.860221330000     5.467280040000    -4.058961640000     1.007825032230
      Gh(H)          -7.937926870000     5.295409450000     4.150386590000     1.007825032230
      Gh(H)          -8.117734310000     0.056953320000    -4.836054820000     1.007825032230
      Gh(H)          -8.218929150000    -0.140410050000     4.696177290000     1.007825032230
      Gh(H)          -8.405199450000     8.383354220000     0.103798120000     1.007825032230
      Gh(H)         -10.871405430000     6.032497120000     0.031101680000     1.007825032230
      Gh(H)           2.585750050000     7.686461020000    -3.909692180000     1.007825032230
      Gh(H)           2.514280610000     7.490553110000     4.295706530000     1.007825032230
      Gh(H)           5.920360770000     3.325426650000     4.884601880000     1.007825032230
      Gh(H)           6.005398450000     3.556729130000    -4.637690270000     1.007825032230
      Gh(H)           1.578087610000    10.481668310000     0.253576680000     1.007825032230
      Gh(H)           4.867291990000     9.575639120000     0.260704730000     1.007825032230
      Gh(H)          10.524621790000     0.601977930000    -4.014704260000     1.007825032230
      Gh(H)          10.448333540000     0.398684970000     4.199878520000     1.007825032230
      Gh(H)           8.553183900000    -4.432673880000    -4.782367700000     1.007825032230
      Gh(H)           7.422145020000    -8.391555630000    -2.489827550000     1.007825032230
      Gh(H)           7.375128640000    -8.505997440000     2.174205500000     1.007825032230
      Gh(H)           8.460020400000    -4.665431450000     4.680643740000     1.007825032230
      Gh(H)          12.345032760000     2.911992370000     0.169592720000     1.007825032230
      Gh(H)          13.422573490000    -0.321261000000     0.099560220000     1.007825032230
      Gh(H)          -8.865914680000    -5.528431570000     3.916060550000     1.007825032230
      Gh(H)          -8.769028420000    -5.359792420000    -4.293495550000     1.007825032230
      Gh(H)          -3.505744320000    -6.499807490000     4.582151220000     1.007825032230
      Gh(H)           0.444994600000    -7.489060220000     2.208428440000     1.007825032230
      Gh(H)           0.500767970000    -7.392381840000    -2.446836280000     1.007825032230
      Gh(H)          -3.392549720000    -6.304183050000    -4.871581670000     1.007825032230
      Gh(H)         -11.845615940000    -5.640756900000    -0.228492460000     1.007825032230
      Gh(H)          -9.760511030000    -8.334731560000    -0.259257200000     1.007825032230
         C            0.452251150000    -0.845805510000    -2.675379760000    12.000000000000
         C            2.678384430000    -1.538427930000    -1.286680500000    12.000000000000
         C            2.650681040000    -1.594456420000     1.274251780000    12.000000000000
         C            0.394591820000    -0.964584240000     2.644501640000    12.000000000000
         C           -1.863130120000    -0.393682860000     1.253255030000    12.000000000000
         C           -1.835024220000    -0.336333460000    -1.308773290000    12.000000000000
         C            0.511807750000    -0.677215480000    -5.305840730000    12.000000000000
         C            2.774023470000    -1.116803570000    -6.678348820000    12.000000000000
         N            4.657929230000    -1.465170810000    -7.761974470000    14.003074004430
         C           -1.678320570000    -0.017794640000    -6.706014410000    12.000000000000
         N           -3.498752330000     0.529049620000    -7.815661590000    14.003074004430
         C            0.398356160000    -0.915842540000     5.280480610000    12.000000000000
         C            2.632105030000    -1.417632860000     6.677933080000    12.000000000000
         N            4.494656900000    -1.816605060000     7.780796140000    14.003074004430
         C           -1.822461320000    -0.325471310000     6.662985350000    12.000000000000
         N           -3.667750540000     0.165863720000     7.757458030000    14.003074004430
         H            4.381537890000    -2.034743710000    -2.304898960000     1.007825032230
         H            4.331762510000    -2.135182650000     2.306221760000     1.007825032230
         H           -3.592879590000     0.004128690000     2.267765840000     1.007825032230
         H           -3.542272720000     0.107614800000    -2.342088770000     1.007825032230

  Running in c1 symmetry.

  Rotational constants: A =      0.00267  B =      0.00168  C =      0.00146 [cm^-1]
  Rotational constants: A =     80.12542  B =     50.33918  C =     43.84220 [MHz]
  Nuclear repulsion =  836.883087262661093

  Charge       = 0
  Multiplicity = 1
  Electrons    = 104
  Nalpha       = 52
  Nbeta        = 52

  ==> Algorithm <==

  SCF Algorithm Type is DF.
  DIIS enabled.
  MOM disabled.
  Fractional occupation disabled.
  Guess Type is SAD.
  Energy threshold   = 1.00e-06
  Density threshold  = 1.00e-06
  Integral threshold = 1.00e-12

  ==> Primary Basis <==

  Basis Set: AUG-CC-PVTZ
    Blend: AUG-CC-PVTZ
    Number of shells: 1118
    Number of basis functions: 3450
    Number of Cartesian functions: 4040
    Spherical Harmonics?: true
    Max angular momentum: 3

  ==> DFT Potential <==

   => LibXC <=

    Version 7.0.0
    S. Lehtola, C. Steigemann, M. J.T. Oliveira, and M. A.L. Marques.,  SoftwareX 7, 1–5 (2018) (10.1016/j.softx.2017.11.002)

   => Composite Functional: B2PLYP-D3ZERO2B <= 

    B2PLYP Double Hybrid Exchange-Correlation Functional

    S. Grimme, J. Chem. Phys., 124, 034108, 2006


    Deriv               =              1
    GGA                 =           TRUE
    Meta                =          FALSE

    Exchange Hybrid     =           TRUE
    MP2 Hybrid          =           TRUE

   => Exchange Functionals <=

    0.4700     XC_GGA_X_B88

   => Exact (HF) Exchange <=

    0.5300               HF 

   => Correlation Functionals <=

    0.7300     XC_GGA_C_LYP

   => MP2 Correlation <=

    0.2700       MP2 

   => LibXC Density Thresholds  <==

    XC_GGA_C_LYP:  1.00E-14 
    XC_GGA_X_B88:  1.00E-15 

   => Molecular Quadrature <=

    Radial Scheme          =       TREUTLER
    Pruning Scheme         =           NONE
    Nuclear Scheme         =       TREUTLER

    Blocking Scheme        =         OCTREE
    BS radius alpha        =              1
    Pruning alpha          =              1
    Radial Points          =             75
    Spherical Points       =            302
    Total Points           =        1810751
    Total Blocks           =          12182
    Max Points             =            256
    Max Functions          =           2258
    Weights Tolerance      =       1.00E-15

   => Loading Basis Set <=

    Name: (AUG-CC-PVTZ AUX)
    Role: JKFIT
    Keyword: DF_BASIS_SCF
    atoms 1-42, 73-80, 82, 84-85, 87 entry C          line   162 file /storage/home/hcoda1/5/vlita3/.conda/envs/p4_qcml/share/psi4/basis/aug-cc-pvtz-jkfit.gbs 
    atoms 43-72, 89-92               entry H          line    70 file /storage/home/hcoda1/5/vlita3/.conda/envs/p4_qcml/share/psi4/basis/aug-cc-pvtz-jkfit.gbs 
    atoms 81, 83, 86, 88             entry N          line   224 file /storage/home/hcoda1/5/vlita3/.conda/envs/p4_qcml/share/psi4/basis/aug-cc-pvtz-jkfit.gbs 

  ==> Integral Setup <==

  ==> DiskDFJK: Density-Fitted J/K Matrices <==

    J tasked:                  Yes
    K tasked:                  Yes
    wK tasked:                  No
    OpenMP threads:             10
    Integrals threads:          10
    Memory [MiB]:           172800
    Algorithm:                Disk
    Integral Cache:           NONE
    Schwarz Cutoff:          1E-12
    Fitting Condition:       1E-10

   => Auxiliary Basis Set <=

  Basis Set: (AUG-CC-PVTZ AUX)
    Blend: AUG-CC-PVTZ-JKFIT
    Number of shells: 2216
    Number of basis functions: 7596
    Number of Cartesian functions: 9468
    Spherical Harmonics?: true
    Max angular momentum: 4

  Minimum eigenvalue in the overlap matrix is 3.2999283483E-10.
  Reciprocal condition number of the overlap matrix is 8.9829939844E-12.
    Using canonical orthogonalization.
  Overall, 31 of 3450 possible MOs eliminated.


  ==> Pre-Iterations <==

  SCF Guess: Superposition of Atomic Densities via on-the-fly atomic UHF (no occupation information).

   -------------------------
    Irrep   Nso     Nmo    
   -------------------------
     A       3450    3419 
   -------------------------
    Total    3450    3419
   -------------------------

  ==> Iterations <==

                           Total Energy        Delta E     RMS |[F,P]|

   @DF-RKS iter SAD:  -675.62462095214164   -6.75625e+02   0.00000e+00 
   @DF-RKS iter   1:  -676.98102010330570   -1.35640e+00   2.91783e-04 ADIIS/DIIS
   @DF-RKS iter   2:  -676.97613193252914    4.88817e-03   3.01434e-04 ADIIS/DIIS
   @DF-RKS iter   3:  -677.36703281489065   -3.90901e-01   1.06710e-04 ADIIS/DIIS
   @DF-RKS iter   4:  -677.42682262687265   -5.97898e-02   1.72501e-05 DIIS
   @DF-RKS iter   5:  -677.42809454802250   -1.27192e-03   1.00733e-05 DIIS
   @DF-RKS iter   6:  -677.42872486737690   -6.30319e-04   1.22801e-06 DIIS
   @DF-RKS iter   7:  -677.42873873539145   -1.38680e-05   4.61600e-07 DIIS
   @DF-RKS iter   8:  -677.42874136477030   -2.62938e-06   1.42976e-07 DIIS
   @DF-RKS iter   9:  -677.42874168419803   -3.19428e-07   4.63570e-08 DIIS
  Energy and wave function converged.


  ==> Post-Iterations <==

   Electrons on quadrature grid:
      Ntotal   =  103.9998255714 ; deviation = -1.744e-04 

    Orbital Energies [Eh]
    ---------------------

    Doubly Occupied:                                                      

       1A    -14.893688     2A    -14.893679     3A    -14.893646  
       4A    -14.893618     5A    -10.751832     6A    -10.751786  
       7A    -10.735249     8A    -10.735220     9A    -10.707846  
      10A    -10.707825    11A    -10.707769    12A    -10.707754  
      13A    -10.700970    14A    -10.700847    15A    -10.699853  
      16A    -10.699731    17A     -1.100896    18A     -1.094623  
      19A     -1.076870    20A     -1.076829    21A     -1.067489  
      22A     -1.017799    23A     -0.961982    24A     -0.947799  
      25A     -0.879413    26A     -0.797302    27A     -0.783402  
      28A     -0.732095    29A     -0.693166    30A     -0.691153  
      31A     -0.658119    32A     -0.589907    33A     -0.584484  
      34A     -0.574745    35A     -0.544321    36A     -0.528595  
      37A     -0.520758    38A     -0.495247    39A     -0.493723  
      40A     -0.493285    41A     -0.488806    42A     -0.478456  
      43A     -0.471090    44A     -0.447908    45A     -0.442540  
      46A     -0.442065    47A     -0.441585    48A     -0.430845  
      49A     -0.430690    50A     -0.394187    51A     -0.380105  
      52A     -0.305850  

    Virtual:                                                              

      53A     -0.149144    54A     -0.023310    55A     -0.021521  
      56A     -0.009804    57A      0.003772    58A      0.005897  
      59A      0.009388    60A      0.013136    61A      0.018430  
      62A      0.019712    63A      0.022560    64A      0.023056  
      65A      0.023155    66A      0.024920    67A      0.028567  
      68A      0.029932    69A      0.032150    70A      0.033573  
      71A      0.036320    72A      0.037108    73A      0.037285  
      74A      0.041749    75A      0.042604    76A      0.043554  
      77A      0.043718    78A      0.048427    79A      0.050491  
      80A      0.051730    81A      0.051765    82A      0.053021  
      83A      0.054567    84A      0.055003    85A      0.056066  
      86A      0.060613    87A      0.061120    88A      0.063044  
      89A      0.063200    90A      0.065246    91A      0.066027  
      92A      0.066660    93A      0.068536    94A      0.068663  
      95A      0.070367    96A      0.074591    97A      0.075069  
      98A      0.076227    99A      0.078117   100A      0.078166  
     101A      0.078527   102A      0.079946   103A      0.081724  
     104A      0.082517   105A      0.082670   106A      0.083158  
     107A      0.086815   108A      0.086910   109A      0.089775  
     110A      0.092369   111A      0.092444   112A      0.093300  
     113A      0.096892   114A      0.097435   115A      0.098584  
     116A      0.101073   117A      0.101978   118A      0.104603  
     119A      0.106193   120A      0.106275   121A      0.107752  
     122A      0.108962   123A      0.111414   124A      0.112666  
     125A      0.113526   126A      0.115108   127A      0.115854  
     128A      0.117991   129A      0.118672   130A      0.119087  
     131A      0.119724   132A      0.121522   133A      0.121744  
     134A      0.122327   135A      0.123962   136A      0.126711  
     137A      0.126822   138A      0.130669   139A      0.131142  
     140A      0.132830   141A      0.133947   142A      0.134087  
     143A      0.134516   144A      0.136353   145A      0.139959  
     146A      0.141118   147A      0.142001   148A      0.142912  
     149A      0.144161   150A      0.144317   151A      0.147036  
     152A      0.147071   153A      0.148059   154A      0.150211  
     155A      0.150935   156A      0.151532   157A      0.152490  
     158A      0.153876   159A      0.154077   160A      0.155040  
     161A      0.155231   162A      0.156297   163A      0.158596  
     164A      0.159437   165A      0.160999   166A      0.161478  
     167A      0.163540   168A      0.164951   169A      0.168188  
     170A      0.168869   171A      0.169482   172A      0.171634  
     173A      0.171928   174A      0.172423   175A      0.173185  
     176A      0.173270   177A      0.176741   178A      0.177302  
     179A      0.178256   180A      0.178813   181A      0.179429  
     182A      0.181397   183A      0.182140   184A      0.183961  
     185A      0.185671   186A      0.186217   187A      0.188416  
     188A      0.190612   189A      0.190999   190A      0.191611  
     191A      0.192385   192A      0.193871   193A      0.194633  
     194A      0.196659   195A      0.199075   196A      0.200808  
     197A      0.200959   198A      0.201606   199A      0.202213  
     200A      0.203280   201A      0.204059   202A      0.205617  
     203A      0.208135   204A      0.208314   205A      0.209644  
     206A      0.210188   207A      0.211152   208A      0.211598  
     209A      0.212397   210A      0.214381   211A      0.215827  
     212A      0.216467   213A      0.216569   214A      0.218026  
     215A      0.218343   216A      0.220251   217A      0.221678  
     218A      0.221921   219A      0.222647   220A      0.223704  
     221A      0.225489   222A      0.226412   223A      0.227257  
     224A      0.227863   225A      0.230538   226A      0.232390  
     227A      0.232939   228A      0.233584   229A      0.234659  
     230A      0.237618   231A      0.239462   232A      0.240777  
     233A      0.241478   234A      0.242695   235A      0.242987  
     236A      0.244186   237A      0.245403   238A      0.246232  
     239A      0.247887   240A      0.248019   241A      0.249621  
     242A      0.251951   243A      0.252422   244A      0.252952  
     245A      0.253268   246A      0.253618   247A      0.255277  
     248A      0.255524   249A      0.257674   250A      0.259064  
     251A      0.259670   252A      0.261052   253A      0.261563  
     254A      0.261662   255A      0.263254   256A      0.263512  
     257A      0.265340   258A      0.266351   259A      0.268773  
     260A      0.269044   261A      0.269287   262A      0.272044  
     263A      0.272404   264A      0.273392   265A      0.275390  
     266A      0.276082   267A      0.277700   268A      0.278454  
     269A      0.279197   270A      0.279469   271A      0.279688  
     272A      0.281807   273A      0.282439   274A      0.283298  
     275A      0.286655   276A      0.287122   277A      0.287473  
     278A      0.289648   279A      0.290918   280A      0.291209  
     281A      0.291659   282A      0.292090   283A      0.294118  
     284A      0.295029   285A      0.296260   286A      0.298353  
     287A      0.298603   288A      0.300085   289A      0.301524  
     290A      0.302700   291A      0.302814   292A      0.303950  
     293A      0.305784   294A      0.306099   295A      0.307461  
     296A      0.307780   297A      0.308351   298A      0.308916  
     299A      0.310477   300A      0.313102   301A      0.315443  
     302A      0.316372   303A      0.317080   304A      0.318340  
     305A      0.318713   306A      0.319944   307A      0.320329  
     308A      0.322275   309A      0.323249   310A      0.324370  
     311A      0.325420   312A      0.328300   313A      0.329389  
     314A      0.332112   315A      0.332561   316A      0.333283  
     317A      0.334374   318A      0.335610   319A      0.336993  
     320A      0.337967   321A      0.338490   322A      0.341085  
     323A      0.341431   324A      0.341505   325A      0.342958  
     326A      0.344919   327A      0.345799   328A      0.345941  
     329A      0.351355   330A      0.352465   331A      0.353308  
     332A      0.353735   333A      0.355841   334A      0.356722  
     335A      0.357612   336A      0.359637   337A      0.363184  
     338A      0.364305   339A      0.364662   340A      0.366349  
     341A      0.368165   342A      0.370686   343A      0.371609  
     344A      0.373391   345A      0.373778   346A      0.376294  
     347A      0.378790   348A      0.379735   349A      0.380227  
     350A      0.380679   351A      0.383139   352A      0.384685  
     353A      0.386166   354A      0.387730   355A      0.388047  
     356A      0.390652   357A      0.390785   358A      0.393369  
     359A      0.394528   360A      0.395346   361A      0.396151  
     362A      0.397730   363A      0.401661   364A      0.402404  
     365A      0.403647   366A      0.404866   367A      0.405466  
     368A      0.409515   369A      0.409724   370A      0.410812  
     371A      0.411374   372A      0.412226   373A      0.414112  
     374A      0.415486   375A      0.417006   376A      0.417286  
     377A      0.417753   378A      0.418236   379A      0.421597  
     380A      0.421636   381A      0.424168   382A      0.424624  
     383A      0.426249   384A      0.427956   385A      0.429069  
     386A      0.429166   387A      0.429532   388A      0.431930  
     389A      0.432171   390A      0.433132   391A      0.433275  
     392A      0.435551   393A      0.437588   394A      0.437832  
     395A      0.439611   396A      0.440854   397A      0.442504  
     398A      0.442662   399A      0.445052   400A      0.446141  
     401A      0.448239   402A      0.449660   403A      0.450860  
     404A      0.452265   405A      0.453018   406A      0.455529  
     407A      0.456586   408A      0.458773   409A      0.458821  
     410A      0.460464   411A      0.460697   412A      0.461232  
     413A      0.463283   414A      0.463912   415A      0.467262  
     416A      0.467774   417A      0.470288   418A      0.470309  
     419A      0.472958   420A      0.475451   421A      0.475719  
     422A      0.477018   423A      0.478755   424A      0.478947  
     425A      0.479612   426A      0.481256   427A      0.482028  
     428A      0.483263   429A      0.484255   430A      0.485457  
     431A      0.486047   432A      0.488277   433A      0.490470  
     434A      0.491591   435A      0.491832   436A      0.493033  
     437A      0.495241   438A      0.497278   439A      0.498417  
     440A      0.498810   441A      0.499919   442A      0.501435  
     443A      0.502109   444A      0.503763   445A      0.506346  
     446A      0.507377   447A      0.508285   448A      0.508625  
     449A      0.510326   450A      0.511238   451A      0.512261  
     452A      0.513676   453A      0.513845   454A      0.515778  
     455A      0.517377   456A      0.518071   457A      0.518222  
     458A      0.521934   459A      0.522344   460A      0.523258  
     461A      0.524106   462A      0.524241   463A      0.526643  
     464A      0.527501   465A      0.528754   466A      0.530267  
     467A      0.531622   468A      0.533504   469A      0.534887  
     470A      0.536651   471A      0.538910   472A      0.538996  
     473A      0.539275   474A      0.542159   475A      0.543596  
     476A      0.544045   477A      0.545214   478A      0.545517  
     479A      0.545623   480A      0.547746   481A      0.548229  
     482A      0.550621   483A      0.551892   484A      0.552595  
     485A      0.554858   486A      0.555128   487A      0.557434  
     488A      0.557617   489A      0.558831   490A      0.560048  
     491A      0.561912   492A      0.562070   493A      0.566245  
     494A      0.567044   495A      0.567728   496A      0.569305  
     497A      0.571048   498A      0.572105   499A      0.574872  
     500A      0.576677   501A      0.577323   502A      0.578344  
     503A      0.579133   504A      0.581391   505A      0.581596  
     506A      0.582686   507A      0.582869   508A      0.584532  
     509A      0.584648   510A      0.586169   511A      0.586799  
     512A      0.588977   513A      0.591761   514A      0.591944  
     515A      0.592700   516A      0.595125   517A      0.596685  
     518A      0.597487   519A      0.600002   520A      0.600238  
     521A      0.603130   522A      0.603718   523A      0.604541  
     524A      0.605697   525A      0.606580   526A      0.606997  
     527A      0.608709   528A      0.609619   529A      0.611328  
     530A      0.612441   531A      0.614329   532A      0.614513  
     533A      0.617561   534A      0.620063   535A      0.620880  
     536A      0.622029   537A      0.622620   538A      0.624012  
     539A      0.624133   540A      0.626618   541A      0.626937  
     542A      0.628173   543A      0.628944   544A      0.631256  
     545A      0.632472   546A      0.633529   547A      0.635909  
     548A      0.637790   549A      0.641598   550A      0.641703  
     551A      0.643833   552A      0.644339   553A      0.646898  
     554A      0.647275   555A      0.649466   556A      0.649911  
     557A      0.652105   558A      0.652818   559A      0.653183  
     560A      0.654820   561A      0.656228   562A      0.658627  
     563A      0.658858   564A      0.660665   565A      0.661030  
     566A      0.664453   567A      0.666403   568A      0.666839  
     569A      0.667169   570A      0.668753   571A      0.671404  
     572A      0.671580   573A      0.671961   574A      0.674045  
     575A      0.674792   576A      0.676639   577A      0.677318  
     578A      0.678879   579A      0.679441   580A      0.680869  
     581A      0.681419   582A      0.683394   583A      0.683852  
     584A      0.685470   585A      0.687041   586A      0.687433  
     587A      0.687995   588A      0.691744   589A      0.692184  
     590A      0.693333   591A      0.693562   592A      0.694934  
     593A      0.695172   594A      0.696977   595A      0.699654  
     596A      0.700800   597A      0.702280   598A      0.704134  
     599A      0.706361   600A      0.707067   601A      0.707997  
     602A      0.708651   603A      0.708959   604A      0.710912  
     605A      0.712366   606A      0.713366   607A      0.713687  
     608A      0.714215   609A      0.714839   610A      0.717384  
     611A      0.718346   612A      0.720300   613A      0.723818  
     614A      0.725671   615A      0.726591   616A      0.727939  
     617A      0.728868   618A      0.729748   619A      0.730743  
     620A      0.732242   621A      0.733796   622A      0.734218  
     623A      0.735581   624A      0.735999   625A      0.738800  
     626A      0.738972   627A      0.740282   628A      0.740849  
     629A      0.741600   630A      0.745561   631A      0.745739  
     632A      0.746186   633A      0.747531   634A      0.748899  
     635A      0.750954   636A      0.753187   637A      0.754612  
     638A      0.754983   639A      0.755647   640A      0.757315  
     641A      0.757593   642A      0.759856   643A      0.761868  
     644A      0.762175   645A      0.764782   646A      0.766226  
     647A      0.766963   648A      0.767249   649A      0.769548  
     650A      0.770462   651A      0.773341   652A      0.774556  
     653A      0.776476   654A      0.777197   655A      0.778328  
     656A      0.778890   657A      0.781867   658A      0.782968  
     659A      0.784733   660A      0.785429   661A      0.785810  
     662A      0.788222   663A      0.788702   664A      0.790306  
     665A      0.791315   666A      0.793763   667A      0.794123  
     668A      0.797338   669A      0.797900   670A      0.799532  
     671A      0.800538   672A      0.802554   673A      0.802986  
     674A      0.804047   675A      0.806395   676A      0.808775  
     677A      0.809650   678A      0.811236   679A      0.813071  
     680A      0.814915   681A      0.815230   682A      0.815709  
     683A      0.817676   684A      0.818906   685A      0.822365  
     686A      0.823116   687A      0.824223   688A      0.824328  
     689A      0.826856   690A      0.827008   691A      0.830304  
     692A      0.831337   693A      0.831647   694A      0.834093  
     695A      0.836068   696A      0.837262   697A      0.837739  
     698A      0.839086   699A      0.839706   700A      0.840491  
     701A      0.843530   702A      0.843610   703A      0.845038  
     704A      0.847206   705A      0.850270   706A      0.850575  
     707A      0.851489   708A      0.852338   709A      0.855226  
     710A      0.857683   711A      0.858432   712A      0.860345  
     713A      0.860916   714A      0.863049   715A      0.864153  
     716A      0.864697   717A      0.866536   718A      0.866608  
     719A      0.870483   720A      0.870967   721A      0.872770  
     722A      0.874563   723A      0.875211   724A      0.876311  
     725A      0.877412   726A      0.879074   727A      0.880411  
     728A      0.881686   729A      0.883983   730A      0.884354  
     731A      0.885399   732A      0.887592   733A      0.889453  
     734A      0.891529   735A      0.891594   736A      0.892476  
     737A      0.892782   738A      0.893156   739A      0.896095  
     740A      0.898509   741A      0.898831   742A      0.902179  
     743A      0.902507   744A      0.903882   745A      0.905095  
     746A      0.905400   747A      0.908098   748A      0.910308  
     749A      0.912916   750A      0.914624   751A      0.915717  
     752A      0.916461   753A      0.917131   754A      0.918502  
     755A      0.919915   756A      0.922779   757A      0.924825  
     758A      0.924879   759A      0.925475   760A      0.926928  
     761A      0.928404   762A      0.928936   763A      0.930088  
     764A      0.930528   765A      0.931988   766A      0.934797  
     767A      0.936373   768A      0.936791   769A      0.939559  
     770A      0.941219   771A      0.942214   772A      0.944411  
     773A      0.946008   774A      0.947526   775A      0.948531  
     776A      0.948920   777A      0.950866   778A      0.950930  
     779A      0.951599   780A      0.952918   781A      0.953573  
     782A      0.955153   783A      0.959843   784A      0.960559  
     785A      0.963365   786A      0.964861   787A      0.967427  
     788A      0.967608   789A      0.968199   790A      0.971451  
     791A      0.972113   792A      0.972522   793A      0.972818  
     794A      0.974491   795A      0.974730   796A      0.976189  
     797A      0.977777   798A      0.978585   799A      0.979793  
     800A      0.981059   801A      0.982671   802A      0.983157  
     803A      0.988103   804A      0.989581   805A      0.989860  
     806A      0.991224   807A      0.993174   808A      0.993361  
     809A      0.995536   810A      0.998482   811A      0.999025  
     812A      0.999771   813A      1.000838   814A      1.006141  
     815A      1.006770   816A      1.007865   817A      1.009873  
     818A      1.010432   819A      1.012267   820A      1.014561  
     821A      1.014752   822A      1.015910   823A      1.018837  
     824A      1.019391   825A      1.019553   826A      1.021972  
     827A      1.022648   828A      1.023204   829A      1.025754  
     830A      1.026813   831A      1.027075   832A      1.027569  
     833A      1.029471   834A      1.031631   835A      1.031930  
     836A      1.034783   837A      1.035357   838A      1.038501  
     839A      1.039561   840A      1.042724   841A      1.043025  
     842A      1.046381   843A      1.046835   844A      1.048066  
     845A      1.050412   846A      1.050588   847A      1.052449  
     848A      1.056164   849A      1.057475   850A      1.058098  
     851A      1.058703   852A      1.058932   853A      1.061584  
     854A      1.062360   855A      1.063587   856A      1.064048  
     857A      1.066201   858A      1.067654   859A      1.068543  
     860A      1.069639   861A      1.070775   862A      1.071078  
     863A      1.073086   864A      1.075870   865A      1.077470  
     866A      1.078862   867A      1.080431   868A      1.082120  
     869A      1.083563   870A      1.086467   871A      1.087043  
     872A      1.088563   873A      1.089920   874A      1.090740  
     875A      1.091955   876A      1.093782   877A      1.094832  
     878A      1.096094   879A      1.096899   880A      1.099752  
     881A      1.100556   882A      1.104177   883A      1.104649  
     884A      1.105435   885A      1.106355   886A      1.106751  
     887A      1.109886   888A      1.110699   889A      1.113678  
     890A      1.114952   891A      1.117322   892A      1.119421  
     893A      1.120257   894A      1.122042   895A      1.123647  
     896A      1.124410   897A      1.124449   898A      1.126995  
     899A      1.130855   900A      1.132059   901A      1.134794  
     902A      1.134960   903A      1.136322   904A      1.137535  
     905A      1.139733   906A      1.140390   907A      1.141714  
     908A      1.142567   909A      1.146369   910A      1.147499  
     911A      1.147973   912A      1.149971   913A      1.151098  
     914A      1.152917   915A      1.155011   916A      1.155793  
     917A      1.157565   918A      1.158484   919A      1.160528  
     920A      1.161201   921A      1.161904   922A      1.163296  
     923A      1.165207   924A      1.168313   925A      1.168763  
     926A      1.171843   927A      1.173732   928A      1.174502  
     929A      1.177458   930A      1.179068   931A      1.180778  
     932A      1.183510   933A      1.184451   934A      1.186528  
     935A      1.188370   936A      1.190693   937A      1.193041  
     938A      1.193520   939A      1.193649   940A      1.195275  
     941A      1.196675   942A      1.197832   943A      1.201310  
     944A      1.202357   945A      1.202732   946A      1.206663  
     947A      1.209088   948A      1.210068   949A      1.211620  
     950A      1.211791   951A      1.214705   952A      1.215713  
     953A      1.216143   954A      1.218157   955A      1.220272  
     956A      1.221090   957A      1.223680   958A      1.225026  
     959A      1.227520   960A      1.229333   961A      1.231131  
     962A      1.232433   963A      1.233310   964A      1.235139  
     965A      1.235294   966A      1.236182   967A      1.237036  
     968A      1.241056   969A      1.242258   970A      1.243558  
     971A      1.245094   972A      1.247305   973A      1.248867  
     974A      1.249751   975A      1.250880   976A      1.254174  
     977A      1.255048   978A      1.255913   979A      1.256595  
     980A      1.259124   981A      1.261633   982A      1.261923  
     983A      1.264959   984A      1.266080   985A      1.267017  
     986A      1.267692   987A      1.270292   988A      1.270686  
     989A      1.272614   990A      1.272881   991A      1.275890  
     992A      1.277668   993A      1.277985   994A      1.280903  
     995A      1.282359   996A      1.284000   997A      1.285745  
     998A      1.287764   999A      1.288670  1000A      1.289865  
    1001A      1.290770  1002A      1.294328  1003A      1.295268  
    1004A      1.295945  1005A      1.300110  1006A      1.300226  
    1007A      1.301356  1008A      1.303752  1009A      1.304371  
    1010A      1.305788  1011A      1.308251  1012A      1.309373  
    1013A      1.310464  1014A      1.310995  1015A      1.312312  
    1016A      1.313561  1017A      1.316557  1018A      1.316690  
    1019A      1.318953  1020A      1.319137  1021A      1.319580  
    1022A      1.324044  1023A      1.325888  1024A      1.326677  
    1025A      1.327744  1026A      1.328719  1027A      1.330466  
    1028A      1.334305  1029A      1.335640  1030A      1.336654  
    1031A      1.340327  1032A      1.341045  1033A      1.342684  
    1034A      1.343303  1035A      1.346200  1036A      1.346967  
    1037A      1.349340  1038A      1.350193  1039A      1.351202  
    1040A      1.352825  1041A      1.355027  1042A      1.355761  
    1043A      1.356896  1044A      1.358683  1045A      1.359339  
    1046A      1.361739  1047A      1.363350  1048A      1.366267  
    1049A      1.367702  1050A      1.368328  1051A      1.369302  
    1052A      1.371582  1053A      1.373609  1054A      1.375069  
    1055A      1.376153  1056A      1.377012  1057A      1.379827  
    1058A      1.381714  1059A      1.383832  1060A      1.385324  
    1061A      1.388046  1062A      1.388806  1063A      1.389530  
    1064A      1.390226  1065A      1.392271  1066A      1.394207  
    1067A      1.396880  1068A      1.398782  1069A      1.399541  
    1070A      1.403193  1071A      1.404006  1072A      1.404367  
    1073A      1.404853  1074A      1.405414  1075A      1.410410  
    1076A      1.411701  1077A      1.414113  1078A      1.414576  
    1079A      1.415199  1080A      1.415363  1081A      1.416105  
    1082A      1.420104  1083A      1.421418  1084A      1.423845  
    1085A      1.425184  1086A      1.427008  1087A      1.427374  
    1088A      1.428265  1089A      1.429053  1090A      1.430950  
    1091A      1.432703  1092A      1.434069  1093A      1.436392  
    1094A      1.438217  1095A      1.441385  1096A      1.442708  
    1097A      1.445714  1098A      1.446049  1099A      1.446527  
    1100A      1.448062  1101A      1.449870  1102A      1.450510  
    1103A      1.452577  1104A      1.453630  1105A      1.456142  
    1106A      1.458207  1107A      1.459743  1108A      1.460052  
    1109A      1.464578  1110A      1.465590  1111A      1.465925  
    1112A      1.466518  1113A      1.467090  1114A      1.469632  
    1115A      1.472288  1116A      1.473051  1117A      1.474340  
    1118A      1.477115  1119A      1.478878  1120A      1.479893  
    1121A      1.480418  1122A      1.482965  1123A      1.483485  
    1124A      1.484809  1125A      1.486343  1126A      1.486582  
    1127A      1.488164  1128A      1.491058  1129A      1.491711  
    1130A      1.492828  1131A      1.494563  1132A      1.496501  
    1133A      1.498064  1134A      1.499638  1135A      1.500159  
    1136A      1.502262  1137A      1.504381  1138A      1.504923  
    1139A      1.506610  1140A      1.507223  1141A      1.508996  
    1142A      1.509689  1143A      1.511706  1144A      1.512343  
    1145A      1.514737  1146A      1.515539  1147A      1.516768  
    1148A      1.520209  1149A      1.521335  1150A      1.523426  
    1151A      1.525968  1152A      1.527343  1153A      1.528676  
    1154A      1.529586  1155A      1.529716  1156A      1.531170  
    1157A      1.533392  1158A      1.536424  1159A      1.536596  
    1160A      1.538822  1161A      1.540746  1162A      1.541269  
    1163A      1.541571  1164A      1.543655  1165A      1.544033  
    1166A      1.545204  1167A      1.546500  1168A      1.548615  
    1169A      1.552788  1170A      1.553503  1171A      1.554453  
    1172A      1.554630  1173A      1.556966  1174A      1.558808  
    1175A      1.559827  1176A      1.561146  1177A      1.562513  
    1178A      1.562791  1179A      1.564570  1180A      1.564897  
    1181A      1.566352  1182A      1.568745  1183A      1.568823  
    1184A      1.570370  1185A      1.573207  1186A      1.573300  
    1187A      1.576693  1188A      1.577100  1189A      1.577272  
    1190A      1.581078  1191A      1.581586  1192A      1.584069  
    1193A      1.584285  1194A      1.586941  1195A      1.587621  
    1196A      1.590720  1197A      1.591841  1198A      1.592536  
    1199A      1.594609  1200A      1.595624  1201A      1.596581  
    1202A      1.597372  1203A      1.599030  1204A      1.599513  
    1205A      1.600710  1206A      1.602576  1207A      1.604403  
    1208A      1.606086  1209A      1.606597  1210A      1.606935  
    1211A      1.609577  1212A      1.611412  1213A      1.611834  
    1214A      1.611908  1215A      1.617693  1216A      1.619256  
    1217A      1.620784  1218A      1.620902  1219A      1.621620  
    1220A      1.623237  1221A      1.623888  1222A      1.625137  
    1223A      1.628028  1224A      1.628699  1225A      1.631633  
    1226A      1.632638  1227A      1.634117  1228A      1.634283  
    1229A      1.635941  1230A      1.638637  1231A      1.639322  
    1232A      1.642011  1233A      1.642745  1234A      1.643339  
    1235A      1.643692  1236A      1.644470  1237A      1.646357  
    1238A      1.647220  1239A      1.651378  1240A      1.653688  
    1241A      1.654466  1242A      1.655722  1243A      1.659139  
    1244A      1.659644  1245A      1.660511  1246A      1.660925  
    1247A      1.661614  1248A      1.663652  1249A      1.664084  
    1250A      1.664363  1251A      1.667539  1252A      1.668440  
    1253A      1.669589  1254A      1.670205  1255A      1.673025  
    1256A      1.675712  1257A      1.676324  1258A      1.677143  
    1259A      1.677289  1260A      1.678827  1261A      1.680464  
    1262A      1.683289  1263A      1.684863  1264A      1.685515  
    1265A      1.686316  1266A      1.686534  1267A      1.688872  
    1268A      1.689222  1269A      1.690736  1270A      1.692916  
    1271A      1.694143  1272A      1.698344  1273A      1.698469  
    1274A      1.700269  1275A      1.700882  1276A      1.703709  
    1277A      1.704959  1278A      1.705452  1279A      1.706494  
    1280A      1.708458  1281A      1.709761  1282A      1.710965  
    1283A      1.712858  1284A      1.714977  1285A      1.715479  
    1286A      1.716290  1287A      1.719830  1288A      1.721985  
    1289A      1.722686  1290A      1.724368  1291A      1.726971  
    1292A      1.729802  1293A      1.731628  1294A      1.732528  
    1295A      1.733599  1296A      1.734727  1297A      1.736772  
    1298A      1.737307  1299A      1.741658  1300A      1.742500  
    1301A      1.742539  1302A      1.744966  1303A      1.745134  
    1304A      1.745534  1305A      1.747267  1306A      1.748782  
    1307A      1.752019  1308A      1.752964  1309A      1.754948  
    1310A      1.758952  1311A      1.759771  1312A      1.761102  
    1313A      1.762261  1314A      1.762479  1315A      1.763956  
    1316A      1.765855  1317A      1.766513  1318A      1.767336  
    1319A      1.768581  1320A      1.771159  1321A      1.771709  
    1322A      1.773938  1323A      1.775165  1324A      1.777781  
    1325A      1.779223  1326A      1.779440  1327A      1.780283  
    1328A      1.781566  1329A      1.782740  1330A      1.786287  
    1331A      1.786976  1332A      1.787974  1333A      1.788944  
    1334A      1.789384  1335A      1.792940  1336A      1.793113  
    1337A      1.796558  1338A      1.797159  1339A      1.799077  
    1340A      1.799999  1341A      1.802145  1342A      1.804185  
    1343A      1.804703  1344A      1.807215  1345A      1.808597  
    1346A      1.809501  1347A      1.812133  1348A      1.813388  
    1349A      1.815532  1350A      1.815930  1351A      1.817864  
    1352A      1.820632  1353A      1.821691  1354A      1.821806  
    1355A      1.823592  1356A      1.826280  1357A      1.828784  
    1358A      1.829126  1359A      1.830114  1360A      1.830802  
    1361A      1.833451  1362A      1.834050  1363A      1.834904  
    1364A      1.837350  1365A      1.837695  1366A      1.841560  
    1367A      1.843821  1368A      1.844504  1369A      1.848356  
    1370A      1.848863  1371A      1.851051  1372A      1.852565  
    1373A      1.856765  1374A      1.859078  1375A      1.861025  
    1376A      1.861702  1377A      1.862583  1378A      1.862765  
    1379A      1.865687  1380A      1.867854  1381A      1.868433  
    1382A      1.870418  1383A      1.873945  1384A      1.874641  
    1385A      1.876251  1386A      1.878968  1387A      1.880010  
    1388A      1.882192  1389A      1.883131  1390A      1.883836  
    1391A      1.884156  1392A      1.885328  1393A      1.888753  
    1394A      1.890425  1395A      1.891664  1396A      1.891758  
    1397A      1.893982  1398A      1.895952  1399A      1.896580  
    1400A      1.898521  1401A      1.901758  1402A      1.903656  
    1403A      1.904827  1404A      1.908223  1405A      1.908926  
    1406A      1.910348  1407A      1.910717  1408A      1.914982  
    1409A      1.915417  1410A      1.917889  1411A      1.920044  
    1412A      1.921945  1413A      1.923086  1414A      1.924667  
    1415A      1.924969  1416A      1.926465  1417A      1.926738  
    1418A      1.928068  1419A      1.929286  1420A      1.933581  
    1421A      1.935181  1422A      1.937400  1423A      1.938244  
    1424A      1.938438  1425A      1.940491  1426A      1.942429  
    1427A      1.943580  1428A      1.944872  1429A      1.945852  
    1430A      1.950938  1431A      1.951642  1432A      1.952986  
    1433A      1.953673  1434A      1.955279  1435A      1.956829  
    1436A      1.959442  1437A      1.960740  1438A      1.962846  
    1439A      1.963440  1440A      1.965218  1441A      1.965960  
    1442A      1.966283  1443A      1.968539  1444A      1.968955  
    1445A      1.969599  1446A      1.971334  1447A      1.974371  
    1448A      1.975586  1449A      1.978508  1450A      1.979075  
    1451A      1.980862  1452A      1.983235  1453A      1.984679  
    1454A      1.985770  1455A      1.986682  1456A      1.987035  
    1457A      1.988268  1458A      1.989976  1459A      1.992646  
    1460A      1.993319  1461A      1.996154  1462A      1.998898  
    1463A      1.999538  1464A      2.000919  1465A      2.004278  
    1466A      2.005232  1467A      2.006918  1468A      2.008653  
    1469A      2.009610  1470A      2.012513  1471A      2.013411  
    1472A      2.014239  1473A      2.017667  1474A      2.018668  
    1475A      2.019674  1476A      2.020232  1477A      2.024807  
    1478A      2.026608  1479A      2.029844  1480A      2.030164  
    1481A      2.032134  1482A      2.032350  1483A      2.037573  
    1484A      2.038273  1485A      2.039208  1486A      2.041697  
    1487A      2.042752  1488A      2.046002  1489A      2.047975  
    1490A      2.048345  1491A      2.048938  1492A      2.052249  
    1493A      2.052876  1494A      2.055523  1495A      2.056139  
    1496A      2.058324  1497A      2.059135  1498A      2.063193  
    1499A      2.064057  1500A      2.066160  1501A      2.066621  
    1502A      2.066768  1503A      2.068818  1504A      2.072650  
    1505A      2.075687  1506A      2.075919  1507A      2.076668  
    1508A      2.078637  1509A      2.082765  1510A      2.085669  
    1511A      2.088221  1512A      2.089099  1513A      2.090224  
    1514A      2.091147  1515A      2.094375  1516A      2.094942  
    1517A      2.098990  1518A      2.100296  1519A      2.102318  
    1520A      2.103933  1521A      2.104945  1522A      2.109840  
    1523A      2.111133  1524A      2.114177  1525A      2.114390  
    1526A      2.115841  1527A      2.117001  1528A      2.117454  
    1529A      2.119791  1530A      2.123049  1531A      2.124267  
    1532A      2.125599  1533A      2.127970  1534A      2.131495  
    1535A      2.135865  1536A      2.136238  1537A      2.138809  
    1538A      2.139510  1539A      2.142138  1540A      2.143758  
    1541A      2.144694  1542A      2.145203  1543A      2.147967  
    1544A      2.150237  1545A      2.151126  1546A      2.152262  
    1547A      2.153820  1548A      2.156048  1549A      2.156197  
    1550A      2.160993  1551A      2.163052  1552A      2.163862  
    1553A      2.164779  1554A      2.165333  1555A      2.165587  
    1556A      2.166472  1557A      2.170671  1558A      2.173782  
    1559A      2.174338  1560A      2.176978  1561A      2.180136  
    1562A      2.181986  1563A      2.182774  1564A      2.186226  
    1565A      2.186549  1566A      2.188169  1567A      2.188493  
    1568A      2.191364  1569A      2.192841  1570A      2.196126  
    1571A      2.198309  1572A      2.199263  1573A      2.200222  
    1574A      2.200508  1575A      2.202231  1576A      2.207033  
    1577A      2.210881  1578A      2.215091  1579A      2.215376  
    1580A      2.216967  1581A      2.217420  1582A      2.221260  
    1583A      2.221634  1584A      2.222300  1585A      2.223402  
    1586A      2.226291  1587A      2.230446  1588A      2.232930  
    1589A      2.233134  1590A      2.235611  1591A      2.237573  
    1592A      2.239225  1593A      2.242153  1594A      2.244021  
    1595A      2.246071  1596A      2.246713  1597A      2.251934  
    1598A      2.252607  1599A      2.253671  1600A      2.255393  
    1601A      2.256710  1602A      2.257633  1603A      2.260869  
    1604A      2.264245  1605A      2.265323  1606A      2.266358  
    1607A      2.266632  1608A      2.267749  1609A      2.268756  
    1610A      2.274889  1611A      2.275685  1612A      2.278193  
    1613A      2.278895  1614A      2.284111  1615A      2.285599  
    1616A      2.288884  1617A      2.291292  1618A      2.294698  
    1619A      2.295190  1620A      2.297828  1621A      2.302118  
    1622A      2.302314  1623A      2.303526  1624A      2.305115  
    1625A      2.306171  1626A      2.306974  1627A      2.312104  
    1628A      2.316154  1629A      2.317242  1630A      2.318274  
    1631A      2.320177  1632A      2.323313  1633A      2.323600  
    1634A      2.326537  1635A      2.328663  1636A      2.332776  
    1637A      2.335047  1638A      2.337465  1639A      2.340002  
    1640A      2.340832  1641A      2.343473  1642A      2.345093  
    1643A      2.345779  1644A      2.348061  1645A      2.352675  
    1646A      2.355505  1647A      2.357317  1648A      2.360381  
    1649A      2.361306  1650A      2.364436  1651A      2.366150  
    1652A      2.367416  1653A      2.368286  1654A      2.372508  
    1655A      2.375152  1656A      2.377209  1657A      2.377928  
    1658A      2.380585  1659A      2.384813  1660A      2.385588  
    1661A      2.385931  1662A      2.387203  1663A      2.389877  
    1664A      2.392557  1665A      2.394268  1666A      2.395239  
    1667A      2.397085  1668A      2.401247  1669A      2.402610  
    1670A      2.403876  1671A      2.406661  1672A      2.407320  
    1673A      2.412343  1674A      2.413075  1675A      2.415164  
    1676A      2.417343  1677A      2.418228  1678A      2.420596  
    1679A      2.421899  1680A      2.424641  1681A      2.425857  
    1682A      2.426267  1683A      2.427552  1684A      2.429737  
    1685A      2.431384  1686A      2.432827  1687A      2.437619  
    1688A      2.438477  1689A      2.441230  1690A      2.443991  
    1691A      2.446389  1692A      2.448110  1693A      2.448865  
    1694A      2.450058  1695A      2.451900  1696A      2.452722  
    1697A      2.455137  1698A      2.457534  1699A      2.459975  
    1700A      2.463336  1701A      2.465996  1702A      2.466920  
    1703A      2.469768  1704A      2.471931  1705A      2.473507  
    1706A      2.475257  1707A      2.479622  1708A      2.480146  
    1709A      2.481913  1710A      2.482021  1711A      2.484647  
    1712A      2.488681  1713A      2.491129  1714A      2.491930  
    1715A      2.494632  1716A      2.498268  1717A      2.499474  
    1718A      2.500810  1719A      2.501638  1720A      2.504624  
    1721A      2.505217  1722A      2.507196  1723A      2.509101  
    1724A      2.512184  1725A      2.514304  1726A      2.516387  
    1727A      2.517837  1728A      2.518921  1729A      2.522515  
    1730A      2.526588  1731A      2.528765  1732A      2.529900  
    1733A      2.530463  1734A      2.532454  1735A      2.533249  
    1736A      2.538224  1737A      2.538930  1738A      2.541255  
    1739A      2.541809  1740A      2.542951  1741A      2.546503  
    1742A      2.548494  1743A      2.550402  1744A      2.552217  
    1745A      2.552886  1746A      2.553400  1747A      2.558388  
    1748A      2.559116  1749A      2.562993  1750A      2.564699  
    1751A      2.566149  1752A      2.568150  1753A      2.569606  
    1754A      2.571720  1755A      2.571894  1756A      2.572539  
    1757A      2.573122  1758A      2.574001  1759A      2.580063  
    1760A      2.580387  1761A      2.583216  1762A      2.583723  
    1763A      2.585130  1764A      2.587208  1765A      2.588481  
    1766A      2.589794  1767A      2.592601  1768A      2.593186  
    1769A      2.595898  1770A      2.597326  1771A      2.598731  
    1772A      2.600526  1773A      2.601068  1774A      2.604134  
    1775A      2.604822  1776A      2.608222  1777A      2.611577  
    1778A      2.612726  1779A      2.614940  1780A      2.616098  
    1781A      2.617687  1782A      2.617900  1783A      2.621351  
    1784A      2.624611  1785A      2.628241  1786A      2.628433  
    1787A      2.630489  1788A      2.631355  1789A      2.633615  
    1790A      2.635848  1791A      2.637485  1792A      2.639592  
    1793A      2.640154  1794A      2.643241  1795A      2.644408  
    1796A      2.646395  1797A      2.648635  1798A      2.650714  
    1799A      2.652602  1800A      2.652978  1801A      2.655656  
    1802A      2.658693  1803A      2.660337  1804A      2.660769  
    1805A      2.662950  1806A      2.663708  1807A      2.667174  
    1808A      2.669839  1809A      2.670089  1810A      2.676355  
    1811A      2.677318  1812A      2.677994  1813A      2.678717  
    1814A      2.681306  1815A      2.686030  1816A      2.690143  
    1817A      2.692455  1818A      2.693718  1819A      2.695037  
    1820A      2.696919  1821A      2.697693  1822A      2.700834  
    1823A      2.705002  1824A      2.706667  1825A      2.709219  
    1826A      2.711006  1827A      2.712337  1828A      2.713420  
    1829A      2.715539  1830A      2.717879  1831A      2.718234  
    1832A      2.723101  1833A      2.726726  1834A      2.729968  
    1835A      2.734353  1836A      2.735066  1837A      2.737616  
    1838A      2.738559  1839A      2.739451  1840A      2.740535  
    1841A      2.743991  1842A      2.749166  1843A      2.750776  
    1844A      2.752230  1845A      2.753864  1846A      2.754936  
    1847A      2.758551  1848A      2.762077  1849A      2.762795  
    1850A      2.763634  1851A      2.764886  1852A      2.765842  
    1853A      2.771650  1854A      2.771893  1855A      2.773520  
    1856A      2.776894  1857A      2.778847  1858A      2.779131  
    1859A      2.781283  1860A      2.783881  1861A      2.787934  
    1862A      2.791568  1863A      2.793423  1864A      2.795644  
    1865A      2.797697  1866A      2.799942  1867A      2.800374  
    1868A      2.802909  1869A      2.804990  1870A      2.805686  
    1871A      2.812023  1872A      2.813576  1873A      2.816358  
    1874A      2.816798  1875A      2.817422  1876A      2.819406  
    1877A      2.826264  1878A      2.828399  1879A      2.830231  
    1880A      2.835457  1881A      2.838107  1882A      2.838583  
    1883A      2.839923  1884A      2.843919  1885A      2.845430  
    1886A      2.846672  1887A      2.850509  1888A      2.854371  
    1889A      2.856508  1890A      2.858652  1891A      2.860026  
    1892A      2.863149  1893A      2.865559  1894A      2.865654  
    1895A      2.870111  1896A      2.871014  1897A      2.872055  
    1898A      2.873659  1899A      2.875065  1900A      2.879544  
    1901A      2.883651  1902A      2.884154  1903A      2.886945  
    1904A      2.890869  1905A      2.891855  1906A      2.894687  
    1907A      2.899739  1908A      2.900666  1909A      2.903143  
    1910A      2.903778  1911A      2.905751  1912A      2.910975  
    1913A      2.914080  1914A      2.916558  1915A      2.917453  
    1916A      2.921022  1917A      2.923830  1918A      2.924012  
    1919A      2.925563  1920A      2.926022  1921A      2.933264  
    1922A      2.934835  1923A      2.938101  1924A      2.939796  
    1925A      2.943950  1926A      2.947533  1927A      2.949381  
    1928A      2.952427  1929A      2.953999  1930A      2.957792  
    1931A      2.960336  1932A      2.961362  1933A      2.963791  
    1934A      2.966550  1935A      2.967616  1936A      2.969408  
    1937A      2.973469  1938A      2.973999  1939A      2.976753  
    1940A      2.987312  1941A      2.987850  1942A      2.989081  
    1943A      2.989845  1944A      2.991709  1945A      2.996263  
    1946A      3.002160  1947A      3.006795  1948A      3.007643  
    1949A      3.010868  1950A      3.011508  1951A      3.013084  
    1952A      3.016748  1953A      3.018881  1954A      3.020571  
    1955A      3.022378  1956A      3.023004  1957A      3.026090  
    1958A      3.026853  1959A      3.032993  1960A      3.041128  
    1961A      3.043096  1962A      3.046150  1963A      3.048330  
    1964A      3.049317  1965A      3.057874  1966A      3.059402  
    1967A      3.063517  1968A      3.064035  1969A      3.066732  
    1970A      3.070872  1971A      3.072362  1972A      3.080025  
    1973A      3.080948  1974A      3.082384  1975A      3.084729  
    1976A      3.087371  1977A      3.089200  1978A      3.096061  
    1979A      3.101229  1980A      3.102574  1981A      3.108217  
    1982A      3.109358  1983A      3.110268  1984A      3.111969  
    1985A      3.116142  1986A      3.119621  1987A      3.122492  
    1988A      3.126241  1989A      3.130784  1990A      3.132020  
    1991A      3.140243  1992A      3.141783  1993A      3.147201  
    1994A      3.149773  1995A      3.152678  1996A      3.154559  
    1997A      3.156947  1998A      3.161643  1999A      3.163493  
    2000A      3.164918  2001A      3.172366  2002A      3.174072  
    2003A      3.176713  2004A      3.182012  2005A      3.186975  
    2006A      3.187878  2007A      3.192763  2008A      3.194986  
    2009A      3.196816  2010A      3.199714  2011A      3.202028  
    2012A      3.207571  2013A      3.208672  2014A      3.213017  
    2015A      3.213721  2016A      3.220875  2017A      3.221824  
    2018A      3.222241  2019A      3.227944  2020A      3.228464  
    2021A      3.234686  2022A      3.240594  2023A      3.241938  
    2024A      3.248856  2025A      3.249660  2026A      3.257992  
    2027A      3.259605  2028A      3.264821  2029A      3.267149  
    2030A      3.271956  2031A      3.272524  2032A      3.279289  
    2033A      3.280444  2034A      3.282400  2035A      3.288040  
    2036A      3.291465  2037A      3.298957  2038A      3.302812  
    2039A      3.308111  2040A      3.311282  2041A      3.312934  
    2042A      3.316089  2043A      3.318915  2044A      3.326820  
    2045A      3.327385  2046A      3.328827  2047A      3.332898  
    2048A      3.335853  2049A      3.337851  2050A      3.344472  
    2051A      3.346112  2052A      3.353030  2053A      3.354724  
    2054A      3.358753  2055A      3.362398  2056A      3.363363  
    2057A      3.366120  2058A      3.369512  2059A      3.371941  
    2060A      3.381997  2061A      3.391138  2062A      3.396386  
    2063A      3.398836  2064A      3.400316  2065A      3.400599  
    2066A      3.406966  2067A      3.410097  2068A      3.412111  
    2069A      3.412830  2070A      3.414980  2071A      3.422550  
    2072A      3.422978  2073A      3.426404  2074A      3.432065  
    2075A      3.432717  2076A      3.434818  2077A      3.438684  
    2078A      3.449313  2079A      3.451810  2080A      3.458894  
    2081A      3.460311  2082A      3.465318  2083A      3.467984  
    2084A      3.472233  2085A      3.474936  2086A      3.475845  
    2087A      3.485092  2088A      3.486990  2089A      3.489333  
    2090A      3.495974  2091A      3.501687  2092A      3.504434  
    2093A      3.506836  2094A      3.508866  2095A      3.514734  
    2096A      3.520801  2097A      3.522676  2098A      3.526011  
    2099A      3.528947  2100A      3.530565  2101A      3.532035  
    2102A      3.542791  2103A      3.547616  2104A      3.550572  
    2105A      3.551521  2106A      3.561367  2107A      3.561986  
    2108A      3.564521  2109A      3.565377  2110A      3.567654  
    2111A      3.576705  2112A      3.581387  2113A      3.582689  
    2114A      3.589082  2115A      3.589490  2116A      3.590783  
    2117A      3.594986  2118A      3.598485  2119A      3.600419  
    2120A      3.602028  2121A      3.614866  2122A      3.616566  
    2123A      3.618067  2124A      3.630015  2125A      3.631436  
    2126A      3.632485  2127A      3.634468  2128A      3.638169  
    2129A      3.641093  2130A      3.641509  2131A      3.644319  
    2132A      3.648944  2133A      3.654674  2134A      3.656442  
    2135A      3.658811  2136A      3.663475  2137A      3.667950  
    2138A      3.673260  2139A      3.676963  2140A      3.679297  
    2141A      3.682659  2142A      3.684147  2143A      3.686948  
    2144A      3.688357  2145A      3.691663  2146A      3.696330  
    2147A      3.706126  2148A      3.714348  2149A      3.716143  
    2150A      3.717793  2151A      3.719689  2152A      3.724643  
    2153A      3.729901  2154A      3.730711  2155A      3.733207  
    2156A      3.741080  2157A      3.741846  2158A      3.743485  
    2159A      3.758243  2160A      3.760690  2161A      3.765399  
    2162A      3.769396  2163A      3.770053  2164A      3.781220  
    2165A      3.783898  2166A      3.784536  2167A      3.790624  
    2168A      3.791537  2169A      3.792679  2170A      3.798511  
    2171A      3.799111  2172A      3.801744  2173A      3.805114  
    2174A      3.807494  2175A      3.812138  2176A      3.813398  
    2177A      3.832525  2178A      3.833765  2179A      3.837113  
    2180A      3.845061  2181A      3.853083  2182A      3.858907  
    2183A      3.859286  2184A      3.860401  2185A      3.865506  
    2186A      3.867269  2187A      3.878927  2188A      3.882436  
    2189A      3.882954  2190A      3.886656  2191A      3.889549  
    2192A      3.890162  2193A      3.898477  2194A      3.904142  
    2195A      3.906575  2196A      3.909248  2197A      3.913685  
    2198A      3.915274  2199A      3.917045  2200A      3.925381  
    2201A      3.926417  2202A      3.935205  2203A      3.940897  
    2204A      3.946701  2205A      3.948483  2206A      3.958769  
    2207A      3.963140  2208A      3.966547  2209A      3.976158  
    2210A      3.977532  2211A      3.978118  2212A      3.978979  
    2213A      3.982447  2214A      3.996168  2215A      3.996379  
    2216A      4.004734  2217A      4.009024  2218A      4.014668  
    2219A      4.015144  2220A      4.021983  2221A      4.024724  
    2222A      4.027648  2223A      4.036397  2224A      4.037843  
    2225A      4.044706  2226A      4.058662  2227A      4.060302  
    2228A      4.063244  2229A      4.074711  2230A      4.076258  
    2231A      4.081887  2232A      4.084029  2233A      4.086201  
    2234A      4.096028  2235A      4.097382  2236A      4.101210  
    2237A      4.102026  2238A      4.105045  2239A      4.109349  
    2240A      4.112309  2241A      4.119265  2242A      4.120446  
    2243A      4.126102  2244A      4.128691  2245A      4.135923  
    2246A      4.139404  2247A      4.142472  2248A      4.146485  
    2249A      4.150180  2250A      4.155425  2251A      4.156529  
    2252A      4.157512  2253A      4.160496  2254A      4.162709  
    2255A      4.172588  2256A      4.173223  2257A      4.176814  
    2258A      4.182840  2259A      4.186247  2260A      4.186646  
    2261A      4.191262  2262A      4.194658  2263A      4.197886  
    2264A      4.200309  2265A      4.202187  2266A      4.206352  
    2267A      4.206552  2268A      4.213146  2269A      4.217048  
    2270A      4.217499  2271A      4.222537  2272A      4.223974  
    2273A      4.227563  2274A      4.233144  2275A      4.234186  
    2276A      4.234757  2277A      4.240098  2278A      4.242301  
    2279A      4.246652  2280A      4.248079  2281A      4.255757  
    2282A      4.256307  2283A      4.259259  2284A      4.262666  
    2285A      4.263247  2286A      4.263485  2287A      4.266954  
    2288A      4.270802  2289A      4.272692  2290A      4.278140  
    2291A      4.278338  2292A      4.282871  2293A      4.285287  
    2294A      4.287949  2295A      4.292608  2296A      4.292858  
    2297A      4.296233  2298A      4.296861  2299A      4.299922  
    2300A      4.303503  2301A      4.307355  2302A      4.310247  
    2303A      4.315962  2304A      4.316328  2305A      4.317324  
    2306A      4.319752  2307A      4.323361  2308A      4.328923  
    2309A      4.329709  2310A      4.335494  2311A      4.336480  
    2312A      4.340857  2313A      4.341163  2314A      4.343976  
    2315A      4.345759  2316A      4.348501  2317A      4.351118  
    2318A      4.354686  2319A      4.354900  2320A      4.359351  
    2321A      4.365278  2322A      4.366846  2323A      4.368385  
    2324A      4.369622  2325A      4.375210  2326A      4.378327  
    2327A      4.381307  2328A      4.381468  2329A      4.387807  
    2330A      4.391298  2331A      4.392350  2332A      4.397872  
    2333A      4.399708  2334A      4.400755  2335A      4.405286  
    2336A      4.409871  2337A      4.411091  2338A      4.412256  
    2339A      4.417204  2340A      4.418089  2341A      4.424427  
    2342A      4.426168  2343A      4.428449  2344A      4.432564  
    2345A      4.433448  2346A      4.436025  2347A      4.440013  
    2348A      4.441488  2349A      4.442439  2350A      4.443325  
    2351A      4.444397  2352A      4.447219  2353A      4.457878  
    2354A      4.458833  2355A      4.460946  2356A      4.464908  
    2357A      4.466005  2358A      4.468596  2359A      4.470499  
    2360A      4.471412  2361A      4.472262  2362A      4.476443  
    2363A      4.480055  2364A      4.481181  2365A      4.483514  
    2366A      4.483750  2367A      4.485564  2368A      4.488548  
    2369A      4.492143  2370A      4.494085  2371A      4.499829  
    2372A      4.499981  2373A      4.500945  2374A      4.502975  
    2375A      4.505970  2376A      4.506911  2377A      4.510346  
    2378A      4.512740  2379A      4.515369  2380A      4.518568  
    2381A      4.521870  2382A      4.523085  2383A      4.524079  
    2384A      4.525734  2385A      4.526292  2386A      4.529069  
    2387A      4.534081  2388A      4.536354  2389A      4.536994  
    2390A      4.540832  2391A      4.543063  2392A      4.544400  
    2393A      4.546579  2394A      4.550551  2395A      4.552206  
    2396A      4.556625  2397A      4.558643  2398A      4.561612  
    2399A      4.563545  2400A      4.566033  2401A      4.567262  
    2402A      4.573102  2403A      4.574250  2404A      4.577685  
    2405A      4.578178  2406A      4.580953  2407A      4.581839  
    2408A      4.583913  2409A      4.588507  2410A      4.592276  
    2411A      4.593669  2412A      4.593904  2413A      4.599049  
    2414A      4.599826  2415A      4.602906  2416A      4.604501  
    2417A      4.607970  2418A      4.610759  2419A      4.614366  
    2420A      4.615734  2421A      4.619609  2422A      4.622863  
    2423A      4.623527  2424A      4.625065  2425A      4.629194  
    2426A      4.630055  2427A      4.633123  2428A      4.635156  
    2429A      4.640091  2430A      4.641161  2431A      4.643008  
    2432A      4.645350  2433A      4.647176  2434A      4.647419  
    2435A      4.655058  2436A      4.658655  2437A      4.660787  
    2438A      4.662891  2439A      4.667433  2440A      4.668178  
    2441A      4.670125  2442A      4.672542  2443A      4.673263  
    2444A      4.676111  2445A      4.679332  2446A      4.680927  
    2447A      4.684899  2448A      4.687801  2449A      4.688895  
    2450A      4.689390  2451A      4.691628  2452A      4.695811  
    2453A      4.699288  2454A      4.701023  2455A      4.706217  
    2456A      4.710525  2457A      4.712661  2458A      4.714043  
    2459A      4.715824  2460A      4.717663  2461A      4.721854  
    2462A      4.722725  2463A      4.723790  2464A      4.725497  
    2465A      4.728995  2466A      4.729622  2467A      4.732375  
    2468A      4.735909  2469A      4.738489  2470A      4.745284  
    2471A      4.745322  2472A      4.749506  2473A      4.752264  
    2474A      4.753973  2475A      4.755539  2476A      4.759770  
    2477A      4.760610  2478A      4.762824  2479A      4.763530  
    2480A      4.765496  2481A      4.765755  2482A      4.767253  
    2483A      4.775477  2484A      4.778832  2485A      4.781297  
    2486A      4.782067  2487A      4.785220  2488A      4.787919  
    2489A      4.790777  2490A      4.794604  2491A      4.799253  
    2492A      4.801343  2493A      4.802323  2494A      4.803946  
    2495A      4.807747  2496A      4.808239  2497A      4.810507  
    2498A      4.813108  2499A      4.813826  2500A      4.818441  
    2501A      4.820634  2502A      4.821374  2503A      4.822135  
    2504A      4.825922  2505A      4.830711  2506A      4.831956  
    2507A      4.836144  2508A      4.836947  2509A      4.839330  
    2510A      4.840008  2511A      4.841259  2512A      4.842162  
    2513A      4.848383  2514A      4.852974  2515A      4.853763  
    2516A      4.855348  2517A      4.860631  2518A      4.862304  
    2519A      4.863476  2520A      4.865149  2521A      4.867869  
    2522A      4.870301  2523A      4.875540  2524A      4.876556  
    2525A      4.878302  2526A      4.883385  2527A      4.885913  
    2528A      4.887379  2529A      4.888446  2530A      4.889184  
    2531A      4.890557  2532A      4.895166  2533A      4.897756  
    2534A      4.900409  2535A      4.902214  2536A      4.903638  
    2537A      4.905275  2538A      4.911401  2539A      4.914336  
    2540A      4.916385  2541A      4.919877  2542A      4.922623  
    2543A      4.925133  2544A      4.926505  2545A      4.926694  
    2546A      4.930706  2547A      4.931485  2548A      4.934398  
    2549A      4.939594  2550A      4.940529  2551A      4.944652  
    2552A      4.946163  2553A      4.950346  2554A      4.951347  
    2555A      4.952369  2556A      4.956151  2557A      4.960513  
    2558A      4.961064  2559A      4.962958  2560A      4.965760  
    2561A      4.966741  2562A      4.972920  2563A      4.973053  
    2564A      4.976039  2565A      4.977102  2566A      4.978527  
    2567A      4.981498  2568A      4.985270  2569A      4.986095  
    2570A      4.987211  2571A      4.991459  2572A      4.993527  
    2573A      4.994266  2574A      4.996484  2575A      5.000170  
    2576A      5.003458  2577A      5.003755  2578A      5.009369  
    2579A      5.010111  2580A      5.011069  2581A      5.013880  
    2582A      5.015375  2583A      5.019878  2584A      5.020789  
    2585A      5.023010  2586A      5.023581  2587A      5.028040  
    2588A      5.029424  2589A      5.032231  2590A      5.039026  
    2591A      5.040050  2592A      5.040893  2593A      5.043793  
    2594A      5.045031  2595A      5.048721  2596A      5.051253  
    2597A      5.056672  2598A      5.059831  2599A      5.060436  
    2600A      5.062565  2601A      5.063365  2602A      5.065282  
    2603A      5.070605  2604A      5.072490  2605A      5.074126  
    2606A      5.079199  2607A      5.083677  2608A      5.084711  
    2609A      5.087259  2610A      5.089213  2611A      5.092846  
    2612A      5.097127  2613A      5.099314  2614A      5.102081  
    2615A      5.103011  2616A      5.107545  2617A      5.108757  
    2618A      5.109952  2619A      5.113934  2620A      5.119038  
    2621A      5.119625  2622A      5.121079  2623A      5.122008  
    2624A      5.126229  2625A      5.127077  2626A      5.129487  
    2627A      5.131067  2628A      5.133391  2629A      5.136249  
    2630A      5.138301  2631A      5.140647  2632A      5.142427  
    2633A      5.147635  2634A      5.149123  2635A      5.150798  
    2636A      5.154356  2637A      5.156051  2638A      5.158061  
    2639A      5.160847  2640A      5.163270  2641A      5.165589  
    2642A      5.166912  2643A      5.168287  2644A      5.169626  
    2645A      5.171519  2646A      5.172026  2647A      5.176491  
    2648A      5.179035  2649A      5.181068  2650A      5.185213  
    2651A      5.187160  2652A      5.188241  2653A      5.191474  
    2654A      5.192438  2655A      5.194050  2656A      5.197566  
    2657A      5.201458  2658A      5.202708  2659A      5.206234  
    2660A      5.206932  2661A      5.210652  2662A      5.212277  
    2663A      5.219933  2664A      5.222362  2665A      5.223966  
    2666A      5.225740  2667A      5.228074  2668A      5.230942  
    2669A      5.232955  2670A      5.235425  2671A      5.237325  
    2672A      5.241082  2673A      5.242683  2674A      5.243481  
    2675A      5.246634  2676A      5.249591  2677A      5.251741  
    2678A      5.255228  2679A      5.257611  2680A      5.259405  
    2681A      5.260285  2682A      5.261461  2683A      5.264779  
    2684A      5.267232  2685A      5.267700  2686A      5.271668  
    2687A      5.272380  2688A      5.275701  2689A      5.278766  
    2690A      5.281933  2691A      5.284361  2692A      5.285519  
    2693A      5.286412  2694A      5.287464  2695A      5.291039  
    2696A      5.293600  2697A      5.297903  2698A      5.300420  
    2699A      5.308925  2700A      5.311832  2701A      5.316884  
    2702A      5.317876  2703A      5.322098  2704A      5.323910  
    2705A      5.327502  2706A      5.328004  2707A      5.331060  
    2708A      5.333156  2709A      5.334425  2710A      5.336072  
    2711A      5.342519  2712A      5.348386  2713A      5.350515  
    2714A      5.352872  2715A      5.354894  2716A      5.360860  
    2717A      5.362825  2718A      5.367310  2719A      5.368415  
    2720A      5.369044  2721A      5.377933  2722A      5.385146  
    2723A      5.387893  2724A      5.395481  2725A      5.400009  
    2726A      5.400932  2727A      5.402651  2728A      5.408686  
    2729A      5.410777  2730A      5.414120  2731A      5.415041  
    2732A      5.417580  2733A      5.419663  2734A      5.425928  
    2735A      5.429095  2736A      5.431004  2737A      5.434180  
    2738A      5.438581  2739A      5.439310  2740A      5.439935  
    2741A      5.440652  2742A      5.444649  2743A      5.447163  
    2744A      5.447980  2745A      5.453652  2746A      5.458946  
    2747A      5.460611  2748A      5.467709  2749A      5.469981  
    2750A      5.470992  2751A      5.475573  2752A      5.477685  
    2753A      5.479156  2754A      5.482737  2755A      5.487315  
    2756A      5.488424  2757A      5.488708  2758A      5.495507  
    2759A      5.495949  2760A      5.497578  2761A      5.498452  
    2762A      5.501932  2763A      5.502653  2764A      5.507636  
    2765A      5.508267  2766A      5.509879  2767A      5.512632  
    2768A      5.515419  2769A      5.518093  2770A      5.518854  
    2771A      5.522025  2772A      5.526060  2773A      5.526985  
    2774A      5.528928  2775A      5.531081  2776A      5.532512  
    2777A      5.533425  2778A      5.536225  2779A      5.542262  
    2780A      5.544486  2781A      5.550185  2782A      5.550786  
    2783A      5.555932  2784A      5.556915  2785A      5.559020  
    2786A      5.562428  2787A      5.563543  2788A      5.564410  
    2789A      5.566810  2790A      5.569795  2791A      5.575793  
    2792A      5.580870  2793A      5.584679  2794A      5.589628  
    2795A      5.590111  2796A      5.595352  2797A      5.597370  
    2798A      5.603899  2799A      5.605731  2800A      5.610323  
    2801A      5.617282  2802A      5.619057  2803A      5.623651  
    2804A      5.626574  2805A      5.627205  2806A      5.628894  
    2807A      5.630153  2808A      5.634112  2809A      5.635093  
    2810A      5.637757  2811A      5.639747  2812A      5.640685  
    2813A      5.644547  2814A      5.648612  2815A      5.649691  
    2816A      5.651803  2817A      5.653488  2818A      5.656278  
    2819A      5.657823  2820A      5.660212  2821A      5.661022  
    2822A      5.666944  2823A      5.669404  2824A      5.670353  
    2825A      5.675140  2826A      5.677572  2827A      5.679807  
    2828A      5.682597  2829A      5.683469  2830A      5.687510  
    2831A      5.688920  2832A      5.691308  2833A      5.694934  
    2834A      5.696302  2835A      5.696790  2836A      5.704046  
    2837A      5.704215  2838A      5.706611  2839A      5.710986  
    2840A      5.711605  2841A      5.717192  2842A      5.721279  
    2843A      5.724273  2844A      5.726151  2845A      5.728490  
    2846A      5.736127  2847A      5.736521  2848A      5.740554  
    2849A      5.743360  2850A      5.744408  2851A      5.748511  
    2852A      5.750656  2853A      5.755280  2854A      5.755896  
    2855A      5.761222  2856A      5.762620  2857A      5.769285  
    2858A      5.770372  2859A      5.773260  2860A      5.776509  
    2861A      5.778791  2862A      5.779990  2863A      5.781083  
    2864A      5.783374  2865A      5.788323  2866A      5.788997  
    2867A      5.794117  2868A      5.797090  2869A      5.799343  
    2870A      5.799771  2871A      5.808579  2872A      5.813344  
    2873A      5.816862  2874A      5.820048  2875A      5.821825  
    2876A      5.823710  2877A      5.826169  2878A      5.831066  
    2879A      5.833968  2880A      5.835490  2881A      5.843361  
    2882A      5.844948  2883A      5.848316  2884A      5.849721  
    2885A      5.852153  2886A      5.855370  2887A      5.859003  
    2888A      5.862596  2889A      5.863382  2890A      5.866987  
    2891A      5.871191  2892A      5.876486  2893A      5.877988  
    2894A      5.883136  2895A      5.884882  2896A      5.889665  
    2897A      5.893395  2898A      5.894673  2899A      5.896762  
    2900A      5.900481  2901A      5.901688  2902A      5.905863  
    2903A      5.908166  2904A      5.912879  2905A      5.914615  
    2906A      5.919664  2907A      5.923131  2908A      5.925434  
    2909A      5.927976  2910A      5.928958  2911A      5.929875  
    2912A      5.933288  2913A      5.934563  2914A      5.940749  
    2915A      5.943318  2916A      5.949568  2917A      5.952834  
    2918A      5.956805  2919A      5.960521  2920A      5.962085  
    2921A      5.964149  2922A      5.978375  2923A      5.979109  
    2924A      5.981814  2925A      5.983194  2926A      5.984229  
    2927A      5.990159  2928A      5.992211  2929A      5.995272  
    2930A      6.002055  2931A      6.004626  2932A      6.009772  
    2933A      6.013392  2934A      6.015021  2935A      6.019922  
    2936A      6.022825  2937A      6.028501  2938A      6.030697  
    2939A      6.034888  2940A      6.036752  2941A      6.039644  
    2942A      6.042043  2943A      6.046967  2944A      6.048762  
    2945A      6.054758  2946A      6.056793  2947A      6.059189  
    2948A      6.060923  2949A      6.062526  2950A      6.067331  
    2951A      6.071056  2952A      6.072303  2953A      6.073062  
    2954A      6.074208  2955A      6.080036  2956A      6.081353  
    2957A      6.084564  2958A      6.090335  2959A      6.096252  
    2960A      6.100011  2961A      6.103948  2962A      6.104889  
    2963A      6.108198  2964A      6.113970  2965A      6.115376  
    2966A      6.119961  2967A      6.120479  2968A      6.129396  
    2969A      6.131179  2970A      6.132586  2971A      6.133467  
    2972A      6.136176  2973A      6.144834  2974A      6.149908  
    2975A      6.154731  2976A      6.158593  2977A      6.159798  
    2978A      6.162772  2979A      6.164851  2980A      6.172544  
    2981A      6.172769  2982A      6.185976  2983A      6.186657  
    2984A      6.188441  2985A      6.201372  2986A      6.202895  
    2987A      6.207375  2988A      6.212236  2989A      6.213240  
    2990A      6.217363  2991A      6.218801  2992A      6.223150  
    2993A      6.225385  2994A      6.227566  2995A      6.234798  
    2996A      6.235036  2997A      6.237698  2998A      6.244948  
    2999A      6.246945  3000A      6.251051  3001A      6.252397  
    3002A      6.253090  3003A      6.259416  3004A      6.263623  
    3005A      6.270252  3006A      6.272912  3007A      6.273838  
    3008A      6.278368  3009A      6.284770  3010A      6.285808  
    3011A      6.290861  3012A      6.293059  3013A      6.295568  
    3014A      6.312474  3015A      6.312804  3016A      6.320932  
    3017A      6.323208  3018A      6.328002  3019A      6.334140  
    3020A      6.335369  3021A      6.337603  3022A      6.345334  
    3023A      6.346589  3024A      6.349517  3025A      6.360789  
    3026A      6.362650  3027A      6.365744  3028A      6.368735  
    3029A      6.376164  3030A      6.378297  3031A      6.381298  
    3032A      6.386684  3033A      6.387054  3034A      6.393032  
    3035A      6.395935  3036A      6.397342  3037A      6.401501  
    3038A      6.406005  3039A      6.409712  3040A      6.414629  
    3041A      6.417968  3042A      6.423526  3043A      6.426218  
    3044A      6.428002  3045A      6.432188  3046A      6.434468  
    3047A      6.434932  3048A      6.438859  3049A      6.441097  
    3050A      6.442392  3051A      6.445487  3052A      6.453238  
    3053A      6.456604  3054A      6.458419  3055A      6.469630  
    3056A      6.473508  3057A      6.477634  3058A      6.479495  
    3059A      6.483572  3060A      6.496877  3061A      6.502508  
    3062A      6.506999  3063A      6.520826  3064A      6.529530  
    3065A      6.532035  3066A      6.533365  3067A      6.547616  
    3068A      6.553134  3069A      6.558526  3070A      6.582965  
    3071A      6.589751  3072A      6.625411  3073A      6.626028  
    3074A      6.660228  3075A      6.660644  3076A      6.670939  
    3077A      6.680189  3078A      6.689530  3079A      6.694381  
    3080A      6.703886  3081A      6.706954  3082A      6.707565  
    3083A      6.711210  3084A      6.724835  3085A      6.725520  
    3086A      6.730402  3087A      6.733819  3088A      6.737425  
    3089A      6.749034  3090A      6.752473  3091A      6.760200  
    3092A      6.770469  3093A      6.782425  3094A      6.787299  
    3095A      6.790085  3096A      6.795302  3097A      6.807211  
    3098A      6.818009  3099A      6.832091  3100A      6.832688  
    3101A      6.839567  3102A      6.859404  3103A      6.873306  
    3104A      6.881264  3105A      6.890713  3106A      6.899025  
    3107A      6.918665  3108A      6.928281  3109A      6.942176  
    3110A      6.943409  3111A      6.954845  3112A      6.959681  
    3113A      6.965917  3114A      6.978850  3115A      6.979766  
    3116A      6.996813  3117A      7.009782  3118A      7.014526  
    3119A      7.032175  3120A      7.034235  3121A      7.049356  
    3122A      7.068511  3123A      7.074570  3124A      7.083542  
    3125A      7.089981  3126A      7.097227  3127A      7.108468  
    3128A      7.109088  3129A      7.118530  3130A      7.139570  
    3131A      7.163537  3132A      7.169442  3133A      7.170262  
    3134A      7.186375  3135A      7.191156  3136A      7.203085  
    3137A      7.212832  3138A      7.215995  3139A      7.218727  
    3140A      7.231326  3141A      7.248201  3142A      7.251062  
    3143A      7.258241  3144A      7.266843  3145A      7.269024  
    3146A      7.276523  3147A      7.294938  3148A      7.307170  
    3149A      7.313750  3150A      7.341892  3151A      7.359396  
    3152A      7.368718  3153A      7.368870  3154A      7.377581  
    3155A      7.379627  3156A      7.400573  3157A      7.403737  
    3158A      7.412112  3159A      7.420510  3160A      7.422257  
    3161A      7.443459  3162A      7.465513  3163A      7.468848  
    3164A      7.477567  3165A      7.494020  3166A      7.529607  
    3167A      7.537852  3168A      7.554496  3169A      7.558376  
    3170A      7.561304  3171A      7.573269  3172A      7.578619  
    3173A      7.593161  3174A      7.598721  3175A      7.602111  
    3176A      7.607015  3177A      7.626730  3178A      7.628150  
    3179A      7.645270  3180A      7.660595  3181A      7.661093  
    3182A      7.675220  3183A      7.682698  3184A      7.701312  
    3185A      7.702062  3186A      7.713085  3187A      7.718072  
    3188A      7.730445  3189A      7.731476  3190A      7.743174  
    3191A      7.752628  3192A      7.759702  3193A      7.766252  
    3194A      7.770322  3195A      7.787604  3196A      7.800166  
    3197A      7.801893  3198A      7.815152  3199A      7.833317  
    3200A      7.843649  3201A      7.853709  3202A      7.857661  
    3203A      7.872096  3204A      7.875359  3205A      7.881776  
    3206A      7.908866  3207A      7.913071  3208A      7.920203  
    3209A      7.925182  3210A      7.931736  3211A      7.945265  
    3212A      7.947192  3213A      7.955205  3214A      7.961364  
    3215A      7.965988  3216A      7.975309  3217A      7.994323  
    3218A      8.000720  3219A      8.003303  3220A      8.005723  
    3221A      8.027564  3222A      8.032223  3223A      8.055075  
    3224A      8.063784  3225A      8.073895  3226A      8.089940  
    3227A      8.097174  3228A      8.114484  3229A      8.131306  
    3230A      8.138325  3231A      8.173786  3232A      8.180453  
    3233A      8.188853  3234A      8.195862  3235A      8.216067  
    3236A      8.221023  3237A      8.245906  3238A      8.276763  
    3239A      8.291755  3240A      8.314966  3241A      8.318163  
    3242A      8.339022  3243A      8.350329  3244A      8.369599  
    3245A      8.383307  3246A      8.384183  3247A      8.412284  
    3248A      8.424493  3249A      8.436757  3250A      8.444789  
    3251A      8.459135  3252A      8.489118  3253A      8.501537  
    3254A      8.517351  3255A      8.534483  3256A      8.555933  
    3257A      8.575247  3258A      8.731973  3259A      8.751444  
    3260A      8.761580  3261A      8.788506  3262A      8.792841  
    3263A      8.796509  3264A      8.812277  3265A      8.828190  
    3266A      8.843104  3267A      8.847967  3268A      8.865019  
    3269A      8.883537  3270A      8.905190  3271A      8.926773  
    3272A      8.952712  3273A      9.058125  3274A      9.069750  
    3275A      9.087378  3276A      9.131850  3277A      9.135226  
    3278A      9.185193  3279A      9.244761  3280A      9.267100  
    3281A      9.274625  3282A      9.302280  3283A      9.309823  
    3284A      9.346273  3285A      9.390382  3286A      9.421568  
    3287A      9.427862  3288A      9.434511  3289A      9.440057  
    3290A      9.455949  3291A      9.471257  3292A      9.554099  
    3293A      9.604526  3294A      9.682866  3295A      9.798792  
    3296A      9.847216  3297A      9.872953  3298A      9.892768  
    3299A      9.922626  3300A      9.928534  3301A      9.988441  
    3302A     10.014513  3303A     10.044549  3304A     10.059737  
    3305A     10.076886  3306A     10.106646  3307A     10.135191  
    3308A     10.172940  3309A     10.174604  3310A     10.181860  
    3311A     10.189564  3312A     10.227511  3313A     10.262658  
    3314A     10.265882  3315A     10.334664  3316A     10.338871  
    3317A     10.374738  3318A     10.449442  3319A     10.456530  
    3320A     10.465703  3321A     10.476184  3322A     10.763977  
    3323A     10.814487  3324A     10.825687  3325A     10.831024  
    3326A     10.831903  3327A     10.869679  3328A     10.885680  
    3329A     10.929337  3330A     11.002790  3331A     11.116048  
    3332A     11.143416  3333A     11.207498  3334A     11.221704  
    3335A     11.225451  3336A     11.291902  3337A     11.305298  
    3338A     11.321321  3339A     11.361144  3340A     11.419046  
    3341A     11.487114  3342A     11.507495  3343A     11.689543  
    3344A     11.693601  3345A     11.725969  3346A     11.757101  
    3347A     11.773862  3348A     11.821341  3349A     11.929576  
    3350A     11.950122  3351A     11.973542  3352A     12.015248  
    3353A     12.043446  3354A     12.059300  3355A     12.074869  
    3356A     12.107328  3357A     12.125274  3358A     12.202908  
    3359A     12.224716  3360A     12.285144  3361A     12.373027  
    3362A     16.249404  3363A     16.693966  3364A     16.907126  
    3365A     17.346696  3366A     18.373360  3367A     18.564240  
    3368A     18.734355  3369A     20.301431  3370A     20.483996  
    3371A     20.593072  3372A     20.885687  3373A     21.886096  
    3374A     22.275164  3375A     22.306391  3376A     23.171863  
    3377A     23.333240  3378A     50.765801  3379A     50.866003  
    3380A     51.458080  3381A     51.602256  3382A     51.913743  
    3383A     52.399916  3384A     52.517931  3385A     54.269774  
    3386A     54.529546  3387A     54.814267  3388A     54.980165  
    3389A     55.297573  3390A     55.367739  3391A     55.512487  
    3392A     55.624128  3393A     55.855435  3394A     56.114006  
    3395A     56.190794  3396A     56.671103  3397A     57.251793  
    3398A     58.030608  3399A     58.094272  3400A     58.791807  
    3401A     58.993691  3402A     59.626708  3403A     60.026253  
    3404A     60.384848  3405A     60.530108  3406A     60.663249  
    3407A     60.737088  3408A     60.857002  3409A     60.892709  
    3410A     61.069840  3411A     61.128244  3412A     61.268938  
    3413A     61.302618  3414A     61.448861  3415A     61.595079  
    3416A     61.725380  3417A     62.475335  3418A     62.655780  
    3419A     63.074263  

    Final Occupation by Irrep:
              A 
    DOCC [    52 ]
    NA   [    52 ]
    NB   [    52 ]

  @DF-RKS Final Energy:  -677.42874168419803

   => Energetics <=

    Nuclear Repulsion Energy =            836.8830872626610926
    One-Electron Energy =               -2572.7242868955718222
    Two-Electron Energy =                1103.4118087255244518
    DFT Exchange-Correlation Energy =     -44.9901394902401606
    Empirical Dispersion Energy =          -0.0092112865717232
    VV10 Nonlocal Energy =                  0.0000000000000000
    Total Energy =                       -677.4287416841981440

Computation Completed


Properties will be evaluated at   0.000000,   0.000000,   0.000000 [a0]

Properties computed using the SCF density matrix


 Multipole Moments:

 ------------------------------------------------------------------------------------
     Multipole            Electronic (a.u.)      Nuclear  (a.u.)        Total (a.u.)
 ------------------------------------------------------------------------------------

 L = 1.  Multiply by 2.5417464519 to convert [e a0] to [Debye]
 Dipole X            :        -47.2964158           47.2403186           -0.0560972
 Dipole Y            :         82.8275257          -83.0305255           -0.2029998
 Dipole Z            :          1.3504319           -1.3544535           -0.0040216
 Magnitude           :                                                    0.2106466

 ------------------------------------------------------------------------------------

*** tstop() called on atl1-1-03-004-8-2.pace.gatech.edu at Mon Jun 15 15:19:41 2026
Module time:
	user time   =   40622.82 seconds =     677.05 minutes
	system time =    2267.43 seconds =      37.79 minutes
	total time  =       6126 seconds =     102.10 minutes
Total time:
	user time   =   40622.82 seconds =     677.05 minutes
	system time =    2267.43 seconds =      37.79 minutes
	total time  =       6126 seconds =     102.10 minutes

*** tstart() called on atl1-1-03-004-8-2.pace.gatech.edu
*** at Mon Jun 15 15:19:41 2026

   => Loading Basis Set <=

    Name: (AUG-CC-PVTZ AUX)
    Role: RIFIT
    Keyword: DF_BASIS_MP2
    atoms 1-42, 73-80, 82, 84-85, 87 entry C          line   148 file /storage/home/hcoda1/5/vlita3/.conda/envs/p4_qcml/share/psi4/basis/aug-cc-pvtz-ri.gbs 
    atoms 43-72, 89-92               entry H          line    30 file /storage/home/hcoda1/5/vlita3/.conda/envs/p4_qcml/share/psi4/basis/aug-cc-pvtz-ri.gbs 
    atoms 81, 83, 86, 88             entry N          line   206 file /storage/home/hcoda1/5/vlita3/.conda/envs/p4_qcml/share/psi4/basis/aug-cc-pvtz-ri.gbs 

	 --------------------------------------------------------
	                          DF-MP2                         
	      2nd-Order Density-Fitted Moller-Plesset Theory     
	              RMP2 Wavefunction,  10 Threads             
	                                                         
	        Rob Parrish, Justin Turney, Andy Simmonett,      
	           Ed Hohenstein, and C. David Sherrill          
	 --------------------------------------------------------

   => Auxiliary Basis Set <=

  Basis Set: (AUG-CC-PVTZ AUX)
    Blend: AUG-CC-PVTZ-RI
    Number of shells: 2100
    Number of basis functions: 7712
    Number of Cartesian functions: 9758
    Spherical Harmonics?: true
    Max angular momentum: 4

	 --------------------------------------------------------
	                 NBF =  3450, NAUX =  7712
	 --------------------------------------------------------
	   CLASS    FOCC     OCC    AOCC    AVIR     VIR    FVIR
	   PAIRS       0      52      52    3367    3367       0
	 --------------------------------------------------------

	-----------------------------------------------------------
	 ==================> DF-MP2 Energies <==================== 
	-----------------------------------------------------------
	 Reference Energy          =    -677.4287416841980303 [Eh]
	 Singles Energy            =      -0.0000000000000000 [Eh]
	 Same-Spin Energy          =      -0.9159168270451695 [Eh]
	 Opposite-Spin Energy      =      -2.6809663090829661 [Eh]
	 Correlation Energy        =      -3.5968831361281355 [Eh]
	 Total Energy              =    -681.0256248203261293 [Eh]
	-----------------------------------------------------------
	 ================> DF-SCS-MP2 Energies <================== 
	-----------------------------------------------------------
	 SCS Same-Spin Scale       =       0.3333333333333333 [-]
	 SCS Opposite-Spin Scale   =       1.2000000000000000 [-]
	 SCS Same-Spin Energy      =      -0.3053056090150565 [Eh]
	 SCS Opposite-Spin Energy  =      -3.2171595708995593 [Eh]
	 SCS Correlation Energy    =      -3.5224651799146156 [Eh]
	 SCS Total Energy          =    -680.9512068641126916 [Eh]
	-----------------------------------------------------------



    B2PLYP-D3 Energy Summary
    ------------------------
    DFT Reference Energy                  =  -677.4287416841980303
    Scaled MP2 Correlation                =    -0.9711584467545966
    @Final double-hybrid DFT total energy =  -678.3999001309525738


*** tstop() called on atl1-1-03-004-8-2.pace.gatech.edu at Mon Jun 15 15:38:55 2026
Module time:
	user time   =    8720.28 seconds =     145.34 minutes
	system time =      91.66 seconds =       1.53 minutes
	total time  =       1154 seconds =      19.23 minutes
Total time:
	user time   =   49343.10 seconds =     822.38 minutes
	system time =    2359.09 seconds =      39.32 minutes
	total time  =       7280 seconds =     121.33 minutes

    Psi4 stopped on: Monday, 15 June 2026 03:39PM
    Psi4 wall time for execution: 2:01:24.33

*** Psi4 exiting successfully. Buy a developer a beer!
