
    -----------------------------------------------------------------------
          Psi4: An Open-Source Ab Initio Electronic Structure Package
                               Psi4 1.9.1 release

                         Git: Rev {} zzzzzzz 


    D. G. A. Smith, L. A. Burns, A. C. Simmonett, R. M. Parrish,
    M. C. Schieber, R. Galvelis, P. Kraus, H. Kruse, R. Di Remigio,
    A. Alenaizan, A. M. James, S. Lehtola, J. P. Misiewicz, M. Scheurer,
    R. A. Shaw, J. B. Schriber, Y. Xie, Z. L. Glick, D. A. Sirianni,
    J. S. O'Brien, J. M. Waldrop, A. Kumar, E. G. Hohenstein,
    B. P. Pritchard, B. R. Brooks, H. F. Schaefer III, A. Yu. Sokolov,
    K. Patkowski, A. E. DePrince III, U. Bozkaya, R. A. King,
    F. A. Evangelista, J. M. Turney, T. D. Crawford, C. D. Sherrill,
    J. Chem. Phys. 152(18) 184108 (2020). https://doi.org/10.1063/5.0006002

                            Additional Code Authors
    E. T. Seidl, C. L. Janssen, E. F. Valeev, M. L. Leininger,
    J. F. Gonthier, R. M. Richard, H. R. McAlexander, M. Saitow, X. Wang,
    P. Verma, M. H. Lechner, A. Jiang, S. Behnle, A. G. Heide,
    M. F. Herbst, and D. L. Poole

             Previous Authors, Complete List of Code Contributors,
                       and Citations for Specific Modules
    https://github.com/psi4/psi4/blob/master/codemeta.json
    https://github.com/psi4/psi4/graphs/contributors
    http://psicode.org/psi4manual/master/introduction.html#citing-psifour

    -----------------------------------------------------------------------


    Psi4 started on: Saturday, 13 June 2026 06:26PM

    Process ID: 3934530
    Host:       atl1-1-03-004-14-2.pace.gatech.edu
    PSIDATADIR: /storage/home/hcoda1/5/vlita3/.conda/envs/p4_qcml/share/psi4
    Memory:     250.0 GiB
    Threads:    10
    
  ==> Input QCSchema <==

--------------------------------------------------------------------------
{'driver': 'energy',
 'extras': {},
 'id': '282',
 'keywords': {},
 'model': {'basis': 'aug-cc-pvtz', 'method': 'b3lyp-d3'},
 'molecule': {'extras': {},
              'fix_com': True,
              'fix_orientation': True,
              'fragment_charges': [0.0, 0.0],
              'fragment_multiplicities': [1, 1],
              'fragments': [[0, 1, 2, 3, 4, 5, 6, 7, 8, 9, 10, 11, 12, 13, 14],
                            [15, 16, 17, 18, 19, 20, 21, 22, 23, 24, 25, 26, 27, 28, 29, 30, 31, 32, 33, 34, 35, 36, 37,
                             38, 39, 40, 41, 42, 43, 44, 45, 46, 47, 48, 49, 50, 51, 52, 53, 54, 55, 56, 57, 58, 59, 60,
                             61, 62, 63, 64, 65, 66, 67, 68, 69, 70, 71, 72, 73, 74, 75, 76, 77, 78, 79, 80, 81, 82, 83,
                             84, 85, 86]],
              'geometry': [-4.21408926, -0.28723837, 4.89628039, -1.79523982, -1.39650761, 4.99454615, 0.24755412,
                           0.2891281, 5.03989958, -2.26011245, 3.62260498, 4.98698725, 1.49477337, -3.70764266,
                           4.95864135, -4.39928242, 2.25255354, 4.90194957, 0.14172946, 2.81947138, 5.05312766,
                           -0.98265759, -3.88905637, 4.94352354, 2.3583782, -1.24532952, 5.0417893, -6.38349485,
                           -1.67240762, 4.84336806, -2.52278438, 5.65972975, 4.97375916, 2.79301521, -5.28367425,
                           4.88305231, 4.17440501, -0.66140414, 4.90761875, -7.96519562, -0.73321374, 4.3180242,
                           -6.25499348, -3.50544196, 4.31424474, 11.7540965, -2.40373163, -0.19464179, 12.01109925,
                           0.16251645, -0.12661165, 9.86437037, 1.80657818, -0.31180481, 7.41339559, 0.69163976,
                           -0.57447674, 7.14694421, -1.98232271, -0.66329387, 9.3239087, -3.57536183, -0.45353427,
                           4.71108723, -3.08214331, -0.90706854, 9.01399362, -6.20397087, -0.50077742, 6.6253798,
                           -7.32646819, -0.72754456, 4.43707694, -5.7504366, -0.94486306, 6.28333937, -10.01365874,
                           -0.73699319, 3.93440979, -11.06812592, -0.89950964, 1.70453297, -9.53744776, -1.06580553,
                           1.98988161, -6.8502572, -1.09415143, -0.17763426, -5.27989479, -1.26233705, 0.09637603,
                           -2.60026315, -1.26422678, 2.53601246, -1.50233227, -1.12627677, 5.24776945, 2.2638919,
                           -0.77667744, 2.80246384, 1.16407129, -1.01856238, 0.63305825, 2.7344337, -1.15651239,
                           -1.80279872, 1.63650282, -1.33414664, -2.07491929, -1.02990074, -1.34926445, -2.62293986,
                           -6.37593595, -1.31902884, -4.79990436, -4.80179408, -1.37005144, -4.52967352, -2.1335008,
                           -1.44375076, -0.72565483, -10.5824663, -1.15840211, -2.8931707, -9.0631265, -1.26044733,
                           -7.27166613, -5.89972496, -1.3889487, -9.39193884, -4.31424474, -1.4324124, -9.16517171,
                           -1.67618707, -1.46642747, -6.70285857, -0.56124866, -1.45130966, -3.98732212, 3.21064469,
                           -1.35115418, -6.430738, 2.11082408, -1.44186103, -5.39138864, -10.11003477, -1.29257267,
                           -7.48142573, -8.6001436, -1.34737473, -8.61904086, 3.69819403, -1.42863295, -11.06056701,
                           2.52845356, -1.46453775, -11.32323894, -0.03779452, -1.47776583, -8.3110155, 6.32680307,
                           -1.36627199, -5.9167325, 7.44930039, -1.28123431, -3.71709129, 5.87704825, -1.27745486,
                           -1.27367541, 6.97686886, -1.09415143, 0.90328909, 5.4102859, -1.048798, 3.34103579,
                           6.50632705, -0.82203086, 5.51044138, 4.93218519, -0.65195551, 7.9708648, 6.02822634,
                           -0.40629112, 10.08546833, 4.44274612, -0.23810549, 8.17306549, 8.72864497, -0.31936372,
                           3.59803854, 9.1935176, -0.69541921, 6.08680785, 10.23853615, -0.45920345, -0.99588567,
                           9.66405941, -0.98454731, 1.42863295, 10.70907795, -0.7955747, -5.58036125, 10.13649094,
                           -1.18107883, -3.23143167, 11.19284784, -1.04312882, 13.40760686, -3.61315635, -0.04535343,
                           13.87058976, 1.01100348, 0.06991987, 10.67317316, -7.40772641, -0.34204043, 7.94629836,
                           -11.20985538, -0.59526373, 3.71331184, -13.11280958, -0.88817128, -0.93919388, -12.62714997,
                           -1.12249732, -11.26843689, -5.1570626, -1.44186103, -5.59169961, -12.15471844, -1.2585576,
                           -9.3598135, -9.43351282, -1.36060281, -12.72163628, 3.739768, -1.47020693, -13.19406781,
                           -0.88817128, -1.49288364, -9.97964367, 7.52866888, -1.35871308, 11.95062802, 5.28556397,
                           -0.0434637, 10.04200463, 9.56012447, -0.13228083, 6.28144964, 12.28321982, -0.37983495,
                           1.6346131, 12.75376162, -0.7086473, -7.25276887, 11.32890812, -1.20753499, -3.0160029,
                           13.23564178, -0.9618706],
              'id': 1,
              'identifiers': {'molecular_formula': 'C59H23N5',
                              'molecule_hash': '12e9da1e1b8452b6fe71b82a8f2ee95d42c696b3'},
              'molecular_charge': 0.0,
              'molecular_multiplicity': 1,
              'name': 'C59H23N5',
              'provenance': {'creator': 'QCElemental',
                             'routine': 'qcelemental.molparse.from_string',
                             'version': '0.29.0'},
              'schema_name': 'qcschema_molecule',
              'schema_version': 2,
              'symbols': ['C', 'C', 'C', 'C', 'C', 'N', 'N', 'N', 'N', 'N', 'H', 'H', 'H', 'H', 'H', 'C', 'C', 'C', 'C',
                          'C', 'C', 'C', 'C', 'C', 'C', 'C', 'C', 'C', 'C', 'C', 'C', 'C', 'C', 'C', 'C', 'C', 'C', 'C',
                          'C', 'C', 'C', 'C', 'C', 'C', 'C', 'C', 'C', 'C', 'C', 'C', 'C', 'C', 'C', 'C', 'C', 'C', 'C',
                          'C', 'C', 'C', 'C', 'C', 'C', 'C', 'C', 'C', 'C', 'C', 'C', 'H', 'H', 'H', 'H', 'H', 'H', 'H',
                          'H', 'H', 'H', 'H', 'H', 'H', 'H', 'H', 'H', 'H', 'H'],
              'validated': True},
 'protocols': {},
 'provenance': {'creator': 'QCElemental', 'routine': 'qcelemental.models.results', 'version': '0.29.0'},
 'schema_name': 'qcschema_input',
 'schema_version': 1}
--------------------------------------------------------------------------

Scratch directory: /tmp/tmp_jtyav6r_psi_scratch/
   => Libint2 <=

    Primary   basis highest AM E, G, H:  6, 6, 3
    Auxiliary basis highest AM E, G, H:  7, 7, 4
    Onebody   basis highest AM E, G, H:  -, -, -
    Solid Harmonics ordering:            Gaussian

*** tstart() called on atl1-1-03-004-14-2.pace.gatech.edu
*** at Sat Jun 13 18:26:33 2026

   => Loading Basis Set <=

    Name: AUG-CC-PVTZ
    Role: ORBITAL
    Keyword: BASIS
    atoms 1-5, 16-69   entry C          line   239 file /storage/home/hcoda1/5/vlita3/.conda/envs/p4_qcml/share/psi4/basis/aug-cc-pvtz.gbs 
    atoms 6-10         entry N          line   285 file /storage/home/hcoda1/5/vlita3/.conda/envs/p4_qcml/share/psi4/basis/aug-cc-pvtz.gbs 
    atoms 11-15, 70-87 entry H          line    40 file /storage/home/hcoda1/5/vlita3/.conda/envs/p4_qcml/share/psi4/basis/aug-cc-pvtz.gbs 

   => B3LYP-D3: Empirical Dispersion <=

    Grimme's -D3 (zero-damping) Dispersion Correction
    Grimme S.; Antony J.; Ehrlich S.; Krieg H. (2010), J. Chem. Phys., 132: 154104

        s6 =       1.000000
        s8 =       1.703000
       sr6 =       1.261000
    alpha6 =      14.000000
       sr8 =       1.000000


         ---------------------------------------------------------
                                   SCF
               by Justin Turney, Rob Parrish, Andy Simmonett
                          and Daniel G. A. Smith
                              RKS Reference
                       10 Threads, 256000 MiB Core
         ---------------------------------------------------------

  ==> Geometry <==

    Molecular point group: c1
    Full point group: C1

    Geometry (in Bohr), charge = 0, multiplicity = 1:

       Center              X                  Y                   Z               Mass       
    ------------   -----------------  -----------------  -----------------  -----------------
         C           -4.214089260000    -0.287238370000     4.896280390000    12.000000000000
         C           -1.795239820000    -1.396507610000     4.994546150000    12.000000000000
         C            0.247554120000     0.289128100000     5.039899580000    12.000000000000
         C           -2.260112450000     3.622604980000     4.986987250000    12.000000000000
         C            1.494773370000    -3.707642660000     4.958641350000    12.000000000000
         N           -4.399282420000     2.252553540000     4.901949570000    14.003074004430
         N            0.141729460000     2.819471380000     5.053127660000    14.003074004430
         N           -0.982657590000    -3.889056370000     4.943523540000    14.003074004430
         N            2.358378200000    -1.245329520000     5.041789300000    14.003074004430
         N           -6.383494850000    -1.672407620000     4.843368060000    14.003074004430
         H           -2.522784380000     5.659729750000     4.973759160000     1.007825032230
         H            2.793015210000    -5.283674250000     4.883052310000     1.007825032230
         H            4.174405010000    -0.661404140000     4.907618750000     1.007825032230
         H           -7.965195620000    -0.733213740000     4.318024200000     1.007825032230
         H           -6.254993480000    -3.505441960000     4.314244740000     1.007825032230
         C           11.754096500000    -2.403731630000    -0.194641790000    12.000000000000
         C           12.011099250000     0.162516450000    -0.126611650000    12.000000000000
         C            9.864370370000     1.806578180000    -0.311804810000    12.000000000000
         C            7.413395590000     0.691639760000    -0.574476740000    12.000000000000
         C            7.146944210000    -1.982322710000    -0.663293870000    12.000000000000
         C            9.323908700000    -3.575361830000    -0.453534270000    12.000000000000
         C            4.711087230000    -3.082143310000    -0.907068540000    12.000000000000
         C            9.013993620000    -6.203970870000    -0.500777420000    12.000000000000
         C            6.625379800000    -7.326468190000    -0.727544560000    12.000000000000
         C            4.437076940000    -5.750436600000    -0.944863060000    12.000000000000
         C            6.283339370000   -10.013658740000    -0.736993190000    12.000000000000
         C            3.934409790000   -11.068125920000    -0.899509640000    12.000000000000
         C            1.704532970000    -9.537447760000    -1.065805530000    12.000000000000
         C            1.989881610000    -6.850257200000    -1.094151430000    12.000000000000
         C           -0.177634260000    -5.279894790000    -1.262337050000    12.000000000000
         C            0.096376030000    -2.600263150000    -1.264226780000    12.000000000000
         C            2.536012460000    -1.502332270000    -1.126276770000    12.000000000000
         C            5.247769450000     2.263891900000    -0.776677440000    12.000000000000
         C            2.802463840000     1.164071290000    -1.018562380000    12.000000000000
         C            0.633058250000     2.734433700000    -1.156512390000    12.000000000000
         C           -1.802798720000     1.636502820000    -1.334146640000    12.000000000000
         C           -2.074919290000    -1.029900740000    -1.349264450000    12.000000000000
         C           -2.622939860000    -6.375935950000    -1.319028840000    12.000000000000
         C           -4.799904360000    -4.801794080000    -1.370051440000    12.000000000000
         C           -4.529673520000    -2.133500800000    -1.443750760000    12.000000000000
         C           -0.725654830000   -10.582466300000    -1.158402110000    12.000000000000
         C           -2.893170700000    -9.063126500000    -1.260447330000    12.000000000000
         C           -7.271666130000    -5.899724960000    -1.388948700000    12.000000000000
         C           -9.391938840000    -4.314244740000    -1.432412400000    12.000000000000
         C           -9.165171710000    -1.676187070000    -1.466427470000    12.000000000000
         C           -6.702858570000    -0.561248660000    -1.451309660000    12.000000000000
         C           -3.987322120000     3.210644690000    -1.351154180000    12.000000000000
         C           -6.430738000000     2.110824080000    -1.441861030000    12.000000000000
         C           -5.391388640000   -10.110034770000    -1.292572670000    12.000000000000
         C           -7.481425730000    -8.600143600000    -1.347374730000    12.000000000000
         C           -8.619040860000     3.698194030000    -1.428632950000    12.000000000000
         C          -11.060567010000     2.528453560000    -1.464537750000    12.000000000000
         C          -11.323238940000    -0.037794520000    -1.477765830000    12.000000000000
         C           -8.311015500000     6.326803070000    -1.366271990000    12.000000000000
         C           -5.916732500000     7.449300390000    -1.281234310000    12.000000000000
         C           -3.717091290000     5.877048250000    -1.277454860000    12.000000000000
         C           -1.273675410000     6.976868860000    -1.094151430000    12.000000000000
         C            0.903289090000     5.410285900000    -1.048798000000    12.000000000000
         C            3.341035790000     6.506327050000    -0.822030860000    12.000000000000
         C            5.510441380000     4.932185190000    -0.651955510000    12.000000000000
         C            7.970864800000     6.028226340000    -0.406291120000    12.000000000000
         C           10.085468330000     4.442746120000    -0.238105490000    12.000000000000
         C            8.173065490000     8.728644970000    -0.319363720000    12.000000000000
         C            3.598038540000     9.193517600000    -0.695419210000    12.000000000000
         C            6.086807850000    10.238536150000    -0.459203450000    12.000000000000
         C           -0.995885670000     9.664059410000    -0.984547310000    12.000000000000
         C            1.428632950000    10.709077950000    -0.795574700000    12.000000000000
         C           -5.580361250000    10.136490940000    -1.181078830000    12.000000000000
         C           -3.231431670000    11.192847840000    -1.043128820000    12.000000000000
         H           13.407606860000    -3.613156350000    -0.045353430000     1.007825032230
         H           13.870589760000     1.011003480000     0.069919870000     1.007825032230
         H           10.673173160000    -7.407726410000    -0.342040430000     1.007825032230
         H            7.946298360000   -11.209855380000    -0.595263730000     1.007825032230
         H            3.713311840000   -13.112809580000    -0.888171280000     1.007825032230
         H           -0.939193880000   -12.627149970000    -1.122497320000     1.007825032230
         H          -11.268436890000    -5.157062600000    -1.441861030000     1.007825032230
         H           -5.591699610000   -12.154718440000    -1.258557600000     1.007825032230
         H           -9.359813500000    -9.433512820000    -1.360602810000     1.007825032230
         H          -12.721636280000     3.739768000000    -1.470206930000     1.007825032230
         H          -13.194067810000    -0.888171280000    -1.492883640000     1.007825032230
         H           -9.979643670000     7.528668880000    -1.358713080000     1.007825032230
         H           11.950628020000     5.285563970000    -0.043463700000     1.007825032230
         H           10.042004630000     9.560124470000    -0.132280830000     1.007825032230
         H            6.281449640000    12.283219820000    -0.379834950000     1.007825032230
         H            1.634613100000    12.753761620000    -0.708647300000     1.007825032230
         H           -7.252768870000    11.328908120000    -1.207534990000     1.007825032230
         H           -3.016002900000    13.235641780000    -0.961870600000     1.007825032230

  Running in c1 symmetry.

  Rotational constants: A =      0.00187  B =      0.00184  C =      0.00106 [cm^-1]
  Rotational constants: A =     56.02922  B =     55.09335  C =     31.77172 [MHz]
  Nuclear repulsion = 9204.830048001262185

  Charge       = 0
  Multiplicity = 1
  Electrons    = 412
  Nalpha       = 206
  Nbeta        = 206

  ==> Algorithm <==

  SCF Algorithm Type is DF.
  DIIS enabled.
  MOM disabled.
  Fractional occupation disabled.
  Guess Type is SAD.
  Energy threshold   = 1.00e-06
  Density threshold  = 1.00e-06
  Integral threshold = 1.00e-12

  ==> Primary Basis <==

  Basis Set: AUG-CC-PVTZ
    Blend: AUG-CC-PVTZ
    Number of shells: 1103
    Number of basis functions: 3473
    Number of Cartesian functions: 4095
    Spherical Harmonics?: true
    Max angular momentum: 3

  ==> DFT Potential <==

   => LibXC <=

    Version 7.0.0
    S. Lehtola, C. Steigemann, M. J.T. Oliveira, and M. A.L. Marques.,  SoftwareX 7, 1–5 (2018) (10.1016/j.softx.2017.11.002)

   => Composite Functional: B3LYP-D3ZERO2B <= 

    B3LYP-d3zero2b Hyb-GGA Exchange-Correlation Functional

    P. J. Stephens, F. J. Devlin, C. F. Chabalowski, and M. J. Frisch.,  J. Phys. Chem. 98, 11623 (1994) (10.1021/j100096a001)

    Deriv               =              1
    GGA                 =           TRUE
    Meta                =          FALSE

    Exchange Hybrid     =           TRUE
    MP2 Hybrid          =          FALSE

   => Exchange Functionals <=

    0.0800   Slater exchange
    0.7200         Becke 88

   => Exact (HF) Exchange <=

    0.2000               HF 

   => Correlation Functionals <=

    0.1900   Vosko, Wilk & Nusair (VWN5_RPA)
    0.8100   Lee, Yang & Parr

   => LibXC Density Thresholds  <==

    XC_HYB_GGA_XC_B3LYP:  1.00E-15 

   => Molecular Quadrature <=

    Radial Scheme          =       TREUTLER
    Pruning Scheme         =           NONE
    Nuclear Scheme         =       TREUTLER

    Blocking Scheme        =         OCTREE
    BS radius alpha        =              1
    Pruning alpha          =              1
    Radial Points          =             75
    Spherical Points       =            302
    Total Points           =        1715496
    Total Blocks           =          11517
    Max Points             =            256
    Max Functions          =           2168
    Weights Tolerance      =       1.00E-15

   => Loading Basis Set <=

    Name: (AUG-CC-PVTZ AUX)
    Role: JKFIT
    Keyword: DF_BASIS_SCF
    atoms 1-5, 16-69   entry C          line   162 file /storage/home/hcoda1/5/vlita3/.conda/envs/p4_qcml/share/psi4/basis/aug-cc-pvtz-jkfit.gbs 
    atoms 6-10         entry N          line   224 file /storage/home/hcoda1/5/vlita3/.conda/envs/p4_qcml/share/psi4/basis/aug-cc-pvtz-jkfit.gbs 
    atoms 11-15, 70-87 entry H          line    70 file /storage/home/hcoda1/5/vlita3/.conda/envs/p4_qcml/share/psi4/basis/aug-cc-pvtz-jkfit.gbs 

  ==> Integral Setup <==

  ==> DiskDFJK: Density-Fitted J/K Matrices <==

    J tasked:                  Yes
    K tasked:                  Yes
    wK tasked:                  No
    OpenMP threads:             10
    Integrals threads:          10
    Memory [MiB]:           172800
    Algorithm:                Disk
    Integral Cache:           NONE
    Schwarz Cutoff:          1E-12
    Fitting Condition:       1E-10

   => Auxiliary Basis Set <=

  Basis Set: (AUG-CC-PVTZ AUX)
    Blend: AUG-CC-PVTZ-JKFIT
    Number of shells: 2242
    Number of basis functions: 7714
    Number of Cartesian functions: 9649
    Spherical Harmonics?: true
    Max angular momentum: 4

  Minimum eigenvalue in the overlap matrix is 6.5964717033E-12.
  Reciprocal condition number of the overlap matrix is 1.9686718001E-13.
    Using canonical orthogonalization.
  Overall, 56 of 3473 possible MOs eliminated.


  ==> Pre-Iterations <==

  SCF Guess: Superposition of Atomic Densities via on-the-fly atomic UHF (no occupation information).

   -------------------------
    Irrep   Nso     Nmo    
   -------------------------
     A       3473    3417 
   -------------------------
    Total    3473    3417
   -------------------------

  ==> Iterations <==

                           Total Energy        Delta E     RMS |[F,P]|

   @DF-RKS iter SAD: -2540.00406533909154   -2.54000e+03   0.00000e+00 
   @DF-RKS iter   1: -2533.99927369096804    6.00479e+00   7.25351e-04 DIIS/ADIIS
   @DF-RKS iter   2: -2526.00719567784381    7.99208e+00   1.08943e-03 DIIS/ADIIS
   @DF-RKS iter   3: -2530.58218058583043   -4.57498e+00   8.05900e-04 DIIS/ADIIS
   @DF-RKS iter   4: -2536.96671701075365   -6.38454e+00   1.78792e-04 DIIS/ADIIS
   @DF-RKS iter   5: -2537.07367626464747   -1.06959e-01   1.31818e-04 DIIS/ADIIS
   @DF-RKS iter   6: -2537.17639696445076   -1.02721e-01   6.02593e-05 DIIS
   @DF-RKS iter   7: -2537.19820302787866   -2.18061e-02   2.56482e-05 DIIS
   @DF-RKS iter   8: -2537.20201763117848   -3.81460e-03   7.82017e-06 DIIS
   @DF-RKS iter   9: -2537.20231842502244   -3.00794e-04   3.95254e-06 DIIS
   @DF-RKS iter  10: -2537.20240227506793   -8.38500e-05   1.35742e-06 DIIS
   @DF-RKS iter  11: -2537.20241059549789   -8.32043e-06   7.73432e-07 DIIS
   @DF-RKS iter  12: -2537.20241433186084   -3.73636e-06   2.64396e-07 DIIS
   @DF-RKS iter  13: -2537.20241474662635   -4.14766e-07   8.55638e-08 DIIS
  Energy and wave function converged.


  ==> Post-Iterations <==

   Electrons on quadrature grid:
      Ntotal   =  411.9999905930 ; deviation = -9.407e-06 

    Orbital Energies [Eh]
    ---------------------

    Doubly Occupied:                                                      

       1A    -14.379447     2A    -14.334694     3A    -14.315615  
       4A    -14.310310     5A    -14.304479     6A    -10.258401  
       7A    -10.247738     8A    -10.244038     9A    -10.231808  
      10A    -10.201504    11A    -10.201185    12A    -10.200922  
      13A    -10.200806    14A    -10.200394    15A    -10.200087  
      16A    -10.200005    17A    -10.199930    18A    -10.199771  
      19A    -10.199717    20A    -10.199551    21A    -10.199454  
      22A    -10.199206    23A    -10.199135    24A    -10.198994  
      25A    -10.198929    26A    -10.198813    27A    -10.198762  
      28A    -10.198489    29A    -10.198443    30A    -10.198313  
      31A    -10.198215    32A    -10.197918    33A    -10.197841  
      34A    -10.197826    35A    -10.197452    36A    -10.197292  
      37A    -10.197217    38A    -10.197205    39A    -10.197120  
      40A    -10.196903    41A    -10.196809    42A    -10.196785  
      43A    -10.196245    44A    -10.196200    45A    -10.196042  
      46A    -10.195630    47A    -10.191994    48A    -10.191561  
      49A    -10.191324    50A    -10.191237    51A    -10.190752  
      52A    -10.190548    53A    -10.190442    54A    -10.190406  
      55A    -10.189938    56A    -10.189690    57A    -10.189650  
      58A    -10.189280    59A    -10.189243    60A    -10.188507  
      61A    -10.188443    62A    -10.187925    63A    -10.187755  
      64A    -10.187697    65A     -1.031007    66A     -0.974011  
      67A     -0.931819    68A     -0.929295    69A     -0.910765  
      70A     -0.909735    71A     -0.886948    72A     -0.886401  
      73A     -0.884455    74A     -0.879674    75A     -0.861377  
      76A     -0.855238    77A     -0.854315    78A     -0.844072  
      79A     -0.843219    80A     -0.826663    81A     -0.826607  
      82A     -0.802152    83A     -0.801730    84A     -0.798921  
      85A     -0.789710    86A     -0.789591    87A     -0.768240  
      88A     -0.761699    89A     -0.754935    90A     -0.753126  
      91A     -0.752562    92A     -0.750839    93A     -0.748649  
      94A     -0.725822    95A     -0.725607    96A     -0.707842  
      97A     -0.707623    98A     -0.662691    99A     -0.662327  
     100A     -0.661993   101A     -0.658181   102A     -0.652422  
     103A     -0.651982   104A     -0.650158   105A     -0.650070  
     106A     -0.647134   107A     -0.635290   108A     -0.624759  
     109A     -0.613712   110A     -0.600948   111A     -0.600107  
     112A     -0.598594   113A     -0.598199   114A     -0.582309  
     115A     -0.582182   116A     -0.576138   117A     -0.555647  
     118A     -0.553098   119A     -0.544277   120A     -0.536928  
     121A     -0.536413   122A     -0.533405   123A     -0.533218  
     124A     -0.524835   125A     -0.515447   126A     -0.514939  
     127A     -0.512213   128A     -0.511739   129A     -0.510167  
     130A     -0.494509   131A     -0.479577   132A     -0.478057  
     133A     -0.474668   134A     -0.474526   135A     -0.474057  
     136A     -0.471684   137A     -0.467959   138A     -0.467694  
     139A     -0.459852   140A     -0.455887   141A     -0.455114  
     142A     -0.454996   143A     -0.445222   144A     -0.439593  
     145A     -0.438428   146A     -0.436210   147A     -0.435771  
     148A     -0.435000   149A     -0.433754   150A     -0.431723  
     151A     -0.429241   152A     -0.427715   153A     -0.427332  
     154A     -0.424577   155A     -0.416831   156A     -0.407587  
     157A     -0.407381   158A     -0.406820   159A     -0.406477  
     160A     -0.405819   161A     -0.403802   162A     -0.401076  
     163A     -0.398744   164A     -0.398481   165A     -0.398241  
     166A     -0.394300   167A     -0.386501   168A     -0.386335  
     169A     -0.379910   170A     -0.373899   171A     -0.372205  
     172A     -0.371538   173A     -0.367384   174A     -0.364161  
     175A     -0.355847   176A     -0.354218   177A     -0.348883  
     178A     -0.346315   179A     -0.341724   180A     -0.340697  
     181A     -0.340398   182A     -0.333355   183A     -0.333157  
     184A     -0.319865   185A     -0.315075   186A     -0.314735  
     187A     -0.311039   188A     -0.310603   189A     -0.306548  
     190A     -0.295556   191A     -0.290296   192A     -0.289952  
     193A     -0.286365   194A     -0.270755   195A     -0.269687  
     196A     -0.262395   197A     -0.261227   198A     -0.260458  
     199A     -0.253595   200A     -0.252667   201A     -0.234028  
     202A     -0.229602   203A     -0.227343   204A     -0.221810  
     205A     -0.193159   206A     -0.192587  

    Virtual:                                                              

     207A     -0.091162   208A     -0.090626   209A     -0.059969  
     210A     -0.059783   211A     -0.048349   212A     -0.038778  
     213A     -0.038008   214A     -0.036895   215A     -0.035523  
     216A     -0.026322   217A     -0.015153   218A     -0.013618  
     219A     -0.011572   220A     -0.009636   221A     -0.004366  
     222A     -0.003616   223A     -0.002363   224A     -0.000593  
     225A      0.004693   226A      0.005954   227A      0.007711  
     228A      0.009303   229A      0.010588   230A      0.010951  
     231A      0.011468   232A      0.013150   233A      0.013807  
     234A      0.017224   235A      0.017270   236A      0.018559  
     237A      0.023977   238A      0.028348   239A      0.029200  
     240A      0.030060   241A      0.031237   242A      0.031419  
     243A      0.032471   244A      0.035070   245A      0.038001  
     246A      0.038870   247A      0.041775   248A      0.045804  
     249A      0.047318   250A      0.049197   251A      0.050845  
     252A      0.052629   253A      0.054045   254A      0.055525  
     255A      0.056183   256A      0.057171   257A      0.058144  
     258A      0.058879   259A      0.060058   260A      0.060868  
     261A      0.061720   262A      0.062475   263A      0.063660  
     264A      0.065808   265A      0.066585   266A      0.068532  
     267A      0.068637   268A      0.069521   269A      0.069658  
     270A      0.070556   271A      0.071548   272A      0.074330  
     273A      0.074811   274A      0.075160   275A      0.075284  
     276A      0.076324   277A      0.078039   278A      0.079493  
     279A      0.082849   280A      0.086614   281A      0.086819  
     282A      0.087728   283A      0.088594   284A      0.089875  
     285A      0.090716   286A      0.095219   287A      0.097215  
     288A      0.097531   289A      0.099067   290A      0.099897  
     291A      0.100035   292A      0.100255   293A      0.102217  
     294A      0.102639   295A      0.103671   296A      0.104943  
     297A      0.105063   298A      0.106991   299A      0.107927  
     300A      0.108451   301A      0.109303   302A      0.109886  
     303A      0.112440   304A      0.112642   305A      0.117544  
     306A      0.118386   307A      0.118607   308A      0.119060  
     309A      0.120221   310A      0.122516   311A      0.124799  
     312A      0.126436   313A      0.126812   314A      0.128276  
     315A      0.129607   316A      0.131216   317A      0.131802  
     318A      0.132844   319A      0.134386   320A      0.135785  
     321A      0.136862   322A      0.138339   323A      0.140589  
     324A      0.141612   325A      0.142909   326A      0.143452  
     327A      0.147293   328A      0.149092   329A      0.150554  
     330A      0.151161   331A      0.151475   332A      0.151784  
     333A      0.152288   334A      0.152731   335A      0.154374  
     336A      0.155551   337A      0.156850   338A      0.157413  
     339A      0.159040   340A      0.159429   341A      0.159922  
     342A      0.161074   343A      0.163717   344A      0.164852  
     345A      0.165297   346A      0.166900   347A      0.167822  
     348A      0.170303   349A      0.170750   350A      0.171637  
     351A      0.173370   352A      0.174563   353A      0.174597  
     354A      0.175791   355A      0.177002   356A      0.177920  
     357A      0.178029   358A      0.179444   359A      0.181982  
     360A      0.182473   361A      0.184309   362A      0.184465  
     363A      0.184966   364A      0.186008   365A      0.186919  
     366A      0.187812   367A      0.188092   368A      0.188354  
     369A      0.189301   370A      0.190516   371A      0.191794  
     372A      0.193122   373A      0.193156   374A      0.193968  
     375A      0.194461   376A      0.195619   377A      0.195826  
     378A      0.196107   379A      0.197013   380A      0.197935  
     381A      0.198382   382A      0.199052   383A      0.199626  
     384A      0.200809   385A      0.201443   386A      0.201825  
     387A      0.202942   388A      0.204094   389A      0.205853  
     390A      0.206152   391A      0.207781   392A      0.208268  
     393A      0.208699   394A      0.209045   395A      0.212080  
     396A      0.212487   397A      0.212729   398A      0.214614  
     399A      0.214939   400A      0.215286   401A      0.216379  
     402A      0.217007   403A      0.218148   404A      0.219794  
     405A      0.220199   406A      0.221288   407A      0.222149  
     408A      0.223199   409A      0.223978   410A      0.225989  
     411A      0.226391   412A      0.227724   413A      0.228500  
     414A      0.229178   415A      0.229646   416A      0.230045  
     417A      0.232672   418A      0.233420   419A      0.233885  
     420A      0.234340   421A      0.235257   422A      0.235636  
     423A      0.236353   424A      0.238071   425A      0.239297  
     426A      0.240090   427A      0.240967   428A      0.242344  
     429A      0.242551   430A      0.243375   431A      0.244228  
     432A      0.246016   433A      0.246232   434A      0.247709  
     435A      0.248362   436A      0.249506   437A      0.249850  
     438A      0.250201   439A      0.251315   440A      0.252117  
     441A      0.252911   442A      0.253801   443A      0.254494  
     444A      0.255709   445A      0.256384   446A      0.256988  
     447A      0.259095   448A      0.260713   449A      0.261045  
     450A      0.261734   451A      0.262776   452A      0.263794  
     453A      0.264835   454A      0.264980   455A      0.266112  
     456A      0.266278   457A      0.267589   458A      0.268856  
     459A      0.269166   460A      0.270840   461A      0.271228  
     462A      0.273240   463A      0.273760   464A      0.275002  
     465A      0.276652   466A      0.277153   467A      0.277871  
     468A      0.279186   469A      0.279668   470A      0.280890  
     471A      0.281558   472A      0.282526   473A      0.283993  
     474A      0.284165   475A      0.285376   476A      0.287932  
     477A      0.288244   478A      0.289144   479A      0.289604  
     480A      0.290941   481A      0.291820   482A      0.292155  
     483A      0.292855   484A      0.293313   485A      0.295121  
     486A      0.296018   487A      0.297208   488A      0.297651  
     489A      0.298822   490A      0.301009   491A      0.301603  
     492A      0.302720   493A      0.303743   494A      0.304206  
     495A      0.304965   496A      0.306103   497A      0.306155  
     498A      0.307210   499A      0.308846   500A      0.309082  
     501A      0.310439   502A      0.310601   503A      0.311319  
     504A      0.311525   505A      0.313269   506A      0.316934  
     507A      0.318637   508A      0.319141   509A      0.319633  
     510A      0.321275   511A      0.322214   512A      0.323052  
     513A      0.324100   514A      0.325068   515A      0.325651  
     516A      0.326747   517A      0.327814   518A      0.328540  
     519A      0.328765   520A      0.331658   521A      0.332114  
     522A      0.332975   523A      0.333426   524A      0.334564  
     525A      0.335606   526A      0.336540   527A      0.339556  
     528A      0.339858   529A      0.341387   530A      0.342786  
     531A      0.344145   532A      0.344908   533A      0.346321  
     534A      0.347272   535A      0.348700   536A      0.350028  
     537A      0.350622   538A      0.351854   539A      0.352931  
     540A      0.355048   541A      0.356468   542A      0.357865  
     543A      0.359047   544A      0.360729   545A      0.361095  
     546A      0.363202   547A      0.363733   548A      0.365344  
     549A      0.366780   550A      0.367656   551A      0.369336  
     552A      0.369658   553A      0.369987   554A      0.370990  
     555A      0.371831   556A      0.374061   557A      0.374596  
     558A      0.375258   559A      0.376861   560A      0.377604  
     561A      0.377926   562A      0.378754   563A      0.379569  
     564A      0.380466   565A      0.381250   566A      0.383199  
     567A      0.384376   568A      0.385873   569A      0.387488  
     570A      0.388490   571A      0.388950   572A      0.390419  
     573A      0.391247   574A      0.392566   575A      0.392928  
     576A      0.393988   577A      0.394253   578A      0.395807  
     579A      0.398161   580A      0.399144   581A      0.400910  
     582A      0.401615   583A      0.401834   584A      0.402201  
     585A      0.402573   586A      0.404213   587A      0.405620  
     588A      0.406939   589A      0.407311   590A      0.408952  
     591A      0.409828   592A      0.410776   593A      0.411334  
     594A      0.411922   595A      0.412839   596A      0.413028  
     597A      0.413885   598A      0.414346   599A      0.415660  
     600A      0.416447   601A      0.417095   602A      0.417774  
     603A      0.420324   604A      0.421242   605A      0.422649  
     606A      0.422788   607A      0.423585   608A      0.424290  
     609A      0.424937   610A      0.425265   611A      0.426272  
     612A      0.427014   613A      0.428161   614A      0.429592  
     615A      0.430197   616A      0.431682   617A      0.432823  
     618A      0.433759   619A      0.434430   620A      0.435011  
     621A      0.435264   622A      0.437017   623A      0.437565  
     624A      0.438263   625A      0.438615   626A      0.439275  
     627A      0.439715   628A      0.440325   629A      0.440971  
     630A      0.441322   631A      0.444023   632A      0.445108  
     633A      0.446502   634A      0.447090   635A      0.447976  
     636A      0.448591   637A      0.449260   638A      0.451203  
     639A      0.452007   640A      0.453907   641A      0.454351  
     642A      0.455075   643A      0.456551   644A      0.457109  
     645A      0.457698   646A      0.458521   647A      0.459211  
     648A      0.460898   649A      0.461479   650A      0.463127  
     651A      0.464003   652A      0.464033   653A      0.465015  
     654A      0.466106   655A      0.466902   656A      0.467550  
     657A      0.469431   658A      0.470551   659A      0.471474  
     660A      0.472058   661A      0.473275   662A      0.474621  
     663A      0.475805   664A      0.476471   665A      0.477893  
     666A      0.478318   667A      0.479227   668A      0.480301  
     669A      0.480994   670A      0.482363   671A      0.483561  
     672A      0.484689   673A      0.486119   674A      0.487114  
     675A      0.487745   676A      0.489404   677A      0.490952  
     678A      0.493068   679A      0.493959   680A      0.494414  
     681A      0.495287   682A      0.495859   683A      0.496663  
     684A      0.498110   685A      0.499784   686A      0.500242  
     687A      0.503045   688A      0.504137   689A      0.504700  
     690A      0.506075   691A      0.507471   692A      0.508791  
     693A      0.509138   694A      0.509817   695A      0.510790  
     696A      0.512177   697A      0.512859   698A      0.514759  
     699A      0.515561   700A      0.516024   701A      0.518360  
     702A      0.521493   703A      0.522254   704A      0.522820  
     705A      0.523144   706A      0.525597   707A      0.526009  
     708A      0.528389   709A      0.528805   710A      0.529959  
     711A      0.531734   712A      0.533208   713A      0.534171  
     714A      0.534962   715A      0.536700   716A      0.538760  
     717A      0.539372   718A      0.539841   719A      0.540504  
     720A      0.541828   721A      0.543485   722A      0.545708  
     723A      0.546560   724A      0.546871   725A      0.550243  
     726A      0.551564   727A      0.552656   728A      0.553929  
     729A      0.554972   730A      0.556900   731A      0.558345  
     732A      0.559887   733A      0.561740   734A      0.563246  
     735A      0.564952   736A      0.565607   737A      0.568836  
     738A      0.570691   739A      0.571104   740A      0.573585  
     741A      0.574991   742A      0.575936   743A      0.577914  
     744A      0.579431   745A      0.580895   746A      0.583684  
     747A      0.586362   748A      0.587212   749A      0.588860  
     750A      0.589994   751A      0.590411   752A      0.592673  
     753A      0.594668   754A      0.597031   755A      0.597851  
     756A      0.599665   757A      0.600373   758A      0.600857  
     759A      0.602618   760A      0.603876   761A      0.604383  
     762A      0.607017   763A      0.607059   764A      0.608578  
     765A      0.609236   766A      0.610081   767A      0.610899  
     768A      0.613225   769A      0.614658   770A      0.615770  
     771A      0.617989   772A      0.620255   773A      0.620566  
     774A      0.620961   775A      0.622892   776A      0.623333  
     777A      0.625124   778A      0.625926   779A      0.626979  
     780A      0.629411   781A      0.629953   782A      0.630708  
     783A      0.633022   784A      0.634898   785A      0.635708  
     786A      0.638563   787A      0.639779   788A      0.641622  
     789A      0.641887   790A      0.643446   791A      0.645891  
     792A      0.646595   793A      0.647069   794A      0.649146  
     795A      0.650371   796A      0.652089   797A      0.653204  
     798A      0.654214   799A      0.654856   800A      0.656204  
     801A      0.657329   802A      0.658433   803A      0.660228  
     804A      0.661499   805A      0.662547   806A      0.664103  
     807A      0.665060   808A      0.665387   809A      0.665757  
     810A      0.666902   811A      0.668358   812A      0.669876  
     813A      0.671692   814A      0.673446   815A      0.675036  
     816A      0.675350   817A      0.676837   818A      0.677153  
     819A      0.679303   820A      0.680569   821A      0.681041  
     822A      0.682638   823A      0.683401   824A      0.683539  
     825A      0.684135   826A      0.686864   827A      0.687476  
     828A      0.688813   829A      0.689373   830A      0.691133  
     831A      0.693447   832A      0.693873   833A      0.694498  
     834A      0.696886   835A      0.697360   836A      0.698482  
     837A      0.699667   838A      0.700053   839A      0.702439  
     840A      0.703565   841A      0.704349   842A      0.706106  
     843A      0.707505   844A      0.708570   845A      0.709211  
     846A      0.711598   847A      0.712325   848A      0.713397  
     849A      0.714165   850A      0.714740   851A      0.718029  
     852A      0.718909   853A      0.719114   854A      0.720832  
     855A      0.722712   856A      0.722917   857A      0.723388  
     858A      0.725681   859A      0.726112   860A      0.728119  
     861A      0.729860   862A      0.730624   863A      0.731548  
     864A      0.732912   865A      0.733693   866A      0.735114  
     867A      0.736392   868A      0.737617   869A      0.738578  
     870A      0.739249   871A      0.741686   872A      0.742463  
     873A      0.744717   874A      0.744912   875A      0.746690  
     876A      0.747458   877A      0.747932   878A      0.750618  
     879A      0.751943   880A      0.754051   881A      0.754438  
     882A      0.756086   883A      0.756881   884A      0.758412  
     885A      0.759137   886A      0.760487   887A      0.760696  
     888A      0.761290   889A      0.763016   890A      0.763828  
     891A      0.765264   892A      0.765825   893A      0.768393  
     894A      0.768715   895A      0.769301   896A      0.770168  
     897A      0.771737   898A      0.774569   899A      0.775301  
     900A      0.775795   901A      0.776607   902A      0.779482  
     903A      0.780093   904A      0.781542   905A      0.781860  
     906A      0.782613   907A      0.782692   908A      0.784411  
     909A      0.785246   910A      0.787091   911A      0.787375  
     912A      0.790167   913A      0.791596   914A      0.792249  
     915A      0.793236   916A      0.793920   917A      0.795764  
     918A      0.796276   919A      0.797030   920A      0.797936  
     921A      0.799076   922A      0.799931   923A      0.801343  
     924A      0.801748   925A      0.802982   926A      0.803643  
     927A      0.804224   928A      0.806377   929A      0.806678  
     930A      0.807592   931A      0.809095   932A      0.809420  
     933A      0.811157   934A      0.811897   935A      0.812205  
     936A      0.813582   937A      0.814344   938A      0.815178  
     939A      0.816176   940A      0.817313   941A      0.819008  
     942A      0.820708   943A      0.821185   944A      0.821887  
     945A      0.823070   946A      0.824352   947A      0.825380  
     948A      0.826470   949A      0.828168   950A      0.828744  
     951A      0.831376   952A      0.832729   953A      0.833451  
     954A      0.834698   955A      0.835715   956A      0.836653  
     957A      0.836935   958A      0.838687   959A      0.839723  
     960A      0.841293   961A      0.841891   962A      0.842935  
     963A      0.844361   964A      0.845194   965A      0.845467  
     966A      0.846866   967A      0.848373   968A      0.849669  
     969A      0.851647   970A      0.853581   971A      0.853827  
     972A      0.854393   973A      0.856003   974A      0.857042  
     975A      0.857651   976A      0.859410   977A      0.860308  
     978A      0.861834   979A      0.863217   980A      0.864417  
     981A      0.864804   982A      0.867031   983A      0.867458  
     984A      0.870796   985A      0.871494   986A      0.871989  
     987A      0.873239   988A      0.874334   989A      0.876166  
     990A      0.878748   991A      0.879285   992A      0.880100  
     993A      0.880977   994A      0.882430   995A      0.885291  
     996A      0.885817   997A      0.888075   998A      0.889305  
     999A      0.889559  1000A      0.891404  1001A      0.891812  
    1002A      0.892329  1003A      0.894212  1004A      0.895195  
    1005A      0.897077  1006A      0.899468  1007A      0.900186  
    1008A      0.900371  1009A      0.902720  1010A      0.902786  
    1011A      0.907155  1012A      0.907675  1013A      0.908162  
    1014A      0.909383  1015A      0.911042  1016A      0.912212  
    1017A      0.913372  1018A      0.914786  1019A      0.915937  
    1020A      0.917339  1021A      0.918123  1022A      0.919017  
    1023A      0.920337  1024A      0.921950  1025A      0.923629  
    1026A      0.924098  1027A      0.925676  1028A      0.928311  
    1029A      0.929352  1030A      0.929588  1031A      0.930002  
    1032A      0.931697  1033A      0.932089  1034A      0.934098  
    1035A      0.934740  1036A      0.935770  1037A      0.937666  
    1038A      0.938190  1039A      0.940611  1040A      0.941281  
    1041A      0.943071  1042A      0.944095  1043A      0.945259  
    1044A      0.947046  1045A      0.947577  1046A      0.949606  
    1047A      0.949840  1048A      0.950915  1049A      0.951479  
    1050A      0.953313  1051A      0.953731  1052A      0.955748  
    1053A      0.957006  1054A      0.958057  1055A      0.958665  
    1056A      0.960245  1057A      0.962065  1058A      0.963568  
    1059A      0.965263  1060A      0.966879  1061A      0.967295  
    1062A      0.968485  1063A      0.970992  1064A      0.971211  
    1065A      0.971895  1066A      0.973274  1067A      0.974669  
    1068A      0.976396  1069A      0.977566  1070A      0.978885  
    1071A      0.980650  1072A      0.983043  1073A      0.983473  
    1074A      0.984913  1075A      0.987174  1076A      0.988707  
    1077A      0.989288  1078A      0.991923  1079A      0.992817  
    1080A      0.994593  1081A      0.995120  1082A      0.995749  
    1083A      0.997271  1084A      0.999461  1085A      1.000380  
    1086A      1.000968  1087A      1.001712  1088A      1.002843  
    1089A      1.003938  1090A      1.005280  1091A      1.005741  
    1092A      1.007709  1093A      1.009410  1094A      1.010187  
    1095A      1.011384  1096A      1.012856  1097A      1.014426  
    1098A      1.015442  1099A      1.016302  1100A      1.017377  
    1101A      1.019261  1102A      1.021143  1103A      1.022743  
    1104A      1.023874  1105A      1.024283  1106A      1.026431  
    1107A      1.028363  1108A      1.029361  1109A      1.029857  
    1110A      1.030037  1111A      1.032084  1112A      1.032582  
    1113A      1.034346  1114A      1.036226  1115A      1.036825  
    1116A      1.038047  1117A      1.039584  1118A      1.041578  
    1119A      1.042670  1120A      1.044649  1121A      1.045213  
    1122A      1.048043  1123A      1.048460  1124A      1.048916  
    1125A      1.051433  1126A      1.053275  1127A      1.054175  
    1128A      1.056332  1129A      1.056440  1130A      1.057541  
    1131A      1.058573  1132A      1.059857  1133A      1.060369  
    1134A      1.061563  1135A      1.062815  1136A      1.063427  
    1137A      1.065845  1138A      1.066877  1139A      1.067617  
    1140A      1.068238  1141A      1.069036  1142A      1.070184  
    1143A      1.072143  1144A      1.073203  1145A      1.073648  
    1146A      1.076627  1147A      1.077467  1148A      1.079434  
    1149A      1.080507  1150A      1.081216  1151A      1.082847  
    1152A      1.083175  1153A      1.084842  1154A      1.085733  
    1155A      1.086586  1156A      1.087290  1157A      1.089530  
    1158A      1.089873  1159A      1.090831  1160A      1.092864  
    1161A      1.094563  1162A      1.096490  1163A      1.097188  
    1164A      1.098128  1165A      1.099708  1166A      1.101038  
    1167A      1.101275  1168A      1.102214  1169A      1.103128  
    1170A      1.105157  1171A      1.105348  1172A      1.105965  
    1173A      1.108695  1174A      1.109082  1175A      1.111596  
    1176A      1.112333  1177A      1.114338  1178A      1.115391  
    1179A      1.116947  1180A      1.119107  1181A      1.120037  
    1182A      1.120915  1183A      1.122949  1184A      1.123415  
    1185A      1.124165  1186A      1.126240  1187A      1.126998  
    1188A      1.127642  1189A      1.128786  1190A      1.130891  
    1191A      1.131387  1192A      1.133246  1193A      1.135011  
    1194A      1.137933  1195A      1.138474  1196A      1.139839  
    1197A      1.140990  1198A      1.142252  1199A      1.144514  
    1200A      1.146392  1201A      1.147843  1202A      1.149147  
    1203A      1.149970  1204A      1.152117  1205A      1.153444  
    1206A      1.155443  1207A      1.156590  1208A      1.158764  
    1209A      1.159192  1210A      1.161086  1211A      1.161977  
    1212A      1.163321  1213A      1.165401  1214A      1.167413  
    1215A      1.168989  1216A      1.170448  1217A      1.171736  
    1218A      1.172945  1219A      1.174327  1220A      1.174372  
    1221A      1.176962  1222A      1.178715  1223A      1.179155  
    1224A      1.180919  1225A      1.181908  1226A      1.182886  
    1227A      1.184500  1228A      1.187683  1229A      1.189421  
    1230A      1.191191  1231A      1.193069  1232A      1.193737  
    1233A      1.194816  1234A      1.196595  1235A      1.197866  
    1236A      1.202249  1237A      1.203199  1238A      1.205462  
    1239A      1.205538  1240A      1.207923  1241A      1.208292  
    1242A      1.210015  1243A      1.211734  1244A      1.212233  
    1245A      1.215974  1246A      1.217380  1247A      1.218109  
    1248A      1.218753  1249A      1.220441  1250A      1.223367  
    1251A      1.223639  1252A      1.225362  1253A      1.228054  
    1254A      1.229083  1255A      1.232151  1256A      1.232561  
    1257A      1.235323  1258A      1.236299  1259A      1.238629  
    1260A      1.239832  1261A      1.241439  1262A      1.241668  
    1263A      1.243840  1264A      1.245733  1265A      1.245975  
    1266A      1.249157  1267A      1.249626  1268A      1.251525  
    1269A      1.253944  1270A      1.255616  1271A      1.256174  
    1272A      1.259163  1273A      1.261120  1274A      1.261185  
    1275A      1.262935  1276A      1.264373  1277A      1.265889  
    1278A      1.266867  1279A      1.268560  1280A      1.269079  
    1281A      1.271506  1282A      1.274897  1283A      1.276932  
    1284A      1.278628  1285A      1.279706  1286A      1.282329  
    1287A      1.282382  1288A      1.284468  1289A      1.288604  
    1290A      1.289090  1291A      1.289525  1292A      1.290759  
    1293A      1.291533  1294A      1.292973  1295A      1.295541  
    1296A      1.295892  1297A      1.296442  1298A      1.297462  
    1299A      1.298867  1300A      1.300257  1301A      1.301603  
    1302A      1.304746  1303A      1.305473  1304A      1.308244  
    1305A      1.309582  1306A      1.309876  1307A      1.311199  
    1308A      1.313378  1309A      1.315574  1310A      1.316873  
    1311A      1.317524  1312A      1.318854  1313A      1.320286  
    1314A      1.321636  1315A      1.322905  1316A      1.324008  
    1317A      1.324843  1318A      1.325957  1319A      1.327389  
    1320A      1.328472  1321A      1.329046  1322A      1.333258  
    1323A      1.335335  1324A      1.337678  1325A      1.339307  
    1326A      1.341985  1327A      1.342463  1328A      1.344766  
    1329A      1.345773  1330A      1.346896  1331A      1.348369  
    1332A      1.349115  1333A      1.351629  1334A      1.352600  
    1335A      1.354067  1336A      1.355054  1337A      1.356556  
    1338A      1.358054  1339A      1.360297  1340A      1.362174  
    1341A      1.363496  1342A      1.364477  1343A      1.364703  
    1344A      1.367228  1345A      1.369113  1346A      1.370021  
    1347A      1.371591  1348A      1.372162  1349A      1.374582  
    1350A      1.375289  1351A      1.375900  1352A      1.377408  
    1353A      1.377962  1354A      1.378938  1355A      1.379292  
    1356A      1.382723  1357A      1.383603  1358A      1.383817  
    1359A      1.386681  1360A      1.388013  1361A      1.389271  
    1362A      1.390075  1363A      1.391417  1364A      1.392753  
    1365A      1.393215  1366A      1.393662  1367A      1.395834  
    1368A      1.399530  1369A      1.399893  1370A      1.401214  
    1371A      1.401966  1372A      1.403912  1373A      1.405635  
    1374A      1.406806  1375A      1.408728  1376A      1.411904  
    1377A      1.412366  1378A      1.413432  1379A      1.414188  
    1380A      1.415666  1381A      1.417673  1382A      1.418817  
    1383A      1.420777  1384A      1.421464  1385A      1.423334  
    1386A      1.424369  1387A      1.426674  1388A      1.427757  
    1389A      1.428774  1390A      1.429759  1391A      1.430689  
    1392A      1.432462  1393A      1.433766  1394A      1.434765  
    1395A      1.435013  1396A      1.438163  1397A      1.438861  
    1398A      1.439195  1399A      1.440783  1400A      1.441777  
    1401A      1.442122  1402A      1.443206  1403A      1.444889  
    1404A      1.445868  1405A      1.447076  1406A      1.449553  
    1407A      1.451135  1408A      1.452294  1409A      1.452581  
    1410A      1.454198  1411A      1.456372  1412A      1.458426  
    1413A      1.458920  1414A      1.460633  1415A      1.460901  
    1416A      1.463346  1417A      1.464321  1418A      1.464536  
    1419A      1.466628  1420A      1.467260  1421A      1.468581  
    1422A      1.469609  1423A      1.472222  1424A      1.474733  
    1425A      1.475486  1426A      1.476634  1427A      1.478870  
    1428A      1.479902  1429A      1.480985  1430A      1.481499  
    1431A      1.482422  1432A      1.485470  1433A      1.487388  
    1434A      1.489049  1435A      1.490375  1436A      1.491346  
    1437A      1.493086  1438A      1.494389  1439A      1.496554  
    1440A      1.497405  1441A      1.498926  1442A      1.500060  
    1443A      1.502404  1444A      1.503914  1445A      1.504227  
    1446A      1.506591  1447A      1.507663  1448A      1.509131  
    1449A      1.510311  1450A      1.511447  1451A      1.513085  
    1452A      1.513712  1453A      1.514902  1454A      1.516980  
    1455A      1.517523  1456A      1.521424  1457A      1.523159  
    1458A      1.524255  1459A      1.524904  1460A      1.525997  
    1461A      1.528222  1462A      1.530851  1463A      1.531845  
    1464A      1.531907  1465A      1.533926  1466A      1.535532  
    1467A      1.536489  1468A      1.539998  1469A      1.541055  
    1470A      1.542543  1471A      1.544827  1472A      1.545907  
    1473A      1.548037  1474A      1.549030  1475A      1.550031  
    1476A      1.550774  1477A      1.553180  1478A      1.554918  
    1479A      1.556661  1480A      1.557553  1481A      1.558481  
    1482A      1.560909  1483A      1.562663  1484A      1.563440  
    1485A      1.564962  1486A      1.566239  1487A      1.567376  
    1488A      1.571024  1489A      1.571787  1490A      1.573514  
    1491A      1.574372  1492A      1.574960  1493A      1.577730  
    1494A      1.578369  1495A      1.579720  1496A      1.581397  
    1497A      1.583218  1498A      1.584222  1499A      1.586960  
    1500A      1.587720  1501A      1.589645  1502A      1.591078  
    1503A      1.592501  1504A      1.593187  1505A      1.594554  
    1506A      1.597483  1507A      1.598377  1508A      1.600389  
    1509A      1.602221  1510A      1.605035  1511A      1.607860  
    1512A      1.609152  1513A      1.611109  1514A      1.612933  
    1515A      1.613427  1516A      1.614675  1517A      1.616716  
    1518A      1.617969  1519A      1.619719  1520A      1.621759  
    1521A      1.624224  1522A      1.624656  1523A      1.626067  
    1524A      1.627174  1525A      1.631525  1526A      1.633010  
    1527A      1.634638  1528A      1.636747  1529A      1.637946  
    1530A      1.639157  1531A      1.640595  1532A      1.641823  
    1533A      1.644050  1534A      1.646760  1535A      1.647232  
    1536A      1.648612  1537A      1.650132  1538A      1.651660  
    1539A      1.652429  1540A      1.653746  1541A      1.656089  
    1542A      1.657997  1543A      1.660234  1544A      1.661495  
    1545A      1.662404  1546A      1.663094  1547A      1.665381  
    1548A      1.666079  1549A      1.668165  1550A      1.669726  
    1551A      1.671163  1552A      1.671660  1553A      1.672278  
    1554A      1.675595  1555A      1.677207  1556A      1.677574  
    1557A      1.681115  1558A      1.682825  1559A      1.684785  
    1560A      1.685783  1561A      1.687912  1562A      1.689601  
    1563A      1.690349  1564A      1.691217  1565A      1.693202  
    1566A      1.694491  1567A      1.695233  1568A      1.695864  
    1569A      1.698228  1570A      1.700585  1571A      1.703110  
    1572A      1.703452  1573A      1.706471  1574A      1.707040  
    1575A      1.708038  1576A      1.710169  1577A      1.711677  
    1578A      1.715044  1579A      1.715789  1580A      1.718009  
    1581A      1.719439  1582A      1.720590  1583A      1.721320  
    1584A      1.723382  1585A      1.726340  1586A      1.728843  
    1587A      1.729529  1588A      1.731007  1589A      1.736012  
    1590A      1.736222  1591A      1.739132  1592A      1.740911  
    1593A      1.742896  1594A      1.743442  1595A      1.744386  
    1596A      1.746677  1597A      1.748056  1598A      1.749731  
    1599A      1.752433  1600A      1.753121  1601A      1.755781  
    1602A      1.757213  1603A      1.758213  1604A      1.760411  
    1605A      1.761696  1606A      1.762677  1607A      1.764044  
    1608A      1.764918  1609A      1.767517  1610A      1.769026  
    1611A      1.771108  1612A      1.772129  1613A      1.773609  
    1614A      1.776272  1615A      1.777620  1616A      1.778870  
    1617A      1.781259  1618A      1.782915  1619A      1.786645  
    1620A      1.791417  1621A      1.793236  1622A      1.795175  
    1623A      1.797074  1624A      1.798426  1625A      1.799751  
    1626A      1.802008  1627A      1.804854  1628A      1.805616  
    1629A      1.808176  1630A      1.809946  1631A      1.811963  
    1632A      1.812948  1633A      1.817181  1634A      1.819499  
    1635A      1.820138  1636A      1.821433  1637A      1.825619  
    1638A      1.827350  1639A      1.830455  1640A      1.831649  
    1641A      1.835539  1642A      1.838027  1643A      1.839787  
    1644A      1.840952  1645A      1.842189  1646A      1.842422  
    1647A      1.844552  1648A      1.847011  1649A      1.849091  
    1650A      1.852653  1651A      1.854248  1652A      1.854535  
    1653A      1.856988  1654A      1.859309  1655A      1.860665  
    1656A      1.862247  1657A      1.864417  1658A      1.864972  
    1659A      1.865791  1660A      1.868423  1661A      1.869429  
    1662A      1.871259  1663A      1.874863  1664A      1.876393  
    1665A      1.877286  1666A      1.877926  1667A      1.883968  
    1668A      1.884695  1669A      1.886685  1670A      1.887695  
    1671A      1.890792  1672A      1.891638  1673A      1.891992  
    1674A      1.895212  1675A      1.897001  1676A      1.898254  
    1677A      1.901252  1678A      1.902807  1679A      1.904430  
    1680A      1.905315  1681A      1.906867  1682A      1.909702  
    1683A      1.912517  1684A      1.912953  1685A      1.914562  
    1686A      1.916146  1687A      1.917031  1688A      1.918963  
    1689A      1.919683  1690A      1.921308  1691A      1.922939  
    1692A      1.924549  1693A      1.926277  1694A      1.926530  
    1695A      1.928883  1696A      1.930582  1697A      1.932000  
    1698A      1.933314  1699A      1.935342  1700A      1.936882  
    1701A      1.938211  1702A      1.939676  1703A      1.941799  
    1704A      1.943035  1705A      1.945393  1706A      1.946579  
    1707A      1.950772  1708A      1.950911  1709A      1.953002  
    1710A      1.953863  1711A      1.956959  1712A      1.959130  
    1713A      1.960439  1714A      1.962685  1715A      1.963487  
    1716A      1.966922  1717A      1.967593  1718A      1.968583  
    1719A      1.972427  1720A      1.976110  1721A      1.978915  
    1722A      1.982617  1723A      1.985105  1724A      1.986276  
    1725A      1.987163  1726A      1.988583  1727A      1.991136  
    1728A      1.993638  1729A      1.995356  1730A      1.997096  
    1731A      2.000717  1732A      2.002073  1733A      2.005135  
    1734A      2.006082  1735A      2.008546  1736A      2.009282  
    1737A      2.010612  1738A      2.011573  1739A      2.013561  
    1740A      2.014668  1741A      2.018187  1742A      2.019787  
    1743A      2.020133  1744A      2.022999  1745A      2.023784  
    1746A      2.026038  1747A      2.028088  1748A      2.029187  
    1749A      2.032144  1750A      2.033423  1751A      2.035659  
    1752A      2.037190  1753A      2.038175  1754A      2.040110  
    1755A      2.043208  1756A      2.043992  1757A      2.045970  
    1758A      2.047388  1759A      2.049656  1760A      2.050346  
    1761A      2.051563  1762A      2.052701  1763A      2.054965  
    1764A      2.055807  1765A      2.059094  1766A      2.059435  
    1767A      2.060580  1768A      2.062787  1769A      2.065692  
    1770A      2.066485  1771A      2.069388  1772A      2.073066  
    1773A      2.073903  1774A      2.077569  1775A      2.078872  
    1776A      2.081724  1777A      2.082206  1778A      2.085389  
    1779A      2.086595  1780A      2.087707  1781A      2.089471  
    1782A      2.091653  1783A      2.093240  1784A      2.094676  
    1785A      2.095866  1786A      2.096904  1787A      2.097040  
    1788A      2.099979  1789A      2.100949  1790A      2.102257  
    1791A      2.106057  1792A      2.107435  1793A      2.108631  
    1794A      2.110636  1795A      2.111200  1796A      2.113821  
    1797A      2.115425  1798A      2.117872  1799A      2.120023  
    1800A      2.121449  1801A      2.124177  1802A      2.125931  
    1803A      2.126436  1804A      2.127846  1805A      2.129762  
    1806A      2.131222  1807A      2.132203  1808A      2.133999  
    1809A      2.135413  1810A      2.137321  1811A      2.138451  
    1812A      2.139858  1813A      2.141576  1814A      2.143567  
    1815A      2.146846  1816A      2.147404  1817A      2.149389  
    1818A      2.151832  1819A      2.153099  1820A      2.153671  
    1821A      2.157586  1822A      2.159388  1823A      2.161588  
    1824A      2.162374  1825A      2.166275  1826A      2.167443  
    1827A      2.170565  1828A      2.173734  1829A      2.176168  
    1830A      2.177577  1831A      2.178769  1832A      2.181731  
    1833A      2.182508  1834A      2.183596  1835A      2.186223  
    1836A      2.187575  1837A      2.189529  1838A      2.191670  
    1839A      2.192162  1840A      2.195213  1841A      2.197579  
    1842A      2.198427  1843A      2.200206  1844A      2.201480  
    1845A      2.203886  1846A      2.205085  1847A      2.209138  
    1848A      2.212064  1849A      2.212505  1850A      2.214023  
    1851A      2.217033  1852A      2.219462  1853A      2.219772  
    1854A      2.220041  1855A      2.221413  1856A      2.225330  
    1857A      2.227020  1858A      2.228934  1859A      2.232289  
    1860A      2.234611  1861A      2.237506  1862A      2.238043  
    1863A      2.239804  1864A      2.241055  1865A      2.242521  
    1866A      2.244961  1867A      2.248169  1868A      2.249437  
    1869A      2.250584  1870A      2.252838  1871A      2.253089  
    1872A      2.255413  1873A      2.258206  1874A      2.260187  
    1875A      2.262415  1876A      2.264041  1877A      2.268022  
    1878A      2.269123  1879A      2.271510  1880A      2.276033  
    1881A      2.277429  1882A      2.279055  1883A      2.282178  
    1884A      2.283632  1885A      2.284244  1886A      2.286448  
    1887A      2.288299  1888A      2.289821  1889A      2.291275  
    1890A      2.294679  1891A      2.297126  1892A      2.298904  
    1893A      2.300985  1894A      2.301751  1895A      2.304858  
    1896A      2.305488  1897A      2.307694  1898A      2.309582  
    1899A      2.311556  1900A      2.315692  1901A      2.317339  
    1902A      2.319089  1903A      2.320585  1904A      2.323970  
    1905A      2.325533  1906A      2.329471  1907A      2.331769  
    1908A      2.332619  1909A      2.334328  1910A      2.336808  
    1911A      2.337874  1912A      2.339701  1913A      2.342568  
    1914A      2.343035  1915A      2.346407  1916A      2.347782  
    1917A      2.349662  1918A      2.352157  1919A      2.353466  
    1920A      2.356558  1921A      2.357096  1922A      2.359364  
    1923A      2.362173  1924A      2.364696  1925A      2.368430  
    1926A      2.368706  1927A      2.369553  1928A      2.371567  
    1929A      2.374996  1930A      2.377623  1931A      2.380027  
    1932A      2.381144  1933A      2.383699  1934A      2.386073  
    1935A      2.387033  1936A      2.389733  1937A      2.390549  
    1938A      2.393943  1939A      2.397000  1940A      2.399668  
    1941A      2.403138  1942A      2.405434  1943A      2.407160  
    1944A      2.412823  1945A      2.414121  1946A      2.414962  
    1947A      2.416130  1948A      2.418728  1949A      2.419910  
    1950A      2.422308  1951A      2.424752  1952A      2.426928  
    1953A      2.431094  1954A      2.434699  1955A      2.436465  
    1956A      2.437281  1957A      2.440915  1958A      2.444241  
    1959A      2.446848  1960A      2.447580  1961A      2.451218  
    1962A      2.453294  1963A      2.456544  1964A      2.457007  
    1965A      2.458809  1966A      2.459814  1967A      2.464078  
    1968A      2.465057  1969A      2.466647  1970A      2.471566  
    1971A      2.473089  1972A      2.474782  1973A      2.476888  
    1974A      2.479868  1975A      2.480372  1976A      2.484048  
    1977A      2.484633  1978A      2.486602  1979A      2.492688  
    1980A      2.495872  1981A      2.499872  1982A      2.501635  
    1983A      2.505583  1984A      2.506153  1985A      2.512077  
    1986A      2.514878  1987A      2.518216  1988A      2.520909  
    1989A      2.523468  1990A      2.524828  1991A      2.526115  
    1992A      2.532092  1993A      2.534186  1994A      2.536670  
    1995A      2.541095  1996A      2.545297  1997A      2.547067  
    1998A      2.549755  1999A      2.551728  2000A      2.555853  
    2001A      2.557372  2002A      2.559609  2003A      2.563796  
    2004A      2.566127  2005A      2.572345  2006A      2.573828  
    2007A      2.575263  2008A      2.576282  2009A      2.580533  
    2010A      2.581082  2011A      2.581798  2012A      2.586722  
    2013A      2.588207  2014A      2.592306  2015A      2.593311  
    2016A      2.597569  2017A      2.600735  2018A      2.602120  
    2019A      2.603912  2020A      2.605309  2021A      2.608094  
    2022A      2.611941  2023A      2.613680  2024A      2.616039  
    2025A      2.618268  2026A      2.621688  2027A      2.622586  
    2028A      2.624024  2029A      2.629049  2030A      2.629523  
    2031A      2.631862  2032A      2.634970  2033A      2.635414  
    2034A      2.637097  2035A      2.637403  2036A      2.640842  
    2037A      2.644499  2038A      2.645996  2039A      2.648923  
    2040A      2.651009  2041A      2.653334  2042A      2.655517  
    2043A      2.658881  2044A      2.659308  2045A      2.663314  
    2046A      2.667852  2047A      2.671142  2048A      2.675009  
    2049A      2.678682  2050A      2.679432  2051A      2.683785  
    2052A      2.687872  2053A      2.689661  2054A      2.693815  
    2055A      2.695470  2056A      2.696454  2057A      2.700961  
    2058A      2.704547  2059A      2.709023  2060A      2.709203  
    2061A      2.711565  2062A      2.715752  2063A      2.717873  
    2064A      2.722022  2065A      2.726700  2066A      2.728150  
    2067A      2.731655  2068A      2.736589  2069A      2.740616  
    2070A      2.742802  2071A      2.743538  2072A      2.747154  
    2073A      2.750809  2074A      2.752668  2075A      2.756333  
    2076A      2.761910  2077A      2.763240  2078A      2.767929  
    2079A      2.770695  2080A      2.773158  2081A      2.774908  
    2082A      2.783985  2083A      2.787075  2084A      2.788380  
    2085A      2.793459  2086A      2.798609  2087A      2.803613  
    2088A      2.809112  2089A      2.813491  2090A      2.815888  
    2091A      2.818915  2092A      2.827139  2093A      2.830197  
    2094A      2.831411  2095A      2.834765  2096A      2.839616  
    2097A      2.843400  2098A      2.844574  2099A      2.845678  
    2100A      2.849678  2101A      2.856653  2102A      2.861248  
    2103A      2.864645  2104A      2.868151  2105A      2.872351  
    2106A      2.873733  2107A      2.882735  2108A      2.889187  
    2109A      2.892539  2110A      2.896584  2111A      2.897039  
    2112A      2.898891  2113A      2.903221  2114A      2.904439  
    2115A      2.908264  2116A      2.909105  2117A      2.914342  
    2118A      2.915567  2119A      2.918064  2120A      2.923445  
    2121A      2.925189  2122A      2.928770  2123A      2.930528  
    2124A      2.935619  2125A      2.938186  2126A      2.939651  
    2127A      2.942917  2128A      2.952655  2129A      2.953677  
    2130A      2.955852  2131A      2.958871  2132A      2.960503  
    2133A      2.964167  2134A      2.968154  2135A      2.968811  
    2136A      2.969727  2137A      2.979390  2138A      2.980167  
    2139A      2.981478  2140A      2.983546  2141A      2.986786  
    2142A      2.989439  2143A      2.998034  2144A      3.000436  
    2145A      3.007239  2146A      3.009514  2147A      3.011092  
    2148A      3.016072  2149A      3.018076  2150A      3.021703  
    2151A      3.025354  2152A      3.028599  2153A      3.032049  
    2154A      3.036840  2155A      3.038287  2156A      3.041882  
    2157A      3.047269  2158A      3.054043  2159A      3.055888  
    2160A      3.059522  2161A      3.063462  2162A      3.067580  
    2163A      3.072143  2164A      3.073040  2165A      3.076594  
    2166A      3.077668  2167A      3.083646  2168A      3.084679  
    2169A      3.087295  2170A      3.089714  2171A      3.091225  
    2172A      3.096457  2173A      3.097670  2174A      3.102747  
    2175A      3.104758  2176A      3.110619  2177A      3.115232  
    2178A      3.116359  2179A      3.118672  2180A      3.121791  
    2181A      3.122520  2182A      3.125754  2183A      3.127255  
    2184A      3.131348  2185A      3.133735  2186A      3.137667  
    2187A      3.138355  2188A      3.144084  2189A      3.146509  
    2190A      3.147924  2191A      3.150042  2192A      3.151345  
    2193A      3.155687  2194A      3.157930  2195A      3.159800  
    2196A      3.166226  2197A      3.167200  2198A      3.174348  
    2199A      3.175081  2200A      3.176112  2201A      3.181742  
    2202A      3.184502  2203A      3.188393  2204A      3.190336  
    2205A      3.191550  2206A      3.192916  2207A      3.195039  
    2208A      3.198172  2209A      3.200808  2210A      3.203495  
    2211A      3.207273  2212A      3.207761  2213A      3.210394  
    2214A      3.213318  2215A      3.219240  2216A      3.221898  
    2217A      3.224413  2218A      3.228018  2219A      3.230782  
    2220A      3.231987  2221A      3.240150  2222A      3.242266  
    2223A      3.244309  2224A      3.246980  2225A      3.247575  
    2226A      3.250260  2227A      3.251945  2228A      3.254303  
    2229A      3.258715  2230A      3.259158  2231A      3.260712  
    2232A      3.264087  2233A      3.265961  2234A      3.269190  
    2235A      3.272386  2236A      3.274324  2237A      3.274932  
    2238A      3.277910  2239A      3.279844  2240A      3.283671  
    2241A      3.284075  2242A      3.286702  2243A      3.290487  
    2244A      3.294331  2245A      3.294616  2246A      3.296154  
    2247A      3.298664  2248A      3.299969  2249A      3.300465  
    2250A      3.302105  2251A      3.305076  2252A      3.306077  
    2253A      3.308557  2254A      3.311537  2255A      3.313468  
    2256A      3.315149  2257A      3.316956  2258A      3.323889  
    2259A      3.324188  2260A      3.325607  2261A      3.328311  
    2262A      3.330641  2263A      3.332021  2264A      3.334825  
    2265A      3.335156  2266A      3.338457  2267A      3.339462  
    2268A      3.341899  2269A      3.344026  2270A      3.346250  
    2271A      3.347980  2272A      3.349244  2273A      3.350807  
    2274A      3.353114  2275A      3.354118  2276A      3.355029  
    2277A      3.356125  2278A      3.356609  2279A      3.359988  
    2280A      3.360078  2281A      3.365878  2282A      3.368156  
    2283A      3.369265  2284A      3.371067  2285A      3.372033  
    2286A      3.373759  2287A      3.376056  2288A      3.377240  
    2289A      3.379099  2290A      3.380530  2291A      3.381268  
    2292A      3.385549  2293A      3.387698  2294A      3.388699  
    2295A      3.391411  2296A      3.394637  2297A      3.397077  
    2298A      3.397707  2299A      3.399242  2300A      3.400998  
    2301A      3.403021  2302A      3.404459  2303A      3.406456  
    2304A      3.407922  2305A      3.408543  2306A      3.411442  
    2307A      3.413937  2308A      3.416243  2309A      3.418357  
    2310A      3.420215  2311A      3.422932  2312A      3.423503  
    2313A      3.424094  2314A      3.425725  2315A      3.426861  
    2316A      3.428206  2317A      3.428990  2318A      3.430953  
    2319A      3.431747  2320A      3.435845  2321A      3.438761  
    2322A      3.441244  2323A      3.443310  2324A      3.443830  
    2325A      3.447944  2326A      3.448444  2327A      3.450154  
    2328A      3.451368  2329A      3.452945  2330A      3.455499  
    2331A      3.458527  2332A      3.459714  2333A      3.462262  
    2334A      3.464648  2335A      3.466711  2336A      3.466896  
    2337A      3.467518  2338A      3.469547  2339A      3.470813  
    2340A      3.472122  2341A      3.475965  2342A      3.477824  
    2343A      3.479113  2344A      3.481033  2345A      3.483596  
    2346A      3.485547  2347A      3.486195  2348A      3.487424  
    2349A      3.489758  2350A      3.491798  2351A      3.492816  
    2352A      3.495527  2353A      3.496960  2354A      3.497863  
    2355A      3.500203  2356A      3.501110  2357A      3.503988  
    2358A      3.505705  2359A      3.506548  2360A      3.509392  
    2361A      3.512121  2362A      3.513861  2363A      3.515735  
    2364A      3.516975  2365A      3.519789  2366A      3.520724  
    2367A      3.521299  2368A      3.523349  2369A      3.527170  
    2370A      3.528085  2371A      3.528688  2372A      3.531672  
    2373A      3.533116  2374A      3.534100  2375A      3.535451  
    2376A      3.537238  2377A      3.538138  2378A      3.539955  
    2379A      3.540878  2380A      3.541573  2381A      3.546228  
    2382A      3.547688  2383A      3.548507  2384A      3.549251  
    2385A      3.552313  2386A      3.552995  2387A      3.555243  
    2388A      3.558054  2389A      3.559886  2390A      3.562730  
    2391A      3.563431  2392A      3.564916  2393A      3.567301  
    2394A      3.568454  2395A      3.571764  2396A      3.572983  
    2397A      3.575346  2398A      3.576230  2399A      3.578665  
    2400A      3.580110  2401A      3.582229  2402A      3.582808  
    2403A      3.583318  2404A      3.585755  2405A      3.587287  
    2406A      3.588699  2407A      3.590070  2408A      3.592424  
    2409A      3.595109  2410A      3.596826  2411A      3.597476  
    2412A      3.600140  2413A      3.600647  2414A      3.602762  
    2415A      3.605400  2416A      3.606173  2417A      3.607641  
    2418A      3.610315  2419A      3.613201  2420A      3.616663  
    2421A      3.617826  2422A      3.620309  2423A      3.621544  
    2424A      3.623387  2425A      3.624424  2426A      3.626320  
    2427A      3.627456  2428A      3.629995  2429A      3.633111  
    2430A      3.633302  2431A      3.635805  2432A      3.637009  
    2433A      3.639248  2434A      3.642224  2435A      3.645148  
    2436A      3.646397  2437A      3.647377  2438A      3.647632  
    2439A      3.651000  2440A      3.652967  2441A      3.655180  
    2442A      3.656638  2443A      3.660063  2444A      3.661012  
    2445A      3.662231  2446A      3.665329  2447A      3.666998  
    2448A      3.670232  2449A      3.672818  2450A      3.673666  
    2451A      3.674699  2452A      3.676486  2453A      3.678206  
    2454A      3.682208  2455A      3.683729  2456A      3.687181  
    2457A      3.690188  2458A      3.691667  2459A      3.692630  
    2460A      3.695201  2461A      3.696433  2462A      3.698037  
    2463A      3.700355  2464A      3.701419  2465A      3.701504  
    2466A      3.704838  2467A      3.705503  2468A      3.707592  
    2469A      3.709257  2470A      3.714343  2471A      3.715177  
    2472A      3.715723  2473A      3.718469  2474A      3.719860  
    2475A      3.722671  2476A      3.726551  2477A      3.727051  
    2478A      3.728252  2479A      3.730015  2480A      3.732997  
    2481A      3.734544  2482A      3.735494  2483A      3.739546  
    2484A      3.741481  2485A      3.742929  2486A      3.744223  
    2487A      3.747727  2488A      3.749121  2489A      3.749282  
    2490A      3.752308  2491A      3.755084  2492A      3.757576  
    2493A      3.758606  2494A      3.759584  2495A      3.761569  
    2496A      3.763058  2497A      3.765532  2498A      3.766911  
    2499A      3.768493  2500A      3.769924  2501A      3.770236  
    2502A      3.773817  2503A      3.778453  2504A      3.781310  
    2505A      3.781954  2506A      3.783128  2507A      3.784701  
    2508A      3.786658  2509A      3.787688  2510A      3.789614  
    2511A      3.792671  2512A      3.794631  2513A      3.796443  
    2514A      3.797290  2515A      3.798654  2516A      3.799372  
    2517A      3.800596  2518A      3.803511  2519A      3.804817  
    2520A      3.807281  2521A      3.809028  2522A      3.810611  
    2523A      3.811487  2524A      3.816264  2525A      3.818986  
    2526A      3.821122  2527A      3.823783  2528A      3.825880  
    2529A      3.827831  2530A      3.830821  2531A      3.832067  
    2532A      3.833684  2533A      3.835425  2534A      3.837310  
    2535A      3.839507  2536A      3.840649  2537A      3.842402  
    2538A      3.845004  2539A      3.846396  2540A      3.848254  
    2541A      3.850470  2542A      3.854204  2543A      3.854507  
    2544A      3.857625  2545A      3.860658  2546A      3.861453  
    2547A      3.863366  2548A      3.864529  2549A      3.864947  
    2550A      3.867373  2551A      3.870633  2552A      3.871573  
    2553A      3.876344  2554A      3.877409  2555A      3.882629  
    2556A      3.882886  2557A      3.886051  2558A      3.887281  
    2559A      3.888499  2560A      3.889320  2561A      3.890845  
    2562A      3.892519  2563A      3.895345  2564A      3.896084  
    2565A      3.901790  2566A      3.902941  2567A      3.904996  
    2568A      3.907006  2569A      3.910831  2570A      3.911717  
    2571A      3.913763  2572A      3.915003  2573A      3.916080  
    2574A      3.918006  2575A      3.921430  2576A      3.923994  
    2577A      3.925363  2578A      3.927582  2579A      3.928370  
    2580A      3.932589  2581A      3.933371  2582A      3.935095  
    2583A      3.935844  2584A      3.938685  2585A      3.941758  
    2586A      3.942631  2587A      3.944944  2588A      3.946261  
    2589A      3.950159  2590A      3.950857  2591A      3.953599  
    2592A      3.954860  2593A      3.959822  2594A      3.960736  
    2595A      3.963075  2596A      3.965735  2597A      3.966336  
    2598A      3.967208  2599A      3.970678  2600A      3.971415  
    2601A      3.974874  2602A      3.975323  2603A      3.977574  
    2604A      3.979533  2605A      3.981654  2606A      3.984930  
    2607A      3.987991  2608A      3.989137  2609A      3.991505  
    2610A      3.995108  2611A      3.998265  2612A      3.999131  
    2613A      4.000518  2614A      4.002192  2615A      4.002965  
    2616A      4.006282  2617A      4.007886  2618A      4.009475  
    2619A      4.012584  2620A      4.014455  2621A      4.016151  
    2622A      4.017544  2623A      4.018868  2624A      4.023050  
    2625A      4.024739  2626A      4.027229  2627A      4.028521  
    2628A      4.030586  2629A      4.034061  2630A      4.037245  
    2631A      4.040951  2632A      4.042391  2633A      4.043645  
    2634A      4.045976  2635A      4.048136  2636A      4.050808  
    2637A      4.053140  2638A      4.055056  2639A      4.057632  
    2640A      4.058952  2641A      4.059894  2642A      4.063054  
    2643A      4.063691  2644A      4.064558  2645A      4.068581  
    2646A      4.069776  2647A      4.071045  2648A      4.072173  
    2649A      4.073603  2650A      4.075292  2651A      4.080803  
    2652A      4.083300  2653A      4.086161  2654A      4.087257  
    2655A      4.087970  2656A      4.093157  2657A      4.093622  
    2658A      4.095107  2659A      4.095970  2660A      4.098522  
    2661A      4.101852  2662A      4.103373  2663A      4.104079  
    2664A      4.105957  2665A      4.108510  2666A      4.110356  
    2667A      4.110991  2668A      4.112893  2669A      4.113240  
    2670A      4.116793  2671A      4.119322  2672A      4.121759  
    2673A      4.124165  2674A      4.124918  2675A      4.126964  
    2676A      4.129146  2677A      4.131620  2678A      4.133109  
    2679A      4.136548  2680A      4.137248  2681A      4.138763  
    2682A      4.140653  2683A      4.141948  2684A      4.142240  
    2685A      4.144293  2686A      4.149024  2687A      4.151801  
    2688A      4.152818  2689A      4.157128  2690A      4.157972  
    2691A      4.160055  2692A      4.160635  2693A      4.164078  
    2694A      4.165825  2695A      4.167348  2696A      4.169927  
    2697A      4.171549  2698A      4.173687  2699A      4.174841  
    2700A      4.177315  2701A      4.179760  2702A      4.180981  
    2703A      4.182991  2704A      4.183893  2705A      4.186282  
    2706A      4.187312  2707A      4.189929  2708A      4.192333  
    2709A      4.198882  2710A      4.201322  2711A      4.203253  
    2712A      4.205923  2713A      4.206815  2714A      4.209450  
    2715A      4.212117  2716A      4.213709  2717A      4.216556  
    2718A      4.217774  2719A      4.219423  2720A      4.222539  
    2721A      4.224286  2722A      4.226796  2723A      4.228487  
    2724A      4.229142  2725A      4.230255  2726A      4.231574  
    2727A      4.234380  2728A      4.236255  2729A      4.238062  
    2730A      4.240298  2731A      4.241498  2732A      4.241931  
    2733A      4.244033  2734A      4.245937  2735A      4.248828  
    2736A      4.250912  2737A      4.252591  2738A      4.252825  
    2739A      4.253799  2740A      4.257539  2741A      4.260380  
    2742A      4.262480  2743A      4.263076  2744A      4.265914  
    2745A      4.268846  2746A      4.270108  2747A      4.271769  
    2748A      4.273722  2749A      4.274447  2750A      4.276499  
    2751A      4.279338  2752A      4.280509  2753A      4.282239  
    2754A      4.283393  2755A      4.284207  2756A      4.285980  
    2757A      4.288641  2758A      4.290099  2759A      4.291066  
    2760A      4.293352  2761A      4.294499  2762A      4.296062  
    2763A      4.297655  2764A      4.303000  2765A      4.305222  
    2766A      4.305642  2767A      4.307218  2768A      4.308936  
    2769A      4.312879  2770A      4.314714  2771A      4.315434  
    2772A      4.317541  2773A      4.321155  2774A      4.321422  
    2775A      4.323843  2776A      4.325358  2777A      4.329191  
    2778A      4.331024  2779A      4.332016  2780A      4.333417  
    2781A      4.336115  2782A      4.336660  2783A      4.338081  
    2784A      4.341064  2785A      4.342841  2786A      4.344600  
    2787A      4.345820  2788A      4.348811  2789A      4.349812  
    2790A      4.350739  2791A      4.352712  2792A      4.355101  
    2793A      4.356470  2794A      4.358499  2795A      4.359966  
    2796A      4.360515  2797A      4.363714  2798A      4.364465  
    2799A      4.365285  2800A      4.366491  2801A      4.368066  
    2802A      4.370620  2803A      4.372656  2804A      4.373761  
    2805A      4.374515  2806A      4.376890  2807A      4.378704  
    2808A      4.381521  2809A      4.383975  2810A      4.385561  
    2811A      4.387116  2812A      4.389567  2813A      4.392520  
    2814A      4.393398  2815A      4.397712  2816A      4.398892  
    2817A      4.400988  2818A      4.404586  2819A      4.405612  
    2820A      4.407440  2821A      4.410763  2822A      4.411854  
    2823A      4.413074  2824A      4.417082  2825A      4.417853  
    2826A      4.418927  2827A      4.420950  2828A      4.423934  
    2829A      4.427820  2830A      4.429798  2831A      4.432361  
    2832A      4.433528  2833A      4.435275  2834A      4.437709  
    2835A      4.441633  2836A      4.443615  2837A      4.445713  
    2838A      4.447401  2839A      4.450872  2840A      4.453387  
    2841A      4.454058  2842A      4.457752  2843A      4.458628  
    2844A      4.459428  2845A      4.461362  2846A      4.465230  
    2847A      4.466441  2848A      4.467718  2849A      4.468696  
    2850A      4.471065  2851A      4.474217  2852A      4.474835  
    2853A      4.476769  2854A      4.477655  2855A      4.480580  
    2856A      4.483083  2857A      4.486286  2858A      4.487353  
    2859A      4.489783  2860A      4.494114  2861A      4.499175  
    2862A      4.501555  2863A      4.503877  2864A      4.506209  
    2865A      4.509474  2866A      4.510894  2867A      4.511853  
    2868A      4.516140  2869A      4.519327  2870A      4.520513  
    2871A      4.523141  2872A      4.526555  2873A      4.528334  
    2874A      4.530233  2875A      4.532871  2876A      4.535426  
    2877A      4.535849  2878A      4.537062  2879A      4.539494  
    2880A      4.541873  2881A      4.543015  2882A      4.546130  
    2883A      4.546929  2884A      4.550823  2885A      4.552005  
    2886A      4.554368  2887A      4.557701  2888A      4.559000  
    2889A      4.562168  2890A      4.565250  2891A      4.567873  
    2892A      4.570583  2893A      4.574038  2894A      4.576624  
    2895A      4.579520  2896A      4.581077  2897A      4.583831  
    2898A      4.584096  2899A      4.590033  2900A      4.591380  
    2901A      4.592907  2902A      4.594433  2903A      4.596888  
    2904A      4.598586  2905A      4.599598  2906A      4.602153  
    2907A      4.604246  2908A      4.605004  2909A      4.606254  
    2910A      4.607828  2911A      4.610496  2912A      4.612704  
    2913A      4.613896  2914A      4.615046  2915A      4.615829  
    2916A      4.619459  2917A      4.619925  2918A      4.622280  
    2919A      4.625147  2920A      4.627430  2921A      4.630239  
    2922A      4.631455  2923A      4.634080  2924A      4.636744  
    2925A      4.637931  2926A      4.641816  2927A      4.643103  
    2928A      4.643377  2929A      4.648290  2930A      4.649151  
    2931A      4.650164  2932A      4.656106  2933A      4.658597  
    2934A      4.659549  2935A      4.664306  2936A      4.667408  
    2937A      4.670610  2938A      4.673863  2939A      4.676276  
    2940A      4.677457  2941A      4.681881  2942A      4.683156  
    2943A      4.685197  2944A      4.689065  2945A      4.691014  
    2946A      4.692549  2947A      4.694010  2948A      4.695059  
    2949A      4.695463  2950A      4.699106  2951A      4.701542  
    2952A      4.701804  2953A      4.704844  2954A      4.710901  
    2955A      4.713449  2956A      4.714014  2957A      4.717634  
    2958A      4.719055  2959A      4.723755  2960A      4.725026  
    2961A      4.728740  2962A      4.732760  2963A      4.735871  
    2964A      4.737975  2965A      4.739959  2966A      4.742054  
    2967A      4.743890  2968A      4.747273  2969A      4.749240  
    2970A      4.752187  2971A      4.754796  2972A      4.756981  
    2973A      4.762646  2974A      4.763465  2975A      4.771282  
    2976A      4.775499  2977A      4.776943  2978A      4.786632  
    2979A      4.787649  2980A      4.791713  2981A      4.793319  
    2982A      4.794859  2983A      4.798975  2984A      4.802154  
    2985A      4.803001  2986A      4.807505  2987A      4.812681  
    2988A      4.813347  2989A      4.813642  2990A      4.814782  
    2991A      4.816335  2992A      4.817998  2993A      4.818253  
    2994A      4.822275  2995A      4.824063  2996A      4.825648  
    2997A      4.827047  2998A      4.827792  2999A      4.829584  
    3000A      4.831959  3001A      4.835816  3002A      4.837469  
    3003A      4.838553  3004A      4.840250  3005A      4.843200  
    3006A      4.845237  3007A      4.849957  3008A      4.851642  
    3009A      4.853159  3010A      4.856922  3011A      4.861513  
    3012A      4.863350  3013A      4.867524  3014A      4.868670  
    3015A      4.872560  3016A      4.874294  3017A      4.877967  
    3018A      4.878457  3019A      4.881545  3020A      4.883613  
    3021A      4.890915  3022A      4.892480  3023A      4.901055  
    3024A      4.902224  3025A      4.905253  3026A      4.909129  
    3027A      4.913011  3028A      4.915366  3029A      4.919347  
    3030A      4.922371  3031A      4.925044  3032A      4.928380  
    3033A      4.930264  3034A      4.936047  3035A      4.937624  
    3036A      4.943057  3037A      4.949038  3038A      4.950255  
    3039A      4.956521  3040A      4.959875  3041A      4.963064  
    3042A      4.964229  3043A      4.966429  3044A      4.970636  
    3045A      4.972728  3046A      4.976944  3047A      4.981622  
    3048A      4.984152  3049A      4.989277  3050A      4.994070  
    3051A      4.998263  3052A      5.001482  3053A      5.004716  
    3054A      5.009420  3055A      5.012661  3056A      5.014349  
    3057A      5.016316  3058A      5.018204  3059A      5.021587  
    3060A      5.026411  3061A      5.028039  3062A      5.030483  
    3063A      5.032847  3064A      5.036487  3065A      5.037395  
    3066A      5.040603  3067A      5.045331  3068A      5.045754  
    3069A      5.052592  3070A      5.056549  3071A      5.057803  
    3072A      5.061663  3073A      5.062481  3074A      5.071172  
    3075A      5.073907  3076A      5.077165  3077A      5.080019  
    3078A      5.082703  3079A      5.089405  3080A      5.094934  
    3081A      5.099304  3082A      5.103577  3083A      5.106792  
    3084A      5.109506  3085A      5.114275  3086A      5.115948  
    3087A      5.121947  3088A      5.122913  3089A      5.125605  
    3090A      5.126012  3091A      5.130650  3092A      5.136180  
    3093A      5.140969  3094A      5.143883  3095A      5.145045  
    3096A      5.149347  3097A      5.153795  3098A      5.155661  
    3099A      5.161431  3100A      5.167041  3101A      5.172558  
    3102A      5.174273  3103A      5.179671  3104A      5.181973  
    3105A      5.189005  3106A      5.190107  3107A      5.193865  
    3108A      5.196485  3109A      5.197716  3110A      5.206203  
    3111A      5.210040  3112A      5.210673  3113A      5.212185  
    3114A      5.213870  3115A      5.215746  3116A      5.221798  
    3117A      5.223652  3118A      5.229272  3119A      5.245893  
    3120A      5.249632  3121A      5.256396  3122A      5.261024  
    3123A      5.266782  3124A      5.271198  3125A      5.280412  
    3126A      5.287348  3127A      5.292618  3128A      5.294347  
    3129A      5.297288  3130A      5.298862  3131A      5.300127  
    3132A      5.304242  3133A      5.310348  3134A      5.319796  
    3135A      5.331838  3136A      5.333420  3137A      5.333751  
    3138A      5.334906  3139A      5.336292  3140A      5.344559  
    3141A      5.359824  3142A      5.364448  3143A      5.370009  
    3144A      5.372554  3145A      5.377789  3146A      5.380536  
    3147A      5.382748  3148A      5.384632  3149A      5.387597  
    3150A      5.388419  3151A      5.393733  3152A      5.399004  
    3153A      5.411442  3154A      5.415189  3155A      5.420324  
    3156A      5.424154  3157A      5.439227  3158A      5.441339  
    3159A      5.445739  3160A      5.447330  3161A      5.450304  
    3162A      5.450973  3163A      5.452620  3164A      5.457493  
    3165A      5.463675  3166A      5.464533  3167A      5.472402  
    3168A      5.479974  3169A      5.481424  3170A      5.489814  
    3171A      5.498554  3172A      5.501677  3173A      5.504718  
    3174A      5.515205  3175A      5.517780  3176A      5.524905  
    3177A      5.531891  3178A      5.537478  3179A      5.541916  
    3180A      5.542361  3181A      5.544526  3182A      5.552407  
    3183A      5.555497  3184A      5.556477  3185A      5.558885  
    3186A      5.564067  3187A      5.576721  3188A      5.595173  
    3189A      5.599560  3190A      5.611192  3191A      5.617895  
    3192A      5.625689  3193A      5.635197  3194A      5.654422  
    3195A      5.658276  3196A      5.662580  3197A      5.676324  
    3198A      5.689335  3199A      5.695512  3200A      5.699769  
    3201A      5.708823  3202A      5.711645  3203A      5.728924  
    3204A      5.733173  3205A      5.738370  3206A      5.739729  
    3207A      5.746247  3208A      5.749832  3209A      5.759951  
    3210A      5.802567  3211A      5.811067  3212A      5.813364  
    3213A      5.818587  3214A      5.840897  3215A      5.856524  
    3216A      5.866903  3217A      5.870330  3218A      5.875774  
    3219A      5.884088  3220A      5.898405  3221A      5.907006  
    3222A      5.907903  3223A      5.922112  3224A      5.925783  
    3225A      5.926592  3226A      5.936069  3227A      5.939372  
    3228A      5.958794  3229A      5.967994  3230A      5.992156  
    3231A      6.010282  3232A      6.012051  3233A      6.014100  
    3234A      6.018573  3235A      6.027611  3236A      6.042308  
    3237A      6.044653  3238A      6.048161  3239A      6.065715  
    3240A      6.070160  3241A      6.082452  3242A      6.085854  
    3243A      6.087159  3244A      6.089003  3245A      6.096416  
    3246A      6.118602  3247A      6.125706  3248A      6.130960  
    3249A      6.138527  3250A      6.144256  3251A      6.147982  
    3252A      6.148515  3253A      6.165763  3254A      6.170688  
    3255A      6.174074  3256A      6.184166  3257A      6.191871  
    3258A      6.194425  3259A      6.198792  3260A      6.215627  
    3261A      6.218663  3262A      6.221457  3263A      6.228964  
    3264A      6.234469  3265A      6.241004  3266A      6.248587  
    3267A      6.252897  3268A      6.254629  3269A      6.257911  
    3270A      6.261958  3271A      6.263991  3272A      6.269253  
    3273A      6.273551  3274A      6.277248  3275A      6.279914  
    3276A      6.288449  3277A      6.298366  3278A      6.298589  
    3279A      6.303457  3280A      6.311855  3281A      6.317057  
    3282A      6.318492  3283A      6.322268  3284A      6.339520  
    3285A      6.353453  3286A      6.359407  3287A      6.361325  
    3288A      6.382904  3289A      6.388874  3290A      6.390941  
    3291A      6.396876  3292A      6.432683  3293A      6.440044  
    3294A      6.440895  3295A      6.443209  3296A      6.450226  
    3297A      6.465062  3298A      6.485217  3299A      6.498764  
    3300A      6.501936  3301A      6.505840  3302A      6.507797  
    3303A      6.515408  3304A      6.522868  3305A      6.523855  
    3306A      6.527315  3307A      6.550164  3308A      6.557596  
    3309A      6.563510  3310A      6.566778  3311A      6.573291  
    3312A      6.580669  3313A      6.582404  3314A      6.588489  
    3315A      6.592550  3316A      6.595422  3317A      6.604599  
    3318A      6.624511  3319A      6.625901  3320A      6.635894  
    3321A      6.637872  3322A      6.640732  3323A      6.661542  
    3324A      6.667209  3325A      6.668869  3326A      6.675682  
    3327A      6.711083  3328A      6.726297  3329A      6.729879  
    3330A      6.738601  3331A      6.744476  3332A      6.751955  
    3333A      6.756521  3334A      6.757800  3335A      6.774919  
    3336A      6.785045  3337A      6.788665  3338A      6.792573  
    3339A      6.793515  3340A      6.795006  3341A      6.802001  
    3342A      6.874415  3343A      6.936293  3344A      6.966497  
    3345A      6.982019  3346A      7.021913  3347A      7.025234  
    3348A      7.034747  3349A      7.126552  3350A      7.209827  
    3351A      7.253111  3352A      7.467116  3353A      7.495170  
    3354A     15.079613  3355A     15.115987  3356A     15.236030  
    3357A     15.395524  3358A     15.881508  3359A     16.006381  
    3360A     16.354865  3361A     16.685096  3362A     16.730870  
    3363A     16.741705  3364A     16.825564  3365A     16.858693  
    3366A     16.877925  3367A     16.910819  3368A     16.927283  
    3369A     17.588040  3370A     17.798408  3371A     17.811043  
    3372A     18.368029  3373A     18.382043  3374A     18.498661  
    3375A     18.548809  3376A     18.586405  3377A     18.943137  
    3378A     19.084088  3379A     19.118973  3380A     19.296775  
    3381A     19.425372  3382A     19.545754  3383A     19.671720  
    3384A     20.213508  3385A     20.237388  3386A     20.307827  
    3387A     20.420274  3388A     20.459366  3389A     20.486874  
    3390A     20.800209  3391A     20.862887  3392A     20.983156  
    3393A     21.009696  3394A     21.097062  3395A     21.317320  
    3396A     21.427421  3397A     21.805076  3398A     21.881589  
    3399A     21.885655  3400A     22.003800  3401A     22.036351  
    3402A     22.162119  3403A     22.625613  3404A     22.648545  
    3405A     22.682849  3406A     22.733005  3407A     22.816255  
    3408A     22.888585  3409A     22.997262  3410A     23.065157  
    3411A     23.193209  3412A     23.312657  3413A     23.396542  
    3414A     23.419117  3415A     23.608277  3416A     23.706014  
    3417A     23.751960  

    Final Occupation by Irrep:
              A 
    DOCC [   206 ]
    NA   [   206 ]
    NB   [   206 ]

  @DF-RKS Final Energy: -2537.20241474662635

   => Energetics <=

    Nuclear Repulsion Energy =           9204.8300480012621847
    One-Electron Energy =              -21776.1977743699026178
    Two-Electron Energy =               10328.9657592719959212
    DFT Exchange-Correlation Energy =    -294.6675323521907899
    Empirical Dispersion Energy =          -0.1329152977904050
    VV10 Nonlocal Energy =                  0.0000000000000000
    Total Energy =                      -2537.2024147466258910

Computation Completed


Properties will be evaluated at   0.000000,   0.000000,   0.000000 [a0]

Properties computed using the SCF density matrix


 Multipole Moments:

 ------------------------------------------------------------------------------------
     Multipole            Electronic (a.u.)      Nuclear  (a.u.)        Total (a.u.)
 ------------------------------------------------------------------------------------

 L = 1.  Multiply by 2.5417464519 to convert [e a0] to [Debye]
 Dipole X            :         -6.8776793            7.2924530            0.4147737
 Dipole Y            :          3.2745336           -3.6736275           -0.3990940
 Dipole Z            :         -6.2394608            5.9110634           -0.3283974
 Magnitude           :                                                    0.6626900

 ------------------------------------------------------------------------------------

*** tstop() called on atl1-1-03-004-14-2.pace.gatech.edu at Sat Jun 13 20:50:54 2026
Module time:
	user time   =   60613.57 seconds =    1010.23 minutes
	system time =    2887.31 seconds =      48.12 minutes
	total time  =       8661 seconds =     144.35 minutes
Total time:
	user time   =   60613.57 seconds =    1010.23 minutes
	system time =    2887.31 seconds =      48.12 minutes
	total time  =       8661 seconds =     144.35 minutes

    Psi4 stopped on: Saturday, 13 June 2026 08:51PM
    Psi4 wall time for execution: 2:24:31.24

*** Psi4 exiting successfully. Buy a developer a beer!
