
    -----------------------------------------------------------------------
          Psi4: An Open-Source Ab Initio Electronic Structure Package
                               Psi4 1.9.1 release

                         Git: Rev {} zzzzzzz 


    D. G. A. Smith, L. A. Burns, A. C. Simmonett, R. M. Parrish,
    M. C. Schieber, R. Galvelis, P. Kraus, H. Kruse, R. Di Remigio,
    A. Alenaizan, A. M. James, S. Lehtola, J. P. Misiewicz, M. Scheurer,
    R. A. Shaw, J. B. Schriber, Y. Xie, Z. L. Glick, D. A. Sirianni,
    J. S. O'Brien, J. M. Waldrop, A. Kumar, E. G. Hohenstein,
    B. P. Pritchard, B. R. Brooks, H. F. Schaefer III, A. Yu. Sokolov,
    K. Patkowski, A. E. DePrince III, U. Bozkaya, R. A. King,
    F. A. Evangelista, J. M. Turney, T. D. Crawford, C. D. Sherrill,
    J. Chem. Phys. 152(18) 184108 (2020). https://doi.org/10.1063/5.0006002

                            Additional Code Authors
    E. T. Seidl, C. L. Janssen, E. F. Valeev, M. L. Leininger,
    J. F. Gonthier, R. M. Richard, H. R. McAlexander, M. Saitow, X. Wang,
    P. Verma, M. H. Lechner, A. Jiang, S. Behnle, A. G. Heide,
    M. F. Herbst, and D. L. Poole

             Previous Authors, Complete List of Code Contributors,
                       and Citations for Specific Modules
    https://github.com/psi4/psi4/blob/master/codemeta.json
    https://github.com/psi4/psi4/graphs/contributors
    http://psicode.org/psi4manual/master/introduction.html#citing-psifour

    -----------------------------------------------------------------------


    Psi4 started on: Saturday, 13 June 2026 06:54PM

    Process ID: 867711
    Host:       atl1-1-02-004-2-2.pace.gatech.edu
    PSIDATADIR: /storage/home/hcoda1/5/vlita3/.conda/envs/p4_qcml/share/psi4
    Memory:     250.0 GiB
    Threads:    10
    
  ==> Input QCSchema <==

--------------------------------------------------------------------------
{'driver': 'energy',
 'extras': {},
 'id': '285',
 'keywords': {},
 'model': {'basis': 'aug-cc-pvtz', 'method': 'b3lyp-d3'},
 'molecule': {'extras': {},
              'fix_com': True,
              'fix_orientation': True,
              'fragment_charges': [0.0, 0.0],
              'fragment_multiplicities': [1, 1],
              'fragments': [[0, 1, 2, 3, 4, 5, 6, 7, 8, 9, 10, 11, 12, 13, 14, 15, 16, 17, 18, 19, 20, 21, 22, 23, 24,
                             25, 26, 27, 28, 29, 30, 31, 32, 33, 34, 35],
                            [36, 37, 38, 39, 40, 41, 42, 43, 44, 45, 46, 47, 48, 49, 50, 51, 52, 53, 54, 55, 56, 57, 58,
                             59, 60, 61, 62, 63, 64, 65, 66, 67, 68, 69, 70, 71]],
              'geometry': [-2.81102804, -2.32727976, -3.26733672, -0.12371685, -2.32727976, -3.26733672, 1.21993874,
                           0.0, -3.26733672, -0.12371685, 2.32727976, -3.26733672, -2.81102804, 2.32727976, -3.26733672,
                           -4.15468364, 0.0, -3.26733672, 1.21375609, -4.64385085, -3.26733672, -0.17645855,
                           -6.93684965, -3.26733672, -2.75828635, -6.93684965, -3.26733672, -4.14850099, -4.64385085,
                           -3.26733672, -6.82962953, 0.0, -3.26733672, -8.12031742, -2.3504606, -3.26733672,
                           -6.82940352, -4.58638906, -3.26733672, -8.12031742, 2.3504606, -3.26733672, -6.82940352,
                           4.58638906, -3.26733672, -4.14850099, 4.64385085, -3.26733672, -2.75828635, 6.93684965,
                           -3.26733672, -0.17645855, 6.93684965, -3.26733672, 1.21375609, 4.64385085, -3.26733672,
                           3.89465863, 4.58638906, -3.26733672, 5.18557252, 2.3504606, -3.26733672, 3.89488463, 0.0,
                           -3.26733672, 5.18557252, -2.3504606, -3.26733672, 3.89465863, -4.58638906, -3.26733672,
                           0.84958395, -8.70675598, -3.26733672, -3.78432885, -8.70675598, -3.26733672, -7.84916611,
                           -6.35992109, -3.26733672, -10.16612251, -2.34683489, -3.26733672, -10.16612251, 2.34683489,
                           -3.26733672, -7.84916611, 6.35992109, -3.26733672, -3.78432885, 8.70675598, -3.26733672,
                           0.84958395, 8.70675598, -3.26733672, 4.91442121, 6.35992109, -3.26733672, 7.23137761,
                           2.34683489, -3.26733672, 7.23137761, -2.34683489, -3.26733672, 4.91442121, -6.35992109,
                           -3.26733672, 0.12371685, -2.32727976, 3.26733672, 2.81102804, -2.32727976, 3.26733672,
                           4.15468364, 0.0, 3.26733672, 2.81102804, 2.32727976, 3.26733672, 0.12371685, 2.32727976,
                           3.26733672, -1.21993874, 0.0, 3.26733672, 4.14850099, -4.64385085, 3.26733672, 2.75828635,
                           -6.93684965, 3.26733672, 0.17645855, -6.93684965, 3.26733672, -1.21375609, -4.64385085,
                           3.26733672, -3.89488463, 0.0, 3.26733672, -5.18557252, -2.3504606, 3.26733672, -3.89465863,
                           -4.58638906, 3.26733672, -5.18557252, 2.3504606, 3.26733672, -3.89465863, 4.58638906,
                           3.26733672, -1.21375609, 4.64385085, 3.26733672, 0.17645855, 6.93684965, 3.26733672,
                           2.75828635, 6.93684965, 3.26733672, 4.14850099, 4.64385085, 3.26733672, 6.82940352,
                           4.58638906, 3.26733672, 8.12031742, 2.3504606, 3.26733672, 6.82962953, 0.0, 3.26733672,
                           8.12031742, -2.3504606, 3.26733672, 6.82940352, -4.58638906, 3.26733672, 3.78432885,
                           -8.70675598, 3.26733672, -0.84958395, -8.70675598, 3.26733672, -4.91442121, -6.35992109,
                           3.26733672, -7.23137761, -2.34683489, 3.26733672, -7.23137761, 2.34683489, 3.26733672,
                           -4.91442121, 6.35992109, 3.26733672, -0.84958395, 8.70675598, 3.26733672, 3.78432885,
                           8.70675598, 3.26733672, 7.84916611, 6.35992109, 3.26733672, 10.16612251, 2.34683489,
                           3.26733672, 10.16612251, -2.34683489, 3.26733672, 7.84916611, -6.35992109, 3.26733672],
              'id': 2,
              'identifiers': {'molecular_formula': 'C48H24',
                              'molecule_hash': '5e8f6cf798e5af2fc45ad63c8cba340f6c4842b2'},
              'molecular_charge': 0.0,
              'molecular_multiplicity': 1,
              'name': 'C48H24',
              'provenance': {'creator': 'QCElemental',
                             'routine': 'qcelemental.molparse.from_string',
                             'version': '0.29.0'},
              'schema_name': 'qcschema_molecule',
              'schema_version': 2,
              'symbols': ['C', 'C', 'C', 'C', 'C', 'C', 'C', 'C', 'C', 'C', 'C', 'C', 'C', 'C', 'C', 'C', 'C', 'C', 'C',
                          'C', 'C', 'C', 'C', 'C', 'H', 'H', 'H', 'H', 'H', 'H', 'H', 'H', 'H', 'H', 'H', 'H', 'C', 'C',
                          'C', 'C', 'C', 'C', 'C', 'C', 'C', 'C', 'C', 'C', 'C', 'C', 'C', 'C', 'C', 'C', 'C', 'C', 'C',
                          'C', 'C', 'C', 'H', 'H', 'H', 'H', 'H', 'H', 'H', 'H', 'H', 'H', 'H', 'H'],
              'validated': True},
 'protocols': {},
 'provenance': {'creator': 'QCElemental', 'routine': 'qcelemental.models.results', 'version': '0.29.0'},
 'schema_name': 'qcschema_input',
 'schema_version': 1}
--------------------------------------------------------------------------

Scratch directory: /tmp/tmp_wgkwf1__psi_scratch/
   => Libint2 <=

    Primary   basis highest AM E, G, H:  6, 6, 3
    Auxiliary basis highest AM E, G, H:  7, 7, 4
    Onebody   basis highest AM E, G, H:  -, -, -
    Solid Harmonics ordering:            Gaussian

*** tstart() called on atl1-1-02-004-2-2.pace.gatech.edu
*** at Sat Jun 13 18:54:28 2026

   => Loading Basis Set <=

    Name: AUG-CC-PVTZ
    Role: ORBITAL
    Keyword: BASIS
    atoms 1-24, 37-60  entry C          line   239 file /storage/home/hcoda1/5/vlita3/.conda/envs/p4_qcml/share/psi4/basis/aug-cc-pvtz.gbs 
    atoms 25-36, 61-72 entry H          line    40 file /storage/home/hcoda1/5/vlita3/.conda/envs/p4_qcml/share/psi4/basis/aug-cc-pvtz.gbs 

   => B3LYP-D3: Empirical Dispersion <=

    Grimme's -D3 (zero-damping) Dispersion Correction
    Grimme S.; Antony J.; Ehrlich S.; Krieg H. (2010), J. Chem. Phys., 132: 154104

        s6 =       1.000000
        s8 =       1.703000
       sr6 =       1.261000
    alpha6 =      14.000000
       sr8 =       1.000000


         ---------------------------------------------------------
                                   SCF
               by Justin Turney, Rob Parrish, Andy Simmonett
                          and Daniel G. A. Smith
                              RKS Reference
                       10 Threads, 256000 MiB Core
         ---------------------------------------------------------

  ==> Geometry <==

    Molecular point group: c2h
    Full point group: C2h

    Geometry (in Bohr), charge = 0, multiplicity = 1:

       Center              X                  Y                   Z               Mass       
    ------------   -----------------  -----------------  -----------------  -----------------
         C           -2.811028040000    -2.327279760000    -3.267336720000    12.000000000000
         C           -0.123716850000    -2.327279760000    -3.267336720000    12.000000000000
         C            1.219938740000     0.000000000000    -3.267336720000    12.000000000000
         C           -0.123716850000     2.327279760000    -3.267336720000    12.000000000000
         C           -2.811028040000     2.327279760000    -3.267336720000    12.000000000000
         C           -4.154683640000     0.000000000000    -3.267336720000    12.000000000000
         C            1.213756090000    -4.643850850000    -3.267336720000    12.000000000000
         C           -0.176458550000    -6.936849650000    -3.267336720000    12.000000000000
         C           -2.758286350000    -6.936849650000    -3.267336720000    12.000000000000
         C           -4.148500990000    -4.643850850000    -3.267336720000    12.000000000000
         C           -6.829629530000     0.000000000000    -3.267336720000    12.000000000000
         C           -8.120317420000    -2.350460600000    -3.267336720000    12.000000000000
         C           -6.829403520000    -4.586389060000    -3.267336720000    12.000000000000
         C           -8.120317420000     2.350460600000    -3.267336720000    12.000000000000
         C           -6.829403520000     4.586389060000    -3.267336720000    12.000000000000
         C           -4.148500990000     4.643850850000    -3.267336720000    12.000000000000
         C           -2.758286350000     6.936849650000    -3.267336720000    12.000000000000
         C           -0.176458550000     6.936849650000    -3.267336720000    12.000000000000
         C            1.213756090000     4.643850850000    -3.267336720000    12.000000000000
         C            3.894658630000     4.586389060000    -3.267336720000    12.000000000000
         C            5.185572520000     2.350460600000    -3.267336720000    12.000000000000
         C            3.894884630000     0.000000000000    -3.267336720000    12.000000000000
         C            5.185572520000    -2.350460600000    -3.267336720000    12.000000000000
         C            3.894658630000    -4.586389060000    -3.267336720000    12.000000000000
         H            0.849583950000    -8.706755980000    -3.267336720000     1.007825032230
         H           -3.784328850000    -8.706755980000    -3.267336720000     1.007825032230
         H           -7.849166110000    -6.359921090000    -3.267336720000     1.007825032230
         H          -10.166122510000    -2.346834890000    -3.267336720000     1.007825032230
         H          -10.166122510000     2.346834890000    -3.267336720000     1.007825032230
         H           -7.849166110000     6.359921090000    -3.267336720000     1.007825032230
         H           -3.784328850000     8.706755980000    -3.267336720000     1.007825032230
         H            0.849583950000     8.706755980000    -3.267336720000     1.007825032230
         H            4.914421210000     6.359921090000    -3.267336720000     1.007825032230
         H            7.231377610000     2.346834890000    -3.267336720000     1.007825032230
         H            7.231377610000    -2.346834890000    -3.267336720000     1.007825032230
         H            4.914421210000    -6.359921090000    -3.267336720000     1.007825032230
         C            0.123716850000    -2.327279760000     3.267336720000    12.000000000000
         C            2.811028040000    -2.327279760000     3.267336720000    12.000000000000
         C            4.154683640000     0.000000000000     3.267336720000    12.000000000000
         C            2.811028040000     2.327279760000     3.267336720000    12.000000000000
         C            0.123716850000     2.327279760000     3.267336720000    12.000000000000
         C           -1.219938740000     0.000000000000     3.267336720000    12.000000000000
         C            4.148500990000    -4.643850850000     3.267336720000    12.000000000000
         C            2.758286350000    -6.936849650000     3.267336720000    12.000000000000
         C            0.176458550000    -6.936849650000     3.267336720000    12.000000000000
         C           -1.213756090000    -4.643850850000     3.267336720000    12.000000000000
         C           -3.894884630000     0.000000000000     3.267336720000    12.000000000000
         C           -5.185572520000    -2.350460600000     3.267336720000    12.000000000000
         C           -3.894658630000    -4.586389060000     3.267336720000    12.000000000000
         C           -5.185572520000     2.350460600000     3.267336720000    12.000000000000
         C           -3.894658630000     4.586389060000     3.267336720000    12.000000000000
         C           -1.213756090000     4.643850850000     3.267336720000    12.000000000000
         C            0.176458550000     6.936849650000     3.267336720000    12.000000000000
         C            2.758286350000     6.936849650000     3.267336720000    12.000000000000
         C            4.148500990000     4.643850850000     3.267336720000    12.000000000000
         C            6.829403520000     4.586389060000     3.267336720000    12.000000000000
         C            8.120317420000     2.350460600000     3.267336720000    12.000000000000
         C            6.829629530000     0.000000000000     3.267336720000    12.000000000000
         C            8.120317420000    -2.350460600000     3.267336720000    12.000000000000
         C            6.829403520000    -4.586389060000     3.267336720000    12.000000000000
         H            3.784328850000    -8.706755980000     3.267336720000     1.007825032230
         H           -0.849583950000    -8.706755980000     3.267336720000     1.007825032230
         H           -4.914421210000    -6.359921090000     3.267336720000     1.007825032230
         H           -7.231377610000    -2.346834890000     3.267336720000     1.007825032230
         H           -7.231377610000     2.346834890000     3.267336720000     1.007825032230
         H           -4.914421210000     6.359921090000     3.267336720000     1.007825032230
         H           -0.849583950000     8.706755980000     3.267336720000     1.007825032230
         H            3.784328850000     8.706755980000     3.267336720000     1.007825032230
         H            7.849166110000     6.359921090000     3.267336720000     1.007825032230
         H           10.166122510000     2.346834890000     3.267336720000     1.007825032230
         H           10.166122510000    -2.346834890000     3.267336720000     1.007825032230
         H            7.849166110000    -6.359921090000     3.267336720000     1.007825032230

  Running in c2h symmetry.

  Rotational constants: A =      0.00378  B =      0.00326  C =      0.00251 [cm^-1]
  Rotational constants: A =    113.23902  B =     97.86670  C =     75.24221 [MHz]
  Nuclear repulsion = 6088.170067665134411

  Charge       = 0
  Multiplicity = 1
  Electrons    = 312
  Nalpha       = 156
  Nbeta        = 156

  ==> Algorithm <==

  SCF Algorithm Type is DF.
  DIIS enabled.
  MOM disabled.
  Fractional occupation disabled.
  Guess Type is SAD.
  Energy threshold   = 1.00e-06
  Density threshold  = 1.00e-06
  Integral threshold = 1.00e-12

  ==> Primary Basis <==

  Basis Set: AUG-CC-PVTZ
    Blend: AUG-CC-PVTZ
    Number of shells: 888
    Number of basis functions: 2760
    Number of Cartesian functions: 3240
    Spherical Harmonics?: true
    Max angular momentum: 3

  ==> DFT Potential <==

   => LibXC <=

    Version 7.0.0
    S. Lehtola, C. Steigemann, M. J.T. Oliveira, and M. A.L. Marques.,  SoftwareX 7, 1–5 (2018) (10.1016/j.softx.2017.11.002)

   => Composite Functional: B3LYP-D3ZERO2B <= 

    B3LYP-d3zero2b Hyb-GGA Exchange-Correlation Functional

    P. J. Stephens, F. J. Devlin, C. F. Chabalowski, and M. J. Frisch.,  J. Phys. Chem. 98, 11623 (1994) (10.1021/j100096a001)

    Deriv               =              1
    GGA                 =           TRUE
    Meta                =          FALSE

    Exchange Hybrid     =           TRUE
    MP2 Hybrid          =          FALSE

   => Exchange Functionals <=

    0.0800   Slater exchange
    0.7200         Becke 88

   => Exact (HF) Exchange <=

    0.2000               HF 

   => Correlation Functionals <=

    0.1900   Vosko, Wilk & Nusair (VWN5_RPA)
    0.8100   Lee, Yang & Parr

   => LibXC Density Thresholds  <==

    XC_HYB_GGA_XC_B3LYP:  1.00E-15 

   => Molecular Quadrature <=

    Radial Scheme          =       TREUTLER
    Pruning Scheme         =           NONE
    Nuclear Scheme         =       TREUTLER

    Blocking Scheme        =         OCTREE
    BS radius alpha        =              1
    Pruning alpha          =              1
    Radial Points          =             75
    Spherical Points       =            302
    Total Points           =        1423706
    Total Blocks           =           9482
    Max Points             =            256
    Max Functions          =           2109
    Weights Tolerance      =       1.00E-15

   => Loading Basis Set <=

    Name: (AUG-CC-PVTZ AUX)
    Role: JKFIT
    Keyword: DF_BASIS_SCF
    atoms 1-24, 37-60  entry C          line   162 file /storage/home/hcoda1/5/vlita3/.conda/envs/p4_qcml/share/psi4/basis/aug-cc-pvtz-jkfit.gbs 
    atoms 25-36, 61-72 entry H          line    70 file /storage/home/hcoda1/5/vlita3/.conda/envs/p4_qcml/share/psi4/basis/aug-cc-pvtz-jkfit.gbs 

  ==> Integral Setup <==

  ==> DiskDFJK: Density-Fitted J/K Matrices <==

    J tasked:                  Yes
    K tasked:                  Yes
    wK tasked:                  No
    OpenMP threads:             10
    Integrals threads:          10
    Memory [MiB]:           147036
    Algorithm:                Disk
    Integral Cache:           NONE
    Schwarz Cutoff:          1E-12
    Fitting Condition:       1E-10

   => Auxiliary Basis Set <=

  Basis Set: (AUG-CC-PVTZ AUX)
    Blend: AUG-CC-PVTZ-JKFIT
    Number of shells: 1776
    Number of basis functions: 6096
    Number of Cartesian functions: 7608
    Spherical Harmonics?: true
    Max angular momentum: 4

  Cached 50.0% of DFT collocation blocks in 28.297 [GiB].

  Minimum eigenvalue in the overlap matrix is 1.3049964763E-10.
  Reciprocal condition number of the overlap matrix is 4.3273072668E-12.
    Using canonical orthogonalization.
  Overall, 31 of 2760 possible MOs eliminated.


  ==> Pre-Iterations <==

  SCF Guess: Superposition of Atomic Densities via on-the-fly atomic UHF (no occupation information).

   -------------------------
    Irrep   Nso     Nmo    
   -------------------------
     Ag       718     710 
     Bg       662     655 
     Au       662     654 
     Bu       718     710 
   -------------------------
    Total    2760    2729
   -------------------------

  ==> Iterations <==

                           Total Energy        Delta E     RMS |[F,P]|

   @DF-RKS iter SAD: -1845.83663046248103   -1.84584e+03   0.00000e+00 
    Occupation by irrep:
             Ag    Bg    Au    Bu 
    DOCC [    44,   35,   35,   42 ]
    NA   [    44,   35,   35,   42 ]
    NB   [    44,   35,   35,   42 ]

   @DF-RKS iter   1: -1841.57589679051807    4.26073e+00   1.69858e-03 ADIIS/DIIS
    Occupation by irrep:
             Ag    Bg    Au    Bu 
    DOCC [    43,   35,   35,   43 ]
    NA   [    43,   35,   35,   43 ]
    NB   [    43,   35,   35,   43 ]

   @DF-RKS iter   2: -1827.17597287480703    1.43999e+01   3.69201e-03 ADIIS/DIIS
   @DF-RKS iter   3: -1842.86356321968901   -1.56876e+01   1.26320e-03 ADIIS/DIIS
   @DF-RKS iter   4: -1844.24424139841153   -1.38068e+00   5.03401e-04 ADIIS/DIIS
   @DF-RKS iter   5: -1844.46060084497822   -2.16359e-01   1.95551e-04 ADIIS/DIIS
   @DF-RKS iter   6: -1844.49136488865224   -3.07640e-02   6.34595e-05 DIIS
   @DF-RKS iter   7: -1844.49473161431274   -3.36673e-03   1.67702e-05 DIIS
   @DF-RKS iter   8: -1844.49492792983983   -1.96316e-04   9.90990e-06 DIIS
   @DF-RKS iter   9: -1844.49502785477262   -9.99249e-05   2.77701e-06 DIIS
   @DF-RKS iter  10: -1844.49503476128302   -6.90651e-06   1.03024e-06 DIIS
   @DF-RKS iter  11: -1844.49503580678947   -1.04551e-06   2.53396e-07 DIIS
   @DF-RKS iter  12: -1844.49503586429432   -5.75048e-08   8.09429e-08 DIIS
  Energy and wave function converged.


  ==> Post-Iterations <==

   Electrons on quadrature grid:
      Ntotal   =  312.0006111892 ; deviation = 6.112e-04 

    Orbital Energies [Eh]
    ---------------------

    Doubly Occupied:                                                      

       1Ag   -10.187909     1Bu   -10.187909     2Ag   -10.187495  
       2Bu   -10.187494     1Au   -10.187392     1Bg   -10.187392  
       3Bu   -10.187248     3Ag   -10.187248     4Ag   -10.186964  
       4Bu   -10.186964     2Bg   -10.186947     2Au   -10.186947  
       3Au   -10.186492     3Bg   -10.186491     5Bu   -10.186481  
       5Ag   -10.186481     6Ag   -10.186134     6Bu   -10.186134  
       4Bg   -10.185963     4Au   -10.185963     7Bu   -10.185936  
       7Ag   -10.185936     8Ag   -10.185528     8Bu   -10.185528  
       5Bg   -10.180184     5Au   -10.180183     9Bu   -10.180163  
       9Ag   -10.180163    10Ag   -10.179357    10Bu   -10.179357  
       6Au   -10.179356     6Bg   -10.179356    11Bu   -10.179038  
      11Ag   -10.179036     7Au   -10.179036     7Bg   -10.179036  
      12Bu   -10.178236    12Ag   -10.178236     8Bg   -10.178227  
       8Au   -10.178227     9Au   -10.177628     9Bg   -10.177627  
      13Ag   -10.177613    13Bu   -10.177613    10Au   -10.176573  
      10Bg   -10.176572    14Ag   -10.176569    14Bu   -10.176569  
      15Ag    -0.910104    15Bu    -0.906199    11Au    -0.873364  
      16Bu    -0.872772    16Ag    -0.870297    11Bg    -0.869754  
      17Ag    -0.825614    12Bg    -0.825579    17Bu    -0.823510  
      12Au    -0.823349    18Ag    -0.808698    18Bu    -0.806720  
      13Au    -0.777907    13Bg    -0.776470    19Bu    -0.762565  
      19Ag    -0.761391    14Au    -0.745892    20Ag    -0.744774  
      20Bu    -0.744703    14Bg    -0.743821    21Ag    -0.713902  
      15Au    -0.713189    15Bg    -0.712884    21Bu    -0.712440  
      16Bg    -0.636864    22Ag    -0.636492    22Bu    -0.636468  
      16Au    -0.636175    23Ag    -0.633301    17Au    -0.633215  
      23Bu    -0.632818    17Bg    -0.632743    24Ag    -0.626026  
      24Bu    -0.625677    18Au    -0.563545    18Bg    -0.563297  
      25Bu    -0.556206    25Ag    -0.556064    19Au    -0.540599  
      26Ag    -0.540135    26Bu    -0.539551    19Bg    -0.539462  
      20Au    -0.538187    20Bg    -0.537958    27Bu    -0.517577  
      27Ag    -0.517462    28Ag    -0.477146    21Au    -0.476672  
      21Bg    -0.476217    28Bu    -0.476159    22Bg    -0.460082  
      29Ag    -0.460064    29Bu    -0.459969    22Au    -0.459936  
      23Bg    -0.456435    30Bu    -0.456189    23Au    -0.456063  
      30Ag    -0.455976    31Ag    -0.444687    32Ag    -0.429123  
      31Bu    -0.428563    24Au    -0.422556    33Ag    -0.422483  
      32Bu    -0.422142    24Bg    -0.422048    25Au    -0.418772  
      25Bg    -0.418716    33Bu    -0.417247    34Bu    -0.403773  
      26Bg    -0.403433    26Au    -0.403356    34Ag    -0.403287  
      27Au    -0.401379    35Bu    -0.395562    35Ag    -0.378895  
      28Au    -0.375610    27Bg    -0.375519    36Bu    -0.375184  
      28Bg    -0.374948    36Ag    -0.374783    29Bg    -0.361628  
      29Au    -0.361390    30Au    -0.361190    37Ag    -0.360915  
      37Bu    -0.360877    30Bg    -0.360570    38Ag    -0.342764  
      31Bg    -0.341202    38Bu    -0.326664    31Au    -0.325166  
      39Ag    -0.323800    32Bg    -0.317858    32Au    -0.317665  
      40Ag    -0.317655    39Bu    -0.317452    40Bu    -0.309660  
      33Au    -0.279520    41Bu    -0.274585    33Bg    -0.267827  
      41Ag    -0.267044    34Au    -0.260358    42Ag    -0.252545  
      42Bu    -0.251492    34Bg    -0.246041    43Ag    -0.212897  
      35Au    -0.207871    35Bg    -0.204269    43Bu    -0.200564  

    Virtual:                                                              

      36Au    -0.062753    44Ag    -0.062129    36Bg    -0.056241  
      44Bu    -0.055912    37Bg    -0.027332    45Bu    -0.024642  
      45Ag    -0.024534    37Au    -0.020187    46Ag    -0.013863  
      46Bu    -0.009667    38Au    -0.009295    47Ag    -0.007513  
      47Bu    -0.007012    48Ag     0.000452    38Bg     0.000489  
      49Ag     0.009374    39Bg     0.009742    48Bu     0.010396  
      39Au     0.013512    49Bu     0.013652    40Au     0.014551  
      40Bg     0.016757    50Ag     0.022782    41Au     0.023029  
      50Bu     0.023134    51Ag     0.029985    41Bg     0.030168  
      51Bu     0.033419    52Ag     0.034019    42Au     0.034313  
      52Bu     0.036830    42Bg     0.039383    53Bu     0.040486  
      43Au     0.049542    54Bu     0.050051    53Ag     0.052351  
      44Au     0.053142    55Bu     0.054859    43Bg     0.056413  
      54Ag     0.057906    44Bg     0.058752    55Ag     0.058758  
      56Ag     0.060567    45Au     0.060990    56Bu     0.061754  
      57Ag     0.065101    45Bg     0.065223    58Ag     0.067740  
      57Bu     0.068653    46Bg     0.069495    46Au     0.069941  
      47Bg     0.072461    59Ag     0.073191    58Bu     0.073750  
      47Au     0.073943    59Bu     0.073997    60Ag     0.074757  
      60Bu     0.080320    48Au     0.080598    48Bg     0.082814  
      61Ag     0.083471    61Bu     0.084091    49Au     0.084130  
      62Ag     0.086665    49Bg     0.087916    50Au     0.089370  
      50Bg     0.090459    62Bu     0.091866    51Au     0.095567  
      51Bg     0.096339    63Ag     0.096816    52Au     0.098304  
      63Bu     0.098504    64Bu     0.102095    64Ag     0.102376  
      53Au     0.104825    65Bu     0.104968    66Bu     0.111318  
      52Bg     0.111537    65Ag     0.112698    67Bu     0.113574  
      54Au     0.114524    66Ag     0.117556    53Bg     0.118420  
      54Bg     0.120291    55Bg     0.122692    67Ag     0.123134  
      68Ag     0.124037    69Ag     0.126967    70Ag     0.127539  
      71Ag     0.130245    56Bg     0.130277    68Bu     0.131925  
      55Au     0.134513    56Au     0.137162    69Bu     0.137224  
      57Au     0.142049    70Bu     0.143455    57Bg     0.143551  
      72Ag     0.143599    58Bg     0.145242    71Bu     0.145277  
      59Bg     0.149138    73Ag     0.150200    72Bu     0.152218  
      58Au     0.153209    59Au     0.153991    74Ag     0.154748  
      60Au     0.156795    73Bu     0.156929    60Bg     0.157961  
      74Bu     0.162450    61Au     0.163524    75Bu     0.165642  
      75Ag     0.165869    62Au     0.169122    76Bu     0.169804  
      76Ag     0.172908    63Au     0.174231    77Ag     0.174657  
      61Bg     0.174677    77Bu     0.174936    78Ag     0.176667  
      62Bg     0.176753    64Au     0.177309    78Bu     0.177390  
      79Bu     0.182339    63Bg     0.182610    65Au     0.182700  
      80Bu     0.182966    81Bu     0.183856    64Bg     0.187386  
      79Ag     0.188183    66Au     0.188684    65Bg     0.188937  
      67Au     0.189717    80Ag     0.190907    82Bu     0.191237  
      81Ag     0.192295    82Ag     0.193869    66Bg     0.196249  
      83Bu     0.197367    84Bu     0.197881    85Bu     0.199774  
      83Ag     0.200271    67Bg     0.200348    84Ag     0.201469  
      68Bg     0.202036    68Au     0.202860    86Bu     0.205114  
      69Bg     0.206505    69Au     0.206619    85Ag     0.206675  
      86Ag     0.208693    70Au     0.209635    70Bg     0.210511  
      87Bu     0.210993    87Ag     0.211463    88Ag     0.213381  
      71Au     0.214390    72Au     0.216241    71Bg     0.216259  
      88Bu     0.216791    89Ag     0.217842    89Bu     0.218597  
      73Au     0.220240    90Bu     0.221426    74Au     0.222018  
      90Ag     0.222173    72Bg     0.223385    73Bg     0.225772  
      91Ag     0.226057    74Bg     0.227019    92Ag     0.231801  
      91Bu     0.232184    75Au     0.233734    75Bg     0.234302  
      93Ag     0.234534    92Bu     0.237978    76Au     0.238174  
      94Ag     0.239921    95Ag     0.241657    93Bu     0.241841  
      76Bg     0.242437    77Au     0.242844    96Ag     0.244845  
      77Bg     0.244891    78Bg     0.245493    97Ag     0.247194  
      78Au     0.249117    94Bu     0.250393    98Ag     0.251202  
      79Bg     0.251409    95Bu     0.251950    79Au     0.252121  
      80Bg     0.252939    96Bu     0.253262    97Bu     0.257476  
      80Au     0.257708    99Ag     0.257915    81Au     0.259392  
     100Ag     0.259629    81Bg     0.261601    98Bu     0.262962  
      99Bu     0.264188   101Ag     0.265781    82Bg     0.268849  
     102Ag     0.269367    82Au     0.272570   100Bu     0.272701  
      83Au     0.274847   103Ag     0.275278   101Bu     0.275637  
      83Bg     0.276351   102Bu     0.277425    84Au     0.278139  
      85Au     0.279264   104Ag     0.279469   105Ag     0.280038  
     103Bu     0.280569    84Bg     0.281099   104Bu     0.281274  
      86Au     0.281442   106Ag     0.281862    85Bg     0.283549  
      87Au     0.284831    86Bg     0.286881    88Au     0.288465  
     105Bu     0.288523   107Ag     0.289168    87Bg     0.290989  
     106Bu     0.291610    89Au     0.293545   107Bu     0.293576  
     108Ag     0.295532    88Bg     0.295602   108Bu     0.296837  
      90Au     0.300043   109Ag     0.300259    91Au     0.301347  
     109Bu     0.301620    89Bg     0.304007   110Ag     0.304129  
     110Bu     0.304796    90Bg     0.306767   111Ag     0.307579  
      91Bg     0.308948   111Bu     0.309648    92Au     0.312150  
     112Bu     0.316062    92Bg     0.316645   112Ag     0.316917  
      93Au     0.318087   113Ag     0.319434    93Bg     0.321467  
     113Bu     0.321621    94Au     0.324952   114Ag     0.326427  
     114Bu     0.326513    94Bg     0.327117    95Au     0.328021  
      96Au     0.330043   115Bu     0.330406   116Bu     0.332322  
     115Ag     0.333440    97Au     0.336739   116Ag     0.340533  
     117Bu     0.340949    95Bg     0.341999   117Ag     0.343091  
      98Au     0.344976    96Bg     0.345396   118Bu     0.349066  
     118Ag     0.349307    97Bg     0.354484    99Au     0.355156  
     119Bu     0.356025    98Bg     0.356232   119Ag     0.356578  
      99Bg     0.358744   120Ag     0.362197   120Bu     0.363607  
     100Bg     0.363852   121Ag     0.364052   121Bu     0.366225  
     101Bg     0.367176   122Bu     0.370248   100Au     0.370305  
     101Au     0.374872   122Ag     0.375803   102Bg     0.376553  
     123Bu     0.376587   124Bu     0.381679   102Au     0.382257  
     123Ag     0.383274   103Au     0.383499   125Bu     0.386201  
     124Ag     0.387307   103Bg     0.390461   125Ag     0.392261  
     104Bg     0.395832   105Bg     0.396660   126Ag     0.397583  
     127Ag     0.402234   104Au     0.403084   106Bg     0.404016  
     126Bu     0.404145   128Ag     0.405374   105Au     0.406551  
     127Bu     0.406795   128Bu     0.407663   129Ag     0.410776  
     106Au     0.412414   107Bg     0.412647   130Ag     0.414665  
     131Ag     0.416372   108Bg     0.416376   129Bu     0.417366  
     107Au     0.417437   108Au     0.421459   109Bg     0.421527  
     130Bu     0.423528   132Ag     0.424299   110Bg     0.426044  
     109Au     0.426385   133Ag     0.426993   131Bu     0.427752  
     132Bu     0.431210   110Au     0.432900   111Bg     0.432943  
     134Ag     0.433767   112Bg     0.434834   135Ag     0.434835  
     133Bu     0.435171   111Au     0.435734   112Au     0.437588  
     136Ag     0.438421   134Bu     0.440356   135Bu     0.441714  
     137Ag     0.443434   138Ag     0.446743   113Au     0.447012  
     136Bu     0.447036   139Ag     0.448409   113Bg     0.449661  
     140Ag     0.451031   114Bg     0.451130   114Au     0.451509  
     115Bg     0.453568   115Au     0.454214   137Bu     0.454296  
     141Ag     0.456856   116Au     0.457161   116Bg     0.457277  
     138Bu     0.457463   139Bu     0.458842   117Bg     0.460765  
     140Bu     0.461420   117Au     0.462755   118Au     0.465116  
     142Ag     0.465405   143Ag     0.467280   141Bu     0.467566  
     118Bg     0.468281   142Bu     0.469597   119Au     0.470189  
     119Bg     0.470322   143Bu     0.471526   144Ag     0.472498  
     144Bu     0.473820   120Au     0.473866   145Ag     0.474969  
     121Au     0.476240   120Bg     0.478327   146Ag     0.478890  
     145Bu     0.481327   121Bg     0.482592   146Bu     0.484963  
     147Ag     0.485495   147Bu     0.486688   122Bg     0.486880  
     123Bg     0.489549   122Au     0.490597   123Au     0.492820  
     148Bu     0.493099   148Ag     0.494641   149Ag     0.496306  
     124Au     0.497822   149Bu     0.497931   150Ag     0.498070  
     124Bg     0.498808   150Bu     0.502247   125Bg     0.502480  
     151Ag     0.502790   125Au     0.504194   152Ag     0.504433  
     126Au     0.506540   126Bg     0.509045   127Bg     0.509736  
     151Bu     0.511871   127Au     0.513373   128Au     0.517194  
     153Ag     0.519397   152Bu     0.519543   128Bg     0.519772  
     153Bu     0.521675   154Ag     0.523819   129Bg     0.524159  
     129Au     0.526157   154Bu     0.527280   155Ag     0.527363  
     155Bu     0.530807   130Bg     0.532155   156Ag     0.532654  
     131Bg     0.535443   130Au     0.536567   131Au     0.539029  
     156Bu     0.540044   132Bg     0.540640   157Bu     0.542566  
     157Ag     0.543998   132Au     0.544376   158Ag     0.547222  
     133Bg     0.547434   158Bu     0.550519   133Au     0.554493  
     159Bu     0.557678   134Bg     0.557764   134Au     0.559239  
     135Au     0.562750   159Ag     0.562885   160Ag     0.564729  
     136Au     0.565452   160Bu     0.565780   135Bg     0.566756  
     136Bg     0.569130   137Au     0.571527   161Bu     0.572129  
     161Ag     0.576888   137Bg     0.581812   138Au     0.583298  
     162Bu     0.583856   162Ag     0.585568   163Ag     0.586283  
     139Au     0.587657   138Bg     0.588468   163Bu     0.590471  
     164Ag     0.594482   140Au     0.598073   164Bu     0.599235  
     139Bg     0.599794   165Bu     0.600556   141Au     0.605135  
     166Bu     0.607285   165Ag     0.608073   142Au     0.608479  
     166Ag     0.608967   167Ag     0.610385   167Bu     0.611792  
     140Bg     0.612698   168Ag     0.617318   141Bg     0.617778  
     168Bu     0.618850   143Au     0.618995   142Bg     0.620783  
     169Ag     0.621354   170Ag     0.623591   143Bg     0.624764  
     144Au     0.625866   169Bu     0.628634   145Au     0.628894  
     144Bg     0.634084   171Ag     0.636668   146Au     0.637819  
     145Bg     0.638113   170Bu     0.638622   146Bg     0.639269  
     147Au     0.643045   171Bu     0.644002   147Bg     0.644314  
     172Ag     0.645232   172Bu     0.645899   148Au     0.647971  
     148Bg     0.648337   173Ag     0.648469   173Bu     0.654966  
     149Au     0.656594   174Ag     0.657189   174Bu     0.657545  
     149Bg     0.660526   175Ag     0.661969   176Ag     0.664000  
     175Bu     0.664011   150Bg     0.666475   176Bu     0.667498  
     150Au     0.667750   177Bu     0.672169   151Au     0.674519  
     177Ag     0.675461   151Bg     0.676979   178Ag     0.677257  
     152Bg     0.681901   152Au     0.681945   178Bu     0.682608  
     179Ag     0.685215   179Bu     0.686700   153Bg     0.687116  
     153Au     0.690503   180Ag     0.691495   180Bu     0.691700  
     181Ag     0.693507   154Au     0.696970   154Bg     0.698749  
     155Bg     0.700451   181Bu     0.700607   155Au     0.700747  
     182Ag     0.702000   156Bg     0.704008   156Au     0.704974  
     183Ag     0.709405   182Bu     0.709894   157Au     0.711060  
     184Ag     0.711474   183Bu     0.711896   157Bg     0.714721  
     184Bu     0.716585   185Ag     0.719821   158Bg     0.720697  
     158Au     0.721006   185Bu     0.722950   159Au     0.724095  
     186Ag     0.725334   186Bu     0.726219   159Bg     0.729758  
     160Au     0.729919   160Bg     0.730235   187Ag     0.731681  
     187Bu     0.732199   161Bg     0.734539   188Ag     0.736234  
     161Au     0.738557   188Bu     0.738721   189Bu     0.739289  
     189Ag     0.742947   162Bg     0.743089   162Au     0.743240  
     190Ag     0.746968   163Bg     0.749455   190Bu     0.750067  
     191Ag     0.750921   163Au     0.751168   164Bg     0.755334  
     192Ag     0.759462   165Bg     0.761596   164Au     0.765028  
     193Ag     0.765145   191Bu     0.767567   192Bu     0.770176  
     165Au     0.771406   194Ag     0.773784   166Au     0.774052  
     166Bg     0.775133   193Bu     0.775768   194Bu     0.778013  
     167Au     0.779721   195Ag     0.781572   167Bg     0.783934  
     195Bu     0.785152   196Ag     0.786145   168Bg     0.786159  
     196Bu     0.788399   168Au     0.788508   169Bg     0.789900  
     197Ag     0.791238   197Bu     0.793342   198Ag     0.794248  
     169Au     0.795589   170Bg     0.796729   170Au     0.797148  
     199Ag     0.800063   171Au     0.801885   198Bu     0.802187  
     200Ag     0.803843   201Ag     0.807726   171Bg     0.809573  
     202Ag     0.809606   172Au     0.810499   199Bu     0.811006  
     200Bu     0.811561   173Au     0.811766   172Bg     0.812158  
     201Bu     0.815086   173Bg     0.815347   202Bu     0.818345  
     174Bg     0.820106   174Au     0.820783   203Ag     0.821077  
     175Au     0.825470   204Ag     0.826751   203Bu     0.827682  
     204Bu     0.828310   205Ag     0.829268   175Bg     0.830111  
     176Au     0.830869   205Bu     0.833010   206Ag     0.834030  
     176Bg     0.834301   207Ag     0.835894   206Bu     0.838153  
     177Bg     0.838220   177Au     0.838413   207Bu     0.841425  
     178Au     0.841921   208Ag     0.842735   208Bu     0.846135  
     178Bg     0.846516   179Au     0.847080   180Au     0.848678  
     209Ag     0.849496   209Bu     0.851875   179Bg     0.852122  
     181Au     0.855220   210Ag     0.856793   180Bg     0.857171  
     211Ag     0.857590   210Bu     0.857967   211Bu     0.860306  
     182Au     0.860958   212Ag     0.861300   181Bg     0.863997  
     212Bu     0.864027   213Ag     0.864202   213Bu     0.866887  
     183Au     0.867354   182Bg     0.868723   214Bu     0.870740  
     184Au     0.872379   183Bg     0.873750   214Ag     0.875864  
     184Bg     0.876979   215Ag     0.878959   185Au     0.879158  
     215Bu     0.882861   185Bg     0.886061   216Ag     0.886853  
     216Bu     0.887435   186Bg     0.889772   186Au     0.890095  
     187Au     0.892682   187Bg     0.893005   217Ag     0.893305  
     188Bg     0.896741   217Bu     0.899364   218Ag     0.900632  
     219Ag     0.901412   218Bu     0.902087   188Au     0.902704  
     189Bg     0.902736   220Ag     0.909329   219Bu     0.911720  
     190Bg     0.912838   220Bu     0.914083   221Ag     0.915608  
     189Au     0.916133   190Au     0.919802   191Au     0.921879  
     221Bu     0.923728   191Bg     0.927497   222Ag     0.930269  
     222Bu     0.930401   192Bg     0.931324   223Ag     0.932756  
     192Au     0.933384   193Au     0.935287   223Bu     0.936523  
     193Bg     0.936681   224Ag     0.937149   225Ag     0.940445  
     194Au     0.946116   194Bg     0.948742   195Au     0.949515  
     195Bg     0.951184   224Bu     0.951214   225Bu     0.953958  
     226Ag     0.955783   227Ag     0.963901   196Au     0.964428  
     226Bu     0.964537   196Bg     0.966627   197Bg     0.967944  
     228Ag     0.968952   198Bg     0.970143   197Au     0.970766  
     229Ag     0.971133   198Au     0.971325   227Bu     0.971728  
     228Bu     0.977226   230Ag     0.978156   199Bg     0.981176  
     199Au     0.981694   229Bu     0.981957   200Au     0.982180  
     200Bg     0.986247   231Ag     0.986404   230Bu     0.988080  
     232Ag     0.988409   201Au     0.990350   233Ag     0.990885  
     201Bg     0.991677   202Au     0.995070   202Bg     0.996192  
     231Bu     0.996625   232Bu     1.000799   203Au     1.002458  
     233Bu     1.005850   203Bg     1.009177   234Ag     1.009473  
     204Au     1.009530   234Bu     1.011567   235Ag     1.014596  
     204Bg     1.015707   235Bu     1.019054   236Ag     1.020474  
     205Au     1.021076   205Bg     1.021732   236Bu     1.023723  
     237Ag     1.025199   206Au     1.025330   237Bu     1.029387  
     206Bg     1.029730   238Ag     1.030745   207Au     1.031669  
     207Bg     1.034870   238Bu     1.038749   208Au     1.039225  
     208Bg     1.039575   239Ag     1.040320   240Ag     1.042840  
     239Bu     1.043590   209Au     1.045760   209Bg     1.046139  
     210Bg     1.049587   240Bu     1.050334   210Au     1.050701  
     241Bu     1.054268   211Bg     1.055663   212Bg     1.058211  
     241Ag     1.058794   242Ag     1.058850   242Bu     1.061568  
     211Au     1.062520   243Bu     1.063816   212Au     1.066946  
     244Bu     1.072554   213Bg     1.074213   243Ag     1.074304  
     244Ag     1.074635   213Au     1.074897   245Bu     1.079039  
     214Bg     1.079344   245Ag     1.081708   246Bu     1.084916  
     214Au     1.086478   246Ag     1.088728   215Au     1.089643  
     247Ag     1.090302   247Bu     1.092614   215Bg     1.093180  
     248Bu     1.095001   216Bg     1.095554   216Au     1.099877  
     249Bu     1.101547   248Ag     1.103889   217Bg     1.104250  
     249Ag     1.106080   217Au     1.108052   218Bg     1.109880  
     250Bu     1.110184   218Au     1.112172   250Ag     1.113692  
     251Bu     1.116467   219Bg     1.118804   251Ag     1.119187  
     220Bg     1.121851   219Au     1.123842   252Ag     1.123982  
     252Bu     1.123988   220Au     1.130536   253Ag     1.131001  
     253Bu     1.132918   221Au     1.134324   254Bu     1.135269  
     221Bg     1.137912   255Bu     1.140188   254Ag     1.140433  
     222Au     1.142624   222Bg     1.144550   255Ag     1.146477  
     256Bu     1.148084   257Bu     1.150606   223Bg     1.151459  
     256Ag     1.151528   223Au     1.153732   257Ag     1.159345  
     224Bg     1.160265   258Ag     1.162655   258Bu     1.163840  
     224Au     1.166250   259Ag     1.166869   225Bg     1.167906  
     225Au     1.169860   260Ag     1.170079   259Bu     1.173298  
     226Bg     1.174816   260Bu     1.178566   261Ag     1.178577  
     226Au     1.180043   227Bg     1.181575   261Bu     1.182878  
     262Bu     1.184474   227Au     1.189692   228Bg     1.191332  
     262Ag     1.191450   263Ag     1.191862   229Bg     1.195125  
     228Au     1.195912   263Bu     1.196085   264Ag     1.198471  
     229Au     1.200394   264Bu     1.202600   230Bg     1.202930  
     230Au     1.204655   231Bg     1.209298   265Ag     1.213752  
     265Bu     1.214215   231Au     1.215012   266Bu     1.216342  
     232Au     1.219174   266Ag     1.220177   232Bg     1.221098  
     267Bu     1.225264   267Ag     1.229994   268Bu     1.230819  
     233Bg     1.231666   233Au     1.232832   234Bg     1.235762  
     268Ag     1.236121   235Bg     1.239758   234Au     1.240694  
     269Ag     1.240889   269Bu     1.243736   270Ag     1.244564  
     236Bg     1.247612   235Au     1.248434   270Bu     1.252991  
     237Bg     1.255324   236Au     1.256754   271Bu     1.257738  
     271Ag     1.259165   272Bu     1.261905   237Au     1.265165  
     273Bu     1.266675   238Bg     1.266781   238Au     1.267057  
     272Ag     1.268143   273Ag     1.269930   239Bg     1.271359  
     274Bu     1.274295   274Ag     1.276560   240Bg     1.278558  
     239Au     1.280483   275Bu     1.281883   276Bu     1.285346  
     241Bg     1.285876   275Ag     1.289432   242Bg     1.290948  
     277Bu     1.294561   276Ag     1.295060   240Au     1.295497  
     277Ag     1.299079   243Bg     1.300385   241Au     1.301514  
     242Au     1.303789   278Ag     1.305072   278Bu     1.306799  
     243Au     1.311471   279Bu     1.314070   244Au     1.314537  
     244Bg     1.316488   279Ag     1.317300   245Bg     1.317340  
     246Bg     1.322699   280Ag     1.327063   280Bu     1.327240  
     245Au     1.327925   247Bg     1.330825   281Ag     1.332483  
     281Bu     1.334061   246Au     1.334785   248Bg     1.336946  
     282Ag     1.337263   282Bu     1.337334   247Au     1.340745  
     283Bu     1.341400   283Ag     1.342437   248Au     1.345006  
     284Bu     1.345331   284Ag     1.350225   249Bg     1.352420  
     250Bg     1.354563   249Au     1.355485   285Ag     1.356717  
     285Bu     1.357852   250Au     1.358253   286Ag     1.359727  
     251Au     1.361065   251Bg     1.364102   286Bu     1.365260  
     287Bu     1.369154   252Bg     1.370299   287Ag     1.370614  
     288Ag     1.372898   252Au     1.373042   288Bu     1.379272  
     253Au     1.379461   253Bg     1.381118   254Bg     1.382279  
     289Bu     1.383704   255Bg     1.384120   254Au     1.386100  
     289Ag     1.386312   255Au     1.389273   290Bu     1.390145  
     256Bg     1.391311   257Bg     1.392842   290Ag     1.393156  
     291Ag     1.395677   292Ag     1.401182   291Bu     1.401579  
     292Bu     1.402234   256Au     1.403521   258Bg     1.404466  
     257Au     1.404860   259Bg     1.411143   293Ag     1.413319  
     258Au     1.415007   294Ag     1.415062   259Au     1.417374  
     293Bu     1.418281   294Bu     1.420382   260Bg     1.423163  
     260Au     1.423501   295Ag     1.424962   296Ag     1.430887  
     295Bu     1.433450   261Bg     1.435056   296Bu     1.437393  
     261Au     1.437422   262Bg     1.439458   297Ag     1.443596  
     297Bu     1.443867   263Bg     1.444118   262Au     1.444499  
     298Bu     1.447627   298Ag     1.447962   263Au     1.449195  
     264Au     1.450741   299Bu     1.452174   299Ag     1.455118  
     300Ag     1.458333   264Bg     1.459083   265Au     1.460745  
     300Bu     1.462404   301Bu     1.463646   266Au     1.464302  
     301Ag     1.468385   265Bg     1.470426   267Au     1.471252  
     302Ag     1.472576   302Bu     1.472741   266Bg     1.473845  
     303Ag     1.474516   267Bg     1.475386   303Bu     1.476486  
     304Ag     1.481288   268Au     1.481364   268Bg     1.481677  
     304Bu     1.483055   269Au     1.486581   269Bg     1.487754  
     305Ag     1.491278   270Bg     1.492559   306Ag     1.494119  
     270Au     1.496047   307Ag     1.496539   305Bu     1.496905  
     271Au     1.500221   271Bg     1.504577   308Ag     1.505873  
     306Bu     1.505952   272Bg     1.509205   309Ag     1.509600  
     307Bu     1.509725   272Au     1.510255   273Bg     1.514131  
     273Au     1.514847   274Au     1.515772   274Bg     1.518025  
     308Bu     1.518514   310Ag     1.520313   309Bu     1.521178  
     311Ag     1.522821   310Bu     1.523761   275Bg     1.525055  
     275Au     1.527762   311Bu     1.531870   312Ag     1.531917  
     276Au     1.533048   276Bg     1.536188   277Au     1.537006  
     312Bu     1.538732   313Ag     1.539191   313Bu     1.540963  
     314Ag     1.541266   278Au     1.544439   277Bg     1.545290  
     315Ag     1.547818   279Au     1.548618   278Bg     1.550239  
     316Ag     1.552302   314Bu     1.553410   280Au     1.559749  
     315Bu     1.561231   317Ag     1.562147   279Bg     1.563007  
     281Au     1.563211   280Bg     1.564625   316Bu     1.567132  
     282Au     1.568958   318Ag     1.569750   317Bu     1.570172  
     281Bg     1.570895   318Bu     1.572532   282Bg     1.575944  
     283Bg     1.578034   283Au     1.579935   319Ag     1.579958  
     319Bu     1.583632   320Bu     1.585258   284Bg     1.585889  
     320Ag     1.586397   284Au     1.588922   321Bu     1.595592  
     321Ag     1.596349   285Bg     1.596681   285Au     1.598067  
     286Au     1.599765   322Ag     1.600988   322Bu     1.602690  
     323Ag     1.605988   286Bg     1.607761   323Bu     1.609482  
     287Bg     1.611505   287Au     1.612257   324Ag     1.614530  
     288Bg     1.616543   324Bu     1.621462   325Ag     1.622633  
     289Bg     1.623432   325Bu     1.624994   288Au     1.626303  
     289Au     1.627068   326Bu     1.628541   290Bg     1.628799  
     326Ag     1.631744   327Ag     1.636207   290Au     1.636213  
     327Bu     1.636283   291Au     1.638592   328Bu     1.641796  
     328Ag     1.641946   291Bg     1.643878   292Au     1.645825  
     329Bu     1.647170   329Ag     1.648308   292Bg     1.649040  
     330Bu     1.649456   330Ag     1.650889   293Bg     1.655993  
     331Ag     1.656445   293Au     1.659430   331Bu     1.659951  
     294Bg     1.663688   332Ag     1.664578   295Bg     1.666019  
     294Au     1.666190   333Ag     1.667549   295Au     1.670390  
     332Bu     1.672977   296Bg     1.675060   333Bu     1.678766  
     334Bu     1.682258   334Ag     1.682572   296Au     1.687840  
     335Ag     1.688570   297Au     1.690973   297Bg     1.691599  
     335Bu     1.692261   298Bg     1.698215   298Au     1.698253  
     336Bu     1.698769   299Au     1.701648   299Bg     1.704779  
     300Au     1.704896   336Ag     1.705329   337Ag     1.706255  
     338Ag     1.709064   301Au     1.709412   337Bu     1.712369  
     300Bg     1.717316   339Ag     1.717436   338Bu     1.720282  
     301Bg     1.720637   340Ag     1.722294   339Bu     1.722517  
     302Bg     1.729635   302Au     1.730829   340Bu     1.731243  
     341Ag     1.731830   303Bg     1.732263   304Bg     1.734687  
     303Au     1.734837   342Ag     1.736227   341Bu     1.739203  
     342Bu     1.741273   343Ag     1.745892   305Bg     1.746475  
     304Au     1.747125   343Bu     1.748173   344Ag     1.750048  
     306Bg     1.755256   305Au     1.758459   307Bg     1.759060  
     344Bu     1.759571   345Ag     1.763738   306Au     1.765535  
     345Bu     1.771960   346Ag     1.773315   307Au     1.775115  
     308Bg     1.778947   346Bu     1.779975   308Au     1.782265  
     347Ag     1.785955   309Bg     1.789940   347Bu     1.789969  
     348Ag     1.793201   309Au     1.793724   310Bg     1.796108  
     311Bg     1.798314   348Bu     1.801021   312Bg     1.806357  
     349Bu     1.808642   310Au     1.810910   349Ag     1.811375  
     350Bu     1.817488   350Ag     1.818204   311Au     1.819085  
     312Au     1.822492   351Bu     1.823241   351Ag     1.827005  
     352Bu     1.832219   313Bg     1.833062   352Ag     1.833878  
     314Bg     1.836105   313Au     1.844759   353Bu     1.845780  
     353Ag     1.850331   315Bg     1.851686   314Au     1.854519  
     315Au     1.861981   354Ag     1.866026   316Bg     1.867990  
     355Ag     1.868955   354Bu     1.869073   316Au     1.869680  
     355Bu     1.874029   317Au     1.874980   356Bu     1.875855  
     317Bg     1.883422   356Ag     1.883429   318Au     1.883977  
     318Bg     1.885127   357Bu     1.888147   319Bg     1.890785  
     319Au     1.890860   357Ag     1.892428   320Au     1.898913  
     320Bg     1.899728   358Bu     1.910488   321Au     1.911375  
     358Ag     1.912427   359Ag     1.920222   321Bg     1.921586  
     322Au     1.923149   359Bu     1.924105   360Ag     1.925179  
     323Au     1.926865   322Bg     1.930596   324Au     1.934152  
     360Bu     1.936639   361Ag     1.937942   323Bg     1.938459  
     361Bu     1.940079   362Ag     1.940635   324Bg     1.940942  
     362Bu     1.943285   325Au     1.945973   325Bg     1.949846  
     363Ag     1.952321   364Ag     1.953613   363Bu     1.955041  
     326Au     1.955747   326Bg     1.961152   365Ag     1.964779  
     327Au     1.967366   364Bu     1.971374   327Bg     1.974433  
     365Bu     1.975538   366Ag     1.977103   328Bg     1.978991  
     366Bu     1.980002   328Au     1.982704   367Ag     1.984191  
     329Au     1.987793   368Ag     1.990154   367Bu     1.991602  
     329Bg     1.992779   369Ag     1.996082   330Au     1.996499  
     368Bu     1.997348   369Bu     2.001119   330Bg     2.001199  
     331Au     2.012187   370Ag     2.013349   370Bu     2.013979  
     331Bg     2.014255   332Au     2.016757   332Bg     2.018933  
     371Ag     2.020560   333Au     2.023039   372Ag     2.024906  
     371Bu     2.027167   373Ag     2.031055   333Bg     2.031583  
     372Bu     2.033592   374Ag     2.035906   334Bg     2.039541  
     373Bu     2.039846   334Au     2.041593   374Bu     2.044081  
     335Bg     2.046287   375Ag     2.046439   375Bu     2.047059  
     335Au     2.048461   336Au     2.054064   376Ag     2.054069  
     336Bg     2.056418   337Au     2.060615   338Au     2.061509  
     377Ag     2.065559   376Bu     2.066340   337Bg     2.066465  
     377Bu     2.069241   378Ag     2.070106   338Bg     2.074947  
     339Au     2.077961   340Au     2.078974   378Bu     2.085461  
     339Bg     2.085753   341Au     2.087050   379Ag     2.091202  
     380Ag     2.097765   340Bg     2.098241   379Bu     2.099243  
     380Bu     2.102690   342Au     2.103699   341Bg     2.105236  
     342Bg     2.108422   343Au     2.110287   381Ag     2.111006  
     382Ag     2.114189   343Bg     2.116732   381Bu     2.118206  
     344Au     2.119268   344Bg     2.120205   383Ag     2.124116  
     384Ag     2.128398   345Bg     2.131358   382Bu     2.134911  
     346Bg     2.139889   345Au     2.140470   346Au     2.142134  
     385Ag     2.148025   383Bu     2.150038   347Au     2.150281  
     347Bg     2.150747   384Bu     2.152399   385Bu     2.154892  
     386Ag     2.161371   348Bg     2.164117   386Bu     2.167444  
     387Ag     2.169234   348Au     2.170798   388Ag     2.175343  
     349Au     2.175579   349Bg     2.175796   389Ag     2.182165  
     350Bg     2.184459   350Au     2.185121   387Bu     2.185476  
     388Bu     2.187551   390Ag     2.192921   351Bg     2.194024  
     389Bu     2.199271   391Ag     2.203664   390Bu     2.208070  
     351Au     2.214074   352Bg     2.214837   392Ag     2.215929  
     391Bu     2.217117   393Ag     2.218230   352Au     2.220169  
     353Bg     2.221772   353Au     2.227710   392Bu     2.231139  
     354Bg     2.232167   394Ag     2.235277   393Bu     2.237794  
     354Au     2.239815   355Au     2.243263   395Ag     2.244448  
     355Bg     2.248180   394Bu     2.251464   356Au     2.251471  
     395Bu     2.255873   396Ag     2.257926   356Bg     2.258533  
     357Bg     2.262105   357Au     2.263870   396Bu     2.269338  
     397Ag     2.269712   358Au     2.275065   358Bg     2.279221  
     398Ag     2.279898   397Bu     2.281159   399Ag     2.282696  
     359Au     2.283039   360Au     2.285231   359Bg     2.289196  
     398Bu     2.292046   360Bg     2.294633   400Ag     2.295820  
     399Bu     2.300935   361Au     2.301242   401Ag     2.306201  
     361Bg     2.309199   402Ag     2.312054   400Bu     2.314944  
     362Bg     2.316301   401Bu     2.319784   363Bg     2.320583  
     403Ag     2.323704   362Au     2.324544   402Bu     2.325079  
     364Bg     2.326205   363Au     2.329603   403Bu     2.330121  
     404Ag     2.332282   404Bu     2.333019   364Au     2.336586  
     405Ag     2.340524   365Au     2.348577   405Bu     2.354165  
     366Au     2.354309   365Bg     2.354419   406Ag     2.357937  
     366Bg     2.363301   367Au     2.363571   407Ag     2.364918  
     406Bu     2.371261   367Bg     2.376412   408Ag     2.378688  
     368Bg     2.379691   368Au     2.380828   407Bu     2.387219  
     409Ag     2.387561   369Bg     2.391069   408Bu     2.392329  
     369Au     2.407193   410Ag     2.407221   370Bg     2.408723  
     409Bu     2.409872   411Ag     2.411036   370Au     2.411945  
     410Bu     2.417577   412Ag     2.423748   371Au     2.424240  
     371Bg     2.426937   372Bg     2.432183   372Au     2.432426  
     411Bu     2.432979   413Ag     2.437940   412Bu     2.445621  
     414Ag     2.447262   373Bg     2.449926   373Au     2.451013  
     413Bu     2.454674   414Bu     2.455534   415Ag     2.456650  
     374Bg     2.458229   416Ag     2.462513   375Bg     2.465504  
     374Au     2.468387   375Au     2.469915   376Bg     2.472768  
     417Ag     2.479234   415Bu     2.479599   418Ag     2.483272  
     416Bu     2.485183   376Au     2.485338   377Bg     2.487270  
     417Bu     2.491257   418Bu     2.502022   378Bg     2.504997  
     377Au     2.505785   419Ag     2.509227   419Bu     2.512856  
     420Ag     2.517076   378Au     2.519931   379Bg     2.523493  
     379Au     2.530016   420Bu     2.530044   421Ag     2.531283  
     380Bg     2.533818   422Ag     2.538692   421Bu     2.547369  
     381Bg     2.548100   380Au     2.549087   422Bu     2.551263  
     423Ag     2.551596   382Bg     2.554306   381Au     2.555927  
     423Bu     2.556807   382Au     2.559335   424Bu     2.560875  
     383Bg     2.563155   424Ag     2.565214   425Ag     2.572181  
     425Bu     2.577686   383Au     2.581277   426Bu     2.582025  
     426Ag     2.586558   384Bg     2.587553   427Ag     2.594643  
     384Au     2.596451   385Bg     2.600092   386Bg     2.600838  
     385Au     2.603811   427Bu     2.607370   428Ag     2.618623  
     387Bg     2.620038   386Au     2.620107   428Bu     2.620763  
     429Ag     2.627463   388Bg     2.628877   429Bu     2.630429  
     387Au     2.632315   430Bu     2.635849   430Ag     2.638120  
     388Au     2.638194   389Au     2.641266   389Bg     2.644003  
     431Ag     2.649449   431Bu     2.656615   432Ag     2.664247  
     390Au     2.664520   390Bg     2.664740   391Au     2.664991  
     433Ag     2.666275   391Bg     2.670085   434Ag     2.676224  
     392Bg     2.676430   392Au     2.677630   432Bu     2.682364  
     433Bu     2.684547   435Ag     2.685666   393Bg     2.686709  
     434Bu     2.693241   394Bg     2.693977   393Au     2.701796  
     395Bg     2.706801   436Ag     2.708432   394Au     2.710372  
     396Bg     2.718792   435Bu     2.720584   437Ag     2.726624  
     395Au     2.727959   436Bu     2.732765   438Ag     2.735564  
     396Au     2.739724   397Bg     2.744685   398Bg     2.749666  
     397Au     2.751439   439Ag     2.755371   437Bu     2.760778  
     399Bg     2.761633   438Bu     2.764111   440Ag     2.764483  
     398Au     2.768615   439Bu     2.773433   440Bu     2.780214  
     399Au     2.786418   441Ag     2.801850   400Au     2.804316  
     400Bg     2.809350   442Ag     2.813290   441Bu     2.817583  
     401Bg     2.821424   442Bu     2.835083   401Au     2.838153  
     402Bg     2.839910   443Ag     2.842013   402Au     2.871183  
     403Bg     2.875663   443Bu     2.875776   404Bg     2.882219  
     403Au     2.893406   444Bu     2.915077   444Ag     2.915947  
     445Bu     2.919812   404Au     2.930242   405Bg     2.935606  
     445Ag     2.940067   405Au     2.948661   406Bg     2.951013  
     446Bu     2.957983   406Au     2.959336   407Au     2.968422  
     446Ag     2.971594   447Bu     2.982110   407Bg     2.983280  
     448Bu     2.989911   408Au     2.991362   447Ag     2.992004  
     409Au     3.003686   448Ag     3.004977   408Bg     3.010473  
     449Bu     3.013148   449Ag     3.019226   409Bg     3.019456  
     410Au     3.023694   450Ag     3.028603   451Ag     3.036037  
     410Bg     3.037338   411Bg     3.040072   411Au     3.044753  
     450Bu     3.044829   452Ag     3.049568   451Bu     3.051434  
     412Au     3.051745   412Bg     3.059605   452Bu     3.060131  
     453Ag     3.069912   413Au     3.072577   453Bu     3.073281  
     454Bu     3.078575   454Ag     3.079505   413Bg     3.081760  
     414Bg     3.085920   455Ag     3.089659   414Au     3.090026  
     415Au     3.092662   456Ag     3.095224   457Ag     3.108825  
     455Bu     3.109415   415Bg     3.118041   416Bg     3.129090  
     456Bu     3.129894   458Ag     3.130335   416Au     3.132746  
     459Ag     3.133802   457Bu     3.133984   417Au     3.134469  
     417Bg     3.142306   458Bu     3.148025   418Au     3.151349  
     459Bu     3.154089   418Bg     3.155972   460Bu     3.163233  
     419Au     3.165097   419Bg     3.171568   460Ag     3.171623  
     420Au     3.172432   461Bu     3.179415   461Ag     3.184975  
     421Au     3.187710   420Bg     3.189376   462Bu     3.190387  
     421Bg     3.193296   462Ag     3.194030   422Au     3.205066  
     463Ag     3.209502   463Bu     3.209528   422Bg     3.217183  
     464Ag     3.219204   465Ag     3.222489   466Ag     3.226889  
     464Bu     3.228451   423Au     3.232625   423Bg     3.236378  
     467Ag     3.239445   465Bu     3.239492   424Au     3.249622  
     466Bu     3.249935   467Bu     3.255672   424Bg     3.256015  
     425Au     3.258617   468Ag     3.258629   425Bg     3.261532  
     468Bu     3.263208   469Ag     3.265338   426Bg     3.266051  
     469Bu     3.267439   470Bu     3.277303   470Ag     3.277303  
     471Ag     3.278199   426Au     3.279919   427Bg     3.288111  
     472Ag     3.289525   471Bu     3.289533   427Au     3.289622  
     428Au     3.296745   472Bu     3.297293   428Bg     3.300037  
     473Bu     3.306899   473Ag     3.309207   429Bg     3.311054  
     429Au     3.311656   430Bg     3.315069   474Bu     3.317429  
     430Au     3.320359   431Bg     3.323641   431Au     3.324811  
     474Ag     3.327125   475Bu     3.327399   432Au     3.329816  
     475Ag     3.333776   432Bg     3.340828   476Ag     3.341263  
     477Ag     3.341790   433Bg     3.343777   476Bu     3.344171  
     477Bu     3.345082   478Bu     3.351288   433Au     3.351736  
     478Ag     3.352342   434Bg     3.358092   479Bu     3.360418  
     435Bg     3.365724   479Ag     3.367051   436Bg     3.368653  
     434Au     3.368780   480Ag     3.372754   481Ag     3.376683  
     480Bu     3.377712   435Au     3.378559   481Bu     3.381718  
     436Au     3.382831   482Ag     3.383843   437Bg     3.384858  
     437Au     3.391487   483Ag     3.393392   482Bu     3.394662  
     438Bg     3.399078   438Au     3.399098   483Bu     3.400772  
     439Bg     3.403818   439Au     3.406555   484Ag     3.406721  
     485Ag     3.410922   484Bu     3.411039   485Bu     3.413000  
     486Ag     3.413286   487Ag     3.419402   440Bg     3.420741  
     440Au     3.423479   486Bu     3.427130   441Bg     3.428249  
     441Au     3.429717   487Bu     3.439177   442Au     3.439614  
     488Ag     3.442468   442Bg     3.445574   488Bu     3.448836  
     443Bg     3.450155   489Ag     3.453259   444Bg     3.455397  
     443Au     3.456202   489Bu     3.457333   490Ag     3.458947  
     444Au     3.460904   445Bg     3.466370   491Ag     3.468547  
     445Au     3.469146   446Bg     3.474672   490Bu     3.474892  
     492Ag     3.479222   447Bg     3.479470   446Au     3.482561  
     491Bu     3.483833   493Ag     3.485608   447Au     3.489006  
     494Ag     3.491060   448Au     3.495493   492Bu     3.498052  
     493Bu     3.498508   448Bg     3.499785   449Bg     3.501640  
     495Ag     3.505208   449Au     3.510205   450Bg     3.513034  
     494Bu     3.513962   496Ag     3.515307   451Bg     3.517307  
     495Bu     3.521607   450Au     3.522012   496Bu     3.528936  
     452Bg     3.529305   451Au     3.529951   497Ag     3.530838  
     497Bu     3.534660   452Au     3.535000   453Bg     3.537405  
     498Bu     3.537701   498Ag     3.540025   453Au     3.546397  
     499Ag     3.546517   454Bg     3.550896   454Au     3.552789  
     500Ag     3.554709   499Bu     3.557834   455Au     3.559391  
     456Au     3.568323   500Bu     3.570028   501Ag     3.570548  
     455Bg     3.571051   502Ag     3.575970   501Bu     3.576479  
     457Au     3.578673   456Bg     3.580391   502Bu     3.581974  
     503Ag     3.582906   503Bu     3.584289   458Au     3.585123  
     457Bg     3.590982   504Bu     3.591694   504Ag     3.593333  
     458Bg     3.594827   459Au     3.598958   505Ag     3.605699  
     460Au     3.607715   459Bg     3.608923   505Bu     3.609049  
     506Ag     3.609910   460Bg     3.615012   506Bu     3.615675  
     507Ag     3.620096   507Bu     3.621054   461Bg     3.622501  
     508Ag     3.625223   461Au     3.626997   462Bg     3.629781  
     508Bu     3.630151   509Ag     3.634924   462Au     3.634987  
     510Ag     3.637776   463Bg     3.639589   509Bu     3.639756  
     510Bu     3.649461   463Au     3.650703   464Bg     3.651637  
     511Ag     3.654079   511Bu     3.655152   512Ag     3.657948  
     465Bg     3.658146   464Au     3.658467   512Bu     3.659324  
     465Au     3.667323   466Bg     3.668815   467Bg     3.671025  
     513Ag     3.674888   466Au     3.676369   514Ag     3.676855  
     467Au     3.677168   513Bu     3.683998   514Bu     3.692022  
     468Bg     3.695536   469Bg     3.697141   515Ag     3.697655  
     516Ag     3.701273   515Bu     3.702099   468Au     3.707595  
     516Bu     3.708984   470Bg     3.716472   517Ag     3.717300  
     517Bu     3.719724   469Au     3.721264   471Bg     3.725142  
     518Bu     3.727871   470Au     3.729397   472Bg     3.730169  
     518Ag     3.730800   519Ag     3.731063   471Au     3.737592  
     519Bu     3.741486   520Ag     3.742775   472Au     3.743941  
     520Bu     3.747452   521Ag     3.748279   521Bu     3.750978  
     522Ag     3.754265   473Au     3.756103   473Bg     3.757648  
     474Bg     3.759519   522Bu     3.760241   474Au     3.763970  
     523Ag     3.764988   523Bu     3.770461   475Bg     3.771073  
     476Bg     3.773583   524Ag     3.773972   475Au     3.778252  
     477Bg     3.781671   524Bu     3.781689   476Au     3.785749  
     525Bu     3.789862   525Ag     3.790668   478Bg     3.792073  
     526Ag     3.793090   477Au     3.794506   526Bu     3.796917  
     527Ag     3.798315   478Au     3.798550   479Bg     3.798688  
     527Bu     3.803971   528Ag     3.809322   529Ag     3.811577  
     479Au     3.812800   528Bu     3.813768   480Au     3.816341  
     529Bu     3.816904   530Ag     3.818085   530Bu     3.819240  
     480Bg     3.820401   481Bg     3.824739   531Bu     3.832618  
     481Au     3.832909   531Ag     3.832964   482Bg     3.833402  
     482Au     3.836314   532Bu     3.838671   483Bg     3.841066  
     532Ag     3.842445   483Au     3.843658   533Bu     3.845390  
     533Ag     3.853640   484Bg     3.853814   534Bu     3.854172  
     535Bu     3.855345   485Bg     3.857359   484Au     3.861714  
     486Bg     3.861836   536Bu     3.861848   485Au     3.866258  
     534Ag     3.867741   486Au     3.870047   535Ag     3.871578  
     487Bg     3.872679   487Au     3.878466   536Ag     3.880197  
     537Bu     3.880908   488Au     3.882762   488Bg     3.888891  
     538Bu     3.889663   539Bu     3.891310   537Ag     3.892496  
     538Ag     3.900936   489Bg     3.901219   490Bg     3.903885  
     489Au     3.906139   539Ag     3.908016   491Bg     3.910945  
     540Bu     3.910992   540Ag     3.912023   490Au     3.913576  
     491Au     3.916038   541Ag     3.916565   492Bg     3.918025  
     541Bu     3.925316   542Ag     3.928438   492Au     3.930090  
     493Bg     3.938240   543Ag     3.938530   542Bu     3.942975  
     494Bg     3.944205   493Au     3.944419   543Bu     3.947993  
     494Au     3.953605   495Bg     3.954253   544Ag     3.954831  
     545Ag     3.960262   544Bu     3.960907   495Au     3.962935  
     545Bu     3.964141   496Bg     3.965778   546Ag     3.966438  
     546Bu     3.967485   496Au     3.971670   497Bg     3.973806  
     547Ag     3.980044   547Bu     3.982708   498Bg     3.984475  
     548Bu     3.987618   497Au     3.987725   548Ag     3.992873  
     499Bg     3.993692   549Ag     3.994959   498Au     3.997607  
     499Au     4.001917   500Bg     4.003575   550Ag     4.005108  
     549Bu     4.010305   500Au     4.011109   551Ag     4.012642  
     552Ag     4.017013   501Au     4.020906   550Bu     4.024157  
     501Bg     4.026102   502Au     4.034128   551Bu     4.034174  
     553Ag     4.035840   502Bg     4.038424   552Bu     4.042788  
     503Au     4.043855   503Bg     4.045416   554Ag     4.050223  
     553Bu     4.055430   504Au     4.056056   554Bu     4.058648  
     504Bg     4.062584   555Ag     4.063789   555Bu     4.064024  
     505Au     4.068239   506Au     4.070000   556Ag     4.073302  
     556Bu     4.074839   505Bg     4.076654   557Ag     4.077037  
     507Au     4.080127   558Ag     4.082232   506Bg     4.082618  
     559Ag     4.086481   557Bu     4.088628   508Au     4.091741  
     507Bg     4.093705   509Au     4.094951   508Bg     4.096063  
     509Bg     4.096813   558Bu     4.098978   560Ag     4.103329  
     559Bu     4.104170   510Au     4.107227   560Bu     4.113833  
     561Ag     4.114373   510Bg     4.116942   561Bu     4.118367  
     511Au     4.120108   562Bu     4.121709   562Ag     4.122095  
     511Bg     4.123051   563Ag     4.125281   512Bg     4.128619  
     512Au     4.132925   564Ag     4.136148   513Au     4.137582  
     565Ag     4.140195   563Bu     4.143067   564Bu     4.144294  
     514Au     4.144957   513Bg     4.146098   514Bg     4.149070  
     565Bu     4.151975   515Bg     4.154761   566Ag     4.155771  
     515Au     4.156597   516Au     4.161528   566Bu     4.162849  
     567Ag     4.164115   516Bg     4.164927   567Bu     4.169394  
     517Bg     4.169923   518Bg     4.174483   517Au     4.175166  
     568Ag     4.178481   568Bu     4.180270   569Ag     4.183326  
     518Au     4.187304   519Bg     4.191062   570Ag     4.192381  
     569Bu     4.192842   519Au     4.193906   520Bg     4.196031  
     570Bu     4.199633   521Bg     4.200372   571Bu     4.206131  
     520Au     4.206403   571Ag     4.209005   522Bg     4.210494  
     572Bu     4.214888   521Au     4.215671   572Ag     4.216977  
     523Bg     4.218192   573Ag     4.219740   573Bu     4.223955  
     522Au     4.224527   524Bg     4.225068   523Au     4.233620  
     574Bu     4.233880   575Bu     4.238188   574Ag     4.240294  
     525Bg     4.245128   575Ag     4.247915   576Bu     4.248605  
     526Bg     4.250633   524Au     4.254264   576Ag     4.258950  
     577Ag     4.260992   577Bu     4.262381   525Au     4.268948  
     578Bu     4.269420   526Au     4.272237   527Bg     4.273497  
     578Ag     4.276802   528Bg     4.280776   579Bu     4.281049  
     527Au     4.284794   528Au     4.287217   579Ag     4.288886  
     529Bg     4.289351   580Bu     4.291950   529Au     4.292351  
     530Au     4.295635   530Bg     4.297041   580Ag     4.299735  
     581Bu     4.300127   531Bg     4.301543   532Bg     4.305293  
     581Ag     4.306030   582Ag     4.309823   531Au     4.312822  
     533Bg     4.313378   583Ag     4.315562   582Bu     4.318602  
     584Ag     4.319798   583Bu     4.321749   532Au     4.323891  
     585Ag     4.325816   534Bg     4.326147   533Au     4.329126  
     584Bu     4.334134   534Au     4.336840   585Bu     4.341417  
     586Ag     4.345682   535Bg     4.346857   587Ag     4.348310  
     535Au     4.351192   586Bu     4.353048   536Bg     4.354297  
     536Au     4.359421   587Bu     4.363245   588Ag     4.363811  
     537Bg     4.365361   538Bg     4.366119   589Ag     4.368306  
     537Au     4.371701   588Bu     4.373935   589Bu     4.380967  
     590Ag     4.381380   539Bg     4.386990   591Ag     4.390373  
     538Au     4.391125   590Bu     4.394817   591Bu     4.396871  
     539Au     4.403396   592Bu     4.406887   540Bg     4.407167  
     592Ag     4.408826   540Au     4.410738   541Bg     4.411352  
     593Ag     4.416502   593Bu     4.420246   541Au     4.421773  
     542Bg     4.424178   594Bu     4.426625   594Ag     4.429012  
     595Bu     4.435169   543Bg     4.435944   542Au     4.436217  
     595Ag     4.439205   544Bg     4.442078   543Au     4.442683  
     596Ag     4.444202   596Bu     4.444521   545Bg     4.445913  
     597Ag     4.451267   544Au     4.451643   597Bu     4.453825  
     545Au     4.456586   546Bg     4.458334   546Au     4.460527  
     547Au     4.464180   598Ag     4.466849   598Bu     4.467667  
     548Au     4.467975   599Ag     4.471880   547Bg     4.473070  
     599Bu     4.474767   548Bg     4.480938   600Bu     4.483501  
     600Ag     4.487020   601Bu     4.488214   549Au     4.490909  
     549Bg     4.491689   601Ag     4.495913   550Bg     4.496551  
     550Au     4.496796   551Bg     4.501448   602Bu     4.509143  
     602Ag     4.510675   551Au     4.511593   552Bg     4.513720  
     603Bu     4.514285   603Ag     4.518379   552Au     4.532018  
     604Bu     4.539780   604Ag     4.540042   605Ag     4.543014  
     553Au     4.550826   606Ag     4.551115   553Bg     4.552583  
     605Bu     4.555106   554Bg     4.556255   555Bg     4.559204  
     554Au     4.560574   606Bu     4.562386   607Bu     4.565349  
     555Au     4.567773   607Ag     4.568526   556Bg     4.568831  
     608Ag     4.576038   608Bu     4.578145   609Bu     4.584435  
     609Ag     4.586044   556Au     4.588130   557Bg     4.588189  
     558Bg     4.589710   610Bu     4.589774   610Ag     4.596104  
     557Au     4.602900   559Bg     4.606569   611Bu     4.609178  
     611Ag     4.609700   558Au     4.610364   560Bg     4.614211  
     559Au     4.620445   612Ag     4.622397   561Bg     4.626870  
     612Bu     4.627056   613Ag     4.628193   560Au     4.630659  
     613Bu     4.634868   614Bu     4.638915   561Au     4.639166  
     562Bg     4.640327   614Ag     4.640953   563Bg     4.648649  
     615Bu     4.655147   615Ag     4.658997   562Au     4.662141  
     616Ag     4.667447   564Bg     4.667953   616Bu     4.668510  
     617Ag     4.670762   618Ag     4.672866   563Au     4.674114  
     617Bu     4.679526   565Bg     4.680216   564Au     4.684186  
     566Bg     4.686469   565Au     4.688425   566Au     4.694792  
     618Bu     4.694807   567Bg     4.703586   619Ag     4.713146  
     567Au     4.714949   568Au     4.717641   619Bu     4.718297  
     568Bg     4.723844   620Ag     4.726343   569Bg     4.726462  
     569Au     4.733230   620Bu     4.735318   570Au     4.738957  
     621Bu     4.747392   570Bg     4.750285   571Bg     4.755237  
     621Ag     4.755904   571Au     4.762063   622Bu     4.762832  
     622Ag     4.770953   572Au     4.775782   623Bu     4.778469  
     572Bg     4.780282   573Au     4.780987   623Ag     4.781964  
     573Bg     4.782313   624Bu     4.784665   624Ag     4.785487  
     625Ag     4.788008   574Bg     4.788779   574Au     4.792993  
     575Bg     4.798695   626Ag     4.800522   625Bu     4.803587  
     576Bg     4.805003   627Ag     4.811079   575Au     4.817747  
     577Bg     4.820593   628Ag     4.823173   626Bu     4.824516  
     629Ag     4.825577   627Bu     4.827889   576Au     4.830316  
     628Bu     4.831513   577Au     4.838224   578Bg     4.838718  
     629Bu     4.839382   579Bg     4.853097   578Au     4.853518  
     630Bu     4.859369   630Ag     4.860259   579Au     4.872579  
     631Bu     4.873474   631Ag     4.876891   580Bg     4.882311  
     580Au     4.882453   632Bu     4.891127   581Bg     4.893011  
     632Ag     4.898094   633Bu     4.898341   581Au     4.902813  
     633Ag     4.903421   582Bg     4.904958   634Ag     4.907649  
     635Ag     4.909770   582Au     4.913496   634Bu     4.913539  
     583Bg     4.918452   635Bu     4.922177   584Bg     4.923711  
     583Au     4.924776   636Ag     4.929255   585Bg     4.929637  
     636Bu     4.934088   584Au     4.937537   637Ag     4.937927  
     586Bg     4.942919   585Au     4.948135   637Bu     4.948551  
     638Ag     4.953537   638Bu     4.954143   587Bg     4.955902  
     639Ag     4.956013   586Au     4.967607   588Bg     4.970060  
     639Bu     4.972667   640Ag     4.974492   640Bu     4.980715  
     587Au     4.980940   641Ag     4.982953   641Bu     4.986839  
     588Au     4.990047   589Bg     4.995143   589Au     5.002583  
     642Bu     5.012534   642Ag     5.015696   643Ag     5.016772  
     590Bg     5.019419   590Au     5.021329   591Au     5.025152  
     643Bu     5.026633   591Bg     5.026739   644Ag     5.029040  
     592Bg     5.032562   593Bg     5.039676   592Au     5.040509  
     644Bu     5.048320   593Au     5.054337   645Bu     5.056714  
     594Bg     5.058287   645Ag     5.075492   594Au     5.077810  
     646Bu     5.085292   646Ag     5.087307   595Bg     5.093393  
     647Bu     5.095409   595Au     5.102833   647Ag     5.111465  
     596Bg     5.113421   648Ag     5.114106   648Bu     5.119370  
     596Au     5.121282   649Ag     5.123273   649Bu     5.125193  
     597Au     5.129085   650Bu     5.129706   597Bg     5.130294  
     598Bg     5.134501   650Ag     5.137760   598Au     5.139131  
     651Ag     5.143583   651Bu     5.143690   599Bg     5.144200  
     599Au     5.159722   652Bu     5.164671   652Ag     5.166888  
     653Ag     5.177819   600Bg     5.181610   653Bu     5.190271  
     654Bu     5.201785   600Au     5.202170   654Ag     5.202360  
     601Bg     5.215600   655Ag     5.249323   655Bu     5.249335  
     601Au     5.255980   602Bg     5.256489   603Bg     5.259075  
     602Au     5.267482   656Ag     5.280292   657Ag     5.289953  
     656Bu     5.290839   603Au     5.291316   604Bg     5.292097  
     657Bu     5.297585   605Bg     5.302200   604Au     5.308276  
     658Bu     5.314467   659Bu     5.329258   658Ag     5.330248  
     605Au     5.331298   606Bg     5.333166   660Bu     5.333866  
     659Ag     5.337833   607Bg     5.342308   606Au     5.342566  
     660Ag     5.343088   661Ag     5.392088   607Au     5.400859  
     661Bu     5.407527   608Bg     5.408233   609Bg     5.431061  
     662Ag     5.436268   608Au     5.437201   662Bu     5.438581  
     663Ag     5.448445   610Bg     5.448599   663Bu     5.452956  
     611Bg     5.453324   609Au     5.456411   610Au     5.461072  
     664Bu     5.464042   664Ag     5.469257   611Au     5.479951  
     612Bg     5.481140   613Bg     5.494027   612Au     5.497464  
     665Bu     5.500105   665Ag     5.503121   666Ag     5.534291  
     614Bg     5.540526   666Bu     5.544492   613Au     5.546997  
     667Ag     5.550412   667Bu     5.551629   614Au     5.557859  
     615Bg     5.570056   615Au     5.572677   616Bg     5.581596  
     668Ag     5.612625   668Bu     5.625773   669Bu     5.633833  
     669Ag     5.642195   617Bg     5.646036   616Au     5.649067  
     670Bu     5.685251   617Au     5.688901   670Ag     5.695031  
     618Bg     5.703665   671Bu     5.711311   671Ag     5.713974  
     672Ag     5.764095   672Bu     5.764641   618Au     5.767411  
     619Bg     5.767737   619Au     5.820623   620Au     5.822029  
     620Bg     5.825739   673Bu     5.827130   673Ag     5.833059  
     621Bg     5.841545   621Au     5.856462   622Bg     5.856658  
     674Ag     5.860886   674Bu     5.868866   623Bg     5.906953  
     675Bu     5.918375   675Ag     5.926326   622Au     5.939469  
     676Bu     6.094507   623Au     6.102648   677Bu     6.106814  
     676Ag     6.114668   624Bg     6.127233   677Ag     6.130205  
     624Au     6.185085   625Bg     6.186456   678Bu     6.186760  
     625Au     6.188130   678Ag     6.191926   626Bg     6.192272  
     679Bu     6.199883   626Au     6.203204   627Au     6.209025  
     679Ag     6.210297   627Bg     6.212260   680Bu     6.220552  
     628Bg     6.226177   680Ag     6.231215   681Bu     6.242436  
     681Ag     6.246625   629Bg     6.247112   630Bg     6.274289  
     682Ag     6.279627   631Bg     6.283887   628Au     6.288893  
     682Bu     6.289719   683Ag     6.295212   632Bg     6.300082  
     683Bu     6.301138   629Au     6.304832   630Au     6.309871  
     684Ag     6.316793   631Au     6.317287   684Bu     6.323593  
     633Bg     6.329797   632Au     6.330033   633Au     6.404292  
     685Bu     6.410037   685Ag     6.417149   686Ag     6.426422  
     634Au     6.435455   686Bu     6.436992   634Bg     6.441027  
     635Bg     6.446545   687Bu     6.448758   687Ag     6.452878  
     636Bg     6.471395   688Bu     6.472561   635Au     6.473053  
     688Ag     6.474687   636Au     6.567983   689Bu     6.574283  
     689Ag     6.574439   637Bg     6.586206   690Ag     6.597327  
     690Bu     6.603732   638Bg     6.606765   637Au     6.611189  
     691Ag     6.626611   639Bg     6.631122   691Bu     6.636788  
     638Au     6.642319   692Ag     6.673926   692Bu     6.679557  
     639Au     6.680628   640Bg     6.689715   693Ag     6.694381  
     640Au     6.702691   693Bu     6.703712   641Bg     6.728482  
     641Au     6.734333   694Bu     6.738587   694Ag     6.754557  
     642Bg     6.775078   695Bu     6.856231   642Au     6.863176  
     695Ag     6.865096   643Bg     6.865228   696Ag     6.869243  
     644Bg     6.883535   643Au     6.886592   696Bu     6.887443  
     645Bg     7.221197   644Au     7.223629   697Ag    15.019303  
     697Bu    15.109816   646Bg    15.827445   698Bu    15.840274  
     698Ag    15.947890   645Au    15.949974   699Bu    17.040983  
     699Ag    17.122166   647Bg    17.127580   646Au    17.167953  
     700Bu    17.495129   700Ag    17.502892   648Bg    17.549358  
     647Au    17.555079   649Bg    18.197095   701Ag    18.204810  
     701Bu    18.228456   648Au    18.254169   649Au    19.743145  
     702Bu    19.778292   702Ag    19.846957   650Bg    19.904881  
     703Bu    20.107559   703Ag    20.540331   651Bg    20.637816  
     650Au    20.720523   704Ag    20.952278   704Bu    20.984454  
     652Bg    21.029026   651Au    21.089717   705Ag    21.115750  
     653Bg    21.162598   705Bu    21.252321   652Au    21.440878  
     706Bu    21.751278   706Ag    21.759356   707Bu    21.831406  
     707Ag    22.103471   708Bu    22.607706   653Au    22.691062  
     708Ag    22.705155   654Bg    22.732952   709Bu    23.131271  
     709Ag    23.186428   710Bu    23.252506   710Ag    23.348690  
     654Au    23.364353   655Bg    23.405551  

    Final Occupation by Irrep:
             Ag    Bg    Au    Bu 
    DOCC [    43,   35,   35,   43 ]
    NA   [    43,   35,   35,   43 ]
    NB   [    43,   35,   35,   43 ]

  @DF-RKS Final Energy: -1844.49503586429432

   => Energetics <=

    Nuclear Repulsion Energy =           6088.1700676651344111
    One-Electron Energy =              -14620.8192786141644319
    Two-Electron Energy =                6906.8875404330055972
    DFT Exchange-Correlation Energy =    -218.6148324259590368
    Empirical Dispersion Energy =          -0.1185329223103017
    VV10 Nonlocal Energy =                  0.0000000000000000
    Total Energy =                      -1844.4950358642938681

Computation Completed


Properties will be evaluated at   0.000000,   0.000000,   0.000000 [a0]

Properties computed using the SCF density matrix


 Multipole Moments:

 ------------------------------------------------------------------------------------
     Multipole            Electronic (a.u.)      Nuclear  (a.u.)        Total (a.u.)
 ------------------------------------------------------------------------------------

 L = 1.  Multiply by 2.5417464519 to convert [e a0] to [Debye]
 Dipole X            :          0.0000000            0.0000000            0.0000000
 Dipole Y            :          0.0000000           -0.0000000           -0.0000000
 Dipole Z            :          0.0000000           -0.0000000           -0.0000000
 Magnitude           :                                                    0.0000000

 ------------------------------------------------------------------------------------

*** tstop() called on atl1-1-02-004-2-2.pace.gatech.edu at Sat Jun 13 20:00:49 2026
Module time:
	user time   =   27507.00 seconds =     458.45 minutes
	system time =    1461.51 seconds =      24.36 minutes
	total time  =       3981 seconds =      66.35 minutes
Total time:
	user time   =   27507.00 seconds =     458.45 minutes
	system time =    1461.51 seconds =      24.36 minutes
	total time  =       3981 seconds =      66.35 minutes

    Psi4 stopped on: Saturday, 13 June 2026 08:00PM
    Psi4 wall time for execution: 1:06:28.04

*** Psi4 exiting successfully. Buy a developer a beer!
