
    -----------------------------------------------------------------------
          Psi4: An Open-Source Ab Initio Electronic Structure Package
                               Psi4 1.9.1 release

                         Git: Rev {} zzzzzzz 


    D. G. A. Smith, L. A. Burns, A. C. Simmonett, R. M. Parrish,
    M. C. Schieber, R. Galvelis, P. Kraus, H. Kruse, R. Di Remigio,
    A. Alenaizan, A. M. James, S. Lehtola, J. P. Misiewicz, M. Scheurer,
    R. A. Shaw, J. B. Schriber, Y. Xie, Z. L. Glick, D. A. Sirianni,
    J. S. O'Brien, J. M. Waldrop, A. Kumar, E. G. Hohenstein,
    B. P. Pritchard, B. R. Brooks, H. F. Schaefer III, A. Yu. Sokolov,
    K. Patkowski, A. E. DePrince III, U. Bozkaya, R. A. King,
    F. A. Evangelista, J. M. Turney, T. D. Crawford, C. D. Sherrill,
    J. Chem. Phys. 152(18) 184108 (2020). https://doi.org/10.1063/5.0006002

                            Additional Code Authors
    E. T. Seidl, C. L. Janssen, E. F. Valeev, M. L. Leininger,
    J. F. Gonthier, R. M. Richard, H. R. McAlexander, M. Saitow, X. Wang,
    P. Verma, M. H. Lechner, A. Jiang, S. Behnle, A. G. Heide,
    M. F. Herbst, and D. L. Poole

             Previous Authors, Complete List of Code Contributors,
                       and Citations for Specific Modules
    https://github.com/psi4/psi4/blob/master/codemeta.json
    https://github.com/psi4/psi4/graphs/contributors
    http://psicode.org/psi4manual/master/introduction.html#citing-psifour

    -----------------------------------------------------------------------


    Psi4 started on: Saturday, 13 June 2026 07:27PM

    Process ID: 277234
    Host:       atl1-1-02-004-2-1.pace.gatech.edu
    PSIDATADIR: /storage/home/hcoda1/5/vlita3/.conda/envs/p4_qcml/share/psi4
    Memory:     250.0 GiB
    Threads:    10
    
  ==> Input QCSchema <==

--------------------------------------------------------------------------
{'driver': 'energy',
 'extras': {},
 'id': '292',
 'keywords': {},
 'model': {'basis': 'aug-cc-pvtz', 'method': 'b3lyp-d3'},
 'molecule': {'extras': {},
              'fix_com': True,
              'fix_orientation': True,
              'fragment_charges': [0.0, 0.0],
              'fragment_multiplicities': [1, 1],
              'fragments': [[0, 1, 2, 3, 4, 5, 6, 7, 8, 9, 10, 11, 12, 13, 14, 15, 16, 17, 18, 19, 20, 21, 22, 23, 24,
                             25, 26, 27, 28, 29, 30, 31, 32, 33, 34, 35, 36, 37, 38, 39, 40, 41, 42, 43, 44, 45, 46, 47,
                             48, 49, 50, 51, 52, 53, 54, 55],
                            [56, 57, 58, 59, 60, 61, 62, 63, 64, 65, 66, 67, 68, 69, 70, 71, 72, 73, 74, 75, 76, 77, 78,
                             79, 80, 81, 82, 83, 84, 85, 86, 87, 88, 89, 90, 91, 92, 93, 94, 95, 96, 97, 98, 99, 100,
                             101, 102, 103, 104, 105, 106, 107, 108, 109, 110, 111]],
              'geometry': [39.18725066, 24.74029443, 4.00810911, 37.91546498, 22.14947992, 3.77378307, 35.03363264,
                           22.26853266, 4.05535227, 33.7429497, 19.68527705, 3.82102623, 30.85922763, 19.81566815,
                           4.07613925, 29.56287551, 17.23808172, 3.82858513, 26.67726371, 17.37792145, 4.05535227,
                           25.37335269, 14.80600419, 3.78890088, 22.48774089, 14.95907201, 3.99866048, 21.17249151,
                           12.3909342, 3.72653992, 18.28876944, 12.55534038, 3.93818925, 16.9621817, 9.99287175,
                           3.67551731, 14.08034936, 10.16483683, 3.9060639, 12.74809244, 7.60425793, 3.66417896,
                           9.86814983, 7.77811273, 3.92685089, 8.53400318, 5.21564411, 3.71142211, 5.65595029,
                           5.38571946, 4.00621939, 4.34070091, 2.8138022, 3.80590842, 2.28845834, 3.00088509,
                           4.00432966, 38.81875407, 25.57933283, 5.86570989, 41.23760351, 24.59667525, 3.76811389,
                           38.46915474, 26.04798491, 2.57191726, 38.38222733, 21.31233124, 1.93318983, 38.68647324,
                           20.86635588, 5.21186465, 34.56120111, 23.10568134, 5.89594551, 34.26073465, 23.5516567,
                           2.61538096, 34.22860931, 18.8424592, 1.98610216, 34.50072987, 18.40782219, 5.27044616,
                           30.37356801, 20.65281683, 5.91484277, 30.10333718, 21.10257164, 2.63238849, 30.06365293,
                           16.39337414, 1.99744051, 30.30175842, 15.95495768, 5.28556397, 26.17648629, 18.2131804,
                           5.89027633, 25.94216025, 18.67049412, 2.60593233, 25.88168901, 13.96507607, 1.95964599,
                           26.09711779, 13.51532125, 5.24776945, 21.97940457, 15.79433096, 5.83169482, 21.76586551,
                           16.25353441, 2.54546109, 21.67893811, 11.5518958, 1.89728503, 21.89247716, 11.09647181,
                           5.18351876, 17.78610229, 13.3962685, 5.76933386, 17.56878379, 13.8516925, 2.48310013,
                           17.45540022, 9.14816417, 1.84248297, 17.68594681, 8.69651963, 5.1287167, 13.59468975,
                           11.01521359, 5.73909824, 13.3528048, 11.4574095, 2.45286451, 13.21863425, 6.7557709,
                           1.82925489, 13.48697536, 6.31168526, 5.1135989, 9.4032772, 8.63604839, 5.76177496,
                           9.12359773, 9.0631265, 2.47743095, 8.983758, 4.35959817, 1.87271859, 9.29178336, 3.92874061,
                           5.15517287, 5.21186465, 6.2493243, 5.84114345, 4.90005984, 6.66506404, 2.55868917,
                           4.72431531, 1.92563092, 1.9747638, 5.00966396, 1.52500898, 5.28367425, 9.39004912,
                           8.90249978, -3.87960774, 8.09936617, 6.31924416, -4.11393378, 5.21753383, 6.43829691,
                           -3.83236458, 3.94574815, 3.84748239, -4.06669062, 12.27188146, 8.77210867, -4.13661049,
                           13.57012331, 11.35158484, -3.88716664, 16.45384537, 11.20985538, -4.11393378, 17.75964613,
                           13.78177263, -3.84748239, 20.64525792, 13.62870482, -4.05724199, 21.95861758, 16.19684262,
                           -3.78512143, 24.84422937, 16.03243645, -3.99677076, 26.16892739, 18.5967948, -3.73409882,
                           29.05075973, 18.42294, -3.96464541, 30.38301665, 20.98540862, -3.72276047, 33.26295926,
                           20.80966409, -3.98732212, 34.5971059, 23.37213272, -3.77000362, 37.47515879, 23.20205737,
                           -4.0648009, 38.79040818, 25.77397463, -3.86637965, 40.84265075, 25.58878146, -4.0648009,
                           38.12144513, 27.06276784, -5.34414548, 37.91924443, 22.33845253, -5.89972496, 38.23104924,
                           21.92271278, -2.61727068, 34.14735109, 24.23006838, -1.93318983, 33.83932573, 24.65903621,
                           -5.21564411, 33.72783189, 19.95172843, -5.82035647, 34.00751135, 19.52465033, -2.53601246,
                           29.91247484, 21.83389565, -1.8878364, 29.64413373, 22.27609157, -5.17218041, 29.53641934,
                           17.57256324, -5.79767975, 29.78019401, 17.13225705, -2.51144602, 25.67759859, 19.43961265,
                           -1.90106448, 25.44516228, 19.8912572, -5.18729821, 25.34500679, 15.19150832, -5.82791537,
                           25.5623253, 14.73797405, -2.54168164, 21.45217098, 17.03777075, -1.95586654, 21.24052165,
                           17.49130502, -5.24210027, 21.15359425, 12.79344587, -5.89027633, 21.3671333, 12.33424242,
                           -2.6040426, 17.24942007, 14.62270076, -2.02011723, 17.03588102, 15.07245558, -5.30635096,
                           16.9546228, 10.37459643, -5.95074757, 17.18894884, 9.91728271, -2.66451384, 13.06934588,
                           12.19440269, -2.05791175, 12.82935067, 12.63281915, -5.34414548, 12.75754107, 7.93684973,
                           -5.97531401, 13.02777191, 7.48520518, -2.69285973, 8.9043895, 9.74531763, -2.04468367,
                           8.57179771, 5.48209549, -5.95641675, 8.87037443, 5.03612012, -2.67585219, 4.75077148,
                           7.27544558, -1.99177134, 4.44652557, 7.72142095, -5.27044616, 1.8953953, 3.99110158,
                           -3.82858513, 4.31424474, 3.00844399, -5.92618113, 4.66384408, 2.53979191, -2.63238849,
                           8.63037921, 10.17995464, -5.3309174, 38.40679377, 26.6621459, -2.03334531],
              'id': 13,
              'identifiers': {'molecular_formula': 'C36H76',
                              'molecule_hash': '5a1027ed7a2872ae334f0d27d7734dfd003db69d'},
              'masses': [12.0, 12.0, 12.0, 12.0, 12.0, 12.0, 12.0, 12.0, 12.0, 12.0, 12.0, 12.0, 12.0, 12.0, 12.0, 12.0,
                         12.0, 12.0, 1.00782503223, 1.00782503223, 1.00782503223, 1.00782503223, 1.00782503223,
                         1.00782503223, 1.00782503223, 1.00782503223, 1.00782503223, 1.00782503223, 1.00782503223,
                         1.00782503223, 1.00782503223, 1.00782503223, 1.00782503223, 1.00782503223, 1.00782503223,
                         1.00782503223, 1.00782503223, 1.00782503223, 1.00782503223, 1.00782503223, 1.00782503223,
                         1.00782503223, 1.00782503223, 1.00782503223, 1.00782503223, 1.00782503223, 1.00782503223,
                         1.00782503223, 1.00782503223, 1.00782503223, 1.00782503223, 1.00782503223, 1.00782503223,
                         1.00782503223, 1.00782503223, 1.00782503223, 12.0, 12.0, 12.0, 12.0, 12.0, 12.0, 12.0, 12.0,
                         12.0, 12.0, 12.0, 12.0, 12.0, 12.0, 12.0, 12.0, 12.0, 12.0, 1.00782503223, 1.00782503223,
                         1.00782503223, 1.00782503223, 1.00782503223, 1.00782503223, 1.00782503223, 1.00782503223,
                         1.00782503223, 1.00782503223, 1.00782503223, 1.00782503223, 1.00782503223, 1.00782503223,
                         1.00782503223, 1.00782503223, 1.00782503223, 1.00782503223, 1.00782503223, 1.00782503223,
                         1.00782503223, 1.00782503223, 1.00782503223, 1.00782503223, 1.00782503223, 1.00782503223,
                         1.00782503223, 1.00782503223, 1.00782503223, 1.00782503223, 1.00782503223, 1.00782503223,
                         1.00782503223, 1.00782503223, 1.00782503223, 1.00782503223, 1.00782503223, 1.00782503223],
              'molecular_charge': 0.0,
              'molecular_multiplicity': 1,
              'name': 'C36H76 ([1],[0])',
              'provenance': {'creator': 'QCElemental',
                             'routine': 'qcelemental.molparse.from_schema',
                             'version': '0.29.0'},
              'real': [False, False, False, False, False, False, False, False, False, False, False, False, False, False,
                       False, False, False, False, False, False, False, False, False, False, False, False, False, False,
                       False, False, False, False, False, False, False, False, False, False, False, False, False, False,
                       False, False, False, False, False, False, False, False, False, False, False, False, False, False,
                       True, True, True, True, True, True, True, True, True, True, True, True, True, True, True, True,
                       True, True, True, True, True, True, True, True, True, True, True, True, True, True, True, True,
                       True, True, True, True, True, True, True, True, True, True, True, True, True, True, True, True,
                       True, True, True, True, True, True, True, True],
              'schema_name': 'qcschema_molecule',
              'schema_version': 2,
              'symbols': ['C', 'C', 'C', 'C', 'C', 'C', 'C', 'C', 'C', 'C', 'C', 'C', 'C', 'C', 'C', 'C', 'C', 'C', 'H',
                          'H', 'H', 'H', 'H', 'H', 'H', 'H', 'H', 'H', 'H', 'H', 'H', 'H', 'H', 'H', 'H', 'H', 'H', 'H',
                          'H', 'H', 'H', 'H', 'H', 'H', 'H', 'H', 'H', 'H', 'H', 'H', 'H', 'H', 'H', 'H', 'H', 'H', 'C',
                          'C', 'C', 'C', 'C', 'C', 'C', 'C', 'C', 'C', 'C', 'C', 'C', 'C', 'C', 'C', 'C', 'C', 'H', 'H',
                          'H', 'H', 'H', 'H', 'H', 'H', 'H', 'H', 'H', 'H', 'H', 'H', 'H', 'H', 'H', 'H', 'H', 'H', 'H',
                          'H', 'H', 'H', 'H', 'H', 'H', 'H', 'H', 'H', 'H', 'H', 'H', 'H', 'H', 'H', 'H', 'H'],
              'validated': True},
 'protocols': {},
 'provenance': {'creator': 'QCElemental', 'routine': 'qcelemental.models.results', 'version': '0.29.0'},
 'schema_name': 'qcschema_input',
 'schema_version': 1}
--------------------------------------------------------------------------

Scratch directory: /tmp/tmpan7i1r3n_psi_scratch/
   => Libint2 <=

    Primary   basis highest AM E, G, H:  6, 6, 3
    Auxiliary basis highest AM E, G, H:  7, 7, 4
    Onebody   basis highest AM E, G, H:  -, -, -
    Solid Harmonics ordering:            Gaussian

*** tstart() called on atl1-1-02-004-2-1.pace.gatech.edu
*** at Sat Jun 13 19:27:47 2026

   => Loading Basis Set <=

    Name: AUG-CC-PVTZ
    Role: ORBITAL
    Keyword: BASIS
    atoms 1-18, 57-74   entry C          line   239 file /storage/home/hcoda1/5/vlita3/.conda/envs/p4_qcml/share/psi4/basis/aug-cc-pvtz.gbs 
    atoms 19-56, 75-112 entry H          line    40 file /storage/home/hcoda1/5/vlita3/.conda/envs/p4_qcml/share/psi4/basis/aug-cc-pvtz.gbs 

   => B3LYP-D3: Empirical Dispersion <=

    Grimme's -D3 (zero-damping) Dispersion Correction
    Grimme S.; Antony J.; Ehrlich S.; Krieg H. (2010), J. Chem. Phys., 132: 154104

        s6 =       1.000000
        s8 =       1.703000
       sr6 =       1.261000
    alpha6 =      14.000000
       sr8 =       1.000000


         ---------------------------------------------------------
                                   SCF
               by Justin Turney, Rob Parrish, Andy Simmonett
                          and Daniel G. A. Smith
                              RKS Reference
                       10 Threads, 256000 MiB Core
         ---------------------------------------------------------

  ==> Geometry <==

    Molecular point group: c1
    Full point group: C1

    Geometry (in Bohr), charge = 0, multiplicity = 1:

       Center              X                  Y                   Z               Mass       
    ------------   -----------------  -----------------  -----------------  -----------------
      Gh(C)          39.187250660000    24.740294430000     4.008109110000    12.000000000000
      Gh(C)          37.915464980000    22.149479920000     3.773783070000    12.000000000000
      Gh(C)          35.033632640000    22.268532660000     4.055352270000    12.000000000000
      Gh(C)          33.742949700000    19.685277050000     3.821026230000    12.000000000000
      Gh(C)          30.859227630000    19.815668150000     4.076139250000    12.000000000000
      Gh(C)          29.562875510000    17.238081720000     3.828585130000    12.000000000000
      Gh(C)          26.677263710000    17.377921450000     4.055352270000    12.000000000000
      Gh(C)          25.373352690000    14.806004190000     3.788900880000    12.000000000000
      Gh(C)          22.487740890000    14.959072010000     3.998660480000    12.000000000000
      Gh(C)          21.172491510000    12.390934200000     3.726539920000    12.000000000000
      Gh(C)          18.288769440000    12.555340380000     3.938189250000    12.000000000000
      Gh(C)          16.962181700000     9.992871750000     3.675517310000    12.000000000000
      Gh(C)          14.080349360000    10.164836830000     3.906063900000    12.000000000000
      Gh(C)          12.748092440000     7.604257930000     3.664178960000    12.000000000000
      Gh(C)           9.868149830000     7.778112730000     3.926850890000    12.000000000000
      Gh(C)           8.534003180000     5.215644110000     3.711422110000    12.000000000000
      Gh(C)           5.655950290000     5.385719460000     4.006219390000    12.000000000000
      Gh(C)           4.340700910000     2.813802200000     3.805908420000    12.000000000000
      Gh(H)           2.288458340000     3.000885090000     4.004329660000     1.007825032230
      Gh(H)          38.818754070000    25.579332830000     5.865709890000     1.007825032230
      Gh(H)          41.237603510000    24.596675250000     3.768113890000     1.007825032230
      Gh(H)          38.469154740000    26.047984910000     2.571917260000     1.007825032230
      Gh(H)          38.382227330000    21.312331240000     1.933189830000     1.007825032230
      Gh(H)          38.686473240000    20.866355880000     5.211864650000     1.007825032230
      Gh(H)          34.561201110000    23.105681340000     5.895945510000     1.007825032230
      Gh(H)          34.260734650000    23.551656700000     2.615380960000     1.007825032230
      Gh(H)          34.228609310000    18.842459200000     1.986102160000     1.007825032230
      Gh(H)          34.500729870000    18.407822190000     5.270446160000     1.007825032230
      Gh(H)          30.373568010000    20.652816830000     5.914842770000     1.007825032230
      Gh(H)          30.103337180000    21.102571640000     2.632388490000     1.007825032230
      Gh(H)          30.063652930000    16.393374140000     1.997440510000     1.007825032230
      Gh(H)          30.301758420000    15.954957680000     5.285563970000     1.007825032230
      Gh(H)          26.176486290000    18.213180400000     5.890276330000     1.007825032230
      Gh(H)          25.942160250000    18.670494120000     2.605932330000     1.007825032230
      Gh(H)          25.881689010000    13.965076070000     1.959645990000     1.007825032230
      Gh(H)          26.097117790000    13.515321250000     5.247769450000     1.007825032230
      Gh(H)          21.979404570000    15.794330960000     5.831694820000     1.007825032230
      Gh(H)          21.765865510000    16.253534410000     2.545461090000     1.007825032230
      Gh(H)          21.678938110000    11.551895800000     1.897285030000     1.007825032230
      Gh(H)          21.892477160000    11.096471810000     5.183518760000     1.007825032230
      Gh(H)          17.786102290000    13.396268500000     5.769333860000     1.007825032230
      Gh(H)          17.568783790000    13.851692500000     2.483100130000     1.007825032230
      Gh(H)          17.455400220000     9.148164170000     1.842482970000     1.007825032230
      Gh(H)          17.685946810000     8.696519630000     5.128716700000     1.007825032230
      Gh(H)          13.594689750000    11.015213590000     5.739098240000     1.007825032230
      Gh(H)          13.352804800000    11.457409500000     2.452864510000     1.007825032230
      Gh(H)          13.218634250000     6.755770900000     1.829254890000     1.007825032230
      Gh(H)          13.486975360000     6.311685260000     5.113598900000     1.007825032230
      Gh(H)           9.403277200000     8.636048390000     5.761774960000     1.007825032230
      Gh(H)           9.123597730000     9.063126500000     2.477430950000     1.007825032230
      Gh(H)           8.983758000000     4.359598170000     1.872718590000     1.007825032230
      Gh(H)           9.291783360000     3.928740610000     5.155172870000     1.007825032230
      Gh(H)           5.211864650000     6.249324300000     5.841143450000     1.007825032230
      Gh(H)           4.900059840000     6.665064040000     2.558689170000     1.007825032230
      Gh(H)           4.724315310000     1.925630920000     1.974763800000     1.007825032230
      Gh(H)           5.009663960000     1.525008980000     5.283674250000     1.007825032230
         C            9.390049120000     8.902499780000    -3.879607740000    12.000000000000
         C            8.099366170000     6.319244160000    -4.113933780000    12.000000000000
         C            5.217533830000     6.438296910000    -3.832364580000    12.000000000000
         C            3.945748150000     3.847482390000    -4.066690620000    12.000000000000
         C           12.271881460000     8.772108670000    -4.136610490000    12.000000000000
         C           13.570123310000    11.351584840000    -3.887166640000    12.000000000000
         C           16.453845370000    11.209855380000    -4.113933780000    12.000000000000
         C           17.759646130000    13.781772630000    -3.847482390000    12.000000000000
         C           20.645257920000    13.628704820000    -4.057241990000    12.000000000000
         C           21.958617580000    16.196842620000    -3.785121430000    12.000000000000
         C           24.844229370000    16.032436450000    -3.996770760000    12.000000000000
         C           26.168927390000    18.596794800000    -3.734098820000    12.000000000000
         C           29.050759730000    18.422940000000    -3.964645410000    12.000000000000
         C           30.383016650000    20.985408620000    -3.722760470000    12.000000000000
         C           33.262959260000    20.809664090000    -3.987322120000    12.000000000000
         C           34.597105900000    23.372132720000    -3.770003620000    12.000000000000
         C           37.475158790000    23.202057370000    -4.064800900000    12.000000000000
         C           38.790408180000    25.773974630000    -3.866379650000    12.000000000000
         H           40.842650750000    25.588781460000    -4.064800900000     1.007825032230
         H           38.121445130000    27.062767840000    -5.344145480000     1.007825032230
         H           37.919244430000    22.338452530000    -5.899724960000     1.007825032230
         H           38.231049240000    21.922712780000    -2.617270680000     1.007825032230
         H           34.147351090000    24.230068380000    -1.933189830000     1.007825032230
         H           33.839325730000    24.659036210000    -5.215644110000     1.007825032230
         H           33.727831890000    19.951728430000    -5.820356470000     1.007825032230
         H           34.007511350000    19.524650330000    -2.536012460000     1.007825032230
         H           29.912474840000    21.833895650000    -1.887836400000     1.007825032230
         H           29.644133730000    22.276091570000    -5.172180410000     1.007825032230
         H           29.536419340000    17.572563240000    -5.797679750000     1.007825032230
         H           29.780194010000    17.132257050000    -2.511446020000     1.007825032230
         H           25.677598590000    19.439612650000    -1.901064480000     1.007825032230
         H           25.445162280000    19.891257200000    -5.187298210000     1.007825032230
         H           25.345006790000    15.191508320000    -5.827915370000     1.007825032230
         H           25.562325300000    14.737974050000    -2.541681640000     1.007825032230
         H           21.452170980000    17.037770750000    -1.955866540000     1.007825032230
         H           21.240521650000    17.491305020000    -5.242100270000     1.007825032230
         H           21.153594250000    12.793445870000    -5.890276330000     1.007825032230
         H           21.367133300000    12.334242420000    -2.604042600000     1.007825032230
         H           17.249420070000    14.622700760000    -2.020117230000     1.007825032230
         H           17.035881020000    15.072455580000    -5.306350960000     1.007825032230
         H           16.954622800000    10.374596430000    -5.950747570000     1.007825032230
         H           17.188948840000     9.917282710000    -2.664513840000     1.007825032230
         H           13.069345880000    12.194402690000    -2.057911750000     1.007825032230
         H           12.829350670000    12.632819150000    -5.344145480000     1.007825032230
         H           12.757541070000     7.936849730000    -5.975314010000     1.007825032230
         H           13.027771910000     7.485205180000    -2.692859730000     1.007825032230
         H            8.904389500000     9.745317630000    -2.044683670000     1.007825032230
         H            8.571797710000     5.482095490000    -5.956416750000     1.007825032230
         H            8.870374430000     5.036120120000    -2.675852190000     1.007825032230
         H            4.750771480000     7.275445580000    -1.991771340000     1.007825032230
         H            4.446525570000     7.721420950000    -5.270446160000     1.007825032230
         H            1.895395300000     3.991101580000    -3.828585130000     1.007825032230
         H            4.314244740000     3.008443990000    -5.926181130000     1.007825032230
         H            4.663844080000     2.539791910000    -2.632388490000     1.007825032230
         H            8.630379210000    10.179954640000    -5.330917400000     1.007825032230
         H           38.406793770000    26.662145900000    -2.033345310000     1.007825032230

  Running in c1 symmetry.

  Rotational constants: A =      0.00674  B =      0.00014  C =      0.00014 [cm^-1]
  Rotational constants: A =    202.03768  B =      4.27015  C =      4.19674 [MHz]
  Nuclear repulsion = 1177.211817927325001

  Charge       = 0
  Multiplicity = 1
  Electrons    = 146
  Nalpha       = 73
  Nbeta        = 73

  ==> Algorithm <==

  SCF Algorithm Type is DF.
  DIIS enabled.
  MOM disabled.
  Fractional occupation disabled.
  Guess Type is SAD.
  Energy threshold   = 1.00e-06
  Density threshold  = 1.00e-06
  Integral threshold = 1.00e-12

  ==> Primary Basis <==

  Basis Set: AUG-CC-PVTZ
    Blend: AUG-CC-PVTZ
    Number of shells: 1188
    Number of basis functions: 3404
    Number of Cartesian functions: 3880
    Spherical Harmonics?: true
    Max angular momentum: 3

  ==> DFT Potential <==

   => LibXC <=

    Version 7.0.0
    S. Lehtola, C. Steigemann, M. J.T. Oliveira, and M. A.L. Marques.,  SoftwareX 7, 1–5 (2018) (10.1016/j.softx.2017.11.002)

   => Composite Functional: B3LYP-D3ZERO2B <= 

    B3LYP-d3zero2b Hyb-GGA Exchange-Correlation Functional

    P. J. Stephens, F. J. Devlin, C. F. Chabalowski, and M. J. Frisch.,  J. Phys. Chem. 98, 11623 (1994) (10.1021/j100096a001)

    Deriv               =              1
    GGA                 =           TRUE
    Meta                =          FALSE

    Exchange Hybrid     =           TRUE
    MP2 Hybrid          =          FALSE

   => Exchange Functionals <=

    0.0800   Slater exchange
    0.7200         Becke 88

   => Exact (HF) Exchange <=

    0.2000               HF 

   => Correlation Functionals <=

    0.1900   Vosko, Wilk & Nusair (VWN5_RPA)
    0.8100   Lee, Yang & Parr

   => LibXC Density Thresholds  <==

    XC_HYB_GGA_XC_B3LYP:  1.00E-15 

   => Molecular Quadrature <=

    Radial Scheme          =       TREUTLER
    Pruning Scheme         =           NONE
    Nuclear Scheme         =       TREUTLER

    Blocking Scheme        =         OCTREE
    BS radius alpha        =              1
    Pruning alpha          =              1
    Radial Points          =             75
    Spherical Points       =            302
    Total Points           =        2287807
    Total Blocks           =          15476
    Max Points             =            256
    Max Functions          =           1540
    Weights Tolerance      =       1.00E-15

   => Loading Basis Set <=

    Name: (AUG-CC-PVTZ AUX)
    Role: JKFIT
    Keyword: DF_BASIS_SCF
    atoms 1-18, 57-74   entry C          line   162 file /storage/home/hcoda1/5/vlita3/.conda/envs/p4_qcml/share/psi4/basis/aug-cc-pvtz-jkfit.gbs 
    atoms 19-56, 75-112 entry H          line    70 file /storage/home/hcoda1/5/vlita3/.conda/envs/p4_qcml/share/psi4/basis/aug-cc-pvtz-jkfit.gbs 

  ==> Integral Setup <==

  ==> DiskDFJK: Density-Fitted J/K Matrices <==

    J tasked:                  Yes
    K tasked:                  Yes
    wK tasked:                  No
    OpenMP threads:             10
    Integrals threads:          10
    Memory [MiB]:           172368
    Algorithm:                Disk
    Integral Cache:           NONE
    Schwarz Cutoff:          1E-12
    Fitting Condition:       1E-10

   => Auxiliary Basis Set <=

  Basis Set: (AUG-CC-PVTZ AUX)
    Blend: AUG-CC-PVTZ-JKFIT
    Number of shells: 2144
    Number of basis functions: 7240
    Number of Cartesian functions: 8896
    Spherical Harmonics?: true
    Max angular momentum: 4

  Minimum eigenvalue in the overlap matrix is 2.2061596341E-08.
  Reciprocal condition number of the overlap matrix is 6.8411741151E-10.
    Using canonical orthogonalization.
  Overall, 1 of 3404 possible MOs eliminated.


  ==> Pre-Iterations <==

  SCF Guess: Superposition of Atomic Densities via on-the-fly atomic UHF (no occupation information).

   -------------------------
    Irrep   Nso     Nmo    
   -------------------------
     A       3404    3403 
   -------------------------
    Total    3404    3403
   -------------------------

  ==> Iterations <==

                           Total Energy        Delta E     RMS |[F,P]|

   @DF-RKS iter SAD:  -707.16056309507712   -7.07161e+02   0.00000e+00 
   @DF-RKS iter   1:  -706.46684695284421    6.93716e-01   6.61377e-04 ADIIS/DIIS
   @DF-RKS iter   2:  -699.94271021833970    6.52414e+00   1.05635e-03 ADIIS/DIIS
   @DF-RKS iter   3:  -709.06044792548323   -9.11774e+00   1.14900e-04 ADIIS/DIIS
   @DF-RKS iter   4:  -709.13494646322977   -7.44985e-02   6.46442e-05 DIIS
   @DF-RKS iter   5:  -709.15823540849829   -2.32889e-02   1.30116e-05 DIIS
   @DF-RKS iter   6:  -709.15910980992123   -8.74401e-04   3.68063e-06 DIIS
   @DF-RKS iter   7:  -709.15918070972702   -7.08998e-05   1.17340e-06 DIIS
   @DF-RKS iter   8:  -709.15918830465580   -7.59493e-06   2.24416e-07 DIIS
   @DF-RKS iter   9:  -709.15918856448775   -2.59832e-07   7.85470e-08 DIIS
  Energy and wave function converged.


  ==> Post-Iterations <==

   Electrons on quadrature grid:
      Ntotal   =  146.0011556219 ; deviation = 1.156e-03 

    Orbital Energies [Eh]
    ---------------------

    Doubly Occupied:                                                      

       1A    -10.166658     2A    -10.166642     3A    -10.164541  
       4A    -10.164532     5A    -10.164368     6A    -10.164354  
       7A    -10.164283     8A    -10.164261     9A    -10.164205  
      10A    -10.164172    11A    -10.164124    12A    -10.164052  
      13A    -10.163996    14A    -10.163951    15A    -10.163881  
      16A    -10.163814    17A    -10.160118    18A    -10.159977  
      19A     -0.816008    20A     -0.810754    21A     -0.801818  
      22A     -0.789401    23A     -0.773583    24A     -0.754573  
      25A     -0.732655    26A     -0.707985    27A     -0.681237  
      28A     -0.653294    29A     -0.625254    30A     -0.599770  
      31A     -0.581006    32A     -0.579027    33A     -0.575927  
      34A     -0.573187    35A     -0.569462    36A     -0.568795  
      37A     -0.489631    38A     -0.484744    39A     -0.476544  
      40A     -0.465361    41A     -0.451530    42A     -0.435519  
      43A     -0.435027    44A     -0.434180    45A     -0.426114  
      46A     -0.420426    47A     -0.417932    48A     -0.411711  
      49A     -0.399469    50A     -0.396970    51A     -0.393572  
      52A     -0.381139    53A     -0.378115    54A     -0.364720  
      55A     -0.364035    56A     -0.361848    57A     -0.349044  
      58A     -0.347925    59A     -0.338475    60A     -0.337130  
      61A     -0.332891    62A     -0.330472    63A     -0.328732  
      64A     -0.325872    65A     -0.323782    66A     -0.323664  
      67A     -0.322564    68A     -0.322196    69A     -0.321901  
      70A     -0.320892    71A     -0.320785    72A     -0.306637  
      73A     -0.288121  

    Virtual:                                                              

      74A     -0.012146    75A     -0.010056    76A     -0.005524  
      77A     -0.003301    78A     -0.002146    79A      0.001092  
      80A      0.001524    81A      0.002539    82A      0.009525  
      83A      0.009825    84A      0.010287    85A      0.019612  
      86A      0.019822    87A      0.020433    88A      0.024023  
      89A      0.024870    90A      0.028129    91A      0.028470  
      92A      0.029774    93A      0.031630    94A      0.032093  
      95A      0.033580    96A      0.033913    97A      0.035276  
      98A      0.036356    99A      0.040043   100A      0.043027  
     101A      0.043837   102A      0.044334   103A      0.044524  
     104A      0.045715   105A      0.047180   106A      0.048352  
     107A      0.051580   108A      0.054829   109A      0.055546  
     110A      0.056730   111A      0.058579   112A      0.060394  
     113A      0.060727   114A      0.062621   115A      0.063473  
     116A      0.064007   117A      0.065165   118A      0.065567  
     119A      0.067309   120A      0.067949   121A      0.068497  
     122A      0.069149   123A      0.070075   124A      0.070720  
     125A      0.073814   126A      0.074074   127A      0.074978  
     128A      0.075853   129A      0.076361   130A      0.078153  
     131A      0.078693   132A      0.079533   133A      0.080441  
     134A      0.081032   135A      0.081424   136A      0.082705  
     137A      0.084764   138A      0.085799   139A      0.086338  
     140A      0.087578   141A      0.088424   142A      0.088875  
     143A      0.089216   144A      0.091242   145A      0.093469  
     146A      0.093820   147A      0.096039   148A      0.096302  
     149A      0.097016   150A      0.098333   151A      0.099255  
     152A      0.100345   153A      0.101506   154A      0.102502  
     155A      0.103332   156A      0.104905   157A      0.105215  
     158A      0.106153   159A      0.106551   160A      0.106946  
     161A      0.108390   162A      0.111392   163A      0.112173  
     164A      0.112898   165A      0.113623   166A      0.114322  
     167A      0.115197   168A      0.116655   169A      0.117198  
     170A      0.118702   171A      0.119213   172A      0.120493  
     173A      0.121273   174A      0.122579   175A      0.123171  
     176A      0.124067   177A      0.124798   178A      0.127061  
     179A      0.127802   180A      0.128356   181A      0.128789  
     182A      0.131475   183A      0.131950   184A      0.132342  
     185A      0.133134   186A      0.133912   187A      0.134955  
     188A      0.135060   189A      0.135799   190A      0.139268  
     191A      0.140246   192A      0.142765   193A      0.143377  
     194A      0.144260   195A      0.145159   196A      0.146303  
     197A      0.147786   198A      0.148525   199A      0.148703  
     200A      0.148881   201A      0.150726   202A      0.151468  
     203A      0.151591   204A      0.151750   205A      0.153749  
     206A      0.155336   207A      0.156993   208A      0.157955  
     209A      0.158559   210A      0.159659   211A      0.160884  
     212A      0.161748   213A      0.162401   214A      0.162473  
     215A      0.162942   216A      0.164443   217A      0.166468  
     218A      0.167028   219A      0.168503   220A      0.170215  
     221A      0.170848   222A      0.171299   223A      0.172304  
     224A      0.174185   225A      0.175088   226A      0.176899  
     227A      0.177083   228A      0.178142   229A      0.178783  
     230A      0.179589   231A      0.180291   232A      0.180745  
     233A      0.181961   234A      0.182851   235A      0.184674  
     236A      0.185505   237A      0.185908   238A      0.186697  
     239A      0.186743   240A      0.190196   241A      0.191267  
     242A      0.191871   243A      0.191961   244A      0.193798  
     245A      0.195396   246A      0.196803   247A      0.197684  
     248A      0.198107   249A      0.199327   250A      0.200163  
     251A      0.201474   252A      0.201815   253A      0.203850  
     254A      0.204408   255A      0.204561   256A      0.205782  
     257A      0.206596   258A      0.207020   259A      0.208018  
     260A      0.208946   261A      0.209644   262A      0.210507  
     263A      0.211909   264A      0.212666   265A      0.214289  
     266A      0.216776   267A      0.216940   268A      0.217478  
     269A      0.218543   270A      0.218644   271A      0.219501  
     272A      0.220109   273A      0.221168   274A      0.222237  
     275A      0.223217   276A      0.223756   277A      0.226880  
     278A      0.228514   279A      0.228582   280A      0.231519  
     281A      0.231939   282A      0.232816   283A      0.233382  
     284A      0.234651   285A      0.235734   286A      0.235774  
     287A      0.236250   288A      0.237171   289A      0.237753  
     290A      0.239318   291A      0.240037   292A      0.241240  
     293A      0.241812   294A      0.244305   295A      0.245837  
     296A      0.246868   297A      0.247200   298A      0.247780  
     299A      0.248595   300A      0.250813   301A      0.252062  
     302A      0.252990   303A      0.253962   304A      0.255508  
     305A      0.257059   306A      0.257817   307A      0.258037  
     308A      0.261167   309A      0.261605   310A      0.263975  
     311A      0.264730   312A      0.265681   313A      0.268690  
     314A      0.268958   315A      0.269248   316A      0.270424  
     317A      0.271337   318A      0.272608   319A      0.273853  
     320A      0.274232   321A      0.276004   322A      0.277147  
     323A      0.279288   324A      0.281997   325A      0.284423  
     326A      0.286304   327A      0.286826   328A      0.287881  
     329A      0.288599   330A      0.289176   331A      0.289652  
     332A      0.291622   333A      0.293630   334A      0.294833  
     335A      0.294992   336A      0.296060   337A      0.296707  
     338A      0.296877   339A      0.297242   340A      0.298536  
     341A      0.300613   342A      0.301293   343A      0.302243  
     344A      0.304252   345A      0.304914   346A      0.305566  
     347A      0.308397   348A      0.308634   349A      0.310537  
     350A      0.311437   351A      0.313046   352A      0.314842  
     353A      0.316874   354A      0.318404   355A      0.319079  
     356A      0.319274   357A      0.320955   358A      0.321934  
     359A      0.322298   360A      0.323698   361A      0.324745  
     362A      0.326161   363A      0.326659   364A      0.327800  
     365A      0.328556   366A      0.330896   367A      0.331424  
     368A      0.332929   369A      0.334240   370A      0.334837  
     371A      0.335141   372A      0.335934   373A      0.336932  
     374A      0.337932   375A      0.338723   376A      0.339713  
     377A      0.341457   378A      0.341935   379A      0.343234  
     380A      0.343285   381A      0.343832   382A      0.346429  
     383A      0.347179   384A      0.347749   385A      0.348544  
     386A      0.350397   387A      0.350869   388A      0.351546  
     389A      0.351777   390A      0.352802   391A      0.352897  
     392A      0.353605   393A      0.354335   394A      0.354701  
     395A      0.357626   396A      0.358132   397A      0.358590  
     398A      0.359545   399A      0.360448   400A      0.361890  
     401A      0.362939   402A      0.364637   403A      0.367280  
     404A      0.368196   405A      0.369325   406A      0.369792  
     407A      0.370681   408A      0.371510   409A      0.373848  
     410A      0.374729   411A      0.375245   412A      0.375875  
     413A      0.376584   414A      0.378121   415A      0.378810  
     416A      0.379901   417A      0.380865   418A      0.382922  
     419A      0.383179   420A      0.384224   421A      0.386312  
     422A      0.387032   423A      0.388217   424A      0.388531  
     425A      0.390144   426A      0.390783   427A      0.391604  
     428A      0.393379   429A      0.393993   430A      0.395144  
     431A      0.396289   432A      0.398016   433A      0.399444  
     434A      0.400054   435A      0.401259   436A      0.402727  
     437A      0.403648   438A      0.404327   439A      0.404975  
     440A      0.407376   441A      0.407441   442A      0.409081  
     443A      0.409353   444A      0.410745   445A      0.411165  
     446A      0.413200   447A      0.413894   448A      0.414515  
     449A      0.415050   450A      0.416246   451A      0.417974  
     452A      0.419981   453A      0.421018   454A      0.421954  
     455A      0.423224   456A      0.424965   457A      0.426889  
     458A      0.427799   459A      0.429064   460A      0.430971  
     461A      0.431322   462A      0.431782   463A      0.432089  
     464A      0.433422   465A      0.433820   466A      0.434745  
     467A      0.435420   468A      0.436428   469A      0.437038  
     470A      0.437455   471A      0.438203   472A      0.439572  
     473A      0.440359   474A      0.441449   475A      0.443301  
     476A      0.444416   477A      0.446059   478A      0.446718  
     479A      0.447471   480A      0.448106   481A      0.449364  
     482A      0.449874   483A      0.450832   484A      0.451659  
     485A      0.452428   486A      0.454378   487A      0.455287  
     488A      0.457109   489A      0.457266   490A      0.458101  
     491A      0.458933   492A      0.460628   493A      0.461228  
     494A      0.462451   495A      0.464364   496A      0.464790  
     497A      0.466039   498A      0.467301   499A      0.468060  
     500A      0.469183   501A      0.470665   502A      0.471120  
     503A      0.472270   504A      0.472848   505A      0.473344  
     506A      0.475004   507A      0.476850   508A      0.477679  
     509A      0.479326   510A      0.479576   511A      0.480278  
     512A      0.481834   513A      0.483116   514A      0.483722  
     515A      0.484766   516A      0.485597   517A      0.486521  
     518A      0.487631   519A      0.487816   520A      0.489814  
     521A      0.490263   522A      0.491084   523A      0.492818  
     524A      0.494194   525A      0.495599   526A      0.496677  
     527A      0.497917   528A      0.500437   529A      0.501500  
     530A      0.503104   531A      0.506031   532A      0.506409  
     533A      0.507601   534A      0.509923   535A      0.510339  
     536A      0.511597   537A      0.512272   538A      0.513121  
     539A      0.513219   540A      0.514012   541A      0.516047  
     542A      0.519081   543A      0.519429   544A      0.520924  
     545A      0.521846   546A      0.524628   547A      0.525254  
     548A      0.526431   549A      0.526895   550A      0.528166  
     551A      0.528630   552A      0.529698   553A      0.531134  
     554A      0.532128   555A      0.533453   556A      0.534345  
     557A      0.535111   558A      0.537207   559A      0.538886  
     560A      0.539871   561A      0.540840   562A      0.542941  
     563A      0.543727   564A      0.544880   565A      0.546246  
     566A      0.548966   567A      0.549201   568A      0.551302  
     569A      0.552032   570A      0.552320   571A      0.554054  
     572A      0.557243   573A      0.559185   574A      0.560137  
     575A      0.560700   576A      0.561844   577A      0.562106  
     578A      0.564084   579A      0.564288   580A      0.565397  
     581A      0.566117   582A      0.567260   583A      0.568363  
     584A      0.570941   585A      0.571453   586A      0.572205  
     587A      0.572773   588A      0.574214   589A      0.574677  
     590A      0.577283   591A      0.579265   592A      0.579684  
     593A      0.580792   594A      0.581801   595A      0.582116  
     596A      0.582983   597A      0.585291   598A      0.585967  
     599A      0.586459   600A      0.587626   601A      0.588719  
     602A      0.589503   603A      0.590768   604A      0.591597  
     605A      0.593219   606A      0.596328   607A      0.596667  
     608A      0.598295   609A      0.599554   610A      0.600464  
     611A      0.601124   612A      0.603332   613A      0.604065  
     614A      0.605382   615A      0.605895   616A      0.606212  
     617A      0.608268   618A      0.610952   619A      0.611157  
     620A      0.612393   621A      0.613637   622A      0.614380  
     623A      0.614864   624A      0.615819   625A      0.616999  
     626A      0.618480   627A      0.618728   628A      0.620120  
     629A      0.620484   630A      0.623868   631A      0.624831  
     632A      0.626251   633A      0.628356   634A      0.630102  
     635A      0.630663   636A      0.631937   637A      0.634235  
     638A      0.635154   639A      0.635744   640A      0.637770  
     641A      0.639062   642A      0.640783   643A      0.641817  
     644A      0.642097   645A      0.643349   646A      0.644366  
     647A      0.646151   648A      0.647721   649A      0.648076  
     650A      0.649459   651A      0.649913   652A      0.651038  
     653A      0.651984   654A      0.653203   655A      0.654179  
     656A      0.654938   657A      0.655711   658A      0.656789  
     659A      0.657559   660A      0.659033   661A      0.659854  
     662A      0.663093   663A      0.665562   664A      0.666481  
     665A      0.667633   666A      0.669352   667A      0.669962  
     668A      0.670958   669A      0.671597   670A      0.673399  
     671A      0.674662   672A      0.678590   673A      0.680395  
     674A      0.680819   675A      0.681752   676A      0.683132  
     677A      0.684506   678A      0.686162   679A      0.687084  
     680A      0.687401   681A      0.689895   682A      0.690882  
     683A      0.692277   684A      0.693451   685A      0.694604  
     686A      0.694905   687A      0.698619   688A      0.699052  
     689A      0.700610   690A      0.701587   691A      0.702197  
     692A      0.704358   693A      0.706950   694A      0.708581  
     695A      0.709592   696A      0.710213   697A      0.711384  
     698A      0.712259   699A      0.714398   700A      0.715406  
     701A      0.717158   702A      0.718260   703A      0.719617  
     704A      0.720388   705A      0.720788   706A      0.721579  
     707A      0.722636   708A      0.724056   709A      0.724502  
     710A      0.726005   711A      0.726805   712A      0.728882  
     713A      0.729790   714A      0.731087   715A      0.732466  
     716A      0.733574   717A      0.735909   718A      0.736237  
     719A      0.738948   720A      0.739399   721A      0.740633  
     722A      0.741901   723A      0.742637   724A      0.743736  
     725A      0.745411   726A      0.746434   727A      0.747539  
     728A      0.749487   729A      0.750820   730A      0.752113  
     731A      0.753260   732A      0.753545   733A      0.755091  
     734A      0.755716   735A      0.757837   736A      0.760293  
     737A      0.760821   738A      0.761985   739A      0.762374  
     740A      0.763007   741A      0.763962   742A      0.764867  
     743A      0.765337   744A      0.766912   745A      0.768954  
     746A      0.769115   747A      0.769938   748A      0.770958  
     749A      0.771411   750A      0.772451   751A      0.773556  
     752A      0.775444   753A      0.778055   754A      0.779323  
     755A      0.779407   756A      0.781570   757A      0.782673  
     758A      0.783225   759A      0.784617   760A      0.785882  
     761A      0.787031   762A      0.789023   763A      0.789914  
     764A      0.791274   765A      0.791767   766A      0.792507  
     767A      0.793893   768A      0.796543   769A      0.797572  
     770A      0.798834   771A      0.801143   772A      0.801593  
     773A      0.802819   774A      0.803854   775A      0.808068  
     776A      0.810087   777A      0.810837   778A      0.813036  
     779A      0.813247   780A      0.814567   781A      0.815324  
     782A      0.816406   783A      0.817478   784A      0.818018  
     785A      0.819155   786A      0.819448   787A      0.821564  
     788A      0.824565   789A      0.825159   790A      0.826036  
     791A      0.827240   792A      0.827943   793A      0.828312  
     794A      0.829445   795A      0.831319   796A      0.831998  
     797A      0.832586   798A      0.835488   799A      0.836496  
     800A      0.837696   801A      0.838857   802A      0.839111  
     803A      0.840211   804A      0.841951   805A      0.842601  
     806A      0.843803   807A      0.844158   808A      0.845522  
     809A      0.847048   810A      0.847313   811A      0.849243  
     812A      0.849617   813A      0.850696   814A      0.851310  
     815A      0.854468   816A      0.855858   817A      0.857601  
     818A      0.859139   819A      0.860042   820A      0.861661  
     821A      0.862153   822A      0.863328   823A      0.865074  
     824A      0.866005   825A      0.866901   826A      0.869037  
     827A      0.869755   828A      0.870240   829A      0.871232  
     830A      0.873995   831A      0.874265   832A      0.875478  
     833A      0.876306   834A      0.878455   835A      0.879180  
     836A      0.880122   837A      0.881120   838A      0.882820  
     839A      0.882988   840A      0.885230   841A      0.886530  
     842A      0.886853   843A      0.887730   844A      0.889603  
     845A      0.890804   846A      0.891769   847A      0.893805  
     848A      0.894253   849A      0.895269   850A      0.897707  
     851A      0.898644   852A      0.899250   853A      0.902461  
     854A      0.903647   855A      0.906427   856A      0.907035  
     857A      0.909041   858A      0.910318   859A      0.911968  
     860A      0.912574   861A      0.914415   862A      0.915561  
     863A      0.916112   864A      0.917334   865A      0.918833  
     866A      0.921135   867A      0.921989   868A      0.922681  
     869A      0.924619   870A      0.925011   871A      0.927468  
     872A      0.927700   873A      0.929960   874A      0.931884  
     875A      0.934191   876A      0.935262   877A      0.935543  
     878A      0.937678   879A      0.941145   880A      0.942878  
     881A      0.943652   882A      0.945440   883A      0.946366  
     884A      0.948981   885A      0.950705   886A      0.952210  
     887A      0.953982   888A      0.956906   889A      0.957303  
     890A      0.957868   891A      0.959989   892A      0.961108  
     893A      0.961813   894A      0.961962   895A      0.965167  
     896A      0.966976   897A      0.967357   898A      0.968560  
     899A      0.969728   900A      0.972274   901A      0.973699  
     902A      0.974176   903A      0.975862   904A      0.976348  
     905A      0.977105   906A      0.978205   907A      0.979214  
     908A      0.979279   909A      0.982347   910A      0.983537  
     911A      0.984415   912A      0.985897   913A      0.987488  
     914A      0.988334   915A      0.990523   916A      0.991602  
     917A      0.992965   918A      0.993228   919A      0.994162  
     920A      0.996481   921A      0.996938   922A      0.998471  
     923A      1.001203   924A      1.001650   925A      1.003074  
     926A      1.004010   927A      1.004862   928A      1.006570  
     929A      1.007911   930A      1.008767   931A      1.010247  
     932A      1.011351   933A      1.011954   934A      1.013397  
     935A      1.016471   936A      1.016860   937A      1.018007  
     938A      1.019129   939A      1.019140   940A      1.021013  
     941A      1.022410   942A      1.024782   943A      1.025843  
     944A      1.027560   945A      1.029821   946A      1.032135  
     947A      1.032489   948A      1.033659   949A      1.035762  
     950A      1.036393   951A      1.038106   952A      1.038548  
     953A      1.039506   954A      1.040281   955A      1.042480  
     956A      1.042948   957A      1.045151   958A      1.045427  
     959A      1.047704   960A      1.049350   961A      1.050734  
     962A      1.051719   963A      1.054451   964A      1.055392  
     965A      1.056431   966A      1.058344   967A      1.061342  
     968A      1.063078   969A      1.063340   970A      1.064425  
     971A      1.066043   972A      1.066453   973A      1.069148  
     974A      1.070354   975A      1.071350   976A      1.072722  
     977A      1.074180   978A      1.075442   979A      1.077015  
     980A      1.079312   981A      1.079868   982A      1.081442  
     983A      1.082549   984A      1.082757   985A      1.084022  
     986A      1.086402   987A      1.087253   988A      1.089474  
     989A      1.090225   990A      1.092293   991A      1.093416  
     992A      1.094399   993A      1.095372   994A      1.096689  
     995A      1.098615   996A      1.100756   997A      1.104215  
     998A      1.104996   999A      1.105745  1000A      1.108229  
    1001A      1.109044  1002A      1.110376  1003A      1.111212  
    1004A      1.111807  1005A      1.115835  1006A      1.117320  
    1007A      1.118032  1008A      1.121199  1009A      1.122033  
    1010A      1.122900  1011A      1.124105  1012A      1.126749  
    1013A      1.127830  1014A      1.129328  1015A      1.130368  
    1016A      1.131536  1017A      1.133287  1018A      1.134185  
    1019A      1.134592  1020A      1.136237  1021A      1.137261  
    1022A      1.137617  1023A      1.139006  1024A      1.140218  
    1025A      1.141323  1026A      1.141541  1027A      1.143069  
    1028A      1.145861  1029A      1.146114  1030A      1.147738  
    1031A      1.149818  1032A      1.150201  1033A      1.151315  
    1034A      1.153607  1035A      1.153688  1036A      1.154088  
    1037A      1.156497  1038A      1.157079  1039A      1.158068  
    1040A      1.158273  1041A      1.160755  1042A      1.162429  
    1043A      1.162466  1044A      1.164533  1045A      1.165516  
    1046A      1.166386  1047A      1.169396  1048A      1.169745  
    1049A      1.171008  1050A      1.171620  1051A      1.172072  
    1052A      1.172925  1053A      1.174049  1054A      1.175208  
    1055A      1.177264  1056A      1.178306  1057A      1.179028  
    1058A      1.180373  1059A      1.181712  1060A      1.182610  
    1061A      1.184362  1062A      1.185981  1063A      1.186664  
    1064A      1.188153  1065A      1.189519  1066A      1.191376  
    1067A      1.193230  1068A      1.194396  1069A      1.195511  
    1070A      1.196065  1071A      1.197450  1072A      1.200345  
    1073A      1.202553  1074A      1.204024  1075A      1.205012  
    1076A      1.206881  1077A      1.209331  1078A      1.209873  
    1079A      1.210985  1080A      1.211465  1081A      1.212645  
    1082A      1.213631  1083A      1.215915  1084A      1.217200  
    1085A      1.217743  1086A      1.220105  1087A      1.221309  
    1088A      1.222527  1089A      1.223168  1090A      1.224039  
    1091A      1.225592  1092A      1.226500  1093A      1.227697  
    1094A      1.228577  1095A      1.230148  1096A      1.231571  
    1097A      1.232313  1098A      1.234047  1099A      1.234925  
    1100A      1.236583  1101A      1.237805  1102A      1.241256  
    1103A      1.241824  1104A      1.242395  1105A      1.243791  
    1106A      1.245079  1107A      1.246976  1108A      1.248148  
    1109A      1.249537  1110A      1.250656  1111A      1.252980  
    1112A      1.254803  1113A      1.255405  1114A      1.256474  
    1115A      1.260818  1116A      1.261283  1117A      1.263175  
    1118A      1.264070  1119A      1.266041  1120A      1.267717  
    1121A      1.269245  1122A      1.270533  1123A      1.271715  
    1124A      1.273540  1125A      1.274044  1126A      1.275812  
    1127A      1.277337  1128A      1.278407  1129A      1.280315  
    1130A      1.281131  1131A      1.281715  1132A      1.282678  
    1133A      1.284128  1134A      1.287258  1135A      1.287729  
    1136A      1.288682  1137A      1.289836  1138A      1.290202  
    1139A      1.293117  1140A      1.294345  1141A      1.294802  
    1142A      1.296031  1143A      1.298275  1144A      1.300862  
    1145A      1.302337  1146A      1.303643  1147A      1.304555  
    1148A      1.305556  1149A      1.307293  1150A      1.308113  
    1151A      1.311579  1152A      1.313107  1153A      1.314680  
    1154A      1.314832  1155A      1.315442  1156A      1.317246  
    1157A      1.318490  1158A      1.318756  1159A      1.319244  
    1160A      1.320926  1161A      1.323307  1162A      1.324506  
    1163A      1.325565  1164A      1.327113  1165A      1.328145  
    1166A      1.329679  1167A      1.330997  1168A      1.332465  
    1169A      1.332718  1170A      1.334023  1171A      1.335702  
    1172A      1.336309  1173A      1.337990  1174A      1.338221  
    1175A      1.339603  1176A      1.340596  1177A      1.342225  
    1178A      1.342658  1179A      1.343736  1180A      1.345575  
    1181A      1.346101  1182A      1.349385  1183A      1.350498  
    1184A      1.350890  1185A      1.352998  1186A      1.353782  
    1187A      1.355718  1188A      1.356992  1189A      1.357505  
    1190A      1.358064  1191A      1.358864  1192A      1.360949  
    1193A      1.363540  1194A      1.364834  1195A      1.365674  
    1196A      1.366468  1197A      1.367538  1198A      1.368294  
    1199A      1.370410  1200A      1.372726  1201A      1.373916  
    1202A      1.375502  1203A      1.376696  1204A      1.378236  
    1205A      1.380086  1206A      1.380664  1207A      1.384474  
    1208A      1.385159  1209A      1.387573  1210A      1.390166  
    1211A      1.391667  1212A      1.393306  1213A      1.395653  
    1214A      1.398033  1215A      1.399462  1216A      1.400717  
    1217A      1.401824  1218A      1.402886  1219A      1.403690  
    1220A      1.405248  1221A      1.409463  1222A      1.410040  
    1223A      1.410693  1224A      1.411929  1225A      1.413278  
    1226A      1.414329  1227A      1.415950  1228A      1.418226  
    1229A      1.421266  1230A      1.422183  1231A      1.423203  
    1232A      1.424272  1233A      1.424838  1234A      1.428609  
    1235A      1.429157  1236A      1.430972  1237A      1.432619  
    1238A      1.434053  1239A      1.434963  1240A      1.435564  
    1241A      1.436087  1242A      1.437286  1243A      1.438364  
    1244A      1.439111  1245A      1.440801  1246A      1.441963  
    1247A      1.443647  1248A      1.445761  1249A      1.447200  
    1250A      1.449141  1251A      1.452065  1252A      1.453601  
    1253A      1.454474  1254A      1.456170  1255A      1.457719  
    1256A      1.459449  1257A      1.461496  1258A      1.462856  
    1259A      1.464056  1260A      1.464741  1261A      1.466507  
    1262A      1.469654  1263A      1.470032  1264A      1.471551  
    1265A      1.472931  1266A      1.475011  1267A      1.476486  
    1268A      1.477590  1269A      1.478354  1270A      1.480650  
    1271A      1.481332  1272A      1.482036  1273A      1.484849  
    1274A      1.485995  1275A      1.486672  1276A      1.488417  
    1277A      1.489150  1278A      1.491288  1279A      1.493672  
    1280A      1.494317  1281A      1.495761  1282A      1.496498  
    1283A      1.499275  1284A      1.501050  1285A      1.502591  
    1286A      1.503382  1287A      1.503972  1288A      1.507102  
    1289A      1.507771  1290A      1.509172  1291A      1.509781  
    1292A      1.510531  1293A      1.511661  1294A      1.514020  
    1295A      1.516179  1296A      1.517136  1297A      1.518605  
    1298A      1.519776  1299A      1.520110  1300A      1.522151  
    1301A      1.523614  1302A      1.525915  1303A      1.527390  
    1304A      1.529544  1305A      1.530904  1306A      1.531930  
    1307A      1.533127  1308A      1.534367  1309A      1.535894  
    1310A      1.536206  1311A      1.537598  1312A      1.539838  
    1313A      1.540917  1314A      1.543341  1315A      1.545204  
    1316A      1.545545  1317A      1.548002  1318A      1.548496  
    1319A      1.548989  1320A      1.550481  1321A      1.552778  
    1322A      1.553440  1323A      1.555289  1324A      1.557947  
    1325A      1.559365  1326A      1.560349  1327A      1.560746  
    1328A      1.563336  1329A      1.564001  1330A      1.565473  
    1331A      1.566571  1332A      1.567488  1333A      1.568520  
    1334A      1.570224  1335A      1.570712  1336A      1.573096  
    1337A      1.574614  1338A      1.575516  1339A      1.577990  
    1340A      1.579938  1341A      1.580904  1342A      1.581901  
    1343A      1.582541  1344A      1.583986  1345A      1.585600  
    1346A      1.587132  1347A      1.588548  1348A      1.589500  
    1349A      1.590664  1350A      1.591559  1351A      1.592964  
    1352A      1.595050  1353A      1.595322  1354A      1.597909  
    1355A      1.598810  1356A      1.599926  1357A      1.601271  
    1358A      1.602174  1359A      1.605217  1360A      1.606121  
    1361A      1.607531  1362A      1.607669  1363A      1.610682  
    1364A      1.611169  1365A      1.611947  1366A      1.613219  
    1367A      1.614530  1368A      1.615300  1369A      1.616376  
    1370A      1.616927  1371A      1.618648  1372A      1.619306  
    1373A      1.620048  1374A      1.620317  1375A      1.621357  
    1376A      1.624495  1377A      1.625479  1378A      1.626366  
    1379A      1.626943  1380A      1.627424  1381A      1.628217  
    1382A      1.630796  1383A      1.632974  1384A      1.633927  
    1385A      1.636098  1386A      1.638922  1387A      1.639495  
    1388A      1.641517  1389A      1.642061  1390A      1.643685  
    1391A      1.643712  1392A      1.645170  1393A      1.647143  
    1394A      1.647761  1395A      1.649821  1396A      1.650259  
    1397A      1.650516  1398A      1.652321  1399A      1.652742  
    1400A      1.654667  1401A      1.655588  1402A      1.655958  
    1403A      1.657747  1404A      1.659295  1405A      1.660345  
    1406A      1.661280  1407A      1.662727  1408A      1.663240  
    1409A      1.665599  1410A      1.666364  1411A      1.666700  
    1412A      1.668072  1413A      1.668932  1414A      1.670614  
    1415A      1.672590  1416A      1.672814  1417A      1.674544  
    1418A      1.675378  1419A      1.676313  1420A      1.677591  
    1421A      1.677791  1422A      1.679071  1423A      1.679915  
    1424A      1.680997  1425A      1.682870  1426A      1.682963  
    1427A      1.685456  1428A      1.686031  1429A      1.686708  
    1430A      1.688305  1431A      1.689467  1432A      1.690292  
    1433A      1.691928  1434A      1.692198  1435A      1.693383  
    1436A      1.695559  1437A      1.696311  1438A      1.698194  
    1439A      1.698581  1440A      1.699844  1441A      1.702113  
    1442A      1.703781  1443A      1.704866  1444A      1.709163  
    1445A      1.709419  1446A      1.710444  1447A      1.711973  
    1448A      1.713177  1449A      1.714369  1450A      1.715537  
    1451A      1.716962  1452A      1.718423  1453A      1.719911  
    1454A      1.721733  1455A      1.723031  1456A      1.724251  
    1457A      1.726058  1458A      1.726732  1459A      1.727427  
    1460A      1.728998  1461A      1.731210  1462A      1.733240  
    1463A      1.733749  1464A      1.735393  1465A      1.736428  
    1466A      1.737077  1467A      1.739299  1468A      1.739982  
    1469A      1.740467  1470A      1.741151  1471A      1.742948  
    1472A      1.745065  1473A      1.746500  1474A      1.747812  
    1475A      1.749685  1476A      1.750104  1477A      1.751031  
    1478A      1.752682  1479A      1.753049  1480A      1.754696  
    1481A      1.757234  1482A      1.758706  1483A      1.761805  
    1484A      1.763879  1485A      1.765203  1486A      1.765521  
    1487A      1.768197  1488A      1.769760  1489A      1.770314  
    1490A      1.771763  1491A      1.772156  1492A      1.775991  
    1493A      1.778267  1494A      1.778373  1495A      1.779236  
    1496A      1.781490  1497A      1.782304  1498A      1.784787  
    1499A      1.787931  1500A      1.788791  1501A      1.790187  
    1502A      1.790949  1503A      1.792134  1504A      1.794106  
    1505A      1.795858  1506A      1.796645  1507A      1.797987  
    1508A      1.799648  1509A      1.800271  1510A      1.801533  
    1511A      1.803301  1512A      1.805890  1513A      1.807964  
    1514A      1.809572  1515A      1.810728  1516A      1.813060  
    1517A      1.814132  1518A      1.815493  1519A      1.816559  
    1520A      1.817236  1521A      1.818739  1522A      1.819982  
    1523A      1.820475  1524A      1.821237  1525A      1.823023  
    1526A      1.824955  1527A      1.826332  1528A      1.826732  
    1529A      1.827777  1530A      1.830784  1531A      1.832125  
    1532A      1.834487  1533A      1.837652  1534A      1.841727  
    1535A      1.843171  1536A      1.844534  1537A      1.846367  
    1538A      1.847321  1539A      1.847824  1540A      1.849957  
    1541A      1.852175  1542A      1.854468  1543A      1.856450  
    1544A      1.859635  1545A      1.860434  1546A      1.862383  
    1547A      1.864268  1548A      1.864459  1549A      1.866236  
    1550A      1.867014  1551A      1.868290  1552A      1.870521  
    1553A      1.872097  1554A      1.875379  1555A      1.878370  
    1556A      1.881296  1557A      1.882923  1558A      1.884883  
    1559A      1.888641  1560A      1.889322  1561A      1.890276  
    1562A      1.892893  1563A      1.893859  1564A      1.894744  
    1565A      1.897345  1566A      1.898711  1567A      1.900200  
    1568A      1.901560  1569A      1.902743  1570A      1.903733  
    1571A      1.906008  1572A      1.907269  1573A      1.908633  
    1574A      1.911469  1575A      1.913716  1576A      1.915337  
    1577A      1.917464  1578A      1.919566  1579A      1.921084  
    1580A      1.924061  1581A      1.925143  1582A      1.925755  
    1583A      1.928334  1584A      1.930526  1585A      1.931946  
    1586A      1.933266  1587A      1.934739  1588A      1.935825  
    1589A      1.936057  1590A      1.937768  1591A      1.942050  
    1592A      1.944897  1593A      1.945483  1594A      1.946409  
    1595A      1.950044  1596A      1.950536  1597A      1.952921  
    1598A      1.953088  1599A      1.955347  1600A      1.956032  
    1601A      1.957306  1602A      1.960002  1603A      1.962816  
    1604A      1.965048  1605A      1.966784  1606A      1.967527  
    1607A      1.968893  1608A      1.970694  1609A      1.973749  
    1610A      1.974462  1611A      1.976184  1612A      1.977108  
    1613A      1.979571  1614A      1.980554  1615A      1.982528  
    1616A      1.984234  1617A      1.987583  1618A      1.988957  
    1619A      1.989531  1620A      1.990610  1621A      1.992207  
    1622A      1.993174  1623A      1.994864  1624A      1.997060  
    1625A      1.998785  1626A      2.000116  1627A      2.000761  
    1628A      2.002656  1629A      2.003433  1630A      2.004330  
    1631A      2.007909  1632A      2.008804  1633A      2.009949  
    1634A      2.012351  1635A      2.012778  1636A      2.013417  
    1637A      2.015976  1638A      2.017747  1639A      2.018489  
    1640A      2.019237  1641A      2.021245  1642A      2.023091  
    1643A      2.023687  1644A      2.025646  1645A      2.028862  
    1646A      2.030033  1647A      2.032770  1648A      2.033710  
    1649A      2.035562  1650A      2.038000  1651A      2.041001  
    1652A      2.043136  1653A      2.043853  1654A      2.045458  
    1655A      2.046265  1656A      2.049204  1657A      2.049761  
    1658A      2.051937  1659A      2.054048  1660A      2.054660  
    1661A      2.056617  1662A      2.059896  1663A      2.060870  
    1664A      2.062419  1665A      2.063561  1666A      2.064275  
    1667A      2.066183  1668A      2.067109  1669A      2.068679  
    1670A      2.072537  1671A      2.074323  1672A      2.075673  
    1673A      2.077700  1674A      2.078823  1675A      2.079482  
    1676A      2.083765  1677A      2.086476  1678A      2.089333  
    1679A      2.090377  1680A      2.093642  1681A      2.095708  
    1682A      2.096464  1683A      2.097605  1684A      2.100154  
    1685A      2.102572  1686A      2.106874  1687A      2.111694  
    1688A      2.113273  1689A      2.113662  1690A      2.115697  
    1691A      2.120888  1692A      2.121375  1693A      2.123213  
    1694A      2.124077  1695A      2.124574  1696A      2.128881  
    1697A      2.130752  1698A      2.131752  1699A      2.134267  
    1700A      2.135980  1701A      2.138656  1702A      2.140370  
    1703A      2.141558  1704A      2.143402  1705A      2.145345  
    1706A      2.149038  1707A      2.151849  1708A      2.153826  
    1709A      2.154856  1710A      2.157250  1711A      2.157797  
    1712A      2.159151  1713A      2.162015  1714A      2.164024  
    1715A      2.166319  1716A      2.167845  1717A      2.168031  
    1718A      2.168948  1719A      2.170776  1720A      2.175433  
    1721A      2.175730  1722A      2.178206  1723A      2.179894  
    1724A      2.184108  1725A      2.185468  1726A      2.186585  
    1727A      2.189736  1728A      2.190348  1729A      2.194952  
    1730A      2.196890  1731A      2.198178  1732A      2.200185  
    1733A      2.201315  1734A      2.204384  1735A      2.204720  
    1736A      2.205552  1737A      2.207544  1738A      2.210099  
    1739A      2.212322  1740A      2.213187  1741A      2.214731  
    1742A      2.216614  1743A      2.218865  1744A      2.221229  
    1745A      2.224779  1746A      2.226757  1747A      2.229627  
    1748A      2.229913  1749A      2.231790  1750A      2.233111  
    1751A      2.235563  1752A      2.238443  1753A      2.239245  
    1754A      2.240367  1755A      2.242822  1756A      2.243314  
    1757A      2.247679  1758A      2.248968  1759A      2.250523  
    1760A      2.251673  1761A      2.254462  1762A      2.261304  
    1763A      2.262865  1764A      2.263661  1765A      2.264483  
    1766A      2.269373  1767A      2.270224  1768A      2.271807  
    1769A      2.277120  1770A      2.277796  1771A      2.278814  
    1772A      2.281659  1773A      2.282421  1774A      2.283155  
    1775A      2.285350  1776A      2.286671  1777A      2.288000  
    1778A      2.290779  1779A      2.291485  1780A      2.295232  
    1781A      2.296575  1782A      2.298633  1783A      2.299885  
    1784A      2.305745  1785A      2.306604  1786A      2.309768  
    1787A      2.310775  1788A      2.311597  1789A      2.312799  
    1790A      2.315178  1791A      2.316692  1792A      2.319124  
    1793A      2.320808  1794A      2.322388  1795A      2.323763  
    1796A      2.325830  1797A      2.326663  1798A      2.328240  
    1799A      2.329810  1800A      2.330741  1801A      2.331563  
    1802A      2.333311  1803A      2.334857  1804A      2.336816  
    1805A      2.338174  1806A      2.340380  1807A      2.343274  
    1808A      2.346120  1809A      2.347831  1810A      2.349625  
    1811A      2.350373  1812A      2.352258  1813A      2.352870  
    1814A      2.355178  1815A      2.357427  1816A      2.358910  
    1817A      2.362287  1818A      2.364437  1819A      2.365728  
    1820A      2.366261  1821A      2.368457  1822A      2.369450  
    1823A      2.370429  1824A      2.372810  1825A      2.374411  
    1826A      2.376080  1827A      2.380401  1828A      2.381652  
    1829A      2.382134  1830A      2.384153  1831A      2.386244  
    1832A      2.389132  1833A      2.390212  1834A      2.391826  
    1835A      2.394043  1836A      2.396469  1837A      2.399315  
    1838A      2.400757  1839A      2.401347  1840A      2.403760  
    1841A      2.405140  1842A      2.409547  1843A      2.412268  
    1844A      2.412806  1845A      2.414642  1846A      2.416006  
    1847A      2.416414  1848A      2.419385  1849A      2.420372  
    1850A      2.421386  1851A      2.422847  1852A      2.426435  
    1853A      2.428280  1854A      2.429044  1855A      2.433275  
    1856A      2.437065  1857A      2.439355  1858A      2.442773  
    1859A      2.443459  1860A      2.448053  1861A      2.450811  
    1862A      2.452203  1863A      2.454420  1864A      2.460954  
    1865A      2.461057  1866A      2.466788  1867A      2.471065  
    1868A      2.472037  1869A      2.474618  1870A      2.477666  
    1871A      2.479573  1872A      2.481689  1873A      2.484004  
    1874A      2.488777  1875A      2.490806  1876A      2.495378  
    1877A      2.498734  1878A      2.500089  1879A      2.501642  
    1880A      2.502936  1881A      2.503825  1882A      2.505187  
    1883A      2.510500  1884A      2.513138  1885A      2.517011  
    1886A      2.518135  1887A      2.519479  1888A      2.522056  
    1889A      2.524147  1890A      2.527213  1891A      2.529248  
    1892A      2.533163  1893A      2.535644  1894A      2.536378  
    1895A      2.537898  1896A      2.539851  1897A      2.542230  
    1898A      2.545385  1899A      2.546152  1900A      2.549150  
    1901A      2.550686  1902A      2.554797  1903A      2.558642  
    1904A      2.559361  1905A      2.563533  1906A      2.565872  
    1907A      2.570550  1908A      2.571772  1909A      2.576305  
    1910A      2.579157  1911A      2.581857  1912A      2.587396  
    1913A      2.588850  1914A      2.590484  1915A      2.593548  
    1916A      2.594287  1917A      2.597942  1918A      2.601297  
    1919A      2.603910  1920A      2.606072  1921A      2.608085  
    1922A      2.610409  1923A      2.616845  1924A      2.618837  
    1925A      2.627981  1926A      2.629895  1927A      2.632052  
    1928A      2.638725  1929A      2.640719  1930A      2.647783  
    1931A      2.650232  1932A      2.651458  1933A      2.653539  
    1934A      2.655415  1935A      2.657461  1936A      2.661783  
    1937A      2.662904  1938A      2.664383  1939A      2.665792  
    1940A      2.667467  1941A      2.671067  1942A      2.673972  
    1943A      2.675220  1944A      2.677016  1945A      2.681554  
    1946A      2.683664  1947A      2.686375  1948A      2.688243  
    1949A      2.691154  1950A      2.694498  1951A      2.696538  
    1952A      2.702325  1953A      2.705818  1954A      2.707890  
    1955A      2.708848  1956A      2.712864  1957A      2.715449  
    1958A      2.716211  1959A      2.719545  1960A      2.724012  
    1961A      2.724476  1962A      2.728110  1963A      2.735737  
    1964A      2.738602  1965A      2.742123  1966A      2.742346  
    1967A      2.751483  1968A      2.753595  1969A      2.754531  
    1970A      2.758379  1971A      2.760871  1972A      2.763661  
    1973A      2.766608  1974A      2.768169  1975A      2.770310  
    1976A      2.771338  1977A      2.772736  1978A      2.773187  
    1979A      2.778202  1980A      2.780600  1981A      2.782415  
    1982A      2.784857  1983A      2.787235  1984A      2.790118  
    1985A      2.791783  1986A      2.794173  1987A      2.794928  
    1988A      2.798276  1989A      2.799038  1990A      2.802095  
    1991A      2.804813  1992A      2.806284  1993A      2.809049  
    1994A      2.812466  1995A      2.814891  1996A      2.819780  
    1997A      2.822160  1998A      2.825516  1999A      2.827703  
    2000A      2.830502  2001A      2.831874  2002A      2.832412  
    2003A      2.836487  2004A      2.838948  2005A      2.842796  
    2006A      2.852622  2007A      2.855057  2008A      2.858161  
    2009A      2.861723  2010A      2.863183  2011A      2.864419  
    2012A      2.867887  2013A      2.869869  2014A      2.871330  
    2015A      2.872544  2016A      2.874525  2017A      2.877732  
    2018A      2.879934  2019A      2.883230  2020A      2.887127  
    2021A      2.888856  2022A      2.892209  2023A      2.893962  
    2024A      2.896818  2025A      2.901295  2026A      2.905256  
    2027A      2.906211  2028A      2.909377  2029A      2.910381  
    2030A      2.910952  2031A      2.911800  2032A      2.913602  
    2033A      2.916757  2034A      2.919230  2035A      2.923603  
    2036A      2.924631  2037A      2.928343  2038A      2.931529  
    2039A      2.946240  2040A      2.949404  2041A      2.952976  
    2042A      2.956877  2043A      2.966626  2044A      2.973787  
    2045A      2.975744  2046A      2.989812  2047A      2.990968  
    2048A      2.994451  2049A      3.001271  2050A      3.003862  
    2051A      3.007640  2052A      3.011897  2053A      3.015527  
    2054A      3.019463  2055A      3.021275  2056A      3.024314  
    2057A      3.030609  2058A      3.033583  2059A      3.039749  
    2060A      3.041148  2061A      3.041824  2062A      3.044973  
    2063A      3.051744  2064A      3.053383  2065A      3.054622  
    2066A      3.058819  2067A      3.061034  2068A      3.066303  
    2069A      3.068541  2070A      3.071603  2071A      3.074368  
    2072A      3.080775  2073A      3.085759  2074A      3.088097  
    2075A      3.097078  2076A      3.100233  2077A      3.113343  
    2078A      3.116033  2079A      3.124221  2080A      3.135621  
    2081A      3.143532  2082A      3.146251  2083A      3.149688  
    2084A      3.155855  2085A      3.157451  2086A      3.166636  
    2087A      3.167927  2088A      3.175101  2089A      3.181932  
    2090A      3.182916  2091A      3.185869  2092A      3.196096  
    2093A      3.200150  2094A      3.202202  2095A      3.205156  
    2096A      3.213983  2097A      3.218142  2098A      3.220949  
    2099A      3.224587  2100A      3.225280  2101A      3.227984  
    2102A      3.235036  2103A      3.243431  2104A      3.245052  
    2105A      3.250316  2106A      3.255051  2107A      3.258969  
    2108A      3.262591  2109A      3.265364  2110A      3.271644  
    2111A      3.278437  2112A      3.282505  2113A      3.285085  
    2114A      3.287590  2115A      3.289230  2116A      3.297413  
    2117A      3.300471  2118A      3.303471  2119A      3.303994  
    2120A      3.307727  2121A      3.316752  2122A      3.321183  
    2123A      3.328266  2124A      3.328977  2125A      3.331505  
    2126A      3.334526  2127A      3.339572  2128A      3.347865  
    2129A      3.351092  2130A      3.354618  2131A      3.355382  
    2132A      3.358522  2133A      3.363406  2134A      3.365820  
    2135A      3.369387  2136A      3.369925  2137A      3.372878  
    2138A      3.375633  2139A      3.378907  2140A      3.382083  
    2141A      3.382292  2142A      3.385278  2143A      3.386041  
    2144A      3.389393  2145A      3.391275  2146A      3.396209  
    2147A      3.397950  2148A      3.399292  2149A      3.405143  
    2150A      3.407577  2151A      3.410267  2152A      3.413325  
    2153A      3.415815  2154A      3.421412  2155A      3.425926  
    2156A      3.428406  2157A      3.433192  2158A      3.435204  
    2159A      3.437238  2160A      3.442099  2161A      3.452490  
    2162A      3.453439  2163A      3.458582  2164A      3.459680  
    2165A      3.465562  2166A      3.467105  2167A      3.471990  
    2168A      3.476293  2169A      3.480151  2170A      3.482563  
    2171A      3.487144  2172A      3.494917  2173A      3.497425  
    2174A      3.502356  2175A      3.503496  2176A      3.506763  
    2177A      3.508744  2178A      3.511078  2179A      3.512321  
    2180A      3.515420  2181A      3.523304  2182A      3.524896  
    2183A      3.527435  2184A      3.528800  2185A      3.529199  
    2186A      3.533583  2187A      3.535031  2188A      3.539151  
    2189A      3.540362  2190A      3.543054  2191A      3.545722  
    2192A      3.550125  2193A      3.551939  2194A      3.552201  
    2195A      3.557065  2196A      3.559535  2197A      3.567844  
    2198A      3.573677  2199A      3.578950  2200A      3.580072  
    2201A      3.585146  2202A      3.590351  2203A      3.591346  
    2204A      3.599274  2205A      3.602411  2206A      3.604766  
    2207A      3.612833  2208A      3.616519  2209A      3.618890  
    2210A      3.621638  2211A      3.622210  2212A      3.624681  
    2213A      3.629662  2214A      3.632508  2215A      3.639075  
    2216A      3.643711  2217A      3.646869  2218A      3.649429  
    2219A      3.654871  2220A      3.655919  2221A      3.658933  
    2222A      3.660523  2223A      3.661200  2224A      3.662991  
    2225A      3.668390  2226A      3.670473  2227A      3.671813  
    2228A      3.674174  2229A      3.675831  2230A      3.678103  
    2231A      3.681735  2232A      3.687899  2233A      3.689893  
    2234A      3.693545  2235A      3.695443  2236A      3.698662  
    2237A      3.701083  2238A      3.701772  2239A      3.703740  
    2240A      3.706242  2241A      3.709773  2242A      3.710222  
    2243A      3.715678  2244A      3.716945  2245A      3.720537  
    2246A      3.724098  2247A      3.726523  2248A      3.731245  
    2249A      3.735186  2250A      3.738069  2251A      3.739358  
    2252A      3.744477  2253A      3.750019  2254A      3.753848  
    2255A      3.754474  2256A      3.757199  2257A      3.760827  
    2258A      3.764035  2259A      3.768206  2260A      3.769023  
    2261A      3.772818  2262A      3.780771  2263A      3.781388  
    2264A      3.785872  2265A      3.788418  2266A      3.789058  
    2267A      3.792333  2268A      3.794528  2269A      3.801364  
    2270A      3.802823  2271A      3.808794  2272A      3.810135  
    2273A      3.812115  2274A      3.814846  2275A      3.818456  
    2276A      3.820788  2277A      3.822388  2278A      3.824097  
    2279A      3.828947  2280A      3.829997  2281A      3.834324  
    2282A      3.837353  2283A      3.839422  2284A      3.841042  
    2285A      3.843559  2286A      3.846395  2287A      3.848687  
    2288A      3.855753  2289A      3.857266  2290A      3.863893  
    2291A      3.866586  2292A      3.868730  2293A      3.871346  
    2294A      3.876271  2295A      3.880813  2296A      3.885590  
    2297A      3.887950  2298A      3.892280  2299A      3.894164  
    2300A      3.901771  2301A      3.903316  2302A      3.906576  
    2303A      3.911469  2304A      3.915393  2305A      3.917831  
    2306A      3.919334  2307A      3.920595  2308A      3.924239  
    2309A      3.924551  2310A      3.932555  2311A      3.936607  
    2312A      3.937319  2313A      3.939603  2314A      3.941280  
    2315A      3.945467  2316A      3.952502  2317A      3.956272  
    2318A      3.961106  2319A      3.971496  2320A      3.973193  
    2321A      3.977228  2322A      3.980305  2323A      3.984639  
    2324A      3.986305  2325A      3.992574  2326A      3.997880  
    2327A      4.001473  2328A      4.005165  2329A      4.006815  
    2330A      4.009411  2331A      4.013797  2332A      4.018060  
    2333A      4.022910  2334A      4.026242  2335A      4.028124  
    2336A      4.033529  2337A      4.036019  2338A      4.043135  
    2339A      4.047262  2340A      4.048874  2341A      4.049832  
    2342A      4.054797  2343A      4.058901  2344A      4.062251  
    2345A      4.064850  2346A      4.072597  2347A      4.073753  
    2348A      4.074443  2349A      4.078687  2350A      4.080232  
    2351A      4.084546  2352A      4.088271  2353A      4.095169  
    2354A      4.096461  2355A      4.099889  2356A      4.102720  
    2357A      4.109173  2358A      4.110770  2359A      4.114693  
    2360A      4.120565  2361A      4.122894  2362A      4.129383  
    2363A      4.129773  2364A      4.133142  2365A      4.135005  
    2366A      4.137601  2367A      4.141529  2368A      4.143818  
    2369A      4.154506  2370A      4.158038  2371A      4.163652  
    2372A      4.166518  2373A      4.167830  2374A      4.172629  
    2375A      4.176230  2376A      4.179843  2377A      4.180801  
    2378A      4.182389  2379A      4.184875  2380A      4.186841  
    2381A      4.189620  2382A      4.196812  2383A      4.199786  
    2384A      4.201851  2385A      4.203474  2386A      4.207778  
    2387A      4.214410  2388A      4.219279  2389A      4.221338  
    2390A      4.223913  2391A      4.228253  2392A      4.228806  
    2393A      4.230037  2394A      4.231418  2395A      4.232711  
    2396A      4.233607  2397A      4.237471  2398A      4.242294  
    2399A      4.244524  2400A      4.246153  2401A      4.249463  
    2402A      4.251058  2403A      4.253229  2404A      4.253941  
    2405A      4.255753  2406A      4.260150  2407A      4.261652  
    2408A      4.263921  2409A      4.265921  2410A      4.268309  
    2411A      4.270028  2412A      4.271093  2413A      4.274152  
    2414A      4.275364  2415A      4.276691  2416A      4.280328  
    2417A      4.283183  2418A      4.285080  2419A      4.285504  
    2420A      4.290554  2421A      4.291523  2422A      4.294385  
    2423A      4.297005  2424A      4.298801  2425A      4.300921  
    2426A      4.305866  2427A      4.306486  2428A      4.308382  
    2429A      4.312182  2430A      4.313906  2431A      4.318578  
    2432A      4.319769  2433A      4.324232  2434A      4.326599  
    2435A      4.328161  2436A      4.329948  2437A      4.331940  
    2438A      4.333880  2439A      4.336940  2440A      4.338030  
    2441A      4.343324  2442A      4.345263  2443A      4.348611  
    2444A      4.349942  2445A      4.351417  2446A      4.356559  
    2447A      4.357691  2448A      4.359060  2449A      4.363033  
    2450A      4.366874  2451A      4.371307  2452A      4.372505  
    2453A      4.372787  2454A      4.374138  2455A      4.377149  
    2456A      4.379928  2457A      4.381625  2458A      4.384218  
    2459A      4.386598  2460A      4.388247  2461A      4.390573  
    2462A      4.393616  2463A      4.396467  2464A      4.399052  
    2465A      4.402177  2466A      4.405514  2467A      4.407733  
    2468A      4.412209  2469A      4.413009  2470A      4.413372  
    2471A      4.416826  2472A      4.418055  2473A      4.421352  
    2474A      4.424224  2475A      4.427213  2476A      4.428442  
    2477A      4.431947  2478A      4.436634  2479A      4.438896  
    2480A      4.441080  2481A      4.441634  2482A      4.443539  
    2483A      4.445808  2484A      4.447586  2485A      4.450103  
    2486A      4.451336  2487A      4.453517  2488A      4.455118  
    2489A      4.456403  2490A      4.459643  2491A      4.460353  
    2492A      4.462749  2493A      4.464592  2494A      4.466016  
    2495A      4.468126  2496A      4.469894  2497A      4.471329  
    2498A      4.472735  2499A      4.475204  2500A      4.476616  
    2501A      4.478831  2502A      4.481748  2503A      4.484440  
    2504A      4.485612  2505A      4.486680  2506A      4.495924  
    2507A      4.498174  2508A      4.502281  2509A      4.503795  
    2510A      4.507456  2511A      4.509354  2512A      4.510832  
    2513A      4.514026  2514A      4.516990  2515A      4.517625  
    2516A      4.519576  2517A      4.521846  2518A      4.523308  
    2519A      4.528921  2520A      4.530153  2521A      4.531711  
    2522A      4.536385  2523A      4.537579  2524A      4.538500  
    2525A      4.540703  2526A      4.545114  2527A      4.547902  
    2528A      4.549655  2529A      4.550398  2530A      4.553804  
    2531A      4.557511  2532A      4.559785  2533A      4.563031  
    2534A      4.564360  2535A      4.569130  2536A      4.571363  
    2537A      4.572079  2538A      4.578911  2539A      4.580437  
    2540A      4.581876  2541A      4.584936  2542A      4.587391  
    2543A      4.587942  2544A      4.589842  2545A      4.593280  
    2546A      4.594765  2547A      4.595741  2548A      4.597010  
    2549A      4.598674  2550A      4.600069  2551A      4.604484  
    2552A      4.608999  2553A      4.614165  2554A      4.616153  
    2555A      4.619628  2556A      4.624578  2557A      4.626259  
    2558A      4.626976  2559A      4.631301  2560A      4.638675  
    2561A      4.638937  2562A      4.640902  2563A      4.644107  
    2564A      4.644754  2565A      4.647131  2566A      4.649639  
    2567A      4.654936  2568A      4.656030  2569A      4.658012  
    2570A      4.660482  2571A      4.662752  2572A      4.663983  
    2573A      4.667545  2574A      4.672727  2575A      4.675101  
    2576A      4.677640  2577A      4.680876  2578A      4.681967  
    2579A      4.685139  2580A      4.689091  2581A      4.693436  
    2582A      4.695529  2583A      4.697080  2584A      4.703321  
    2585A      4.703563  2586A      4.706288  2587A      4.710941  
    2588A      4.714203  2589A      4.718831  2590A      4.720081  
    2591A      4.725569  2592A      4.729213  2593A      4.732017  
    2594A      4.734894  2595A      4.736822  2596A      4.747084  
    2597A      4.747922  2598A      4.751086  2599A      4.757288  
    2600A      4.759497  2601A      4.761534  2602A      4.762937  
    2603A      4.766895  2604A      4.770587  2605A      4.772068  
    2606A      4.775368  2607A      4.780197  2608A      4.781014  
    2609A      4.785746  2610A      4.789527  2611A      4.790721  
    2612A      4.791214  2613A      4.795349  2614A      4.796945  
    2615A      4.798139  2616A      4.800654  2617A      4.804677  
    2618A      4.806771  2619A      4.807260  2620A      4.810907  
    2621A      4.812253  2622A      4.815589  2623A      4.816680  
    2624A      4.819159  2625A      4.823331  2626A      4.829173  
    2627A      4.831617  2628A      4.833824  2629A      4.838482  
    2630A      4.839489  2631A      4.839888  2632A      4.842245  
    2633A      4.843701  2634A      4.845678  2635A      4.846456  
    2636A      4.849982  2637A      4.850918  2638A      4.853602  
    2639A      4.856093  2640A      4.857763  2641A      4.862223  
    2642A      4.864104  2643A      4.870571  2644A      4.871472  
    2645A      4.874376  2646A      4.874776  2647A      4.876023  
    2648A      4.879659  2649A      4.885826  2650A      4.891500  
    2651A      4.895625  2652A      4.896301  2653A      4.898769  
    2654A      4.902742  2655A      4.903443  2656A      4.904870  
    2657A      4.908565  2658A      4.910424  2659A      4.912178  
    2660A      4.915325  2661A      4.919841  2662A      4.923042  
    2663A      4.926567  2664A      4.928275  2665A      4.929969  
    2666A      4.933055  2667A      4.934844  2668A      4.936312  
    2669A      4.937283  2670A      4.942450  2671A      4.943604  
    2672A      4.946135  2673A      4.948223  2674A      4.950076  
    2675A      4.952401  2676A      4.956413  2677A      4.959044  
    2678A      4.961301  2679A      4.963044  2680A      4.965248  
    2681A      4.968609  2682A      4.970633  2683A      4.974111  
    2684A      4.976872  2685A      4.977598  2686A      4.981648  
    2687A      4.983038  2688A      4.985592  2689A      4.985948  
    2690A      4.987630  2691A      4.988672  2692A      4.991221  
    2693A      4.993720  2694A      4.994413  2695A      4.998533  
    2696A      4.999429  2697A      5.001367  2698A      5.002471  
    2699A      5.004114  2700A      5.004610  2701A      5.007178  
    2702A      5.009484  2703A      5.011067  2704A      5.012196  
    2705A      5.016486  2706A      5.017170  2707A      5.019264  
    2708A      5.020435  2709A      5.021525  2710A      5.023456  
    2711A      5.025560  2712A      5.028299  2713A      5.028882  
    2714A      5.031706  2715A      5.034673  2716A      5.036990  
    2717A      5.038037  2718A      5.039501  2719A      5.042272  
    2720A      5.043725  2721A      5.045090  2722A      5.046950  
    2723A      5.048614  2724A      5.052499  2725A      5.053935  
    2726A      5.054576  2727A      5.055506  2728A      5.057205  
    2729A      5.059924  2730A      5.060554  2731A      5.061935  
    2732A      5.063222  2733A      5.064792  2734A      5.067283  
    2735A      5.068558  2736A      5.072175  2737A      5.072592  
    2738A      5.075302  2739A      5.078021  2740A      5.079410  
    2741A      5.079972  2742A      5.081561  2743A      5.082763  
    2744A      5.084416  2745A      5.086386  2746A      5.089394  
    2747A      5.089775  2748A      5.094183  2749A      5.094713  
    2750A      5.095868  2751A      5.096535  2752A      5.099851  
    2753A      5.100835  2754A      5.102328  2755A      5.103402  
    2756A      5.104696  2757A      5.105164  2758A      5.106936  
    2759A      5.108517  2760A      5.110073  2761A      5.110312  
    2762A      5.112618  2763A      5.113444  2764A      5.115258  
    2765A      5.119012  2766A      5.119049  2767A      5.120105  
    2768A      5.121218  2769A      5.122621  2770A      5.123151  
    2771A      5.123734  2772A      5.126247  2773A      5.128060  
    2774A      5.128826  2775A      5.130187  2776A      5.132362  
    2777A      5.134835  2778A      5.139175  2779A      5.140883  
    2780A      5.142119  2781A      5.144792  2782A      5.147845  
    2783A      5.154983  2784A      5.159534  2785A      5.160697  
    2786A      5.163865  2787A      5.166128  2788A      5.170413  
    2789A      5.172981  2790A      5.175921  2791A      5.177688  
    2792A      5.182483  2793A      5.184574  2794A      5.190537  
    2795A      5.191259  2796A      5.195861  2797A      5.198208  
    2798A      5.200689  2799A      5.201878  2800A      5.203142  
    2801A      5.207749  2802A      5.210369  2803A      5.213315  
    2804A      5.216146  2805A      5.217827  2806A      5.220268  
    2807A      5.226318  2808A      5.228978  2809A      5.231550  
    2810A      5.235414  2811A      5.235847  2812A      5.238478  
    2813A      5.242290  2814A      5.242649  2815A      5.244883  
    2816A      5.247926  2817A      5.251620  2818A      5.254171  
    2819A      5.256642  2820A      5.257504  2821A      5.258534  
    2822A      5.259982  2823A      5.263737  2824A      5.264280  
    2825A      5.265458  2826A      5.268009  2827A      5.270627  
    2828A      5.271545  2829A      5.272829  2830A      5.275955  
    2831A      5.278206  2832A      5.281257  2833A      5.282087  
    2834A      5.285036  2835A      5.286158  2836A      5.291106  
    2837A      5.291596  2838A      5.292868  2839A      5.300819  
    2840A      5.301986  2841A      5.303498  2842A      5.306330  
    2843A      5.306749  2844A      5.309610  2845A      5.311947  
    2846A      5.316153  2847A      5.317150  2848A      5.319723  
    2849A      5.320394  2850A      5.322711  2851A      5.322966  
    2852A      5.326125  2853A      5.328483  2854A      5.330279  
    2855A      5.331714  2856A      5.332498  2857A      5.337782  
    2858A      5.340151  2859A      5.341596  2860A      5.344743  
    2861A      5.346998  2862A      5.349941  2863A      5.351471  
    2864A      5.352989  2865A      5.355838  2866A      5.360256  
    2867A      5.361938  2868A      5.364084  2869A      5.365725  
    2870A      5.368554  2871A      5.369319  2872A      5.376188  
    2873A      5.376816  2874A      5.380811  2875A      5.387478  
    2876A      5.389282  2877A      5.391241  2878A      5.394489  
    2879A      5.399304  2880A      5.400772  2881A      5.407023  
    2882A      5.411899  2883A      5.412077  2884A      5.414372  
    2885A      5.416733  2886A      5.417048  2887A      5.421714  
    2888A      5.425742  2889A      5.427297  2890A      5.430473  
    2891A      5.432931  2892A      5.435416  2893A      5.436801  
    2894A      5.441180  2895A      5.443218  2896A      5.444428  
    2897A      5.447004  2898A      5.450604  2899A      5.458942  
    2900A      5.460692  2901A      5.462258  2902A      5.463818  
    2903A      5.469340  2904A      5.475314  2905A      5.478296  
    2906A      5.480386  2907A      5.488343  2908A      5.489439  
    2909A      5.493755  2910A      5.493950  2911A      5.497420  
    2912A      5.499379  2913A      5.501224  2914A      5.503594  
    2915A      5.504223  2916A      5.509535  2917A      5.510561  
    2918A      5.510782  2919A      5.513462  2920A      5.515793  
    2921A      5.523041  2922A      5.526829  2923A      5.529699  
    2924A      5.534006  2925A      5.537985  2926A      5.539366  
    2927A      5.542989  2928A      5.544040  2929A      5.550028  
    2930A      5.553197  2931A      5.560268  2932A      5.562932  
    2933A      5.565814  2934A      5.567869  2935A      5.568481  
    2936A      5.578613  2937A      5.584080  2938A      5.588647  
    2939A      5.589745  2940A      5.593973  2941A      5.594938  
    2942A      5.597499  2943A      5.605562  2944A      5.611098  
    2945A      5.617148  2946A      5.617718  2947A      5.620776  
    2948A      5.622773  2949A      5.625481  2950A      5.626619  
    2951A      5.628926  2952A      5.632299  2953A      5.633404  
    2954A      5.636727  2955A      5.638016  2956A      5.643301  
    2957A      5.644162  2958A      5.645906  2959A      5.651166  
    2960A      5.652932  2961A      5.657563  2962A      5.658088  
    2963A      5.661723  2964A      5.664386  2965A      5.664903  
    2966A      5.671248  2967A      5.673222  2968A      5.676429  
    2969A      5.679231  2970A      5.679976  2971A      5.683441  
    2972A      5.686834  2973A      5.689165  2974A      5.691994  
    2975A      5.694295  2976A      5.695947  2977A      5.698416  
    2978A      5.701251  2979A      5.703887  2980A      5.705877  
    2981A      5.708950  2982A      5.713132  2983A      5.714050  
    2984A      5.716653  2985A      5.720411  2986A      5.724186  
    2987A      5.726344  2988A      5.731013  2989A      5.734207  
    2990A      5.735394  2991A      5.737931  2992A      5.742908  
    2993A      5.747365  2994A      5.752437  2995A      5.754764  
    2996A      5.761031  2997A      5.761549  2998A      5.764710  
    2999A      5.767022  3000A      5.771194  3001A      5.775762  
    3002A      5.779845  3003A      5.782293  3004A      5.783866  
    3005A      5.787500  3006A      5.790780  3007A      5.792718  
    3008A      5.794947  3009A      5.797842  3010A      5.802089  
    3011A      5.807392  3012A      5.808430  3013A      5.809419  
    3014A      5.812252  3015A      5.814844  3016A      5.820012  
    3017A      5.822047  3018A      5.824259  3019A      5.826607  
    3020A      5.828771  3021A      5.831000  3022A      5.833809  
    3023A      5.838156  3024A      5.840804  3025A      5.844137  
    3026A      5.847347  3027A      5.848256  3028A      5.856184  
    3029A      5.860490  3030A      5.863079  3031A      5.865502  
    3032A      5.866321  3033A      5.870889  3034A      5.874142  
    3035A      5.876438  3036A      5.880994  3037A      5.882012  
    3038A      5.883882  3039A      5.886059  3040A      5.887715  
    3041A      5.892313  3042A      5.894109  3043A      5.897645  
    3044A      5.898642  3045A      5.900344  3046A      5.901525  
    3047A      5.905293  3048A      5.912724  3049A      5.914695  
    3050A      5.918883  3051A      5.922091  3052A      5.922591  
    3053A      5.924207  3054A      5.927280  3055A      5.930103  
    3056A      5.932504  3057A      5.936335  3058A      5.938497  
    3059A      5.946400  3060A      5.947375  3061A      5.948330  
    3062A      5.951971  3063A      5.953514  3064A      5.956482  
    3065A      5.959421  3066A      5.961392  3067A      5.963736  
    3068A      5.965844  3069A      5.966289  3070A      5.970733  
    3071A      5.973321  3072A      5.973983  3073A      5.976886  
    3074A      5.978846  3075A      5.982258  3076A      5.985712  
    3077A      5.987940  3078A      5.993071  3079A      5.994502  
    3080A      5.999897  3081A      6.005049  3082A      6.005805  
    3083A      6.008347  3084A      6.013212  3085A      6.018426  
    3086A      6.022318  3087A      6.023693  3088A      6.026241  
    3089A      6.031387  3090A      6.035953  3091A      6.036886  
    3092A      6.038466  3093A      6.042492  3094A      6.045300  
    3095A      6.048070  3096A      6.055401  3097A      6.058164  
    3098A      6.060374  3099A      6.061918  3100A      6.063749  
    3101A      6.065872  3102A      6.069243  3103A      6.071656  
    3104A      6.073427  3105A      6.075581  3106A      6.087954  
    3107A      6.090690  3108A      6.091921  3109A      6.098022  
    3110A      6.098148  3111A      6.101464  3112A      6.101949  
    3113A      6.112142  3114A      6.115578  3115A      6.122662  
    3116A      6.126395  3117A      6.131558  3118A      6.133725  
    3119A      6.140499  3120A      6.151796  3121A      6.158097  
    3122A      6.163125  3123A      6.169187  3124A      6.171853  
    3125A      6.178291  3126A      6.185144  3127A      6.187848  
    3128A      6.195115  3129A      6.199124  3130A      6.199976  
    3131A      6.204020  3132A      6.210775  3133A      6.217189  
    3134A      6.220881  3135A      6.222645  3136A      6.230659  
    3137A      6.237789  3138A      6.243752  3139A      6.254280  
    3140A      6.257718  3141A      6.261706  3142A      6.265567  
    3143A      6.268680  3144A      6.274887  3145A      6.280835  
    3146A      6.295091  3147A      6.299900  3148A      6.307882  
    3149A      6.308992  3150A      6.310695  3151A      6.316556  
    3152A      6.320327  3153A      6.331314  3154A      6.335672  
    3155A      6.338785  3156A      6.343976  3157A      6.349062  
    3158A      6.362710  3159A      6.363641  3160A      6.381326  
    3161A      6.389608  3162A      6.392321  3163A      6.395767  
    3164A      6.400034  3165A      6.410889  3166A      6.421400  
    3167A      6.430162  3168A      6.445940  3169A      6.453272  
    3170A      6.455124  3171A      6.468947  3172A      6.489794  
    3173A      6.491698  3174A      6.495829  3175A      6.503199  
    3176A      6.505121  3177A      6.511730  3178A      6.513319  
    3179A      6.518090  3180A      6.524495  3181A      6.526195  
    3182A      6.529902  3183A      6.532161  3184A      6.543237  
    3185A      6.551648  3186A      6.560152  3187A      6.566001  
    3188A      6.566835  3189A      6.572214  3190A      6.576149  
    3191A      6.593198  3192A      6.613540  3193A      6.624407  
    3194A      6.625088  3195A      6.636068  3196A      6.638662  
    3197A      6.650440  3198A      6.663897  3199A      6.664952  
    3200A      6.678063  3201A      6.681641  3202A      6.686061  
    3203A      6.691416  3204A      6.694707  3205A      6.700991  
    3206A      6.708390  3207A      6.724567  3208A      6.725220  
    3209A      6.757475  3210A      6.764545  3211A      6.778190  
    3212A      6.786568  3213A      6.799564  3214A      6.820043  
    3215A      6.826648  3216A      6.840342  3217A      6.844728  
    3218A      6.858925  3219A      6.859652  3220A      6.891280  
    3221A      6.907069  3222A      6.910360  3223A      6.927577  
    3224A      6.932660  3225A      6.941613  3226A      6.965679  
    3227A      6.969686  3228A      6.998420  3229A      7.005120  
    3230A      7.029919  3231A      7.034306  3232A      7.058622  
    3233A      7.060051  3234A      7.076625  3235A      7.081053  
    3236A      7.098594  3237A      7.101314  3238A      7.128327  
    3239A      7.131558  3240A      7.159649  3241A      7.162965  
    3242A      7.194889  3243A      7.195066  3244A      7.221292  
    3245A      7.226165  3246A      7.240235  3247A      7.242491  
    3248A      7.267513  3249A      7.276001  3250A      7.286387  
    3251A      7.303968  3252A      7.314681  3253A      7.326793  
    3254A      7.351881  3255A      7.354549  3256A      7.366308  
    3257A      7.407994  3258A      7.416789  3259A      7.431367  
    3260A      7.444395  3261A      7.449908  3262A      7.511499  
    3263A      7.560232  3264A      7.591796  3265A      7.599952  
    3266A      7.627399  3267A      7.630472  3268A      7.649724  
    3269A      7.653260  3270A      7.666411  3271A      7.669919  
    3272A      7.676723  3273A      7.681914  3274A      7.695530  
    3275A      7.700633  3276A      7.707490  3277A      7.731509  
    3278A      7.743150  3279A      7.757973  3280A      7.819615  
    3281A      7.836239  3282A      7.838863  3283A      7.856342  
    3284A      7.860648  3285A      7.883304  3286A      7.887894  
    3287A      7.920610  3288A      7.927310  3289A      7.936967  
    3290A      7.937791  3291A      7.947769  3292A      7.956990  
    3293A      7.969804  3294A      7.975387  3295A      7.985654  
    3296A      7.992783  3297A      7.995671  3298A      8.003785  
    3299A      8.007609  3300A      8.015340  3301A      8.026284  
    3302A      8.038807  3303A      8.055168  3304A      8.057081  
    3305A      8.076160  3306A      8.112365  3307A      8.145715  
    3308A      8.169644  3309A      8.191134  3310A      8.198636  
    3311A      8.216356  3312A      8.218761  3313A      8.331641  
    3314A      8.343691  3315A      8.387091  3316A      8.390235  
    3317A      8.485556  3318A      8.511957  3319A      8.533561  
    3320A      8.541056  3321A      8.565784  3322A      8.574724  
    3323A      8.590871  3324A      8.597156  3325A      8.617766  
    3326A      8.621509  3327A      8.646201  3328A      8.647745  
    3329A      8.676410  3330A      8.677780  3331A      8.729846  
    3332A      8.730383  3333A      9.058575  3334A      9.085910  
    3335A      9.174371  3336A      9.267788  3337A      9.332738  
    3338A      9.377378  3339A      9.396708  3340A      9.429396  
    3341A      9.437011  3342A      9.439530  3343A      9.481293  
    3344A      9.483855  3345A      9.535226  3346A      9.692643  
    3347A      9.858631  3348A      9.999895  3349A     10.102189  
    3350A     10.480696  3351A     10.483509  3352A     10.542949  
    3353A     10.547982  3354A     10.576690  3355A     10.594318  
    3356A     10.613518  3357A     10.654407  3358A     10.683563  
    3359A     10.745036  3360A     10.765116  3361A     10.868537  
    3362A     10.878877  3363A     10.886138  3364A     10.990648  
    3365A     11.046298  3366A     11.098081  3367A     11.110238  
    3368A     17.212287  3369A     17.221116  3370A     17.448974  
    3371A     17.489795  3372A     17.564222  3373A     17.602879  
    3374A     17.699072  3375A     17.750442  3376A     17.798276  
    3377A     17.816130  3378A     17.878457  3379A     18.098286  
    3380A     18.118655  3381A     18.160641  3382A     18.576047  
    3383A     18.895658  3384A     19.150843  3385A     19.159821  
    3386A     53.606923  3387A     53.617815  3388A     54.167152  
    3389A     54.249596  3390A     54.385233  3391A     54.527008  
    3392A     54.729218  3393A     54.761060  3394A     54.830575  
    3395A     54.993215  3396A     55.021769  3397A     55.284542  
    3398A     55.306053  3399A     55.417717  3400A     56.229471  
    3401A     56.878474  3402A     57.408359  3403A     57.416449  

    Final Occupation by Irrep:
              A 
    DOCC [    73 ]
    NA   [    73 ]
    NB   [    73 ]

  @DF-RKS Final Energy:  -709.15918856448775

   => Energetics <=

    Nuclear Repulsion Energy =           1177.2118179273250007
    One-Electron Energy =               -3289.2578995718295118
    Two-Electron Energy =                1493.6754917366415611
    DFT Exchange-Correlation Energy =     -90.7430600025611653
    Empirical Dispersion Energy =          -0.0455386540633785
    VV10 Nonlocal Energy =                  0.0000000000000000
    Total Energy =                       -709.1591885644877493

Computation Completed


Properties will be evaluated at   0.000000,   0.000000,   0.000000 [a0]

Properties computed using the SCF density matrix


 Multipole Moments:

 ------------------------------------------------------------------------------------
     Multipole            Electronic (a.u.)      Nuclear  (a.u.)        Total (a.u.)
 ------------------------------------------------------------------------------------

 L = 1.  Multiply by 2.5417464519 to convert [e a0] to [Debye]
 Dipole X            :      -3113.8288580         3113.8283486           -0.0005094
 Dipole Y            :      -2170.7512256         2170.7510770           -0.0001486
 Dipole Z            :        574.6159834         -574.6146922            0.0012912
 Magnitude           :                                                    0.0013960

 ------------------------------------------------------------------------------------

*** tstop() called on atl1-1-02-004-2-1.pace.gatech.edu at Sat Jun 13 20:34:22 2026
Module time:
	user time   =   26902.99 seconds =     448.38 minutes
	system time =    1408.87 seconds =      23.48 minutes
	total time  =       3995 seconds =      66.58 minutes
Total time:
	user time   =   26902.99 seconds =     448.38 minutes
	system time =    1408.87 seconds =      23.48 minutes
	total time  =       3995 seconds =      66.58 minutes

    Psi4 stopped on: Saturday, 13 June 2026 08:34PM
    Psi4 wall time for execution: 1:06:42.76

*** Psi4 exiting successfully. Buy a developer a beer!
