
    -----------------------------------------------------------------------
          Psi4: An Open-Source Ab Initio Electronic Structure Package
                               Psi4 1.9.1 release

                         Git: Rev {} zzzzzzz 


    D. G. A. Smith, L. A. Burns, A. C. Simmonett, R. M. Parrish,
    M. C. Schieber, R. Galvelis, P. Kraus, H. Kruse, R. Di Remigio,
    A. Alenaizan, A. M. James, S. Lehtola, J. P. Misiewicz, M. Scheurer,
    R. A. Shaw, J. B. Schriber, Y. Xie, Z. L. Glick, D. A. Sirianni,
    J. S. O'Brien, J. M. Waldrop, A. Kumar, E. G. Hohenstein,
    B. P. Pritchard, B. R. Brooks, H. F. Schaefer III, A. Yu. Sokolov,
    K. Patkowski, A. E. DePrince III, U. Bozkaya, R. A. King,
    F. A. Evangelista, J. M. Turney, T. D. Crawford, C. D. Sherrill,
    J. Chem. Phys. 152(18) 184108 (2020). https://doi.org/10.1063/5.0006002

                            Additional Code Authors
    E. T. Seidl, C. L. Janssen, E. F. Valeev, M. L. Leininger,
    J. F. Gonthier, R. M. Richard, H. R. McAlexander, M. Saitow, X. Wang,
    P. Verma, M. H. Lechner, A. Jiang, S. Behnle, A. G. Heide,
    M. F. Herbst, and D. L. Poole

             Previous Authors, Complete List of Code Contributors,
                       and Citations for Specific Modules
    https://github.com/psi4/psi4/blob/master/codemeta.json
    https://github.com/psi4/psi4/graphs/contributors
    http://psicode.org/psi4manual/master/introduction.html#citing-psifour

    -----------------------------------------------------------------------


    Psi4 started on: Saturday, 13 June 2026 06:38PM

    Process ID: 35648
    Host:       atl1-1-02-003-30-1.pace.gatech.edu
    PSIDATADIR: /storage/home/hcoda1/5/vlita3/.conda/envs/p4_qcml/share/psi4
    Memory:     250.0 GiB
    Threads:    10
    
  ==> Input QCSchema <==

--------------------------------------------------------------------------
{'driver': 'energy',
 'extras': {},
 'id': '283',
 'keywords': {},
 'model': {'basis': 'aug-cc-pvtz', 'method': 'b3lyp-d3'},
 'molecule': {'extras': {},
              'fix_com': True,
              'fix_orientation': True,
              'fragment_charges': [0.0, 0.0],
              'fragment_multiplicities': [1, 1],
              'fragments': [[0, 1, 2, 3, 4, 5, 6, 7, 8, 9, 10, 11, 12, 13, 14],
                            [15, 16, 17, 18, 19, 20, 21, 22, 23, 24, 25, 26, 27, 28, 29, 30, 31, 32, 33, 34, 35, 36, 37,
                             38, 39, 40, 41, 42, 43, 44, 45, 46, 47, 48, 49, 50, 51, 52, 53, 54, 55, 56, 57, 58, 59, 60,
                             61, 62, 63, 64, 65, 66, 67, 68, 69, 70, 71, 72, 73, 74, 75, 76, 77, 78, 79, 80, 81, 82, 83,
                             84, 85, 86]],
              'geometry': [-4.21408926, -0.28723837, 4.89628039, -1.79523982, -1.39650761, 4.99454615, 0.24755412,
                           0.2891281, 5.03989958, -2.26011245, 3.62260498, 4.98698725, 1.49477337, -3.70764266,
                           4.95864135, -4.39928242, 2.25255354, 4.90194957, 0.14172946, 2.81947138, 5.05312766,
                           -0.98265759, -3.88905637, 4.94352354, 2.3583782, -1.24532952, 5.0417893, -6.38349485,
                           -1.67240762, 4.84336806, -2.52278438, 5.65972975, 4.97375916, 2.79301521, -5.28367425,
                           4.88305231, 4.17440501, -0.66140414, 4.90761875, -7.96519562, -0.73321374, 4.3180242,
                           -6.25499348, -3.50544196, 4.31424474, 11.7540965, -2.40373163, -0.19464179, 12.01109925,
                           0.16251645, -0.12661165, 9.86437037, 1.80657818, -0.31180481, 7.41339559, 0.69163976,
                           -0.57447674, 7.14694421, -1.98232271, -0.66329387, 9.3239087, -3.57536183, -0.45353427,
                           4.71108723, -3.08214331, -0.90706854, 9.01399362, -6.20397087, -0.50077742, 6.6253798,
                           -7.32646819, -0.72754456, 4.43707694, -5.7504366, -0.94486306, 6.28333937, -10.01365874,
                           -0.73699319, 3.93440979, -11.06812592, -0.89950964, 1.70453297, -9.53744776, -1.06580553,
                           1.98988161, -6.8502572, -1.09415143, -0.17763426, -5.27989479, -1.26233705, 0.09637603,
                           -2.60026315, -1.26422678, 2.53601246, -1.50233227, -1.12627677, 5.24776945, 2.2638919,
                           -0.77667744, 2.80246384, 1.16407129, -1.01856238, 0.63305825, 2.7344337, -1.15651239,
                           -1.80279872, 1.63650282, -1.33414664, -2.07491929, -1.02990074, -1.34926445, -2.62293986,
                           -6.37593595, -1.31902884, -4.79990436, -4.80179408, -1.37005144, -4.52967352, -2.1335008,
                           -1.44375076, -0.72565483, -10.5824663, -1.15840211, -2.8931707, -9.0631265, -1.26044733,
                           -7.27166613, -5.89972496, -1.3889487, -9.39193884, -4.31424474, -1.4324124, -9.16517171,
                           -1.67618707, -1.46642747, -6.70285857, -0.56124866, -1.45130966, -3.98732212, 3.21064469,
                           -1.35115418, -6.430738, 2.11082408, -1.44186103, -5.39138864, -10.11003477, -1.29257267,
                           -7.48142573, -8.6001436, -1.34737473, -8.61904086, 3.69819403, -1.42863295, -11.06056701,
                           2.52845356, -1.46453775, -11.32323894, -0.03779452, -1.47776583, -8.3110155, 6.32680307,
                           -1.36627199, -5.9167325, 7.44930039, -1.28123431, -3.71709129, 5.87704825, -1.27745486,
                           -1.27367541, 6.97686886, -1.09415143, 0.90328909, 5.4102859, -1.048798, 3.34103579,
                           6.50632705, -0.82203086, 5.51044138, 4.93218519, -0.65195551, 7.9708648, 6.02822634,
                           -0.40629112, 10.08546833, 4.44274612, -0.23810549, 8.17306549, 8.72864497, -0.31936372,
                           3.59803854, 9.1935176, -0.69541921, 6.08680785, 10.23853615, -0.45920345, -0.99588567,
                           9.66405941, -0.98454731, 1.42863295, 10.70907795, -0.7955747, -5.58036125, 10.13649094,
                           -1.18107883, -3.23143167, 11.19284784, -1.04312882, 13.40760686, -3.61315635, -0.04535343,
                           13.87058976, 1.01100348, 0.06991987, 10.67317316, -7.40772641, -0.34204043, 7.94629836,
                           -11.20985538, -0.59526373, 3.71331184, -13.11280958, -0.88817128, -0.93919388, -12.62714997,
                           -1.12249732, -11.26843689, -5.1570626, -1.44186103, -5.59169961, -12.15471844, -1.2585576,
                           -9.3598135, -9.43351282, -1.36060281, -12.72163628, 3.739768, -1.47020693, -13.19406781,
                           -0.88817128, -1.49288364, -9.97964367, 7.52866888, -1.35871308, 11.95062802, 5.28556397,
                           -0.0434637, 10.04200463, 9.56012447, -0.13228083, 6.28144964, 12.28321982, -0.37983495,
                           1.6346131, 12.75376162, -0.7086473, -7.25276887, 11.32890812, -1.20753499, -3.0160029,
                           13.23564178, -0.9618706],
              'id': 7,
              'identifiers': {'molecular_formula': 'C59H23N5',
                              'molecule_hash': 'f406dc70d3aa10844fa750c55d58f4dce215d408'},
              'masses': [12.0, 12.0, 12.0, 12.0, 12.0, 14.00307400443, 14.00307400443, 14.00307400443, 14.00307400443,
                         14.00307400443, 1.00782503223, 1.00782503223, 1.00782503223, 1.00782503223, 1.00782503223,
                         12.0, 12.0, 12.0, 12.0, 12.0, 12.0, 12.0, 12.0, 12.0, 12.0, 12.0, 12.0, 12.0, 12.0, 12.0, 12.0,
                         12.0, 12.0, 12.0, 12.0, 12.0, 12.0, 12.0, 12.0, 12.0, 12.0, 12.0, 12.0, 12.0, 12.0, 12.0, 12.0,
                         12.0, 12.0, 12.0, 12.0, 12.0, 12.0, 12.0, 12.0, 12.0, 12.0, 12.0, 12.0, 12.0, 12.0, 12.0, 12.0,
                         12.0, 12.0, 12.0, 12.0, 12.0, 12.0, 1.00782503223, 1.00782503223, 1.00782503223, 1.00782503223,
                         1.00782503223, 1.00782503223, 1.00782503223, 1.00782503223, 1.00782503223, 1.00782503223,
                         1.00782503223, 1.00782503223, 1.00782503223, 1.00782503223, 1.00782503223, 1.00782503223,
                         1.00782503223, 1.00782503223],
              'molecular_charge': 0.0,
              'molecular_multiplicity': 1,
              'name': 'C59H23N5 ([1],[0])',
              'provenance': {'creator': 'QCElemental',
                             'routine': 'qcelemental.molparse.from_schema',
                             'version': '0.29.0'},
              'real': [False, False, False, False, False, False, False, False, False, False, False, False, False, False,
                       False, True, True, True, True, True, True, True, True, True, True, True, True, True, True, True,
                       True, True, True, True, True, True, True, True, True, True, True, True, True, True, True, True,
                       True, True, True, True, True, True, True, True, True, True, True, True, True, True, True, True,
                       True, True, True, True, True, True, True, True, True, True, True, True, True, True, True, True,
                       True, True, True, True, True, True, True, True, True],
              'schema_name': 'qcschema_molecule',
              'schema_version': 2,
              'symbols': ['C', 'C', 'C', 'C', 'C', 'N', 'N', 'N', 'N', 'N', 'H', 'H', 'H', 'H', 'H', 'C', 'C', 'C', 'C',
                          'C', 'C', 'C', 'C', 'C', 'C', 'C', 'C', 'C', 'C', 'C', 'C', 'C', 'C', 'C', 'C', 'C', 'C', 'C',
                          'C', 'C', 'C', 'C', 'C', 'C', 'C', 'C', 'C', 'C', 'C', 'C', 'C', 'C', 'C', 'C', 'C', 'C', 'C',
                          'C', 'C', 'C', 'C', 'C', 'C', 'C', 'C', 'C', 'C', 'C', 'C', 'H', 'H', 'H', 'H', 'H', 'H', 'H',
                          'H', 'H', 'H', 'H', 'H', 'H', 'H', 'H', 'H', 'H', 'H'],
              'validated': True},
 'protocols': {},
 'provenance': {'creator': 'QCElemental', 'routine': 'qcelemental.models.results', 'version': '0.29.0'},
 'schema_name': 'qcschema_input',
 'schema_version': 1}
--------------------------------------------------------------------------

Scratch directory: /tmp/tmpjdl62edg_psi_scratch/
   => Libint2 <=

    Primary   basis highest AM E, G, H:  6, 6, 3
    Auxiliary basis highest AM E, G, H:  7, 7, 4
    Onebody   basis highest AM E, G, H:  -, -, -
    Solid Harmonics ordering:            Gaussian

*** tstart() called on atl1-1-02-003-30-1.pace.gatech.edu
*** at Sat Jun 13 18:38:35 2026

   => Loading Basis Set <=

    Name: AUG-CC-PVTZ
    Role: ORBITAL
    Keyword: BASIS
    atoms 1-5, 16-69   entry C          line   239 file /storage/home/hcoda1/5/vlita3/.conda/envs/p4_qcml/share/psi4/basis/aug-cc-pvtz.gbs 
    atoms 6-10         entry N          line   285 file /storage/home/hcoda1/5/vlita3/.conda/envs/p4_qcml/share/psi4/basis/aug-cc-pvtz.gbs 
    atoms 11-15, 70-87 entry H          line    40 file /storage/home/hcoda1/5/vlita3/.conda/envs/p4_qcml/share/psi4/basis/aug-cc-pvtz.gbs 

   => B3LYP-D3: Empirical Dispersion <=

    Grimme's -D3 (zero-damping) Dispersion Correction
    Grimme S.; Antony J.; Ehrlich S.; Krieg H. (2010), J. Chem. Phys., 132: 154104

        s6 =       1.000000
        s8 =       1.703000
       sr6 =       1.261000
    alpha6 =      14.000000
       sr8 =       1.000000


         ---------------------------------------------------------
                                   SCF
               by Justin Turney, Rob Parrish, Andy Simmonett
                          and Daniel G. A. Smith
                              RKS Reference
                       10 Threads, 256000 MiB Core
         ---------------------------------------------------------

  ==> Geometry <==

    Molecular point group: c1
    Full point group: C1

    Geometry (in Bohr), charge = 0, multiplicity = 1:

       Center              X                  Y                   Z               Mass       
    ------------   -----------------  -----------------  -----------------  -----------------
      Gh(C)          -4.214089260000    -0.287238370000     4.896280390000    12.000000000000
      Gh(C)          -1.795239820000    -1.396507610000     4.994546150000    12.000000000000
      Gh(C)           0.247554120000     0.289128100000     5.039899580000    12.000000000000
      Gh(C)          -2.260112450000     3.622604980000     4.986987250000    12.000000000000
      Gh(C)           1.494773370000    -3.707642660000     4.958641350000    12.000000000000
      Gh(N)          -4.399282420000     2.252553540000     4.901949570000    14.003074004430
      Gh(N)           0.141729460000     2.819471380000     5.053127660000    14.003074004430
      Gh(N)          -0.982657590000    -3.889056370000     4.943523540000    14.003074004430
      Gh(N)           2.358378200000    -1.245329520000     5.041789300000    14.003074004430
      Gh(N)          -6.383494850000    -1.672407620000     4.843368060000    14.003074004430
      Gh(H)          -2.522784380000     5.659729750000     4.973759160000     1.007825032230
      Gh(H)           2.793015210000    -5.283674250000     4.883052310000     1.007825032230
      Gh(H)           4.174405010000    -0.661404140000     4.907618750000     1.007825032230
      Gh(H)          -7.965195620000    -0.733213740000     4.318024200000     1.007825032230
      Gh(H)          -6.254993480000    -3.505441960000     4.314244740000     1.007825032230
         C           11.754096500000    -2.403731630000    -0.194641790000    12.000000000000
         C           12.011099250000     0.162516450000    -0.126611650000    12.000000000000
         C            9.864370370000     1.806578180000    -0.311804810000    12.000000000000
         C            7.413395590000     0.691639760000    -0.574476740000    12.000000000000
         C            7.146944210000    -1.982322710000    -0.663293870000    12.000000000000
         C            9.323908700000    -3.575361830000    -0.453534270000    12.000000000000
         C            4.711087230000    -3.082143310000    -0.907068540000    12.000000000000
         C            9.013993620000    -6.203970870000    -0.500777420000    12.000000000000
         C            6.625379800000    -7.326468190000    -0.727544560000    12.000000000000
         C            4.437076940000    -5.750436600000    -0.944863060000    12.000000000000
         C            6.283339370000   -10.013658740000    -0.736993190000    12.000000000000
         C            3.934409790000   -11.068125920000    -0.899509640000    12.000000000000
         C            1.704532970000    -9.537447760000    -1.065805530000    12.000000000000
         C            1.989881610000    -6.850257200000    -1.094151430000    12.000000000000
         C           -0.177634260000    -5.279894790000    -1.262337050000    12.000000000000
         C            0.096376030000    -2.600263150000    -1.264226780000    12.000000000000
         C            2.536012460000    -1.502332270000    -1.126276770000    12.000000000000
         C            5.247769450000     2.263891900000    -0.776677440000    12.000000000000
         C            2.802463840000     1.164071290000    -1.018562380000    12.000000000000
         C            0.633058250000     2.734433700000    -1.156512390000    12.000000000000
         C           -1.802798720000     1.636502820000    -1.334146640000    12.000000000000
         C           -2.074919290000    -1.029900740000    -1.349264450000    12.000000000000
         C           -2.622939860000    -6.375935950000    -1.319028840000    12.000000000000
         C           -4.799904360000    -4.801794080000    -1.370051440000    12.000000000000
         C           -4.529673520000    -2.133500800000    -1.443750760000    12.000000000000
         C           -0.725654830000   -10.582466300000    -1.158402110000    12.000000000000
         C           -2.893170700000    -9.063126500000    -1.260447330000    12.000000000000
         C           -7.271666130000    -5.899724960000    -1.388948700000    12.000000000000
         C           -9.391938840000    -4.314244740000    -1.432412400000    12.000000000000
         C           -9.165171710000    -1.676187070000    -1.466427470000    12.000000000000
         C           -6.702858570000    -0.561248660000    -1.451309660000    12.000000000000
         C           -3.987322120000     3.210644690000    -1.351154180000    12.000000000000
         C           -6.430738000000     2.110824080000    -1.441861030000    12.000000000000
         C           -5.391388640000   -10.110034770000    -1.292572670000    12.000000000000
         C           -7.481425730000    -8.600143600000    -1.347374730000    12.000000000000
         C           -8.619040860000     3.698194030000    -1.428632950000    12.000000000000
         C          -11.060567010000     2.528453560000    -1.464537750000    12.000000000000
         C          -11.323238940000    -0.037794520000    -1.477765830000    12.000000000000
         C           -8.311015500000     6.326803070000    -1.366271990000    12.000000000000
         C           -5.916732500000     7.449300390000    -1.281234310000    12.000000000000
         C           -3.717091290000     5.877048250000    -1.277454860000    12.000000000000
         C           -1.273675410000     6.976868860000    -1.094151430000    12.000000000000
         C            0.903289090000     5.410285900000    -1.048798000000    12.000000000000
         C            3.341035790000     6.506327050000    -0.822030860000    12.000000000000
         C            5.510441380000     4.932185190000    -0.651955510000    12.000000000000
         C            7.970864800000     6.028226340000    -0.406291120000    12.000000000000
         C           10.085468330000     4.442746120000    -0.238105490000    12.000000000000
         C            8.173065490000     8.728644970000    -0.319363720000    12.000000000000
         C            3.598038540000     9.193517600000    -0.695419210000    12.000000000000
         C            6.086807850000    10.238536150000    -0.459203450000    12.000000000000
         C           -0.995885670000     9.664059410000    -0.984547310000    12.000000000000
         C            1.428632950000    10.709077950000    -0.795574700000    12.000000000000
         C           -5.580361250000    10.136490940000    -1.181078830000    12.000000000000
         C           -3.231431670000    11.192847840000    -1.043128820000    12.000000000000
         H           13.407606860000    -3.613156350000    -0.045353430000     1.007825032230
         H           13.870589760000     1.011003480000     0.069919870000     1.007825032230
         H           10.673173160000    -7.407726410000    -0.342040430000     1.007825032230
         H            7.946298360000   -11.209855380000    -0.595263730000     1.007825032230
         H            3.713311840000   -13.112809580000    -0.888171280000     1.007825032230
         H           -0.939193880000   -12.627149970000    -1.122497320000     1.007825032230
         H          -11.268436890000    -5.157062600000    -1.441861030000     1.007825032230
         H           -5.591699610000   -12.154718440000    -1.258557600000     1.007825032230
         H           -9.359813500000    -9.433512820000    -1.360602810000     1.007825032230
         H          -12.721636280000     3.739768000000    -1.470206930000     1.007825032230
         H          -13.194067810000    -0.888171280000    -1.492883640000     1.007825032230
         H           -9.979643670000     7.528668880000    -1.358713080000     1.007825032230
         H           11.950628020000     5.285563970000    -0.043463700000     1.007825032230
         H           10.042004630000     9.560124470000    -0.132280830000     1.007825032230
         H            6.281449640000    12.283219820000    -0.379834950000     1.007825032230
         H            1.634613100000    12.753761620000    -0.708647300000     1.007825032230
         H           -7.252768870000    11.328908120000    -1.207534990000     1.007825032230
         H           -3.016002900000    13.235641780000    -0.961870600000     1.007825032230

  Running in c1 symmetry.

  Rotational constants: A =      0.00187  B =      0.00184  C =      0.00106 [cm^-1]
  Rotational constants: A =     56.02922  B =     55.09335  C =     31.77172 [MHz]
  Nuclear repulsion = 6437.570407703479759

  Charge       = 0
  Multiplicity = 1
  Electrons    = 342
  Nalpha       = 171
  Nbeta        = 171

  ==> Algorithm <==

  SCF Algorithm Type is DF.
  DIIS enabled.
  MOM disabled.
  Fractional occupation disabled.
  Guess Type is SAD.
  Energy threshold   = 1.00e-06
  Density threshold  = 1.00e-06
  Integral threshold = 1.00e-12

  ==> Primary Basis <==

  Basis Set: AUG-CC-PVTZ
    Blend: AUG-CC-PVTZ
    Number of shells: 1103
    Number of basis functions: 3473
    Number of Cartesian functions: 4095
    Spherical Harmonics?: true
    Max angular momentum: 3

  ==> DFT Potential <==

   => LibXC <=

    Version 7.0.0
    S. Lehtola, C. Steigemann, M. J.T. Oliveira, and M. A.L. Marques.,  SoftwareX 7, 1–5 (2018) (10.1016/j.softx.2017.11.002)

   => Composite Functional: B3LYP-D3ZERO2B <= 

    B3LYP-d3zero2b Hyb-GGA Exchange-Correlation Functional

    P. J. Stephens, F. J. Devlin, C. F. Chabalowski, and M. J. Frisch.,  J. Phys. Chem. 98, 11623 (1994) (10.1021/j100096a001)

    Deriv               =              1
    GGA                 =           TRUE
    Meta                =          FALSE

    Exchange Hybrid     =           TRUE
    MP2 Hybrid          =          FALSE

   => Exchange Functionals <=

    0.0800   Slater exchange
    0.7200         Becke 88

   => Exact (HF) Exchange <=

    0.2000               HF 

   => Correlation Functionals <=

    0.1900   Vosko, Wilk & Nusair (VWN5_RPA)
    0.8100   Lee, Yang & Parr

   => LibXC Density Thresholds  <==

    XC_HYB_GGA_XC_B3LYP:  1.00E-15 

   => Molecular Quadrature <=

    Radial Scheme          =       TREUTLER
    Pruning Scheme         =           NONE
    Nuclear Scheme         =       TREUTLER

    Blocking Scheme        =         OCTREE
    BS radius alpha        =              1
    Pruning alpha          =              1
    Radial Points          =             75
    Spherical Points       =            302
    Total Points           =        1715496
    Total Blocks           =          11517
    Max Points             =            256
    Max Functions          =           2168
    Weights Tolerance      =       1.00E-15

   => Loading Basis Set <=

    Name: (AUG-CC-PVTZ AUX)
    Role: JKFIT
    Keyword: DF_BASIS_SCF
    atoms 1-5, 16-69   entry C          line   162 file /storage/home/hcoda1/5/vlita3/.conda/envs/p4_qcml/share/psi4/basis/aug-cc-pvtz-jkfit.gbs 
    atoms 6-10         entry N          line   224 file /storage/home/hcoda1/5/vlita3/.conda/envs/p4_qcml/share/psi4/basis/aug-cc-pvtz-jkfit.gbs 
    atoms 11-15, 70-87 entry H          line    70 file /storage/home/hcoda1/5/vlita3/.conda/envs/p4_qcml/share/psi4/basis/aug-cc-pvtz-jkfit.gbs 

  ==> Integral Setup <==

  ==> DiskDFJK: Density-Fitted J/K Matrices <==

    J tasked:                  Yes
    K tasked:                  Yes
    wK tasked:                  No
    OpenMP threads:             10
    Integrals threads:          10
    Memory [MiB]:           172800
    Algorithm:                Disk
    Integral Cache:           NONE
    Schwarz Cutoff:          1E-12
    Fitting Condition:       1E-10

   => Auxiliary Basis Set <=

  Basis Set: (AUG-CC-PVTZ AUX)
    Blend: AUG-CC-PVTZ-JKFIT
    Number of shells: 2242
    Number of basis functions: 7714
    Number of Cartesian functions: 9649
    Spherical Harmonics?: true
    Max angular momentum: 4

  Minimum eigenvalue in the overlap matrix is 6.5964717033E-12.
  Reciprocal condition number of the overlap matrix is 1.9686718001E-13.
    Using canonical orthogonalization.
  Overall, 56 of 3473 possible MOs eliminated.


  ==> Pre-Iterations <==

  SCF Guess: Superposition of Atomic Densities via on-the-fly atomic UHF (no occupation information).

   -------------------------
    Irrep   Nso     Nmo    
   -------------------------
     A       3473    3417 
   -------------------------
    Total    3473    3417
   -------------------------

  ==> Iterations <==

                           Total Energy        Delta E     RMS |[F,P]|

   @DF-RKS iter SAD: -2072.29620063030325   -2.07230e+03   0.00000e+00 
   @DF-RKS iter   1: -2067.08499578195551    5.21120e+00   6.36341e-04 DIIS/ADIIS
   @DF-RKS iter   2: -2065.00184234011931    2.08315e+00   7.28752e-04 DIIS/ADIIS
   @DF-RKS iter   3: -2069.29468293668788   -4.29284e+00   2.12457e-04 DIIS/ADIIS
   @DF-RKS iter   4: -2069.55184793487115   -2.57165e-01   1.30625e-04 DIIS/ADIIS
   @DF-RKS iter   5: -2069.65771432554266   -1.05866e-01   4.54091e-05 DIIS
   @DF-RKS iter   6: -2069.66891482968276   -1.12005e-02   2.22306e-05 DIIS
   @DF-RKS iter   7: -2069.67181798137199   -2.90315e-03   6.09068e-06 DIIS
   @DF-RKS iter   8: -2069.67202213604423   -2.04155e-04   1.77934e-06 DIIS
   @DF-RKS iter   9: -2069.67203941058824   -1.72745e-05   3.05613e-07 DIIS
   @DF-RKS iter  10: -2069.67203973332334   -3.22735e-07   1.77798e-07 DIIS
  Energy and wave function converged.


  ==> Post-Iterations <==

   Electrons on quadrature grid:
      Ntotal   =  341.9998179405 ; deviation = -1.821e-04 

    Orbital Energies [Eh]
    ---------------------

    Doubly Occupied:                                                      

       1A    -10.198800     2A    -10.198588     3A    -10.198528  
       4A    -10.198264     5A    -10.198175     6A    -10.198036  
       7A    -10.198023     8A    -10.197873     9A    -10.197841  
      10A    -10.197718    11A    -10.197695    12A    -10.197587  
      13A    -10.197543    14A    -10.197528    15A    -10.197494  
      16A    -10.197433    17A    -10.197426    18A    -10.197402  
      19A    -10.197395    20A    -10.197353    21A    -10.197342  
      22A    -10.197325    23A    -10.197288    24A    -10.197232  
      25A    -10.197088    26A    -10.196987    27A    -10.196899  
      28A    -10.196885    29A    -10.196828    30A    -10.196791  
      31A    -10.196731    32A    -10.196591    33A    -10.196485  
      34A    -10.196458    35A    -10.196433    36A    -10.196402  
      37A    -10.188844    38A    -10.188819    39A    -10.188790  
      40A    -10.188775    41A    -10.188756    42A    -10.188713  
      43A    -10.188101    44A    -10.188089    45A    -10.188076  
      46A    -10.188068    47A    -10.188058    48A    -10.188037  
      49A    -10.188022    50A    -10.188009    51A    -10.188000  
      52A    -10.187981    53A    -10.187961    54A    -10.187832  
      55A     -0.928172    56A     -0.909118    57A     -0.908892  
      58A     -0.885197    59A     -0.885120    60A     -0.878450  
      61A     -0.859869    62A     -0.853399    63A     -0.842526  
      64A     -0.842348    65A     -0.825186    66A     -0.825141  
      67A     -0.800616    68A     -0.800603    69A     -0.797703  
      70A     -0.788178    71A     -0.788117    72A     -0.766838  
      73A     -0.753768    74A     -0.751732    75A     -0.751539  
      76A     -0.749384    77A     -0.747155    78A     -0.724486  
      79A     -0.724409    80A     -0.706343    81A     -0.706238  
      82A     -0.660906    83A     -0.660878    84A     -0.656954  
      85A     -0.650944    86A     -0.650834    87A     -0.648926  
      88A     -0.648819    89A     -0.633901    90A     -0.612168  
      91A     -0.599703    92A     -0.598535    93A     -0.597340  
      94A     -0.597153    95A     -0.580836    96A     -0.580829  
      97A     -0.554398    98A     -0.551762    99A     -0.535455  
     100A     -0.535411   101A     -0.531979   102A     -0.531896  
     103A     -0.523599   104A     -0.513823   105A     -0.513740  
     106A     -0.510691   107A     -0.510593   108A     -0.478354  
     109A     -0.476663   110A     -0.473183   111A     -0.473145  
     112A     -0.470560   113A     -0.466428   114A     -0.466357  
     115A     -0.458551   116A     -0.453901   117A     -0.453815  
     118A     -0.452377   119A     -0.436847   120A     -0.434923  
     121A     -0.434060   122A     -0.434013   123A     -0.430190  
     124A     -0.429983   125A     -0.427784   126A     -0.426576  
     127A     -0.426412   128A     -0.423113   129A     -0.406000  
     130A     -0.405950   131A     -0.405468   132A     -0.405331  
     133A     -0.402190   134A     -0.402127   135A     -0.399870  
     136A     -0.397202   137A     -0.397106   138A     -0.394649  
     139A     -0.385074   140A     -0.384936   141A     -0.378637  
     142A     -0.372061   143A     -0.370541   144A     -0.370456  
     145A     -0.365542   146A     -0.354422   147A     -0.353839  
     148A     -0.353692   149A     -0.347498   150A     -0.340348  
     151A     -0.339412   152A     -0.339225   153A     -0.331609  
     154A     -0.331566   155A     -0.313936   156A     -0.313682  
     157A     -0.308159   158A     -0.308096   159A     -0.305081  
     160A     -0.288620   161A     -0.288574   162A     -0.268693  
     163A     -0.262673   164A     -0.260878   165A     -0.260664  
     166A     -0.251479   167A     -0.232341   168A     -0.226587  
     169A     -0.226491   170A     -0.191539   171A     -0.191380  

    Virtual:                                                              

     172A     -0.089363   173A     -0.089243   174A     -0.058345  
     175A     -0.058258   176A     -0.046682   177A     -0.036843  
     178A     -0.036822   179A     -0.034875   180A     -0.031757  
     181A     -0.012696   182A     -0.012011   183A     -0.009348  
     184A     -0.009299   185A     -0.002720   186A     -0.002705  
     187A      0.002260   188A      0.005712   189A      0.007142  
     190A      0.010786   191A      0.010968   192A      0.011253  
     193A      0.012585   194A      0.012608   195A      0.017155  
     196A      0.018093   197A      0.018118   198A      0.018615  
     199A      0.018755   200A      0.031324   201A      0.031697  
     202A      0.032089   203A      0.032601   204A      0.035348  
     205A      0.036201   206A      0.039529   207A      0.039698  
     208A      0.039921   209A      0.043010   210A      0.046844  
     211A      0.048125   212A      0.052774   213A      0.053554  
     214A      0.054217   215A      0.054768   216A      0.058306  
     217A      0.058698   218A      0.059387   219A      0.060176  
     220A      0.061309   221A      0.061412   222A      0.061756  
     223A      0.062733   224A      0.063820   225A      0.065111  
     226A      0.065500   227A      0.066991   228A      0.069483  
     229A      0.070256   230A      0.070977   231A      0.071193  
     232A      0.071715   233A      0.072829   234A      0.076213  
     235A      0.076307   236A      0.076358   237A      0.077545  
     238A      0.080537   239A      0.081567   240A      0.083160  
     241A      0.087635   242A      0.087645   243A      0.088133  
     244A      0.088469   245A      0.091986   246A      0.092918  
     247A      0.096205   248A      0.096591   249A      0.098303  
     250A      0.098754   251A      0.099686   252A      0.100987  
     253A      0.101046   254A      0.101786   255A      0.102784  
     256A      0.105824   257A      0.106892   258A      0.108318  
     259A      0.109333   260A      0.109891   261A      0.110638  
     262A      0.112147   263A      0.113228   264A      0.113284  
     265A      0.113597   266A      0.115110   267A      0.119711  
     268A      0.119905   269A      0.120929   270A      0.121673  
     271A      0.121878   272A      0.125963   273A      0.126923  
     274A      0.127549   275A      0.128394   276A      0.129426  
     277A      0.131952   278A      0.133925   279A      0.134659  
     280A      0.135122   281A      0.138684   282A      0.140131  
     283A      0.143011   284A      0.144483   285A      0.146612  
     286A      0.147109   287A      0.148055   288A      0.149701  
     289A      0.150617   290A      0.151922   291A      0.152430  
     292A      0.153015   293A      0.153293   294A      0.153930  
     295A      0.155182   296A      0.156826   297A      0.157290  
     298A      0.160036   299A      0.161012   300A      0.161468  
     301A      0.163892   302A      0.164158   303A      0.165293  
     304A      0.166209   305A      0.166558   306A      0.167807  
     307A      0.168692   308A      0.171240   309A      0.172119  
     310A      0.173633   311A      0.174807   312A      0.175589  
     313A      0.176586   314A      0.177282   315A      0.178437  
     316A      0.179183   317A      0.180025   318A      0.181071  
     319A      0.184118   320A      0.184959   321A      0.186196  
     322A      0.187172   323A      0.187991   324A      0.188466  
     325A      0.189077   326A      0.189524   327A      0.191054  
     328A      0.192128   329A      0.193328   330A      0.193754  
     331A      0.194468   332A      0.195316   333A      0.196062  
     334A      0.196895   335A      0.197007   336A      0.197954  
     337A      0.198385   338A      0.199096   339A      0.199785  
     340A      0.200083   341A      0.200236   342A      0.201330  
     343A      0.202251   344A      0.202577   345A      0.203375  
     346A      0.206136   347A      0.206491   348A      0.207203  
     349A      0.208906   350A      0.209467   351A      0.210214  
     352A      0.211412   353A      0.211989   354A      0.213547  
     355A      0.214190   356A      0.215105   357A      0.216193  
     358A      0.216489   359A      0.216860   360A      0.217848  
     361A      0.218452   362A      0.220634   363A      0.221289  
     364A      0.222454   365A      0.224425   366A      0.225500  
     367A      0.227390   368A      0.228139   369A      0.229134  
     370A      0.229937   371A      0.230105   372A      0.230292  
     373A      0.232833   374A      0.233375   375A      0.234697  
     376A      0.234855   377A      0.234982   378A      0.237430  
     379A      0.237683   380A      0.238182   381A      0.239236  
     382A      0.239614   383A      0.240590   384A      0.241304  
     385A      0.243247   386A      0.243670   387A      0.244065  
     388A      0.247109   389A      0.248332   390A      0.248472  
     391A      0.249527   392A      0.250401   393A      0.250523  
     394A      0.251417   395A      0.251744   396A      0.252214  
     397A      0.253153   398A      0.253363   399A      0.254720  
     400A      0.256071   401A      0.257613   402A      0.258059  
     403A      0.260430   404A      0.261274   405A      0.261956  
     406A      0.262541   407A      0.263836   408A      0.264306  
     409A      0.266158   410A      0.266987   411A      0.267259  
     412A      0.267763   413A      0.268770   414A      0.270670  
     415A      0.272009   416A      0.272323   417A      0.272472  
     418A      0.272931   419A      0.275632   420A      0.275971  
     421A      0.276667   422A      0.277510   423A      0.278851  
     424A      0.279803   425A      0.281113   426A      0.283136  
     427A      0.283758   428A      0.285418   429A      0.286232  
     430A      0.287107   431A      0.288271   432A      0.289584  
     433A      0.289996   434A      0.291759   435A      0.292297  
     436A      0.293155   437A      0.294161   438A      0.294590  
     439A      0.294964   440A      0.296664   441A      0.296928  
     442A      0.297408   443A      0.298828   444A      0.299503  
     445A      0.301361   446A      0.302279   447A      0.303774  
     448A      0.304836   449A      0.306320   450A      0.307490  
     451A      0.307634   452A      0.309104   453A      0.309382  
     454A      0.310189   455A      0.310870   456A      0.311428  
     457A      0.311560   458A      0.312644   459A      0.318077  
     460A      0.318701   461A      0.320198   462A      0.321126  
     463A      0.321462   464A      0.321857   465A      0.322390  
     466A      0.324274   467A      0.325469   468A      0.327073  
     469A      0.327487   470A      0.328295   471A      0.329013  
     472A      0.330334   473A      0.332033   474A      0.332764  
     475A      0.334303   476A      0.335555   477A      0.336118  
     478A      0.336755   479A      0.338468   480A      0.338725  
     481A      0.339864   482A      0.341887   483A      0.342677  
     484A      0.343336   485A      0.346074   486A      0.347036  
     487A      0.348396   488A      0.349013   489A      0.352301  
     490A      0.353496   491A      0.354195   492A      0.356335  
     493A      0.356478   494A      0.358052   495A      0.359712  
     496A      0.360649   497A      0.362686   498A      0.363060  
     499A      0.363858   500A      0.366011   501A      0.367228  
     502A      0.368631   503A      0.369467   504A      0.370306  
     505A      0.370617   506A      0.371329   507A      0.372000  
     508A      0.373378   509A      0.373944   510A      0.375244  
     511A      0.376179   512A      0.378040   513A      0.378233  
     514A      0.378459   515A      0.380094   516A      0.381544  
     517A      0.381997   518A      0.383181   519A      0.386041  
     520A      0.386346   521A      0.387281   522A      0.388410  
     523A      0.390558   524A      0.390659   525A      0.391640  
     526A      0.392435   527A      0.394008   528A      0.394401  
     529A      0.395846   530A      0.396450   531A      0.398469  
     532A      0.399833   533A      0.400589   534A      0.401726  
     535A      0.402075   536A      0.403581   537A      0.405065  
     538A      0.406637   539A      0.407567   540A      0.408477  
     541A      0.409909   542A      0.410347   543A      0.411541  
     544A      0.412227   545A      0.412479   546A      0.413266  
     547A      0.413627   548A      0.415696   549A      0.416408  
     550A      0.416826   551A      0.418346   552A      0.419460  
     553A      0.420366   554A      0.421830   555A      0.422307  
     556A      0.423157   557A      0.423822   558A      0.425144  
     559A      0.425468   560A      0.425995   561A      0.427073  
     562A      0.427368   563A      0.428083   564A      0.429868  
     565A      0.430716   566A      0.431250   567A      0.432812  
     568A      0.433884   569A      0.434313   570A      0.435521  
     571A      0.435698   572A      0.436740   573A      0.437294  
     574A      0.438946   575A      0.438989   576A      0.440196  
     577A      0.440918   578A      0.441324   579A      0.442170  
     580A      0.443468   581A      0.445104   582A      0.445729  
     583A      0.446384   584A      0.448301   585A      0.448695  
     586A      0.450256   587A      0.450466   588A      0.451982  
     589A      0.453227   590A      0.453957   591A      0.456146  
     592A      0.456794   593A      0.457663   594A      0.458475  
     595A      0.459626   596A      0.460208   597A      0.460433  
     598A      0.460714   599A      0.461130   600A      0.463239  
     601A      0.463676   602A      0.465202   603A      0.465953  
     604A      0.467125   605A      0.468623   606A      0.469065  
     607A      0.470359   608A      0.471140   609A      0.472115  
     610A      0.473527   611A      0.474582   612A      0.474741  
     613A      0.477326   614A      0.477568   615A      0.478475  
     616A      0.479237   617A      0.480898   618A      0.481952  
     619A      0.482350   620A      0.484053   621A      0.484810  
     622A      0.485467   623A      0.487243   624A      0.487920  
     625A      0.488112   626A      0.490457   627A      0.490723  
     628A      0.491913   629A      0.494034   630A      0.494456  
     631A      0.496041   632A      0.497150   633A      0.498541  
     634A      0.499656   635A      0.500452   636A      0.501509  
     637A      0.502486   638A      0.504533   639A      0.505825  
     640A      0.506461   641A      0.509042   642A      0.509683  
     643A      0.510474   644A      0.511155   645A      0.511660  
     646A      0.513294   647A      0.514826   648A      0.515888  
     649A      0.517266   650A      0.520374   651A      0.520478  
     652A      0.522656   653A      0.523100   654A      0.524078  
     655A      0.525853   656A      0.526686   657A      0.528502  
     658A      0.530417   659A      0.531240   660A      0.532855  
     661A      0.533925   662A      0.535946   663A      0.536732  
     664A      0.539179   665A      0.539924   666A      0.541116  
     667A      0.543628   668A      0.545203   669A      0.545739  
     670A      0.546276   671A      0.546862   672A      0.549404  
     673A      0.551285   674A      0.552578   675A      0.553334  
     676A      0.555061   677A      0.555751   678A      0.557901  
     679A      0.558780   680A      0.559140   681A      0.561265  
     682A      0.562423   683A      0.563635   684A      0.564459  
     685A      0.569011   686A      0.571059   687A      0.574256  
     688A      0.575251   689A      0.577407   690A      0.578285  
     691A      0.579789   692A      0.581916   693A      0.583392  
     694A      0.584593   695A      0.585777   696A      0.588126  
     697A      0.589191   698A      0.591547   699A      0.594005  
     700A      0.594484   701A      0.596251   702A      0.596704  
     703A      0.599218   704A      0.599607   705A      0.600569  
     706A      0.601661   707A      0.603291   708A      0.603880  
     709A      0.605860   710A      0.606931   711A      0.608497  
     712A      0.609512   713A      0.611059   714A      0.611644  
     715A      0.611870   716A      0.614991   717A      0.615787  
     718A      0.616498   719A      0.617685   720A      0.619875  
     721A      0.621682   722A      0.622953   723A      0.624170  
     724A      0.625062   725A      0.627466   726A      0.629036  
     727A      0.630213   728A      0.632143   729A      0.633239  
     730A      0.635953   731A      0.637016   732A      0.638780  
     733A      0.639911   734A      0.641081   735A      0.642285  
     736A      0.642684   737A      0.643816   738A      0.645618  
     739A      0.646396   740A      0.648120   741A      0.649172  
     742A      0.651245   743A      0.652580   744A      0.655253  
     745A      0.656302   746A      0.657504   747A      0.658169  
     748A      0.660073   749A      0.661189   750A      0.661781  
     751A      0.662338   752A      0.663562   753A      0.665181  
     754A      0.665566   755A      0.665678   756A      0.667480  
     757A      0.668205   758A      0.668833   759A      0.670495  
     760A      0.671052   761A      0.672133   762A      0.673074  
     763A      0.674398   764A      0.675955   765A      0.676364  
     766A      0.677790   767A      0.680310   768A      0.680883  
     769A      0.681244   770A      0.682751   771A      0.683820  
     772A      0.684688   773A      0.686446   774A      0.688668  
     775A      0.689006   776A      0.691383   777A      0.691480  
     778A      0.694577   779A      0.695060   780A      0.696557  
     781A      0.696866   782A      0.698557   783A      0.699582  
     784A      0.700227   785A      0.701039   786A      0.703014  
     787A      0.704529   788A      0.706437   789A      0.706926  
     790A      0.707923   791A      0.708938   792A      0.709905  
     793A      0.710964   794A      0.712180   795A      0.713077  
     796A      0.713935   797A      0.716550   798A      0.717034  
     799A      0.718228   800A      0.719050   801A      0.721363  
     802A      0.723805   803A      0.724769   804A      0.725269  
     805A      0.726975   806A      0.729554   807A      0.730134  
     808A      0.730508   809A      0.731653   810A      0.732231  
     811A      0.734781   812A      0.735779   813A      0.736993  
     814A      0.738967   815A      0.740009   816A      0.740907  
     817A      0.741744   818A      0.743648   819A      0.746078  
     820A      0.748252   821A      0.749342   822A      0.750054  
     823A      0.751771   824A      0.753035   825A      0.753824  
     826A      0.754502   827A      0.754946   828A      0.756302  
     829A      0.756967   830A      0.759159   831A      0.761048  
     832A      0.762975   833A      0.763814   834A      0.766214  
     835A      0.766959   836A      0.767415   837A      0.767721  
     838A      0.769100   839A      0.770898   840A      0.771506  
     841A      0.773166   842A      0.774976   843A      0.775501  
     844A      0.776171   845A      0.776978   846A      0.777775  
     847A      0.779246   848A      0.780205   849A      0.781371  
     850A      0.782812   851A      0.783061   852A      0.784663  
     853A      0.785854   854A      0.786534   855A      0.787437  
     856A      0.789960   857A      0.791093   858A      0.792718  
     859A      0.793261   860A      0.794411   861A      0.795612  
     862A      0.796723   863A      0.798042   864A      0.798714  
     865A      0.800009   866A      0.800865   867A      0.801717  
     868A      0.802557   869A      0.802771   870A      0.804574  
     871A      0.805951   872A      0.806380   873A      0.807012  
     874A      0.808387   875A      0.809608   876A      0.810412  
     877A      0.810732   878A      0.812407   879A      0.813446  
     880A      0.814719   881A      0.815585   882A      0.816363  
     883A      0.817093   884A      0.819031   885A      0.820125  
     886A      0.820557   887A      0.821537   888A      0.824086  
     889A      0.825327   890A      0.825890   891A      0.826876  
     892A      0.827899   893A      0.828922   894A      0.829428  
     895A      0.830150   896A      0.833506   897A      0.834713  
     898A      0.836046   899A      0.836573   900A      0.836936  
     901A      0.838151   902A      0.839067   903A      0.839999  
     904A      0.840543   905A      0.842121   906A      0.843094  
     907A      0.844717   908A      0.845097   909A      0.845938  
     910A      0.847048   911A      0.848055   912A      0.849607  
     913A      0.850390   914A      0.852564   915A      0.855292  
     916A      0.855967   917A      0.856803   918A      0.857786  
     919A      0.858681   920A      0.859704   921A      0.861263  
     922A      0.861620   923A      0.863133   924A      0.864461  
     925A      0.866502   926A      0.867791   927A      0.868419  
     928A      0.870188   929A      0.871494   930A      0.873058  
     931A      0.875143   932A      0.875273   933A      0.877685  
     934A      0.879347   935A      0.879842   936A      0.880337  
     937A      0.882365   938A      0.883413   939A      0.885236  
     940A      0.886259   941A      0.887459   942A      0.890049  
     943A      0.890479   944A      0.892226   945A      0.894667  
     946A      0.895889   947A      0.897714   948A      0.899022  
     949A      0.899729   950A      0.900778   951A      0.902894  
     952A      0.903701   953A      0.904659   954A      0.906805  
     955A      0.907491   956A      0.907698   957A      0.909970  
     958A      0.910911   959A      0.911664   960A      0.913617  
     961A      0.913733   962A      0.916472   963A      0.916883  
     964A      0.919088   965A      0.920520   966A      0.921218  
     967A      0.922407   968A      0.923853   969A      0.924652  
     970A      0.927647   971A      0.929584   972A      0.930055  
     973A      0.930511   974A      0.931085   975A      0.932170  
     976A      0.933548   977A      0.934114   978A      0.936312  
     979A      0.936936   980A      0.938481   981A      0.939911  
     982A      0.940567   983A      0.941331   984A      0.943218  
     985A      0.945085   986A      0.945904   987A      0.946944  
     988A      0.947493   989A      0.949292   990A      0.949729  
     991A      0.950816   992A      0.952378   993A      0.953656  
     994A      0.955301   995A      0.955651   996A      0.957300  
     997A      0.958858   998A      0.960299   999A      0.961073  
    1000A      0.962625  1001A      0.963252  1002A      0.964432  
    1003A      0.967284  1004A      0.967871  1005A      0.969723  
    1006A      0.971717  1007A      0.971993  1008A      0.972906  
    1009A      0.973642  1010A      0.974253  1011A      0.975606  
    1012A      0.977166  1013A      0.979529  1014A      0.981900  
    1015A      0.984309  1016A      0.986631  1017A      0.986937  
    1018A      0.988951  1019A      0.990207  1020A      0.991021  
    1021A      0.992065  1022A      0.993342  1023A      0.996350  
    1024A      0.997241  1025A      0.998455  1026A      0.999547  
    1027A      1.001083  1028A      1.002251  1029A      1.003495  
    1030A      1.004795  1031A      1.005753  1032A      1.006610  
    1033A      1.007686  1034A      1.008228  1035A      1.010737  
    1036A      1.011172  1037A      1.014141  1038A      1.015169  
    1039A      1.016213  1040A      1.017615  1041A      1.018210  
    1042A      1.018782  1043A      1.020014  1044A      1.020772  
    1045A      1.021675  1046A      1.022764  1047A      1.024872  
    1048A      1.026158  1049A      1.026574  1050A      1.027672  
    1051A      1.029012  1052A      1.030294  1053A      1.031712  
    1054A      1.032776  1055A      1.033988  1056A      1.036099  
    1057A      1.036592  1058A      1.038198  1059A      1.039776  
    1060A      1.040545  1061A      1.041522  1062A      1.043110  
    1063A      1.043977  1064A      1.044500  1065A      1.047276  
    1066A      1.048714  1067A      1.049511  1068A      1.050437  
    1069A      1.051892  1070A      1.053048  1071A      1.053385  
    1072A      1.056427  1073A      1.057854  1074A      1.059580  
    1075A      1.061595  1076A      1.063267  1077A      1.063748  
    1078A      1.065244  1079A      1.065513  1080A      1.066936  
    1081A      1.068668  1082A      1.069565  1083A      1.070828  
    1084A      1.072539  1085A      1.074191  1086A      1.074637  
    1087A      1.075825  1088A      1.076647  1089A      1.079052  
    1090A      1.079582  1091A      1.080608  1092A      1.081400  
    1093A      1.082413  1094A      1.083938  1095A      1.084847  
    1096A      1.085747  1097A      1.086443  1098A      1.087853  
    1099A      1.089927  1100A      1.091190  1101A      1.091661  
    1102A      1.093316  1103A      1.094005  1104A      1.095051  
    1105A      1.095903  1106A      1.096439  1107A      1.098173  
    1108A      1.098746  1109A      1.101089  1110A      1.102261  
    1111A      1.104040  1112A      1.104925  1113A      1.107383  
    1114A      1.108640  1115A      1.109406  1116A      1.110034  
    1117A      1.111206  1118A      1.112416  1119A      1.114752  
    1120A      1.115225  1121A      1.116148  1122A      1.119236  
    1123A      1.120617  1124A      1.121769  1125A      1.123615  
    1126A      1.125513  1127A      1.126070  1128A      1.126997  
    1129A      1.128941  1130A      1.130424  1131A      1.132366  
    1132A      1.133131  1133A      1.134607  1134A      1.136537  
    1135A      1.137006  1136A      1.138327  1137A      1.140473  
    1138A      1.142698  1139A      1.143741  1140A      1.144566  
    1141A      1.145273  1142A      1.147036  1143A      1.148202  
    1144A      1.148821  1145A      1.152207  1146A      1.152250  
    1147A      1.154319  1148A      1.157067  1149A      1.159138  
    1150A      1.159958  1151A      1.161683  1152A      1.165275  
    1153A      1.166635  1154A      1.167296  1155A      1.168817  
    1156A      1.170341  1157A      1.172957  1158A      1.173219  
    1159A      1.173796  1160A      1.175749  1161A      1.178667  
    1162A      1.178899  1163A      1.181212  1164A      1.182686  
    1165A      1.183522  1166A      1.185459  1167A      1.186219  
    1168A      1.188324  1169A      1.189598  1170A      1.190296  
    1171A      1.192222  1172A      1.192867  1173A      1.194944  
    1174A      1.195455  1175A      1.197770  1176A      1.200655  
    1177A      1.200843  1178A      1.202860  1179A      1.206732  
    1180A      1.208190  1181A      1.209834  1182A      1.210727  
    1183A      1.211533  1184A      1.212038  1185A      1.214032  
    1186A      1.214694  1187A      1.217729  1188A      1.218935  
    1189A      1.220101  1190A      1.221420  1191A      1.223717  
    1192A      1.225372  1193A      1.228405  1194A      1.229261  
    1195A      1.230201  1196A      1.231983  1197A      1.232588  
    1198A      1.234205  1199A      1.236485  1200A      1.237055  
    1201A      1.237630  1202A      1.240477  1203A      1.241018  
    1204A      1.244612  1205A      1.247920  1206A      1.250850  
    1207A      1.251600  1208A      1.252257  1209A      1.254937  
    1210A      1.256328  1211A      1.257231  1212A      1.259412  
    1213A      1.260874  1214A      1.261951  1215A      1.264768  
    1216A      1.266777  1217A      1.267561  1218A      1.270437  
    1219A      1.270740  1220A      1.271681  1221A      1.273033  
    1222A      1.275128  1223A      1.276831  1224A      1.277940  
    1225A      1.281059  1226A      1.281637  1227A      1.282772  
    1228A      1.284616  1229A      1.285205  1230A      1.287746  
    1231A      1.288770  1232A      1.289773  1233A      1.291614  
    1234A      1.292821  1235A      1.293684  1236A      1.296376  
    1237A      1.298116  1238A      1.298566  1239A      1.300719  
    1240A      1.301592  1241A      1.302983  1242A      1.304423  
    1243A      1.306014  1244A      1.306653  1245A      1.308520  
    1246A      1.310384  1247A      1.311379  1248A      1.312188  
    1249A      1.313452  1250A      1.313830  1251A      1.314620  
    1252A      1.318484  1253A      1.320168  1254A      1.321270  
    1255A      1.322005  1256A      1.322878  1257A      1.325508  
    1258A      1.326891  1259A      1.327662  1260A      1.329117  
    1261A      1.330031  1262A      1.332172  1263A      1.334326  
    1264A      1.334929  1265A      1.337296  1266A      1.338711  
    1267A      1.341278  1268A      1.344011  1269A      1.344724  
    1270A      1.345999  1271A      1.346515  1272A      1.349374  
    1273A      1.350977  1274A      1.351605  1275A      1.352120  
    1276A      1.353358  1277A      1.354754  1278A      1.358102  
    1279A      1.359604  1280A      1.360328  1281A      1.362261  
    1282A      1.362952  1283A      1.364761  1284A      1.365507  
    1285A      1.367041  1286A      1.368770  1287A      1.369630  
    1288A      1.370486  1289A      1.372329  1290A      1.374087  
    1291A      1.375962  1292A      1.376862  1293A      1.378591  
    1294A      1.380223  1295A      1.380525  1296A      1.383193  
    1297A      1.383787  1298A      1.384931  1299A      1.385826  
    1300A      1.386782  1301A      1.387960  1302A      1.388965  
    1303A      1.390238  1304A      1.391968  1305A      1.392731  
    1306A      1.394962  1307A      1.396837  1308A      1.397226  
    1309A      1.399589  1310A      1.400659  1311A      1.402789  
    1312A      1.403908  1313A      1.405695  1314A      1.406659  
    1315A      1.407388  1316A      1.408398  1317A      1.411099  
    1318A      1.412444  1319A      1.413814  1320A      1.415240  
    1321A      1.416513  1322A      1.417701  1323A      1.420693  
    1324A      1.421968  1325A      1.423540  1326A      1.424914  
    1327A      1.425243  1328A      1.426837  1329A      1.428104  
    1330A      1.430491  1331A      1.432325  1332A      1.432956  
    1333A      1.433760  1334A      1.434867  1335A      1.436735  
    1336A      1.438085  1337A      1.438104  1338A      1.439387  
    1339A      1.440103  1340A      1.441129  1341A      1.442999  
    1342A      1.444622  1343A      1.444658  1344A      1.447149  
    1345A      1.448239  1346A      1.448983  1347A      1.451344  
    1348A      1.452103  1349A      1.452829  1350A      1.453821  
    1351A      1.456104  1352A      1.457303  1353A      1.458754  
    1354A      1.459599  1355A      1.461028  1356A      1.461915  
    1357A      1.463972  1358A      1.464325  1359A      1.467978  
    1360A      1.469337  1361A      1.471446  1362A      1.472650  
    1363A      1.474040  1364A      1.474850  1365A      1.476316  
    1366A      1.478618  1367A      1.479716  1368A      1.480586  
    1369A      1.482318  1370A      1.482588  1371A      1.484110  
    1372A      1.487231  1373A      1.487857  1374A      1.490814  
    1375A      1.491326  1376A      1.492302  1377A      1.492987  
    1378A      1.496305  1379A      1.496692  1380A      1.499630  
    1381A      1.500838  1382A      1.502146  1383A      1.503842  
    1384A      1.506231  1385A      1.508407  1386A      1.509635  
    1387A      1.510453  1388A      1.512051  1389A      1.514013  
    1390A      1.515158  1391A      1.516794  1392A      1.517760  
    1393A      1.518691  1394A      1.519934  1395A      1.521559  
    1396A      1.524399  1397A      1.525753  1398A      1.527798  
    1399A      1.529867  1400A      1.531365  1401A      1.533423  
    1402A      1.534701  1403A      1.536851  1404A      1.537205  
    1405A      1.538743  1406A      1.540883  1407A      1.541125  
    1408A      1.541563  1409A      1.545124  1410A      1.547072  
    1411A      1.549419  1412A      1.551256  1413A      1.552173  
    1414A      1.554817  1415A      1.555321  1416A      1.557452  
    1417A      1.558258  1418A      1.559639  1419A      1.561354  
    1420A      1.563294  1421A      1.564119  1422A      1.566051  
    1423A      1.568016  1424A      1.568855  1425A      1.570787  
    1426A      1.572138  1427A      1.573359  1428A      1.573722  
    1429A      1.576293  1430A      1.577542  1431A      1.578334  
    1432A      1.579463  1433A      1.581527  1434A      1.582825  
    1435A      1.584856  1436A      1.587025  1437A      1.589087  
    1438A      1.590216  1439A      1.591989  1440A      1.593126  
    1441A      1.593656  1442A      1.595872  1443A      1.596729  
    1444A      1.598693  1445A      1.601424  1446A      1.602444  
    1447A      1.602657  1448A      1.605782  1449A      1.608883  
    1450A      1.609243  1451A      1.610232  1452A      1.612089  
    1453A      1.614121  1454A      1.616574  1455A      1.619057  
    1456A      1.621091  1457A      1.622056  1458A      1.625266  
    1459A      1.626610  1460A      1.626957  1461A      1.629079  
    1462A      1.630628  1463A      1.635271  1464A      1.637148  
    1465A      1.638733  1466A      1.639510  1467A      1.640891  
    1468A      1.642937  1469A      1.643959  1470A      1.645614  
    1471A      1.646570  1472A      1.647939  1473A      1.650181  
    1474A      1.651818  1475A      1.654064  1476A      1.656003  
    1477A      1.657733  1478A      1.658796  1479A      1.660656  
    1480A      1.661926  1481A      1.663408  1482A      1.666294  
    1483A      1.668161  1484A      1.669636  1485A      1.670374  
    1486A      1.670431  1487A      1.672259  1488A      1.674191  
    1489A      1.675528  1490A      1.676947  1491A      1.678343  
    1492A      1.679310  1493A      1.683798  1494A      1.685785  
    1495A      1.687246  1496A      1.688436  1497A      1.690264  
    1498A      1.691117  1499A      1.693019  1500A      1.694787  
    1501A      1.695870  1502A      1.698485  1503A      1.698874  
    1504A      1.701264  1505A      1.701758  1506A      1.702566  
    1507A      1.704827  1508A      1.706796  1509A      1.707102  
    1510A      1.709809  1511A      1.711610  1512A      1.713085  
    1513A      1.714095  1514A      1.716446  1515A      1.719228  
    1516A      1.720189  1517A      1.720892  1518A      1.723367  
    1519A      1.725559  1520A      1.728277  1521A      1.730328  
    1522A      1.731904  1523A      1.734342  1524A      1.737460  
    1525A      1.739345  1526A      1.740185  1527A      1.742110  
    1528A      1.743370  1529A      1.743730  1530A      1.745191  
    1531A      1.745992  1532A      1.748328  1533A      1.749558  
    1534A      1.750549  1535A      1.753207  1536A      1.754166  
    1537A      1.756289  1538A      1.758386  1539A      1.759920  
    1540A      1.761078  1541A      1.764257  1542A      1.764605  
    1543A      1.767351  1544A      1.768821  1545A      1.770191  
    1546A      1.771255  1547A      1.774507  1548A      1.774936  
    1549A      1.779792  1550A      1.780523  1551A      1.781743  
    1552A      1.784583  1553A      1.787015  1554A      1.788264  
    1555A      1.790476  1556A      1.792475  1557A      1.795329  
    1558A      1.796428  1559A      1.797952  1560A      1.800818  
    1561A      1.802797  1562A      1.805253  1563A      1.807159  
    1564A      1.808003  1565A      1.810833  1566A      1.813064  
    1567A      1.815020  1568A      1.816692  1569A      1.819620  
    1570A      1.821649  1571A      1.823883  1572A      1.826001  
    1573A      1.827085  1574A      1.831281  1575A      1.831961  
    1576A      1.833932  1577A      1.837272  1578A      1.838269  
    1579A      1.840511  1580A      1.842743  1581A      1.844773  
    1582A      1.848666  1583A      1.849318  1584A      1.851700  
    1585A      1.855724  1586A      1.856093  1587A      1.856884  
    1588A      1.857846  1589A      1.861250  1590A      1.862442  
    1591A      1.864052  1592A      1.866705  1593A      1.868037  
    1594A      1.871248  1595A      1.872570  1596A      1.872896  
    1597A      1.875136  1598A      1.877712  1599A      1.878988  
    1600A      1.883307  1601A      1.883885  1602A      1.885005  
    1603A      1.885766  1604A      1.886971  1605A      1.888989  
    1606A      1.891730  1607A      1.892963  1608A      1.896196  
    1609A      1.898252  1610A      1.899513  1611A      1.900750  
    1612A      1.901755  1613A      1.904898  1614A      1.906332  
    1615A      1.907447  1616A      1.908631  1617A      1.910870  
    1618A      1.911581  1619A      1.912429  1620A      1.915648  
    1621A      1.916417  1622A      1.916997  1623A      1.919687  
    1624A      1.920787  1625A      1.923343  1626A      1.923758  
    1627A      1.924585  1628A      1.925642  1629A      1.927884  
    1630A      1.929137  1631A      1.930143  1632A      1.930683  
    1633A      1.934977  1634A      1.935838  1635A      1.936211  
    1636A      1.936810  1637A      1.938833  1638A      1.940609  
    1639A      1.943876  1640A      1.945245  1641A      1.946139  
    1642A      1.946775  1643A      1.948484  1644A      1.951554  
    1645A      1.954512  1646A      1.955372  1647A      1.957357  
    1648A      1.959301  1649A      1.962872  1650A      1.964006  
    1651A      1.967743  1652A      1.969698  1653A      1.971128  
    1654A      1.972789  1655A      1.975988  1656A      1.977744  
    1657A      1.981334  1658A      1.982550  1659A      1.985028  
    1660A      1.986819  1661A      1.987939  1662A      1.990647  
    1663A      1.992603  1664A      1.994260  1665A      1.996977  
    1666A      1.998564  1667A      2.001010  1668A      2.003745  
    1669A      2.005526  1670A      2.006068  1671A      2.008210  
    1672A      2.009550  1673A      2.010425  1674A      2.014139  
    1675A      2.016248  1676A      2.017414  1677A      2.017998  
    1678A      2.018903  1679A      2.022594  1680A      2.024744  
    1681A      2.026262  1682A      2.027766  1683A      2.030399  
    1684A      2.031715  1685A      2.033078  1686A      2.033707  
    1687A      2.035018  1688A      2.038586  1689A      2.039601  
    1690A      2.042043  1691A      2.042492  1692A      2.044135  
    1693A      2.045927  1694A      2.047972  1695A      2.051333  
    1696A      2.053290  1697A      2.054503  1698A      2.056184  
    1699A      2.058683  1700A      2.059715  1701A      2.060159  
    1702A      2.060658  1703A      2.063212  1704A      2.065993  
    1705A      2.071107  1706A      2.071502  1707A      2.072268  
    1708A      2.074656  1709A      2.076283  1710A      2.077971  
    1711A      2.080023  1712A      2.080618  1713A      2.083486  
    1714A      2.086238  1715A      2.087268  1716A      2.088866  
    1717A      2.090569  1718A      2.092253  1719A      2.093796  
    1720A      2.094654  1721A      2.096128  1722A      2.098595  
    1723A      2.099815  1724A      2.101116  1725A      2.102439  
    1726A      2.104867  1727A      2.106243  1728A      2.108307  
    1729A      2.111468  1730A      2.112385  1731A      2.116054  
    1732A      2.116422  1733A      2.118072  1734A      2.119439  
    1735A      2.120107  1736A      2.121294  1737A      2.123543  
    1738A      2.126844  1739A      2.127250  1740A      2.129549  
    1741A      2.130633  1742A      2.132052  1743A      2.133118  
    1744A      2.135100  1745A      2.135406  1746A      2.138407  
    1747A      2.141100  1748A      2.141707  1749A      2.143734  
    1750A      2.145122  1751A      2.149971  1752A      2.150828  
    1753A      2.151677  1754A      2.152676  1755A      2.154563  
    1756A      2.158044  1757A      2.158387  1758A      2.160936  
    1759A      2.163245  1760A      2.163559  1761A      2.164529  
    1762A      2.169140  1763A      2.170232  1764A      2.173181  
    1765A      2.175227  1766A      2.177083  1767A      2.178859  
    1768A      2.180661  1769A      2.181294  1770A      2.182560  
    1771A      2.184426  1772A      2.189589  1773A      2.190237  
    1774A      2.191864  1775A      2.195131  1776A      2.197387  
    1777A      2.197667  1778A      2.200325  1779A      2.201881  
    1780A      2.203511  1781A      2.205621  1782A      2.207630  
    1783A      2.209869  1784A      2.211858  1785A      2.214444  
    1786A      2.215482  1787A      2.217403  1788A      2.220035  
    1789A      2.221217  1790A      2.222196  1791A      2.223687  
    1792A      2.227438  1793A      2.228904  1794A      2.228916  
    1795A      2.232152  1796A      2.233760  1797A      2.234599  
    1798A      2.235282  1799A      2.240108  1800A      2.242299  
    1801A      2.245012  1802A      2.246538  1803A      2.249653  
    1804A      2.250926  1805A      2.251787  1806A      2.252900  
    1807A      2.254262  1808A      2.255941  1809A      2.257914  
    1810A      2.260738  1811A      2.261874  1812A      2.263934  
    1813A      2.266661  1814A      2.267608  1815A      2.270219  
    1816A      2.272401  1817A      2.273997  1818A      2.276656  
    1819A      2.280063  1820A      2.282858  1821A      2.284538  
    1822A      2.286311  1823A      2.288585  1824A      2.291682  
    1825A      2.292940  1826A      2.294518  1827A      2.295584  
    1828A      2.300762  1829A      2.301168  1830A      2.303187  
    1831A      2.305381  1832A      2.306755  1833A      2.309370  
    1834A      2.310529  1835A      2.311779  1836A      2.314110  
    1837A      2.315854  1838A      2.316672  1839A      2.319465  
    1840A      2.320908  1841A      2.323385  1842A      2.325714  
    1843A      2.326859  1844A      2.328778  1845A      2.332687  
    1846A      2.334806  1847A      2.335133  1848A      2.337150  
    1849A      2.337527  1850A      2.339667  1851A      2.342213  
    1852A      2.343154  1853A      2.344562  1854A      2.348896  
    1855A      2.350987  1856A      2.353621  1857A      2.356283  
    1858A      2.359230  1859A      2.360171  1860A      2.362960  
    1861A      2.364889  1862A      2.366708  1863A      2.370128  
    1864A      2.372510  1865A      2.372957  1866A      2.374970  
    1867A      2.376306  1868A      2.378406  1869A      2.380597  
    1870A      2.384163  1871A      2.387250  1872A      2.388582  
    1873A      2.390678  1874A      2.391762  1875A      2.395291  
    1876A      2.397368  1877A      2.397905  1878A      2.400722  
    1879A      2.403948  1880A      2.406377  1881A      2.407760  
    1882A      2.409418  1883A      2.411322  1884A      2.414725  
    1885A      2.416928  1886A      2.419113  1887A      2.425476  
    1888A      2.426674  1889A      2.429944  1890A      2.431460  
    1891A      2.435202  1892A      2.435797  1893A      2.438652  
    1894A      2.440527  1895A      2.442130  1896A      2.444165  
    1897A      2.446757  1898A      2.448333  1899A      2.451935  
    1900A      2.453163  1901A      2.454770  1902A      2.457207  
    1903A      2.459662  1904A      2.463173  1905A      2.464354  
    1906A      2.467506  1907A      2.469295  1908A      2.471198  
    1909A      2.472350  1910A      2.476970  1911A      2.479967  
    1912A      2.480926  1913A      2.483136  1914A      2.483935  
    1915A      2.488252  1916A      2.490067  1917A      2.492234  
    1918A      2.495278  1919A      2.499566  1920A      2.501178  
    1921A      2.504073  1922A      2.505649  1923A      2.511426  
    1924A      2.512845  1925A      2.516030  1926A      2.519036  
    1927A      2.522501  1928A      2.523996  1929A      2.528341  
    1930A      2.528809  1931A      2.530971  1932A      2.535194  
    1933A      2.538548  1934A      2.539300  1935A      2.546464  
    1936A      2.550427  1937A      2.552289  1938A      2.555788  
    1939A      2.556517  1940A      2.557824  1941A      2.560293  
    1942A      2.563827  1943A      2.569939  1944A      2.574836  
    1945A      2.575384  1946A      2.581883  1947A      2.585031  
    1948A      2.586302  1949A      2.586712  1950A      2.588289  
    1951A      2.590858  1952A      2.595264  1953A      2.596697  
    1954A      2.599481  1955A      2.603204  1956A      2.606648  
    1957A      2.608989  1958A      2.610387  1959A      2.612757  
    1960A      2.613946  1961A      2.617825  1962A      2.619182  
    1963A      2.621189  1964A      2.623754  1965A      2.624527  
    1966A      2.626714  1967A      2.629812  1968A      2.630657  
    1969A      2.633866  1970A      2.634771  1971A      2.635342  
    1972A      2.637141  1973A      2.639292  1974A      2.640232  
    1975A      2.643409  1976A      2.645600  1977A      2.646493  
    1978A      2.648326  1979A      2.652722  1980A      2.654716  
    1981A      2.660142  1982A      2.662000  1983A      2.663538  
    1984A      2.666047  1985A      2.669294  1986A      2.673155  
    1987A      2.676691  1988A      2.679817  1989A      2.682438  
    1990A      2.683857  1991A      2.686525  1992A      2.688725  
    1993A      2.692974  1994A      2.696564  1995A      2.699426  
    1996A      2.705034  1997A      2.706534  1998A      2.710125  
    1999A      2.710870  2000A      2.715019  2001A      2.718333  
    2002A      2.721337  2003A      2.725356  2004A      2.726701  
    2005A      2.731455  2006A      2.732494  2007A      2.734966  
    2008A      2.736592  2009A      2.737979  2010A      2.741530  
    2011A      2.743216  2012A      2.747620  2013A      2.752025  
    2014A      2.757527  2015A      2.758897  2016A      2.759631  
    2017A      2.764060  2018A      2.766664  2019A      2.771740  
    2020A      2.775983  2021A      2.777432  2022A      2.781756  
    2023A      2.787133  2024A      2.787871  2025A      2.788313  
    2026A      2.795935  2027A      2.802492  2028A      2.804927  
    2029A      2.807665  2030A      2.814409  2031A      2.819656  
    2032A      2.823452  2033A      2.826518  2034A      2.828230  
    2035A      2.830596  2036A      2.835529  2037A      2.838049  
    2038A      2.842990  2039A      2.844035  2040A      2.847918  
    2041A      2.854018  2042A      2.857149  2043A      2.858056  
    2044A      2.864835  2045A      2.866069  2046A      2.872918  
    2047A      2.875807  2048A      2.884760  2049A      2.884874  
    2050A      2.887928  2051A      2.892358  2052A      2.895106  
    2053A      2.896170  2054A      2.899805  2055A      2.901685  
    2056A      2.904167  2057A      2.905880  2058A      2.908875  
    2059A      2.910051  2060A      2.912698  2061A      2.915876  
    2062A      2.919332  2063A      2.921620  2064A      2.924336  
    2065A      2.926382  2066A      2.931041  2067A      2.934898  
    2068A      2.939591  2069A      2.943527  2070A      2.944931  
    2071A      2.947039  2072A      2.949797  2073A      2.954986  
    2074A      2.957614  2075A      2.961113  2076A      2.961884  
    2077A      2.965949  2078A      2.969660  2079A      2.972692  
    2080A      2.976870  2081A      2.978833  2082A      2.979826  
    2083A      2.982126  2084A      2.985356  2085A      2.987438  
    2086A      2.992356  2087A      2.997186  2088A      2.998930  
    2089A      3.005068  2090A      3.007745  2091A      3.011131  
    2092A      3.016092  2093A      3.017981  2094A      3.020437  
    2095A      3.023500  2096A      3.026459  2097A      3.027753  
    2098A      3.034579  2099A      3.037255  2100A      3.040677  
    2101A      3.044555  2102A      3.048844  2103A      3.050370  
    2104A      3.053857  2105A      3.061227  2106A      3.065015  
    2107A      3.065944  2108A      3.071409  2109A      3.075268  
    2110A      3.077090  2111A      3.080091  2112A      3.081479  
    2113A      3.082698  2114A      3.086981  2115A      3.089365  
    2116A      3.091254  2117A      3.095525  2118A      3.097018  
    2119A      3.099839  2120A      3.103649  2121A      3.105549  
    2122A      3.107864  2123A      3.113405  2124A      3.115229  
    2125A      3.116550  2126A      3.117026  2127A      3.121447  
    2128A      3.125182  2129A      3.126156  2130A      3.129254  
    2131A      3.129835  2132A      3.133928  2133A      3.135054  
    2134A      3.141475  2135A      3.142550  2136A      3.144394  
    2137A      3.147552  2138A      3.149065  2139A      3.151543  
    2140A      3.153823  2141A      3.154981  2142A      3.161919  
    2143A      3.164000  2144A      3.165232  2145A      3.168649  
    2146A      3.173245  2147A      3.173953  2148A      3.177648  
    2149A      3.180579  2150A      3.182900  2151A      3.185256  
    2152A      3.186885  2153A      3.189643  2154A      3.193770  
    2155A      3.195975  2156A      3.200750  2157A      3.200873  
    2158A      3.202924  2159A      3.205072  2160A      3.207322  
    2161A      3.209237  2162A      3.212992  2163A      3.215726  
    2164A      3.217623  2165A      3.221627  2166A      3.222205  
    2167A      3.227928  2168A      3.229691  2169A      3.233071  
    2170A      3.234166  2171A      3.237600  2172A      3.239135  
    2173A      3.244369  2174A      3.245961  2175A      3.250987  
    2176A      3.252796  2177A      3.254142  2178A      3.256897  
    2179A      3.259550  2180A      3.260706  2181A      3.262706  
    2182A      3.264679  2183A      3.267275  2184A      3.268538  
    2185A      3.270673  2186A      3.272718  2187A      3.275019  
    2188A      3.275539  2189A      3.279292  2190A      3.282250  
    2191A      3.284846  2192A      3.288814  2193A      3.292136  
    2194A      3.294146  2195A      3.295625  2196A      3.297909  
    2197A      3.300359  2198A      3.301743  2199A      3.302732  
    2200A      3.303260  2201A      3.306594  2202A      3.307358  
    2203A      3.310180  2204A      3.310478  2205A      3.312834  
    2206A      3.314402  2207A      3.319283  2208A      3.322798  
    2209A      3.325532  2210A      3.326311  2211A      3.328229  
    2212A      3.333279  2213A      3.334539  2214A      3.334928  
    2215A      3.335507  2216A      3.337020  2217A      3.340087  
    2218A      3.341661  2219A      3.344840  2220A      3.346556  
    2221A      3.347537  2222A      3.350059  2223A      3.351404  
    2224A      3.354180  2225A      3.355605  2226A      3.356191  
    2227A      3.357451  2228A      3.359327  2229A      3.361272  
    2230A      3.363054  2231A      3.364195  2232A      3.367229  
    2233A      3.368297  2234A      3.368744  2235A      3.373570  
    2236A      3.374906  2237A      3.376426  2238A      3.377451  
    2239A      3.380875  2240A      3.382956  2241A      3.384992  
    2242A      3.385666  2243A      3.388192  2244A      3.389885  
    2245A      3.392803  2246A      3.395193  2247A      3.396410  
    2248A      3.399129  2249A      3.400244  2250A      3.403347  
    2251A      3.404203  2252A      3.407460  2253A      3.408377  
    2254A      3.409164  2255A      3.410339  2256A      3.412415  
    2257A      3.416705  2258A      3.417813  2259A      3.420437  
    2260A      3.421974  2261A      3.423066  2262A      3.428541  
    2263A      3.430210  2264A      3.431436  2265A      3.432566  
    2266A      3.434022  2267A      3.434894  2268A      3.435798  
    2269A      3.437954  2270A      3.441073  2271A      3.442372  
    2272A      3.444458  2273A      3.445683  2274A      3.446944  
    2275A      3.449680  2276A      3.451463  2277A      3.452308  
    2278A      3.454078  2279A      3.456405  2280A      3.456594  
    2281A      3.457164  2282A      3.462271  2283A      3.466933  
    2284A      3.467418  2285A      3.469928  2286A      3.471004  
    2287A      3.473553  2288A      3.475142  2289A      3.477276  
    2290A      3.478951  2291A      3.481167  2292A      3.483670  
    2293A      3.485010  2294A      3.486153  2295A      3.489195  
    2296A      3.491231  2297A      3.492850  2298A      3.493726  
    2299A      3.495171  2300A      3.496104  2301A      3.498378  
    2302A      3.501449  2303A      3.504539  2304A      3.504912  
    2305A      3.506150  2306A      3.507567  2307A      3.509749  
    2308A      3.512531  2309A      3.513274  2310A      3.515109  
    2311A      3.516760  2312A      3.517967  2313A      3.520299  
    2314A      3.522594  2315A      3.525444  2316A      3.527557  
    2317A      3.527971  2318A      3.528880  2319A      3.531338  
    2320A      3.534453  2321A      3.536341  2322A      3.537737  
    2323A      3.539045  2324A      3.539542  2325A      3.540891  
    2326A      3.542783  2327A      3.545401  2328A      3.548217  
    2329A      3.548805  2330A      3.550325  2331A      3.552631  
    2332A      3.555620  2333A      3.556036  2334A      3.556987  
    2335A      3.558446  2336A      3.561660  2337A      3.563677  
    2338A      3.565930  2339A      3.567640  2340A      3.569237  
    2341A      3.570621  2342A      3.571716  2343A      3.574061  
    2344A      3.575436  2345A      3.577149  2346A      3.581951  
    2347A      3.583336  2348A      3.584146  2349A      3.585391  
    2350A      3.586373  2351A      3.588843  2352A      3.589600  
    2353A      3.590219  2354A      3.593516  2355A      3.594099  
    2356A      3.595132  2357A      3.599387  2358A      3.601612  
    2359A      3.603934  2360A      3.604574  2361A      3.607032  
    2362A      3.609226  2363A      3.612677  2364A      3.613165  
    2365A      3.614481  2366A      3.618841  2367A      3.620821  
    2368A      3.621943  2369A      3.622965  2370A      3.625595  
    2371A      3.627317  2372A      3.628398  2373A      3.630008  
    2374A      3.631151  2375A      3.635584  2376A      3.637452  
    2377A      3.641006  2378A      3.642486  2379A      3.642972  
    2380A      3.648446  2381A      3.650137  2382A      3.651727  
    2383A      3.653534  2384A      3.655117  2385A      3.657673  
    2386A      3.659660  2387A      3.660595  2388A      3.662645  
    2389A      3.666087  2390A      3.667468  2391A      3.669639  
    2392A      3.672677  2393A      3.674477  2394A      3.676328  
    2395A      3.679182  2396A      3.681068  2397A      3.683403  
    2398A      3.685120  2399A      3.685658  2400A      3.693148  
    2401A      3.694426  2402A      3.695752  2403A      3.697193  
    2404A      3.698761  2405A      3.699434  2406A      3.701550  
    2407A      3.703992  2408A      3.706129  2409A      3.710130  
    2410A      3.711893  2411A      3.715050  2412A      3.716640  
    2413A      3.719237  2414A      3.720186  2415A      3.722524  
    2416A      3.725678  2417A      3.726484  2418A      3.728601  
    2419A      3.729794  2420A      3.735867  2421A      3.737973  
    2422A      3.738814  2423A      3.739852  2424A      3.742742  
    2425A      3.744350  2426A      3.746033  2427A      3.746926  
    2428A      3.748847  2429A      3.750599  2430A      3.753832  
    2431A      3.755436  2432A      3.757237  2433A      3.759467  
    2434A      3.759894  2435A      3.761479  2436A      3.763497  
    2437A      3.764493  2438A      3.766183  2439A      3.768887  
    2440A      3.771507  2441A      3.772701  2442A      3.774425  
    2443A      3.776730  2444A      3.779313  2445A      3.781694  
    2446A      3.782757  2447A      3.785263  2448A      3.787261  
    2449A      3.788826  2450A      3.789948  2451A      3.791774  
    2452A      3.796228  2453A      3.797229  2454A      3.799334  
    2455A      3.801196  2456A      3.801989  2457A      3.803913  
    2458A      3.806036  2459A      3.807426  2460A      3.810630  
    2461A      3.811708  2462A      3.814877  2463A      3.817419  
    2464A      3.817863  2465A      3.820303  2466A      3.824554  
    2467A      3.828664  2468A      3.830740  2469A      3.832095  
    2470A      3.833926  2471A      3.837562  2472A      3.840000  
    2473A      3.842166  2474A      3.842889  2475A      3.843549  
    2476A      3.845170  2477A      3.847044  2478A      3.848920  
    2479A      3.850432  2480A      3.852383  2481A      3.853229  
    2482A      3.855989  2483A      3.858774  2484A      3.862319  
    2485A      3.863233  2486A      3.865330  2487A      3.867978  
    2488A      3.870866  2489A      3.871517  2490A      3.872942  
    2491A      3.875174  2492A      3.878238  2493A      3.887044  
    2494A      3.889128  2495A      3.891318  2496A      3.893026  
    2497A      3.893837  2498A      3.895925  2499A      3.896958  
    2500A      3.898236  2501A      3.899777  2502A      3.902696  
    2503A      3.903423  2504A      3.907072  2505A      3.908248  
    2506A      3.910881  2507A      3.913318  2508A      3.915497  
    2509A      3.917179  2510A      3.918579  2511A      3.924521  
    2512A      3.925660  2513A      3.928893  2514A      3.929892  
    2515A      3.935688  2516A      3.936132  2517A      3.940833  
    2518A      3.942472  2519A      3.943318  2520A      3.945360  
    2521A      3.948014  2522A      3.949546  2523A      3.954703  
    2524A      3.957397  2525A      3.958815  2526A      3.960031  
    2527A      3.962942  2528A      3.963624  2529A      3.966469  
    2530A      3.968517  2531A      3.971473  2532A      3.972369  
    2533A      3.973536  2534A      3.974894  2535A      3.978604  
    2536A      3.979848  2537A      3.980829  2538A      3.984001  
    2539A      3.986338  2540A      3.990445  2541A      3.994300  
    2542A      3.995436  2543A      3.997378  2544A      3.997735  
    2545A      4.002633  2546A      4.004563  2547A      4.007008  
    2548A      4.008665  2549A      4.010268  2550A      4.013818  
    2551A      4.014996  2552A      4.017397  2553A      4.018177  
    2554A      4.020353  2555A      4.025323  2556A      4.025772  
    2557A      4.028381  2558A      4.029859  2559A      4.032001  
    2560A      4.034792  2561A      4.038530  2562A      4.040285  
    2563A      4.045394  2564A      4.048380  2565A      4.050581  
    2566A      4.051568  2567A      4.053062  2568A      4.056117  
    2569A      4.058031  2570A      4.060063  2571A      4.064617  
    2572A      4.066158  2573A      4.066457  2574A      4.070000  
    2575A      4.073415  2576A      4.074185  2577A      4.074277  
    2578A      4.079658  2579A      4.083905  2580A      4.085710  
    2581A      4.086339  2582A      4.087937  2583A      4.089514  
    2584A      4.091670  2585A      4.094228  2586A      4.094869  
    2587A      4.097683  2588A      4.099419  2589A      4.104975  
    2590A      4.106140  2591A      4.109138  2592A      4.111534  
    2593A      4.114701  2594A      4.116026  2595A      4.118059  
    2596A      4.119991  2597A      4.120951  2598A      4.123004  
    2599A      4.124446  2600A      4.126792  2601A      4.128665  
    2602A      4.129787  2603A      4.130911  2604A      4.133451  
    2605A      4.135080  2606A      4.137829  2607A      4.139162  
    2608A      4.142419  2609A      4.143366  2610A      4.147454  
    2611A      4.150216  2612A      4.154263  2613A      4.158446  
    2614A      4.159752  2615A      4.161130  2616A      4.163103  
    2617A      4.165233  2618A      4.165806  2619A      4.168819  
    2620A      4.171508  2621A      4.173003  2622A      4.175124  
    2623A      4.176357  2624A      4.180046  2625A      4.180939  
    2626A      4.182320  2627A      4.186460  2628A      4.188365  
    2629A      4.190038  2630A      4.191947  2631A      4.195313  
    2632A      4.197341  2633A      4.199049  2634A      4.208447  
    2635A      4.209469  2636A      4.210094  2637A      4.213406  
    2638A      4.215099  2639A      4.218995  2640A      4.220801  
    2641A      4.222421  2642A      4.224920  2643A      4.227483  
    2644A      4.228676  2645A      4.230626  2646A      4.231294  
    2647A      4.233818  2648A      4.234961  2649A      4.237671  
    2650A      4.238967  2651A      4.243188  2652A      4.244251  
    2653A      4.245836  2654A      4.248495  2655A      4.252106  
    2656A      4.253021  2657A      4.255662  2658A      4.258097  
    2659A      4.259289  2660A      4.263044  2661A      4.264081  
    2662A      4.264577  2663A      4.267825  2664A      4.268910  
    2665A      4.270074  2666A      4.272142  2667A      4.273331  
    2668A      4.274450  2669A      4.277431  2670A      4.279980  
    2671A      4.281825  2672A      4.283177  2673A      4.283962  
    2674A      4.285751  2675A      4.286736  2676A      4.288344  
    2677A      4.290617  2678A      4.292385  2679A      4.293202  
    2680A      4.295567  2681A      4.296589  2682A      4.297822  
    2683A      4.302405  2684A      4.304398  2685A      4.305185  
    2686A      4.307942  2687A      4.311015  2688A      4.314401  
    2689A      4.316563  2690A      4.319075  2691A      4.321331  
    2692A      4.325554  2693A      4.327867  2694A      4.330217  
    2695A      4.333184  2696A      4.333692  2697A      4.335396  
    2698A      4.337380  2699A      4.339332  2700A      4.340002  
    2701A      4.341807  2702A      4.345085  2703A      4.345845  
    2704A      4.348735  2705A      4.349241  2706A      4.351724  
    2707A      4.353508  2708A      4.354228  2709A      4.355812  
    2710A      4.358051  2711A      4.360879  2712A      4.361290  
    2713A      4.362651  2714A      4.363972  2715A      4.365398  
    2716A      4.366117  2717A      4.368779  2718A      4.370440  
    2719A      4.370731  2720A      4.375168  2721A      4.379311  
    2722A      4.380436  2723A      4.382622  2724A      4.383808  
    2725A      4.384856  2726A      4.387785  2727A      4.388604  
    2728A      4.391319  2729A      4.395663  2730A      4.397953  
    2731A      4.399730  2732A      4.400868  2733A      4.401484  
    2734A      4.406389  2735A      4.407374  2736A      4.411569  
    2737A      4.412117  2738A      4.415838  2739A      4.419237  
    2740A      4.419714  2741A      4.422637  2742A      4.425605  
    2743A      4.430713  2744A      4.433052  2745A      4.435019  
    2746A      4.436553  2747A      4.437333  2748A      4.439957  
    2749A      4.444595  2750A      4.445616  2751A      4.446690  
    2752A      4.448602  2753A      4.450511  2754A      4.453594  
    2755A      4.457043  2756A      4.458108  2757A      4.459893  
    2758A      4.462153  2759A      4.463082  2760A      4.464435  
    2761A      4.466350  2762A      4.467951  2763A      4.470729  
    2764A      4.472635  2765A      4.476550  2766A      4.479085  
    2767A      4.483297  2768A      4.486605  2769A      4.487654  
    2770A      4.490965  2771A      4.497312  2772A      4.500742  
    2773A      4.501533  2774A      4.504553  2775A      4.506635  
    2776A      4.507870  2777A      4.509897  2778A      4.511203  
    2779A      4.514529  2780A      4.516463  2781A      4.519513  
    2782A      4.523575  2783A      4.526779  2784A      4.528316  
    2785A      4.529371  2786A      4.530327  2787A      4.532242  
    2788A      4.535109  2789A      4.537924  2790A      4.539946  
    2791A      4.543234  2792A      4.545220  2793A      4.547577  
    2794A      4.548251  2795A      4.549482  2796A      4.553114  
    2797A      4.555332  2798A      4.557138  2799A      4.559801  
    2800A      4.562332  2801A      4.566673  2802A      4.567708  
    2803A      4.571035  2804A      4.571403  2805A      4.574293  
    2806A      4.576080  2807A      4.576664  2808A      4.583279  
    2809A      4.584890  2810A      4.589166  2811A      4.590750  
    2812A      4.594236  2813A      4.595471  2814A      4.597666  
    2815A      4.598571  2816A      4.600923  2817A      4.603113  
    2818A      4.604810  2819A      4.606624  2820A      4.607765  
    2821A      4.608953  2822A      4.611215  2823A      4.613719  
    2824A      4.614463  2825A      4.617004  2826A      4.621152  
    2827A      4.624268  2828A      4.624964  2829A      4.626979  
    2830A      4.628820  2831A      4.631578  2832A      4.633591  
    2833A      4.636347  2834A      4.637807  2835A      4.638887  
    2836A      4.639748  2837A      4.642410  2838A      4.644711  
    2839A      4.646179  2840A      4.651503  2841A      4.655013  
    2842A      4.655844  2843A      4.657995  2844A      4.661963  
    2845A      4.665233  2846A      4.668978  2847A      4.672254  
    2848A      4.676299  2849A      4.677403  2850A      4.681370  
    2851A      4.684973  2852A      4.685979  2853A      4.690002  
    2854A      4.691066  2855A      4.692199  2856A      4.693240  
    2857A      4.695202  2858A      4.695751  2859A      4.696700  
    2860A      4.699587  2861A      4.700136  2862A      4.705117  
    2863A      4.707016  2864A      4.713012  2865A      4.715083  
    2866A      4.717167  2867A      4.718561  2868A      4.720076  
    2869A      4.724189  2870A      4.727303  2871A      4.731156  
    2872A      4.734754  2873A      4.735766  2874A      4.738993  
    2875A      4.741603  2876A      4.743675  2877A      4.744904  
    2878A      4.746040  2879A      4.749233  2880A      4.752210  
    2881A      4.758713  2882A      4.763183  2883A      4.764631  
    2884A      4.769962  2885A      4.771523  2886A      4.778852  
    2887A      4.780403  2888A      4.784040  2889A      4.788765  
    2890A      4.790975  2891A      4.792869  2892A      4.793987  
    2893A      4.796794  2894A      4.798353  2895A      4.801840  
    2896A      4.804092  2897A      4.808299  2898A      4.809742  
    2899A      4.810550  2900A      4.813255  2901A      4.815360  
    2902A      4.816594  2903A      4.817713  2904A      4.818844  
    2905A      4.819458  2906A      4.821273  2907A      4.824212  
    2908A      4.824900  2909A      4.825231  2910A      4.827813  
    2911A      4.831686  2912A      4.833430  2913A      4.834989  
    2914A      4.835454  2915A      4.839398  2916A      4.842774  
    2917A      4.844138  2918A      4.849254  2919A      4.849641  
    2920A      4.851929  2921A      4.852966  2922A      4.855178  
    2923A      4.860016  2924A      4.864284  2925A      4.867619  
    2926A      4.870872  2927A      4.871871  2928A      4.873604  
    2929A      4.878466  2930A      4.881417  2931A      4.882903  
    2932A      4.886078  2933A      4.887161  2934A      4.899355  
    2935A      4.903115  2936A      4.904801  2937A      4.907982  
    2938A      4.910760  2939A      4.912339  2940A      4.916216  
    2941A      4.920999  2942A      4.923377  2943A      4.923971  
    2944A      4.926369  2945A      4.930289  2946A      4.932248  
    2947A      4.938699  2948A      4.941962  2949A      4.948817  
    2950A      4.951560  2951A      4.957595  2952A      4.962165  
    2953A      4.963322  2954A      4.963921  2955A      4.968548  
    2956A      4.971305  2957A      4.974420  2958A      4.975501  
    2959A      4.981022  2960A      4.985048  2961A      4.991269  
    2962A      4.996540  2963A      4.999463  2964A      5.001061  
    2965A      5.003763  2966A      5.009560  2967A      5.013168  
    2968A      5.013917  2969A      5.016440  2970A      5.018377  
    2971A      5.022816  2972A      5.024327  2973A      5.030173  
    2974A      5.032713  2975A      5.034289  2976A      5.038285  
    2977A      5.039064  2978A      5.043874  2979A      5.047657  
    2980A      5.051813  2981A      5.052497  2982A      5.055526  
    2983A      5.058379  2984A      5.061434  2985A      5.066090  
    2986A      5.074189  2987A      5.075870  2988A      5.080678  
    2989A      5.081376  2990A      5.086814  2991A      5.088049  
    2992A      5.089489  2993A      5.098451  2994A      5.101602  
    2995A      5.101789  2996A      5.104353  2997A      5.107560  
    2998A      5.113892  2999A      5.118189  3000A      5.122349  
    3001A      5.122998  3002A      5.124936  3003A      5.128119  
    3004A      5.133253  3005A      5.140767  3006A      5.142195  
    3007A      5.146288  3008A      5.148215  3009A      5.151492  
    3010A      5.154675  3011A      5.160519  3012A      5.169743  
    3013A      5.170769  3014A      5.173442  3015A      5.175683  
    3016A      5.179160  3017A      5.181879  3018A      5.185737  
    3019A      5.187025  3020A      5.190110  3021A      5.193692  
    3022A      5.197892  3023A      5.205452  3024A      5.210410  
    3025A      5.211086  3026A      5.213124  3027A      5.213495  
    3028A      5.219181  3029A      5.224160  3030A      5.226853  
    3031A      5.228383  3032A      5.233930  3033A      5.247799  
    3034A      5.251027  3035A      5.253479  3036A      5.262205  
    3037A      5.264070  3038A      5.270545  3039A      5.273608  
    3040A      5.280574  3041A      5.285789  3042A      5.296072  
    3043A      5.299498  3044A      5.300566  3045A      5.301046  
    3046A      5.302704  3047A      5.308918  3048A      5.317821  
    3049A      5.328055  3050A      5.332146  3051A      5.333741  
    3052A      5.336610  3053A      5.338097  3054A      5.344982  
    3055A      5.349890  3056A      5.353259  3057A      5.361567  
    3058A      5.370170  3059A      5.372898  3060A      5.376522  
    3061A      5.380624  3062A      5.381854  3063A      5.384517  
    3064A      5.387753  3065A      5.389207  3066A      5.396234  
    3067A      5.404709  3068A      5.410247  3069A      5.418003  
    3070A      5.421425  3071A      5.427979  3072A      5.431622  
    3073A      5.439998  3074A      5.444317  3075A      5.449320  
    3076A      5.451410  3077A      5.453868  3078A      5.456662  
    3079A      5.459165  3080A      5.461488  3081A      5.468894  
    3082A      5.480950  3083A      5.488843  3084A      5.500185  
    3085A      5.501429  3086A      5.506508  3087A      5.516220  
    3088A      5.520046  3089A      5.525165  3090A      5.535115  
    3091A      5.540788  3092A      5.542336  3093A      5.546424  
    3094A      5.551055  3095A      5.554709  3096A      5.555278  
    3097A      5.558245  3098A      5.562684  3099A      5.577032  
    3100A      5.593715  3101A      5.596303  3102A      5.606465  
    3103A      5.610001  3104A      5.615986  3105A      5.627065  
    3106A      5.641398  3107A      5.654860  3108A      5.657473  
    3109A      5.661048  3110A      5.671766  3111A      5.692309  
    3112A      5.698047  3113A      5.710254  3114A      5.721856  
    3115A      5.727106  3116A      5.730976  3117A      5.737299  
    3118A      5.739267  3119A      5.746844  3120A      5.752108  
    3121A      5.772646  3122A      5.782487  3123A      5.799026  
    3124A      5.807548  3125A      5.812819  3126A      5.823265  
    3127A      5.852890  3128A      5.865958  3129A      5.875152  
    3130A      5.883258  3131A      5.891158  3132A      5.896590  
    3133A      5.906152  3134A      5.912746  3135A      5.925933  
    3136A      5.926747  3137A      5.937322  3138A      5.938646  
    3139A      5.992183  3140A      5.994962  3141A      5.999154  
    3142A      6.011071  3143A      6.012855  3144A      6.016902  
    3145A      6.023321  3146A      6.041241  3147A      6.044601  
    3148A      6.048066  3149A      6.052120  3150A      6.066640  
    3151A      6.069413  3152A      6.079685  3153A      6.084197  
    3154A      6.087495  3155A      6.091930  3156A      6.094922  
    3157A      6.112131  3158A      6.117566  3159A      6.125024  
    3160A      6.129463  3161A      6.141606  3162A      6.143731  
    3163A      6.148051  3164A      6.157536  3165A      6.172244  
    3166A      6.179804  3167A      6.186627  3168A      6.194438  
    3169A      6.197053  3170A      6.206193  3171A      6.212337  
    3172A      6.216842  3173A      6.217918  3174A      6.224968  
    3175A      6.228949  3176A      6.236086  3177A      6.237932  
    3178A      6.240862  3179A      6.247066  3180A      6.250823  
    3181A      6.254725  3182A      6.258800  3183A      6.261849  
    3184A      6.266897  3185A      6.267261  3186A      6.274807  
    3187A      6.276840  3188A      6.281760  3189A      6.287509  
    3190A      6.299759  3191A      6.300406  3192A      6.304318  
    3193A      6.311979  3194A      6.316960  3195A      6.319351  
    3196A      6.322633  3197A      6.335296  3198A      6.341870  
    3199A      6.355358  3200A      6.362235  3201A      6.383906  
    3202A      6.385048  3203A      6.394467  3204A      6.421642  
    3205A      6.427465  3206A      6.435153  3207A      6.442944  
    3208A      6.444715  3209A      6.446161  3210A      6.457784  
    3211A      6.468437  3212A      6.486881  3213A      6.500693  
    3214A      6.504741  3215A      6.507710  3216A      6.508463  
    3217A      6.522630  3218A      6.526695  3219A      6.527905  
    3220A      6.546401  3221A      6.558911  3222A      6.564376  
    3223A      6.567257  3224A      6.568126  3225A      6.578179  
    3226A      6.578288  3227A      6.585326  3228A      6.587764  
    3229A      6.591795  3230A      6.594792  3231A      6.605627  
    3232A      6.622024  3233A      6.623738  3234A      6.628842  
    3235A      6.636394  3236A      6.639320  3237A      6.641430  
    3238A      6.641681  3239A      6.658023  3240A      6.662780  
    3241A      6.668662  3242A      6.673162  3243A      6.674946  
    3244A      6.697170  3245A      6.704000  3246A      6.710040  
    3247A      6.723970  3248A      6.729805  3249A      6.738996  
    3250A      6.750445  3251A      6.757762  3252A      6.758558  
    3253A      6.766821  3254A      6.775006  3255A      6.783219  
    3256A      6.788250  3257A      6.792662  3258A      6.794964  
    3259A      6.795586  3260A      6.803051  3261A      6.825054  
    3262A      6.850346  3263A      6.857356  3264A      6.889050  
    3265A      6.929097  3266A      6.940396  3267A      6.955646  
    3268A      6.983876  3269A      6.990447  3270A      7.023597  
    3271A      7.024515  3272A      7.027180  3273A      7.069612  
    3274A      7.108821  3275A      7.145430  3276A      7.210388  
    3277A      7.235624  3278A      7.254095  3279A      7.260762  
    3280A      7.293121  3281A      7.308167  3282A      7.360058  
    3283A      7.445915  3284A      7.468032  3285A      7.499114  
    3286A      7.553535  3287A      7.589391  3288A      7.631577  
    3289A      7.633367  3290A      7.660517  3291A      7.686130  
    3292A      7.718184  3293A      7.747956  3294A      7.764342  
    3295A      7.790798  3296A      7.818346  3297A      7.866319  
    3298A      7.882518  3299A      7.906046  3300A      7.928566  
    3301A      7.959261  3302A      7.996223  3303A      8.013781  
    3304A      8.024350  3305A      8.046624  3306A      8.093086  
    3307A      8.104257  3308A      8.125858  3309A      8.150272  
    3310A      8.163413  3311A      8.238305  3312A      8.325046  
    3313A      8.388391  3314A      8.390550  3315A      8.437455  
    3316A      8.550405  3317A      8.610127  3318A      8.666736  
    3319A      8.790890  3320A      8.855045  3321A      8.936996  
    3322A      9.018425  3323A      9.093602  3324A      9.114662  
    3325A      9.352856  3326A      9.384668  3327A      9.482202  
    3328A      9.719270  3329A      9.769519  3330A      9.800352  
    3331A      9.882523  3332A      9.921819  3333A     10.018703  
    3334A     10.280731  3335A     10.408624  3336A     10.573952  
    3337A     10.913885  3338A     11.159316  3339A     11.256336  
    3340A     11.352799  3341A     11.424310  3342A     11.634967  
    3343A     11.788126  3344A     11.918777  3345A     12.008145  
    3346A     12.167077  3347A     12.255749  3348A     12.413175  
    3349A     12.490083  3350A     12.714576  3351A     12.892754  
    3352A     13.171126  3353A     13.271467  3354A     15.083774  
    3355A     15.127545  3356A     15.245257  3357A     15.402428  
    3358A     16.685359  3359A     16.733517  3360A     16.743348  
    3361A     16.829278  3362A     16.861136  3363A     16.879279  
    3364A     16.912145  3365A     16.927593  3366A     17.799972  
    3367A     17.812895  3368A     18.384766  3369A     18.496617  
    3370A     18.551362  3371A     18.584978  3372A     19.081965  
    3373A     19.118539  3374A     19.298847  3375A     19.527645  
    3376A     20.212709  3377A     20.248398  3378A     20.419467  
    3379A     20.458532  3380A     20.474156  3381A     20.802464  
    3382A     20.900565  3383A     20.982093  3384A     21.008559  
    3385A     21.284331  3386A     21.417146  3387A     21.768651  
    3388A     21.882166  3389A     21.883216  3390A     22.002028  
    3391A     22.037466  3392A     22.161551  3393A     22.621935  
    3394A     22.649516  3395A     22.683665  3396A     22.734580  
    3397A     22.816894  3398A     22.889061  3399A     22.998768  
    3400A     23.065111  3401A     23.192113  3402A     23.312963  
    3403A     23.397047  3404A     23.418416  3405A     23.608070  
    3406A     23.705399  3407A     23.752267  3408A     52.718363  
    3409A     53.282527  3410A     54.121092  3411A     55.790379  
    3412A     58.497042  3413A     61.844050  3414A     63.920991  
    3415A     64.450246  3416A     65.012066  3417A     67.143807  

    Final Occupation by Irrep:
              A 
    DOCC [   171 ]
    NA   [   171 ]
    NB   [   171 ]

  @DF-RKS Final Energy: -2069.67203973332334

   => Energetics <=

    Nuclear Repulsion Energy =           6437.5704077034797592
    One-Electron Energy =              -15617.1726296455944976
    Two-Electron Energy =                7353.1873474004141826
    DFT Exchange-Correlation Energy =    -243.1691699052464060
    Empirical Dispersion Energy =          -0.0879952863774800
    VV10 Nonlocal Energy =                  0.0000000000000000
    Total Energy =                      -2069.6720397333233450

Computation Completed


Properties will be evaluated at   0.000000,   0.000000,   0.000000 [a0]

Properties computed using the SCF density matrix


 Multipole Moments:

 ------------------------------------------------------------------------------------
     Multipole            Electronic (a.u.)      Nuclear  (a.u.)        Total (a.u.)
 ------------------------------------------------------------------------------------

 L = 1.  Multiply by 2.5417464519 to convert [e a0] to [Debye]
 Dipole X            :       -121.1007555          121.0879809           -0.0127747
 Dipole Y            :        -21.8719417           21.8716903           -0.0002514
 Dipole Z            :        340.3640973         -340.2300709            0.1340264
 Magnitude           :                                                    0.1346341

 ------------------------------------------------------------------------------------

*** tstop() called on atl1-1-02-003-30-1.pace.gatech.edu at Sat Jun 13 20:27:25 2026
Module time:
	user time   =   44748.12 seconds =     745.80 minutes
	system time =    2317.48 seconds =      38.62 minutes
	total time  =       6530 seconds =     108.83 minutes
Total time:
	user time   =   44748.12 seconds =     745.80 minutes
	system time =    2317.48 seconds =      38.62 minutes
	total time  =       6530 seconds =     108.83 minutes

    Psi4 stopped on: Saturday, 13 June 2026 08:27PM
    Psi4 wall time for execution: 1:49:00.43

*** Psi4 exiting successfully. Buy a developer a beer!
