
    -----------------------------------------------------------------------
          Psi4: An Open-Source Ab Initio Electronic Structure Package
                               Psi4 1.9.1 release

                         Git: Rev {} zzzzzzz 


    D. G. A. Smith, L. A. Burns, A. C. Simmonett, R. M. Parrish,
    M. C. Schieber, R. Galvelis, P. Kraus, H. Kruse, R. Di Remigio,
    A. Alenaizan, A. M. James, S. Lehtola, J. P. Misiewicz, M. Scheurer,
    R. A. Shaw, J. B. Schriber, Y. Xie, Z. L. Glick, D. A. Sirianni,
    J. S. O'Brien, J. M. Waldrop, A. Kumar, E. G. Hohenstein,
    B. P. Pritchard, B. R. Brooks, H. F. Schaefer III, A. Yu. Sokolov,
    K. Patkowski, A. E. DePrince III, U. Bozkaya, R. A. King,
    F. A. Evangelista, J. M. Turney, T. D. Crawford, C. D. Sherrill,
    J. Chem. Phys. 152(18) 184108 (2020). https://doi.org/10.1063/5.0006002

                            Additional Code Authors
    E. T. Seidl, C. L. Janssen, E. F. Valeev, M. L. Leininger,
    J. F. Gonthier, R. M. Richard, H. R. McAlexander, M. Saitow, X. Wang,
    P. Verma, M. H. Lechner, A. Jiang, S. Behnle, A. G. Heide,
    M. F. Herbst, and D. L. Poole

             Previous Authors, Complete List of Code Contributors,
                       and Citations for Specific Modules
    https://github.com/psi4/psi4/blob/master/codemeta.json
    https://github.com/psi4/psi4/graphs/contributors
    http://psicode.org/psi4manual/master/introduction.html#citing-psifour

    -----------------------------------------------------------------------


    Psi4 started on: Monday, 15 June 2026 11:34AM

    Process ID: 662746
    Host:       atl1-1-03-004-11-1.pace.gatech.edu
    PSIDATADIR: /storage/home/hcoda1/5/vlita3/.conda/envs/p4_qcml/share/psi4
    Memory:     250.0 GiB
    Threads:    10
    
  ==> Input QCSchema <==

--------------------------------------------------------------------------
{'driver': 'energy',
 'extras': {},
 'id': '345',
 'keywords': {},
 'model': {'basis': 'aug-cc-pvtz', 'method': 'b3lyp-d3'},
 'molecule': {'extras': {},
              'fix_com': True,
              'fix_orientation': True,
              'fragment_charges': [0.0, 0.0],
              'fragment_multiplicities': [1, 1],
              'fragments': [[0, 1, 2, 3, 4, 5, 6, 7, 8, 9, 10, 11, 12, 13, 14, 15, 16, 17, 18, 19, 20, 21, 22, 23, 24,
                             25, 26, 27, 28, 29, 30, 31, 32, 33, 34, 35, 36, 37, 38, 39, 40, 41, 42, 43],
                            [44, 45, 46, 47, 48, 49, 50, 51, 52, 53, 54, 55, 56, 57, 58, 59, 60, 61, 62, 63, 64, 65, 66,
                             67, 68, 69, 70, 71, 72, 73, 74, 75, 76, 77, 78, 79, 80, 81, 82, 83, 84, 85, 86, 87]],
              'geometry': [25.47963781, 23.08351049, 43.1296896, 24.89690954, 20.52012331, 43.887087, 25.07057198,
                           18.48699404, 42.07353641, 25.8424877, 19.04880944, 39.52013663, 26.46903607, 21.61452675,
                           38.85199593, 26.30318821, 23.59330066, 40.54460103, 24.46577176, 15.9279092, 42.77036087,
                           23.76811717, 15.37695629, 45.40838081, 23.59859476, 17.38880058, 47.22265844, 24.1081018,
                           20.02007671, 46.44346413, 22.96694077, 16.77267612, 49.77192758, 22.51062738, 14.29130626,
                           50.58597185, 22.67427055, 12.32177999, 48.76231557, 23.27971306, 12.86309326, 46.25226043,
                           25.97467497, 17.0727052, 37.71068154, 25.34789586, 14.59123463, 38.39437083, 24.59969708,
                           14.0277518, 40.88784347, 25.20039992, 25.0588727, 44.92111126, 24.35321071, 24.59525103,
                           47.39946073, 23.84084877, 22.08099208, 48.12795237, 21.86046838, 13.69556932, 53.32235171,
                           24.04555383, 26.76370654, 49.27889773, 26.50915633, 27.41178979, 50.73375129, 26.93108599,
                           26.27094839, 39.72356046, 27.10311578, 21.98163565, 36.89906984, 22.32265299, 10.34583799,
                           49.33666834, 23.39372081, 11.28300305, 44.90489504, 26.57612038, 17.51973959, 35.76596134,
                           25.43664936, 13.06203906, 36.97800898, 24.12002947, 12.05854919, 41.3527408, 25.62817825,
                           27.01761767, 44.36171793, 23.18724332, 21.75219607, 50.07608394, 23.27013145, 12.38510294,
                           54.17857328, 21.79629273, 15.42803966, 54.50687769, 19.98705402, 12.74487252, 53.47527914,
                           22.53167906, 26.28198386, 50.6619148, 23.38069793, 28.48102898, 48.25612267, 27.19569266,
                           25.7565067, 51.83310019, 28.04156267, 27.96965392, 49.40821263, 28.39145441, 27.1428651,
                           40.95513515, 25.23456206, 27.51897461, 39.79892028, 27.66207922, 26.29954115, 37.75755015,
                           26.2022166, 29.00071195, 52.0780899, 22.83611537, 18.29134925, 51.1881473, 30.81342193,
                           18.71017989, 45.99359029, 31.5788239, 19.74555973, 43.58027113, 32.18922921, 22.39746574,
                           43.36009841, 32.04731473, 23.98056161, 45.57578145, 31.25562095, 22.88485355, 47.94186375,
                           30.64065655, 20.36296812, 48.19759324, 32.96098858, 23.46875558, 40.98068543, 32.9776879,
                           21.8498177, 38.71563215, 32.39688051, 19.20754673, 38.92783428, 31.75108262, 18.1119644,
                           41.41040042, 32.38510148, 17.70859001, 36.6883681, 32.89884869, 18.70388423, 34.28627015,
                           33.46045747, 21.32787429, 34.10603582, 33.50020544, 22.84413785, 36.26471359, 32.71084168,
                           26.57519902, 45.39430813, 33.51746054, 27.59229626, 43.0833912, 33.64071365, 26.05933156,
                           40.9078722, 30.26834315, 16.09166271, 46.16720061, 30.49746548, 14.47431826, 44.06910385,
                           31.23964841, 15.50757785, 41.72580743, 32.85245858, 17.05660123, 31.93007182, 30.0352396,
                           11.64386798, 44.33912194, 32.45644731, 10.16276856, 45.08627623, 29.83741229, 19.30937345,
                           50.74453249, 31.15944353, 24.13692378, 49.60598037, 33.86115259, 22.17547238, 32.24063318,
                           33.92403613, 24.86828461, 36.03931452, 32.60693264, 27.77144276, 47.1004289, 34.05705016,
                           29.60331272, 42.95688301, 34.27807476, 26.92308174, 39.12655219, 29.64722791, 15.28713696,
                           47.98302787, 31.38145507, 14.21615321, 40.10268471, 34.735737, 17.01308892, 30.98680081,
                           32.31443775, 15.0754773, 32.37170495, 31.48589123, 17.79122297, 30.50534659, 29.28049933,
                           10.88478084, 42.52649407, 28.54357618, 11.31799443, 45.78690148, 33.97269455, 10.41059171,
                           43.64975571, 33.2192207, 10.84125701, 46.92494523, 31.18221652, 17.84465276, 51.44063809,
                           27.94896357, 18.39273342, 50.64394079, 29.74125873, 20.82714016, 52.19033882, 32.06613232,
                           8.10297733, 45.26704002, 31.91846208, 15.68652669, 36.81860417],
              'id': 15,
              'identifiers': {'molecular_formula': 'C48H40',
                              'molecule_hash': '5e3296bad3c72e10e864464b8bcfe4a1199407a4'},
              'masses': [12.0, 12.0, 12.0, 12.0, 12.0, 12.0, 12.0, 12.0, 12.0, 12.0, 12.0, 12.0, 12.0, 12.0, 12.0, 12.0,
                         12.0, 12.0, 12.0, 12.0, 12.0, 12.0, 12.0, 12.0, 1.00782503223, 1.00782503223, 1.00782503223,
                         1.00782503223, 1.00782503223, 1.00782503223, 1.00782503223, 1.00782503223, 1.00782503223,
                         1.00782503223, 1.00782503223, 1.00782503223, 1.00782503223, 1.00782503223, 1.00782503223,
                         1.00782503223, 1.00782503223, 1.00782503223, 1.00782503223, 1.00782503223, 12.0, 12.0, 12.0,
                         12.0, 12.0, 12.0, 12.0, 12.0, 12.0, 12.0, 12.0, 12.0, 12.0, 12.0, 12.0, 12.0, 12.0, 12.0, 12.0,
                         12.0, 12.0, 12.0, 12.0, 12.0, 1.00782503223, 1.00782503223, 1.00782503223, 1.00782503223,
                         1.00782503223, 1.00782503223, 1.00782503223, 1.00782503223, 1.00782503223, 1.00782503223,
                         1.00782503223, 1.00782503223, 1.00782503223, 1.00782503223, 1.00782503223, 1.00782503223,
                         1.00782503223, 1.00782503223, 1.00782503223, 1.00782503223],
              'molecular_charge': 0.0,
              'molecular_multiplicity': 1,
              'name': 'C48H40 ([1],[0])',
              'provenance': {'creator': 'QCElemental',
                             'routine': 'qcelemental.molparse.from_schema',
                             'version': '0.29.0'},
              'real': [False, False, False, False, False, False, False, False, False, False, False, False, False, False,
                       False, False, False, False, False, False, False, False, False, False, False, False, False, False,
                       False, False, False, False, False, False, False, False, False, False, False, False, False, False,
                       False, False, True, True, True, True, True, True, True, True, True, True, True, True, True, True,
                       True, True, True, True, True, True, True, True, True, True, True, True, True, True, True, True,
                       True, True, True, True, True, True, True, True, True, True, True, True, True, True],
              'schema_name': 'qcschema_molecule',
              'schema_version': 2,
              'symbols': ['C', 'C', 'C', 'C', 'C', 'C', 'C', 'C', 'C', 'C', 'C', 'C', 'C', 'C', 'C', 'C', 'C', 'C', 'C',
                          'C', 'C', 'C', 'C', 'C', 'H', 'H', 'H', 'H', 'H', 'H', 'H', 'H', 'H', 'H', 'H', 'H', 'H', 'H',
                          'H', 'H', 'H', 'H', 'H', 'H', 'C', 'C', 'C', 'C', 'C', 'C', 'C', 'C', 'C', 'C', 'C', 'C', 'C',
                          'C', 'C', 'C', 'C', 'C', 'C', 'C', 'C', 'C', 'C', 'C', 'H', 'H', 'H', 'H', 'H', 'H', 'H', 'H',
                          'H', 'H', 'H', 'H', 'H', 'H', 'H', 'H', 'H', 'H', 'H', 'H'],
              'validated': True},
 'protocols': {},
 'provenance': {'creator': 'QCElemental', 'routine': 'qcelemental.models.results', 'version': '0.29.0'},
 'schema_name': 'qcschema_input',
 'schema_version': 1}
--------------------------------------------------------------------------

Scratch directory: /tmp/tmppuac670y_psi_scratch/
   => Libint2 <=

    Primary   basis highest AM E, G, H:  6, 6, 3
    Auxiliary basis highest AM E, G, H:  7, 7, 4
    Onebody   basis highest AM E, G, H:  -, -, -
    Solid Harmonics ordering:            Gaussian

*** tstart() called on atl1-1-03-004-11-1.pace.gatech.edu
*** at Mon Jun 15 11:34:37 2026

   => Loading Basis Set <=

    Name: AUG-CC-PVTZ
    Role: ORBITAL
    Keyword: BASIS
    atoms 1-24, 45-68  entry C          line   239 file /storage/home/hcoda1/5/vlita3/.conda/envs/p4_qcml/share/psi4/basis/aug-cc-pvtz.gbs 
    atoms 25-44, 69-88 entry H          line    40 file /storage/home/hcoda1/5/vlita3/.conda/envs/p4_qcml/share/psi4/basis/aug-cc-pvtz.gbs 

   => B3LYP-D3: Empirical Dispersion <=

    Grimme's -D3 (zero-damping) Dispersion Correction
    Grimme S.; Antony J.; Ehrlich S.; Krieg H. (2010), J. Chem. Phys., 132: 154104

        s6 =       1.000000
        s8 =       1.703000
       sr6 =       1.261000
    alpha6 =      14.000000
       sr8 =       1.000000


         ---------------------------------------------------------
                                   SCF
               by Justin Turney, Rob Parrish, Andy Simmonett
                          and Daniel G. A. Smith
                              RKS Reference
                       10 Threads, 256000 MiB Core
         ---------------------------------------------------------

  ==> Geometry <==

    Molecular point group: c1
    Full point group: C1

    Geometry (in Bohr), charge = 0, multiplicity = 1:

       Center              X                  Y                   Z               Mass       
    ------------   -----------------  -----------------  -----------------  -----------------
      Gh(C)          25.479637810000    23.083510490000    43.129689600000    12.000000000000
      Gh(C)          24.896909540000    20.520123310000    43.887087000000    12.000000000000
      Gh(C)          25.070571980000    18.486994040000    42.073536410000    12.000000000000
      Gh(C)          25.842487700000    19.048809440000    39.520136630000    12.000000000000
      Gh(C)          26.469036070000    21.614526750000    38.851995930000    12.000000000000
      Gh(C)          26.303188210000    23.593300660000    40.544601030000    12.000000000000
      Gh(C)          24.465771760000    15.927909200000    42.770360870000    12.000000000000
      Gh(C)          23.768117170000    15.376956290000    45.408380810000    12.000000000000
      Gh(C)          23.598594760000    17.388800580000    47.222658440000    12.000000000000
      Gh(C)          24.108101800000    20.020076710000    46.443464130000    12.000000000000
      Gh(C)          22.966940770000    16.772676120000    49.771927580000    12.000000000000
      Gh(C)          22.510627380000    14.291306260000    50.585971850000    12.000000000000
      Gh(C)          22.674270550000    12.321779990000    48.762315570000    12.000000000000
      Gh(C)          23.279713060000    12.863093260000    46.252260430000    12.000000000000
      Gh(C)          25.974674970000    17.072705200000    37.710681540000    12.000000000000
      Gh(C)          25.347895860000    14.591234630000    38.394370830000    12.000000000000
      Gh(C)          24.599697080000    14.027751800000    40.887843470000    12.000000000000
      Gh(C)          25.200399920000    25.058872700000    44.921111260000    12.000000000000
      Gh(C)          24.353210710000    24.595251030000    47.399460730000    12.000000000000
      Gh(C)          23.840848770000    22.080992080000    48.127952370000    12.000000000000
      Gh(C)          21.860468380000    13.695569320000    53.322351710000    12.000000000000
      Gh(C)          24.045553830000    26.763706540000    49.278897730000    12.000000000000
      Gh(C)          26.509156330000    27.411789790000    50.733751290000    12.000000000000
      Gh(C)          26.931085990000    26.270948390000    39.723560460000    12.000000000000
      Gh(H)          27.103115780000    21.981635650000    36.899069840000     1.007825032230
      Gh(H)          22.322652990000    10.345837990000    49.336668340000     1.007825032230
      Gh(H)          23.393720810000    11.283003050000    44.904895040000     1.007825032230
      Gh(H)          26.576120380000    17.519739590000    35.765961340000     1.007825032230
      Gh(H)          25.436649360000    13.062039060000    36.978008980000     1.007825032230
      Gh(H)          24.120029470000    12.058549190000    41.352740800000     1.007825032230
      Gh(H)          25.628178250000    27.017617670000    44.361717930000     1.007825032230
      Gh(H)          23.187243320000    21.752196070000    50.076083940000     1.007825032230
      Gh(H)          23.270131450000    12.385102940000    54.178573280000     1.007825032230
      Gh(H)          21.796292730000    15.428039660000    54.506877690000     1.007825032230
      Gh(H)          19.987054020000    12.744872520000    53.475279140000     1.007825032230
      Gh(H)          22.531679060000    26.281983860000    50.661914800000     1.007825032230
      Gh(H)          23.380697930000    28.481028980000    48.256122670000     1.007825032230
      Gh(H)          27.195692660000    25.756506700000    51.833100190000     1.007825032230
      Gh(H)          28.041562670000    27.969653920000    49.408212630000     1.007825032230
      Gh(H)          28.391454410000    27.142865100000    40.955135150000     1.007825032230
      Gh(H)          25.234562060000    27.518974610000    39.798920280000     1.007825032230
      Gh(H)          27.662079220000    26.299541150000    37.757550150000     1.007825032230
      Gh(H)          26.202216600000    29.000711950000    52.078089900000     1.007825032230
      Gh(H)          22.836115370000    18.291349250000    51.188147300000     1.007825032230
         C           30.813421930000    18.710179890000    45.993590290000    12.000000000000
         C           31.578823900000    19.745559730000    43.580271130000    12.000000000000
         C           32.189229210000    22.397465740000    43.360098410000    12.000000000000
         C           32.047314730000    23.980561610000    45.575781450000    12.000000000000
         C           31.255620950000    22.884853550000    47.941863750000    12.000000000000
         C           30.640656550000    20.362968120000    48.197593240000    12.000000000000
         C           32.960988580000    23.468755580000    40.980685430000    12.000000000000
         C           32.977687900000    21.849817700000    38.715632150000    12.000000000000
         C           32.396880510000    19.207546730000    38.927834280000    12.000000000000
         C           31.751082620000    18.111964400000    41.410400420000    12.000000000000
         C           32.385101480000    17.708590010000    36.688368100000    12.000000000000
         C           32.898848690000    18.703884230000    34.286270150000    12.000000000000
         C           33.460457470000    21.327874290000    34.106035820000    12.000000000000
         C           33.500205440000    22.844137850000    36.264713590000    12.000000000000
         C           32.710841680000    26.575199020000    45.394308130000    12.000000000000
         C           33.517460540000    27.592296260000    43.083391200000    12.000000000000
         C           33.640713650000    26.059331560000    40.907872200000    12.000000000000
         C           30.268343150000    16.091662710000    46.167200610000    12.000000000000
         C           30.497465480000    14.474318260000    44.069103850000    12.000000000000
         C           31.239648410000    15.507577850000    41.725807430000    12.000000000000
         C           32.852458580000    17.056601230000    31.930071820000    12.000000000000
         C           30.035239600000    11.643867980000    44.339121940000    12.000000000000
         C           32.456447310000    10.162768560000    45.086276230000    12.000000000000
         C           29.837412290000    19.309373450000    50.744532490000    12.000000000000
         H           31.159443530000    24.136923780000    49.605980370000     1.007825032230
         H           33.861152590000    22.175472380000    32.240633180000     1.007825032230
         H           33.924036130000    24.868284610000    36.039314520000     1.007825032230
         H           32.606932640000    27.771442760000    47.100428900000     1.007825032230
         H           34.057050160000    29.603312720000    42.956883010000     1.007825032230
         H           34.278074760000    26.923081740000    39.126552190000     1.007825032230
         H           29.647227910000    15.287136960000    47.983027870000     1.007825032230
         H           31.381455070000    14.216153210000    40.102684710000     1.007825032230
         H           34.735737000000    17.013088920000    30.986800810000     1.007825032230
         H           32.314437750000    15.075477300000    32.371704950000     1.007825032230
         H           31.485891230000    17.791222970000    30.505346590000     1.007825032230
         H           29.280499330000    10.884780840000    42.526494070000     1.007825032230
         H           28.543576180000    11.317994430000    45.786901480000     1.007825032230
         H           33.972694550000    10.410591710000    43.649755710000     1.007825032230
         H           33.219220700000    10.841257010000    46.924945230000     1.007825032230
         H           31.182216520000    17.844652760000    51.440638090000     1.007825032230
         H           27.948963570000    18.392733420000    50.643940790000     1.007825032230
         H           29.741258730000    20.827140160000    52.190338820000     1.007825032230
         H           32.066132320000     8.102977330000    45.267040020000     1.007825032230
         H           31.918462080000    15.686526690000    36.818604170000     1.007825032230

  Running in c1 symmetry.

  Rotational constants: A =      0.00210  B =      0.00003  C =      0.00003 [cm^-1]
  Rotational constants: A =     62.96897  B =      0.94325  C =      0.93874 [MHz]
  Nuclear repulsion = 1864.841208739238255

  Charge       = 0
  Multiplicity = 1
  Electrons    = 164
  Nalpha       = 82
  Nbeta        = 82

  ==> Algorithm <==

  SCF Algorithm Type is DF.
  DIIS enabled.
  MOM disabled.
  Fractional occupation disabled.
  Guess Type is SAD.
  Energy threshold   = 1.00e-06
  Density threshold  = 1.00e-06
  Integral threshold = 1.00e-12

  ==> Primary Basis <==

  Basis Set: AUG-CC-PVTZ
    Blend: AUG-CC-PVTZ
    Number of shells: 1032
    Number of basis functions: 3128
    Number of Cartesian functions: 3640
    Spherical Harmonics?: true
    Max angular momentum: 3

  ==> DFT Potential <==

   => LibXC <=

    Version 7.0.0
    S. Lehtola, C. Steigemann, M. J.T. Oliveira, and M. A.L. Marques.,  SoftwareX 7, 1–5 (2018) (10.1016/j.softx.2017.11.002)

   => Composite Functional: B3LYP-D3ZERO2B <= 

    B3LYP-d3zero2b Hyb-GGA Exchange-Correlation Functional

    P. J. Stephens, F. J. Devlin, C. F. Chabalowski, and M. J. Frisch.,  J. Phys. Chem. 98, 11623 (1994) (10.1021/j100096a001)

    Deriv               =              1
    GGA                 =           TRUE
    Meta                =          FALSE

    Exchange Hybrid     =           TRUE
    MP2 Hybrid          =          FALSE

   => Exchange Functionals <=

    0.0800   Slater exchange
    0.7200         Becke 88

   => Exact (HF) Exchange <=

    0.2000               HF 

   => Correlation Functionals <=

    0.1900   Vosko, Wilk & Nusair (VWN5_RPA)
    0.8100   Lee, Yang & Parr

   => LibXC Density Thresholds  <==

    XC_HYB_GGA_XC_B3LYP:  1.00E-15 

   => Molecular Quadrature <=

    Radial Scheme          =       TREUTLER
    Pruning Scheme         =           NONE
    Nuclear Scheme         =       TREUTLER

    Blocking Scheme        =         OCTREE
    BS radius alpha        =              1
    Pruning alpha          =              1
    Radial Points          =             75
    Spherical Points       =            302
    Total Points           =        1755895
    Total Blocks           =          12038
    Max Points             =            256
    Max Functions          =           2202
    Weights Tolerance      =       1.00E-15

   => Loading Basis Set <=

    Name: (AUG-CC-PVTZ AUX)
    Role: JKFIT
    Keyword: DF_BASIS_SCF
    atoms 1-24, 45-68  entry C          line   162 file /storage/home/hcoda1/5/vlita3/.conda/envs/p4_qcml/share/psi4/basis/aug-cc-pvtz-jkfit.gbs 
    atoms 25-44, 69-88 entry H          line    70 file /storage/home/hcoda1/5/vlita3/.conda/envs/p4_qcml/share/psi4/basis/aug-cc-pvtz-jkfit.gbs 

  ==> Integral Setup <==

  ==> DiskDFJK: Density-Fitted J/K Matrices <==

    J tasked:                  Yes
    K tasked:                  Yes
    wK tasked:                  No
    OpenMP threads:             10
    Integrals threads:          10
    Memory [MiB]:           172800
    Algorithm:                Disk
    Integral Cache:           NONE
    Schwarz Cutoff:          1E-12
    Fitting Condition:       1E-10

   => Auxiliary Basis Set <=

  Basis Set: (AUG-CC-PVTZ AUX)
    Blend: AUG-CC-PVTZ-JKFIT
    Number of shells: 2000
    Number of basis functions: 6832
    Number of Cartesian functions: 8488
    Spherical Harmonics?: true
    Max angular momentum: 4

  Minimum eigenvalue in the overlap matrix is 6.3711160731E-10.
  Reciprocal condition number of the overlap matrix is 1.7895063395E-11.
    Using canonical orthogonalization.
  Overall, 29 of 3128 possible MOs eliminated.


  ==> Pre-Iterations <==

  SCF Guess: Superposition of Atomic Densities via on-the-fly atomic UHF (no occupation information).

   -------------------------
    Irrep   Nso     Nmo    
   -------------------------
     A       3128    3099 
   -------------------------
    Total    3128    3099
   -------------------------

  ==> Iterations <==

                           Total Energy        Delta E     RMS |[F,P]|

   @DF-RKS iter SAD:  -925.99821836318472   -9.25998e+02   0.00000e+00 
   @DF-RKS iter   1:  -925.19861989544484    7.99598e-01   5.91907e-04 DIIS/ADIIS
   @DF-RKS iter   2:  -924.05709003161655    1.14153e+00   7.16763e-04 DIIS/ADIIS
   @DF-RKS iter   3:  -926.94995526379876   -2.89287e+00   1.11328e-04 DIIS/ADIIS
   @DF-RKS iter   4:  -926.96978638285077   -1.98311e-02   9.85800e-05 DIIS
   @DF-RKS iter   5:  -927.01900969270719   -4.92233e-02   2.62427e-05 DIIS
   @DF-RKS iter   6:  -927.02197534372499   -2.96565e-03   1.02158e-05 DIIS
   @DF-RKS iter   7:  -927.02244585974688   -4.70516e-04   3.39793e-06 DIIS
   @DF-RKS iter   8:  -927.02249959647474   -5.37367e-05   1.14845e-06 DIIS
   @DF-RKS iter   9:  -927.02250583398120   -6.23751e-06   5.13591e-07 DIIS
   @DF-RKS iter  10:  -927.02250719636629   -1.36239e-06   1.12549e-07 DIIS
   @DF-RKS iter  11:  -927.02250725205306   -5.56868e-08   3.77439e-08 DIIS
  Energy and wave function converged.


  ==> Post-Iterations <==

   Electrons on quadrature grid:
      Ntotal   =  163.9997404414 ; deviation = -2.596e-04 

    Orbital Energies [Eh]
    ---------------------

    Doubly Occupied:                                                      

       1A    -10.198861     2A    -10.198483     3A    -10.197891  
       4A    -10.196948     5A    -10.196165     6A    -10.195823  
       7A    -10.195757     8A    -10.195310     9A    -10.194469  
      10A    -10.193814    11A    -10.192033    12A    -10.187091  
      13A    -10.186481    14A    -10.185822    15A    -10.184630  
      16A    -10.184493    17A    -10.184360    18A    -10.183237  
      19A    -10.182626    20A    -10.182564    21A    -10.182509  
      22A    -10.181818    23A    -10.181453    24A    -10.175720  
      25A     -0.889645    26A     -0.857527    27A     -0.849722  
      28A     -0.819327    29A     -0.802479    30A     -0.781007  
      31A     -0.763660    32A     -0.759631    33A     -0.743854  
      34A     -0.719629    35A     -0.713685    36A     -0.686156  
      37A     -0.684357    38A     -0.641213    39A     -0.631217  
      40A     -0.613750    41A     -0.610060    42A     -0.599216  
      43A     -0.577299    44A     -0.542572    45A     -0.531351  
      46A     -0.521070    47A     -0.501785    48A     -0.491657  
      49A     -0.469670    50A     -0.466351    51A     -0.459588  
      52A     -0.448421    53A     -0.446133    54A     -0.433811  
      55A     -0.427143    56A     -0.423551    57A     -0.421001  
      58A     -0.418411    59A     -0.416108    60A     -0.408085  
      61A     -0.404924    62A     -0.400255    63A     -0.388293  
      64A     -0.386962    65A     -0.382318    66A     -0.377787  
      67A     -0.367965    68A     -0.364934    69A     -0.362921  
      70A     -0.354206    71A     -0.352963    72A     -0.348152  
      73A     -0.343977    74A     -0.320796    75A     -0.320027  
      76A     -0.309310    77A     -0.289254    78A     -0.287883  
      79A     -0.247135    80A     -0.246643    81A     -0.220854  
      82A     -0.204477  

    Virtual:                                                              

      83A     -0.065325    84A     -0.047809    85A     -0.032496  
      86A     -0.022889    87A     -0.014623    88A     -0.009365  
      89A     -0.007248    90A      0.000576    91A      0.003652  
      92A      0.004200    93A      0.011927    94A      0.013964  
      95A      0.015522    96A      0.017554    97A      0.017733  
      98A      0.021280    99A      0.023947   100A      0.026639  
     101A      0.027874   102A      0.028752   103A      0.031314  
     104A      0.031957   105A      0.033424   106A      0.034836  
     107A      0.037584   108A      0.038878   109A      0.042259  
     110A      0.042720   111A      0.045372   112A      0.045536  
     113A      0.047671   114A      0.049654   115A      0.050452  
     116A      0.051440   117A      0.053244   118A      0.054636  
     119A      0.057619   120A      0.059144   121A      0.060118  
     122A      0.060759   123A      0.060926   124A      0.062771  
     125A      0.064325   126A      0.065464   127A      0.067586  
     128A      0.068230   129A      0.070838   130A      0.072098  
     131A      0.073875   132A      0.076729   133A      0.076838  
     134A      0.077762   135A      0.078840   136A      0.080956  
     137A      0.082072   138A      0.082947   139A      0.083354  
     140A      0.085127   141A      0.086774   142A      0.088306  
     143A      0.088772   144A      0.090191   145A      0.093024  
     146A      0.094870   147A      0.095697   148A      0.095975  
     149A      0.098944   150A      0.099861   151A      0.100541  
     152A      0.101559   153A      0.102648   154A      0.103601  
     155A      0.105084   156A      0.105251   157A      0.108520  
     158A      0.109385   159A      0.110867   160A      0.112196  
     161A      0.112537   162A      0.112935   163A      0.115102  
     164A      0.115772   165A      0.116867   166A      0.119261  
     167A      0.119700   168A      0.120774   169A      0.122746  
     170A      0.123612   171A      0.125374   172A      0.126750  
     173A      0.127992   174A      0.128729   175A      0.129472  
     176A      0.131076   177A      0.132374   178A      0.132952  
     179A      0.134652   180A      0.135604   181A      0.136690  
     182A      0.139408   183A      0.140577   184A      0.141517  
     185A      0.144006   186A      0.145189   187A      0.147066  
     188A      0.147865   189A      0.148686   190A      0.149531  
     191A      0.150147   192A      0.152202   193A      0.154032  
     194A      0.154878   195A      0.157113   196A      0.157839  
     197A      0.158459   198A      0.159673   199A      0.161017  
     200A      0.161385   201A      0.162772   202A      0.165167  
     203A      0.166680   204A      0.166754   205A      0.167685  
     206A      0.170760   207A      0.171176   208A      0.173125  
     209A      0.173830   210A      0.175330   211A      0.177612  
     212A      0.179691   213A      0.180342   214A      0.181893  
     215A      0.183665   216A      0.183944   217A      0.185350  
     218A      0.185827   219A      0.186344   220A      0.188066  
     221A      0.188902   222A      0.190123   223A      0.190919  
     224A      0.192021   225A      0.192589   226A      0.193720  
     227A      0.195640   228A      0.196929   229A      0.197989  
     230A      0.199173   231A      0.200989   232A      0.202161  
     233A      0.204309   234A      0.205003   235A      0.205927  
     236A      0.206372   237A      0.207442   238A      0.207717  
     239A      0.208951   240A      0.209574   241A      0.211353  
     242A      0.212587   243A      0.212772   244A      0.214064  
     245A      0.215266   246A      0.216186   247A      0.216791  
     248A      0.218772   249A      0.219107   250A      0.219986  
     251A      0.221011   252A      0.221612   253A      0.222684  
     254A      0.225421   255A      0.227849   256A      0.228288  
     257A      0.228954   258A      0.229411   259A      0.230096  
     260A      0.230626   261A      0.232015   262A      0.232504  
     263A      0.234818   264A      0.236061   265A      0.237466  
     266A      0.237981   267A      0.238484   268A      0.240597  
     269A      0.241444   270A      0.242738   271A      0.243816  
     272A      0.246013   273A      0.247219   274A      0.248140  
     275A      0.249028   276A      0.250459   277A      0.250882  
     278A      0.252264   279A      0.255099   280A      0.256356  
     281A      0.258147   282A      0.259045   283A      0.260064  
     284A      0.260847   285A      0.261147   286A      0.262899  
     287A      0.263280   288A      0.264451   289A      0.265916  
     290A      0.266546   291A      0.267904   292A      0.268262  
     293A      0.270452   294A      0.272275   295A      0.272984  
     296A      0.275336   297A      0.275783   298A      0.276629  
     299A      0.277133   300A      0.278134   301A      0.280313  
     302A      0.281586   303A      0.282917   304A      0.283563  
     305A      0.284634   306A      0.284713   307A      0.287361  
     308A      0.288534   309A      0.289509   310A      0.290886  
     311A      0.292573   312A      0.294184   313A      0.295375  
     314A      0.296740   315A      0.298110   316A      0.299721  
     317A      0.300899   318A      0.301628   319A      0.302527  
     320A      0.303977   321A      0.305339   322A      0.306191  
     323A      0.307914   324A      0.308521   325A      0.309255  
     326A      0.311844   327A      0.313078   328A      0.313457  
     329A      0.313546   330A      0.316552   331A      0.317548  
     332A      0.318812   333A      0.319576   334A      0.320428  
     335A      0.323074   336A      0.323981   337A      0.324547  
     338A      0.325238   339A      0.326844   340A      0.327754  
     341A      0.328838   342A      0.331704   343A      0.332657  
     344A      0.333179   345A      0.334055   346A      0.336021  
     347A      0.338297   348A      0.339692   349A      0.340904  
     350A      0.342928   351A      0.343869   352A      0.344413  
     353A      0.346519   354A      0.347959   355A      0.348790  
     356A      0.351313   357A      0.353073   358A      0.353609  
     359A      0.355713   360A      0.356379   361A      0.357492  
     362A      0.358491   363A      0.360620   364A      0.361188  
     365A      0.362513   366A      0.362929   367A      0.365136  
     368A      0.366942   369A      0.367541   370A      0.369154  
     371A      0.369543   372A      0.370497   373A      0.372959  
     374A      0.373904   375A      0.375114   376A      0.376875  
     377A      0.379241   378A      0.380052   379A      0.380906  
     380A      0.381248   381A      0.383755   382A      0.384733  
     383A      0.386513   384A      0.387867   385A      0.389734  
     386A      0.390107   387A      0.392525   388A      0.393939  
     389A      0.394586   390A      0.396265   391A      0.399192  
     392A      0.400562   393A      0.401098   394A      0.401804  
     395A      0.402238   396A      0.403676   397A      0.405249  
     398A      0.406243   399A      0.406919   400A      0.407869  
     401A      0.409376   402A      0.411591   403A      0.412122  
     404A      0.413326   405A      0.414353   406A      0.416121  
     407A      0.417226   408A      0.418352   409A      0.419711  
     410A      0.420440   411A      0.421651   412A      0.422720  
     413A      0.424200   414A      0.425658   415A      0.426915  
     416A      0.428703   417A      0.429320   418A      0.430797  
     419A      0.432724   420A      0.434687   421A      0.436648  
     422A      0.437247   423A      0.438074   424A      0.440048  
     425A      0.441082   426A      0.441996   427A      0.442504  
     428A      0.444164   429A      0.444663   430A      0.445737  
     431A      0.446046   432A      0.449886   433A      0.450120  
     434A      0.450621   435A      0.451469   436A      0.451941  
     437A      0.453498   438A      0.454364   439A      0.454619  
     440A      0.457137   441A      0.457584   442A      0.458980  
     443A      0.461510   444A      0.462245   445A      0.463958  
     446A      0.464486   447A      0.465066   448A      0.466285  
     449A      0.467489   450A      0.468428   451A      0.468631  
     452A      0.470422   453A      0.470964   454A      0.472318  
     455A      0.473260   456A      0.475210   457A      0.476441  
     458A      0.477688   459A      0.478585   460A      0.479048  
     461A      0.480875   462A      0.481696   463A      0.483308  
     464A      0.484980   465A      0.485390   466A      0.485741  
     467A      0.487988   468A      0.490079   469A      0.491085  
     470A      0.491337   471A      0.492556   472A      0.493667  
     473A      0.494051   474A      0.495316   475A      0.497304  
     476A      0.499352   477A      0.500668   478A      0.502032  
     479A      0.502985   480A      0.503473   481A      0.504141  
     482A      0.505757   483A      0.507615   484A      0.508450  
     485A      0.510413   486A      0.511652   487A      0.512397  
     488A      0.513699   489A      0.515813   490A      0.516940  
     491A      0.517411   492A      0.519158   493A      0.519731  
     494A      0.522070   495A      0.523436   496A      0.524483  
     497A      0.525153   498A      0.527211   499A      0.528359  
     500A      0.529096   501A      0.530519   502A      0.531734  
     503A      0.532241   504A      0.532854   505A      0.535035  
     506A      0.535729   507A      0.536707   508A      0.539569  
     509A      0.541341   510A      0.542603   511A      0.544832  
     512A      0.547134   513A      0.548831   514A      0.549305  
     515A      0.549807   516A      0.551018   517A      0.552948  
     518A      0.554015   519A      0.555753   520A      0.557558  
     521A      0.558192   522A      0.559231   523A      0.561266  
     524A      0.562551   525A      0.562960   526A      0.564947  
     527A      0.565920   528A      0.567506   529A      0.568552  
     530A      0.569164   531A      0.572512   532A      0.573792  
     533A      0.574611   534A      0.575883   535A      0.577492  
     536A      0.578246   537A      0.580987   538A      0.582478  
     539A      0.584498   540A      0.586029   541A      0.586566  
     542A      0.588254   543A      0.589056   544A      0.589978  
     545A      0.591631   546A      0.594942   547A      0.595114  
     548A      0.598248   549A      0.598808   550A      0.599354  
     551A      0.600466   552A      0.602897   553A      0.603751  
     554A      0.604831   555A      0.607569   556A      0.608821  
     557A      0.610363   558A      0.611085   559A      0.613514  
     560A      0.613834   561A      0.614264   562A      0.615331  
     563A      0.617747   564A      0.620340   565A      0.622212  
     566A      0.623385   567A      0.623946   568A      0.625682  
     569A      0.626880   570A      0.627980   571A      0.629269  
     572A      0.631382   573A      0.632409   574A      0.633362  
     575A      0.634550   576A      0.635279   577A      0.639898  
     578A      0.641301   579A      0.642268   580A      0.643501  
     581A      0.644699   582A      0.646588   583A      0.647860  
     584A      0.648425   585A      0.651238   586A      0.654125  
     587A      0.654968   588A      0.656047   589A      0.657303  
     590A      0.661025   591A      0.661280   592A      0.662846  
     593A      0.663582   594A      0.665156   595A      0.667609  
     596A      0.667929   597A      0.669505   598A      0.670131  
     599A      0.670679   600A      0.672847   601A      0.673889  
     602A      0.675540   603A      0.676426   604A      0.678850  
     605A      0.681347   606A      0.683131   607A      0.684143  
     608A      0.686510   609A      0.687840   610A      0.687893  
     611A      0.690240   612A      0.691549   613A      0.692416  
     614A      0.693197   615A      0.695256   616A      0.696925  
     617A      0.697269   618A      0.697591   619A      0.701100  
     620A      0.702274   621A      0.704067   622A      0.704956  
     623A      0.705903   624A      0.707747   625A      0.709389  
     626A      0.710839   627A      0.711531   628A      0.712791  
     629A      0.713929   630A      0.716064   631A      0.718019  
     632A      0.719213   633A      0.719679   634A      0.721923  
     635A      0.722960   636A      0.725235   637A      0.728206  
     638A      0.728792   639A      0.729659   640A      0.730423  
     641A      0.731811   642A      0.732939   643A      0.734286  
     644A      0.735481   645A      0.736614   646A      0.739052  
     647A      0.739746   648A      0.741011   649A      0.742522  
     650A      0.743769   651A      0.745168   652A      0.746903  
     653A      0.748304   654A      0.750107   655A      0.750177  
     656A      0.752169   657A      0.753197   658A      0.754978  
     659A      0.756365   660A      0.758584   661A      0.758762  
     662A      0.759668   663A      0.762352   664A      0.763291  
     665A      0.765280   666A      0.765725   667A      0.768722  
     668A      0.769799   669A      0.771221   670A      0.773485  
     671A      0.774247   672A      0.775702   673A      0.777054  
     674A      0.778769   675A      0.780335   676A      0.781656  
     677A      0.782012   678A      0.782965   679A      0.783796  
     680A      0.784060   681A      0.786979   682A      0.790113  
     683A      0.791787   684A      0.793116   685A      0.794306  
     686A      0.795487   687A      0.796142   688A      0.797256  
     689A      0.799643   690A      0.800541   691A      0.802427  
     692A      0.804471   693A      0.805121   694A      0.806733  
     695A      0.807714   696A      0.809671   697A      0.811225  
     698A      0.814464   699A      0.815222   700A      0.816069  
     701A      0.817055   702A      0.818427   703A      0.820710  
     704A      0.822024   705A      0.823392   706A      0.824783  
     707A      0.825995   708A      0.827735   709A      0.828523  
     710A      0.829044   711A      0.830808   712A      0.833296  
     713A      0.834208   714A      0.836096   715A      0.838065  
     716A      0.839517   717A      0.839879   718A      0.840026  
     719A      0.841098   720A      0.842966   721A      0.843411  
     722A      0.845081   723A      0.846856   724A      0.849877  
     725A      0.850136   726A      0.851633   727A      0.854391  
     728A      0.854937   729A      0.857168   730A      0.857312  
     731A      0.859344   732A      0.860781   733A      0.861143  
     734A      0.861450   735A      0.863128   736A      0.865058  
     737A      0.866556   738A      0.868357   739A      0.868990  
     740A      0.871181   741A      0.872474   742A      0.873620  
     743A      0.875986   744A      0.876641   745A      0.878471  
     746A      0.879286   747A      0.879501   748A      0.882710  
     749A      0.884280   750A      0.885209   751A      0.885600  
     752A      0.888369   753A      0.890272   754A      0.891624  
     755A      0.892836   756A      0.893328   757A      0.895621  
     758A      0.897340   759A      0.898325   760A      0.899434  
     761A      0.901531   762A      0.902136   763A      0.903844  
     764A      0.905148   765A      0.906821   766A      0.909111  
     767A      0.910720   768A      0.912517   769A      0.912965  
     770A      0.913451   771A      0.914604   772A      0.917180  
     773A      0.919368   774A      0.920069   775A      0.921269  
     776A      0.923775   777A      0.924999   778A      0.926289  
     779A      0.928229   780A      0.929747   781A      0.929865  
     782A      0.932233   783A      0.934008   784A      0.935548  
     785A      0.936587   786A      0.937994   787A      0.938206  
     788A      0.941639   789A      0.943551   790A      0.945382  
     791A      0.946079   792A      0.948905   793A      0.949903  
     794A      0.950566   795A      0.952720   796A      0.953595  
     797A      0.955853   798A      0.956730   799A      0.958083  
     800A      0.959647   801A      0.959902   802A      0.962451  
     803A      0.964737   804A      0.967151   805A      0.967553  
     806A      0.968767   807A      0.970196   808A      0.972988  
     809A      0.973871   810A      0.975615   811A      0.976247  
     812A      0.978033   813A      0.979875   814A      0.980243  
     815A      0.982618   816A      0.984679   817A      0.984838  
     818A      0.987584   819A      0.989233   820A      0.989535  
     821A      0.992549   822A      0.993516   823A      0.996209  
     824A      0.996648   825A      0.997460   826A      0.998479  
     827A      1.000655   828A      1.002314   829A      1.004032  
     830A      1.004664   831A      1.006014   832A      1.008282  
     833A      1.010414   834A      1.012302   835A      1.013930  
     836A      1.015556   837A      1.016412   838A      1.018674  
     839A      1.019454   840A      1.020710   841A      1.021683  
     842A      1.023285   843A      1.027253   844A      1.027797  
     845A      1.028162   846A      1.031006   847A      1.033293  
     848A      1.033778   849A      1.034388   850A      1.036483  
     851A      1.039213   852A      1.040161   853A      1.041934  
     854A      1.042740   855A      1.045052   856A      1.045280  
     857A      1.046234   858A      1.047225   859A      1.050961  
     860A      1.051581   861A      1.053118   862A      1.054538  
     863A      1.055977   864A      1.056894   865A      1.059787  
     866A      1.062680   867A      1.063342   868A      1.064116  
     869A      1.066481   870A      1.067654   871A      1.070299  
     872A      1.071624   873A      1.073047   874A      1.073615  
     875A      1.075859   876A      1.078022   877A      1.078679  
     878A      1.080570   879A      1.081564   880A      1.083072  
     881A      1.083620   882A      1.084176   883A      1.085519  
     884A      1.088300   885A      1.090309   886A      1.091448  
     887A      1.092748   888A      1.094806   889A      1.095353  
     890A      1.097349   891A      1.098087   892A      1.100255  
     893A      1.101999   894A      1.103252   895A      1.104557  
     896A      1.106829   897A      1.108134   898A      1.109418  
     899A      1.111500   900A      1.111813   901A      1.114987  
     902A      1.116225   903A      1.117526   904A      1.119645  
     905A      1.120566   906A      1.122040   907A      1.123983  
     908A      1.125450   909A      1.126662   910A      1.128694  
     911A      1.129765   912A      1.130070   913A      1.132024  
     914A      1.134349   915A      1.134877   916A      1.137082  
     917A      1.140002   918A      1.141071   919A      1.142849  
     920A      1.145620   921A      1.147517   922A      1.148533  
     923A      1.152042   924A      1.152788   925A      1.153007  
     926A      1.153762   927A      1.155518   928A      1.159101  
     929A      1.159584   930A      1.160862   931A      1.162729  
     932A      1.163483   933A      1.165768   934A      1.166663  
     935A      1.168579   936A      1.170950   937A      1.172379  
     938A      1.172990   939A      1.175045   940A      1.178222  
     941A      1.179433   942A      1.181008   943A      1.184066  
     944A      1.185848   945A      1.186825   946A      1.188086  
     947A      1.189754   948A      1.193124   949A      1.193353  
     950A      1.193721   951A      1.194895   952A      1.197420  
     953A      1.198540   954A      1.199520   955A      1.201391  
     956A      1.202774   957A      1.205161   958A      1.206184  
     959A      1.208261   960A      1.209605   961A      1.210664  
     962A      1.211150   963A      1.215020   964A      1.215806  
     965A      1.216803   966A      1.219057   967A      1.219879  
     968A      1.221998   969A      1.223678   970A      1.225146  
     971A      1.226839   972A      1.228382   973A      1.229557  
     974A      1.230998   975A      1.233210   976A      1.234185  
     977A      1.236852   978A      1.239652   979A      1.240226  
     980A      1.242886   981A      1.244199   982A      1.245978  
     983A      1.248223   984A      1.250006   985A      1.251084  
     986A      1.252777   987A      1.254336   988A      1.255541  
     989A      1.257233   990A      1.258312   991A      1.261764  
     992A      1.262004   993A      1.262953   994A      1.264725  
     995A      1.266276   996A      1.267656   997A      1.269616  
     998A      1.271152   999A      1.272036  1000A      1.272571  
    1001A      1.274112  1002A      1.275168  1003A      1.276352  
    1004A      1.279118  1005A      1.281155  1006A      1.282738  
    1007A      1.284136  1008A      1.285923  1009A      1.286678  
    1010A      1.289427  1011A      1.289866  1012A      1.291866  
    1013A      1.292962  1014A      1.294053  1015A      1.294590  
    1016A      1.298563  1017A      1.300180  1018A      1.300998  
    1019A      1.304823  1020A      1.305452  1021A      1.307120  
    1022A      1.308510  1023A      1.309761  1024A      1.311434  
    1025A      1.312909  1026A      1.315449  1027A      1.317000  
    1028A      1.317628  1029A      1.319467  1030A      1.320093  
    1031A      1.321875  1032A      1.323645  1033A      1.325874  
    1034A      1.328061  1035A      1.330409  1036A      1.331461  
    1037A      1.334079  1038A      1.334948  1039A      1.335944  
    1040A      1.338332  1041A      1.339380  1042A      1.340368  
    1043A      1.342199  1044A      1.344574  1045A      1.345399  
    1046A      1.346724  1047A      1.350251  1048A      1.350947  
    1049A      1.351889  1050A      1.353165  1051A      1.354876  
    1052A      1.355855  1053A      1.358631  1054A      1.359649  
    1055A      1.359958  1056A      1.361480  1057A      1.362519  
    1058A      1.363822  1059A      1.365164  1060A      1.368231  
    1061A      1.368442  1062A      1.371390  1063A      1.371879  
    1064A      1.372661  1065A      1.376564  1066A      1.377249  
    1067A      1.378365  1068A      1.380365  1069A      1.382138  
    1070A      1.382453  1071A      1.384106  1072A      1.386961  
    1073A      1.387757  1074A      1.389771  1075A      1.390865  
    1076A      1.391614  1077A      1.394637  1078A      1.395697  
    1079A      1.396551  1080A      1.399128  1081A      1.401467  
    1082A      1.402799  1083A      1.403720  1084A      1.406320  
    1085A      1.409903  1086A      1.410307  1087A      1.410459  
    1088A      1.412369  1089A      1.415486  1090A      1.416351  
    1091A      1.416908  1092A      1.419149  1093A      1.421263  
    1094A      1.421977  1095A      1.423137  1096A      1.424777  
    1097A      1.426217  1098A      1.427731  1099A      1.428633  
    1100A      1.430338  1101A      1.431482  1102A      1.432465  
    1103A      1.434021  1104A      1.435677  1105A      1.437387  
    1106A      1.437607  1107A      1.441001  1108A      1.441522  
    1109A      1.442054  1110A      1.444840  1111A      1.447302  
    1112A      1.447750  1113A      1.448596  1114A      1.451209  
    1115A      1.452270  1116A      1.454090  1117A      1.456926  
    1118A      1.458100  1119A      1.458693  1120A      1.460805  
    1121A      1.462574  1122A      1.464509  1123A      1.465191  
    1124A      1.466447  1125A      1.467516  1126A      1.469303  
    1127A      1.471674  1128A      1.474232  1129A      1.475656  
    1130A      1.476483  1131A      1.477258  1132A      1.479210  
    1133A      1.480382  1134A      1.481799  1135A      1.484108  
    1136A      1.484420  1137A      1.487662  1138A      1.489402  
    1139A      1.489883  1140A      1.492168  1141A      1.493609  
    1142A      1.495495  1143A      1.497338  1144A      1.498360  
    1145A      1.499510  1146A      1.501349  1147A      1.502907  
    1148A      1.504817  1149A      1.506845  1150A      1.507005  
    1151A      1.508219  1152A      1.508702  1153A      1.511964  
    1154A      1.512266  1155A      1.514167  1156A      1.516257  
    1157A      1.516730  1158A      1.518210  1159A      1.519224  
    1160A      1.521253  1161A      1.524830  1162A      1.526324  
    1163A      1.528571  1164A      1.528837  1165A      1.530389  
    1166A      1.532056  1167A      1.533192  1168A      1.535329  
    1169A      1.537908  1170A      1.538078  1171A      1.539649  
    1172A      1.541498  1173A      1.542643  1174A      1.544156  
    1175A      1.544607  1176A      1.546453  1177A      1.547458  
    1178A      1.548837  1179A      1.549713  1180A      1.554102  
    1181A      1.554447  1182A      1.555141  1183A      1.558383  
    1184A      1.558633  1185A      1.559567  1186A      1.561897  
    1187A      1.564004  1188A      1.565086  1189A      1.566531  
    1190A      1.568197  1191A      1.570945  1192A      1.572252  
    1193A      1.573703  1194A      1.575764  1195A      1.576144  
    1196A      1.577763  1197A      1.579974  1198A      1.581609  
    1199A      1.582258  1200A      1.583074  1201A      1.583710  
    1202A      1.585201  1203A      1.585786  1204A      1.588627  
    1205A      1.590544  1206A      1.591835  1207A      1.593836  
    1208A      1.594990  1209A      1.596384  1210A      1.599638  
    1211A      1.602128  1212A      1.604083  1213A      1.604830  
    1214A      1.605486  1215A      1.608163  1216A      1.610045  
    1217A      1.611923  1218A      1.612697  1219A      1.614146  
    1220A      1.615068  1221A      1.617273  1222A      1.618216  
    1223A      1.620876  1224A      1.622364  1225A      1.625386  
    1226A      1.626556  1227A      1.627833  1228A      1.629854  
    1229A      1.631031  1230A      1.632047  1231A      1.633836  
    1232A      1.635517  1233A      1.637361  1234A      1.638955  
    1235A      1.639660  1236A      1.642233  1237A      1.645992  
    1238A      1.646596  1239A      1.648511  1240A      1.650453  
    1241A      1.651105  1242A      1.652180  1243A      1.652496  
    1244A      1.654012  1245A      1.654458  1246A      1.657094  
    1247A      1.657898  1248A      1.660760  1249A      1.662578  
    1250A      1.665801  1251A      1.665960  1252A      1.666684  
    1253A      1.669838  1254A      1.670969  1255A      1.671372  
    1256A      1.672262  1257A      1.674492  1258A      1.678341  
    1259A      1.678504  1260A      1.679291  1261A      1.682322  
    1262A      1.684868  1263A      1.685706  1264A      1.686654  
    1265A      1.687592  1266A      1.689353  1267A      1.690314  
    1268A      1.691300  1269A      1.693718  1270A      1.696494  
    1271A      1.699962  1272A      1.701285  1273A      1.704476  
    1274A      1.705495  1275A      1.706820  1276A      1.707935  
    1277A      1.709597  1278A      1.710552  1279A      1.713087  
    1280A      1.714863  1281A      1.716682  1282A      1.718616  
    1283A      1.718717  1284A      1.719845  1285A      1.720591  
    1286A      1.724637  1287A      1.725944  1288A      1.729188  
    1289A      1.729963  1290A      1.733428  1291A      1.733878  
    1292A      1.735388  1293A      1.735813  1294A      1.738123  
    1295A      1.740629  1296A      1.742375  1297A      1.743881  
    1298A      1.744727  1299A      1.746718  1300A      1.748750  
    1301A      1.749695  1302A      1.752586  1303A      1.754760  
    1304A      1.756817  1305A      1.758156  1306A      1.760296  
    1307A      1.760898  1308A      1.762258  1309A      1.765235  
    1310A      1.765908  1311A      1.768687  1312A      1.769794  
    1313A      1.771445  1314A      1.774360  1315A      1.777129  
    1316A      1.777680  1317A      1.780939  1318A      1.781241  
    1319A      1.782633  1320A      1.784376  1321A      1.787374  
    1322A      1.788625  1323A      1.789438  1324A      1.792054  
    1325A      1.794695  1326A      1.795222  1327A      1.797107  
    1328A      1.799759  1329A      1.800769  1330A      1.801571  
    1331A      1.803321  1332A      1.805965  1333A      1.807255  
    1334A      1.807694  1335A      1.810672  1336A      1.814555  
    1337A      1.816771  1338A      1.818304  1339A      1.818802  
    1340A      1.821250  1341A      1.825041  1342A      1.825682  
    1343A      1.827862  1344A      1.828678  1345A      1.830294  
    1346A      1.832551  1347A      1.833306  1348A      1.835993  
    1349A      1.837768  1350A      1.838507  1351A      1.840962  
    1352A      1.841118  1353A      1.843336  1354A      1.847495  
    1355A      1.847556  1356A      1.848768  1357A      1.850641  
    1358A      1.854905  1359A      1.855272  1360A      1.855446  
    1361A      1.856499  1362A      1.861118  1363A      1.862004  
    1364A      1.862137  1365A      1.866294  1366A      1.868588  
    1367A      1.869127  1368A      1.871530  1369A      1.872493  
    1370A      1.873118  1371A      1.876125  1372A      1.877223  
    1373A      1.881556  1374A      1.883358  1375A      1.885066  
    1376A      1.886221  1377A      1.888344  1378A      1.889753  
    1379A      1.891189  1380A      1.892003  1381A      1.892684  
    1382A      1.894831  1383A      1.897912  1384A      1.899608  
    1385A      1.900502  1386A      1.901996  1387A      1.905014  
    1388A      1.906423  1389A      1.906766  1390A      1.908977  
    1391A      1.912123  1392A      1.912913  1393A      1.914925  
    1394A      1.915230  1395A      1.917593  1396A      1.920135  
    1397A      1.921162  1398A      1.924495  1399A      1.926686  
    1400A      1.929609  1401A      1.930439  1402A      1.931529  
    1403A      1.933384  1404A      1.937132  1405A      1.937840  
    1406A      1.939492  1407A      1.940715  1408A      1.942544  
    1409A      1.944105  1410A      1.946417  1411A      1.947770  
    1412A      1.948577  1413A      1.950259  1414A      1.952804  
    1415A      1.953569  1416A      1.954699  1417A      1.960045  
    1418A      1.960308  1419A      1.962507  1420A      1.964710  
    1421A      1.965486  1422A      1.966226  1423A      1.971260  
    1424A      1.973189  1425A      1.974063  1426A      1.976121  
    1427A      1.977694  1428A      1.979937  1429A      1.981676  
    1430A      1.983651  1431A      1.985117  1432A      1.986916  
    1433A      1.989542  1434A      1.990983  1435A      1.992431  
    1436A      1.994834  1437A      1.996840  1438A      1.997384  
    1439A      2.000301  1440A      2.003019  1441A      2.005023  
    1442A      2.005782  1443A      2.009571  1444A      2.011177  
    1445A      2.012747  1446A      2.014162  1447A      2.015534  
    1448A      2.019595  1449A      2.020815  1450A      2.022812  
    1451A      2.024475  1452A      2.026332  1453A      2.027548  
    1454A      2.029008  1455A      2.031539  1456A      2.032672  
    1457A      2.037316  1458A      2.038290  1459A      2.038820  
    1460A      2.040760  1461A      2.042040  1462A      2.044059  
    1463A      2.048545  1464A      2.050353  1465A      2.051737  
    1466A      2.053070  1467A      2.053481  1468A      2.056469  
    1469A      2.057834  1470A      2.059120  1471A      2.061641  
    1472A      2.062476  1473A      2.064443  1474A      2.066648  
    1475A      2.070575  1476A      2.071232  1477A      2.073006  
    1478A      2.076136  1479A      2.078755  1480A      2.080047  
    1481A      2.080500  1482A      2.083235  1483A      2.084689  
    1484A      2.086520  1485A      2.087703  1486A      2.089026  
    1487A      2.094546  1488A      2.094972  1489A      2.095969  
    1490A      2.096976  1491A      2.100656  1492A      2.102347  
    1493A      2.104884  1494A      2.106094  1495A      2.108144  
    1496A      2.109455  1497A      2.110613  1498A      2.112518  
    1499A      2.112980  1500A      2.115378  1501A      2.119776  
    1502A      2.120442  1503A      2.125621  1504A      2.126557  
    1505A      2.128162  1506A      2.129533  1507A      2.134372  
    1508A      2.134905  1509A      2.137024  1510A      2.138313  
    1511A      2.142298  1512A      2.142913  1513A      2.144224  
    1514A      2.144849  1515A      2.147323  1516A      2.149006  
    1517A      2.149430  1518A      2.152317  1519A      2.155746  
    1520A      2.156164  1521A      2.161622  1522A      2.163571  
    1523A      2.163946  1524A      2.168853  1525A      2.169972  
    1526A      2.171683  1527A      2.173359  1528A      2.175638  
    1529A      2.179331  1530A      2.180944  1531A      2.183257  
    1532A      2.185015  1533A      2.189031  1534A      2.190756  
    1535A      2.191025  1536A      2.192778  1537A      2.194662  
    1538A      2.197634  1539A      2.201265  1540A      2.202126  
    1541A      2.207626  1542A      2.211421  1543A      2.211854  
    1544A      2.212581  1545A      2.215155  1546A      2.216387  
    1547A      2.218235  1548A      2.219909  1549A      2.221106  
    1550A      2.224221  1551A      2.225982  1552A      2.229981  
    1553A      2.232225  1554A      2.235759  1555A      2.237406  
    1556A      2.238000  1557A      2.240395  1558A      2.243148  
    1559A      2.244990  1560A      2.247105  1561A      2.248118  
    1562A      2.251438  1563A      2.253078  1564A      2.256585  
    1565A      2.259878  1566A      2.262393  1567A      2.264035  
    1568A      2.265645  1569A      2.267120  1570A      2.270429  
    1571A      2.272526  1572A      2.274914  1573A      2.276611  
    1574A      2.277814  1575A      2.278651  1576A      2.284073  
    1577A      2.285889  1578A      2.286936  1579A      2.287174  
    1580A      2.290303  1581A      2.292090  1582A      2.294197  
    1583A      2.298465  1584A      2.300247  1585A      2.302414  
    1586A      2.303828  1587A      2.307003  1588A      2.308499  
    1589A      2.310973  1590A      2.312619  1591A      2.314957  
    1592A      2.317615  1593A      2.320564  1594A      2.322596  
    1595A      2.325845  1596A      2.326520  1597A      2.328368  
    1598A      2.332281  1599A      2.334885  1600A      2.336157  
    1601A      2.339632  1602A      2.342618  1603A      2.345893  
    1604A      2.349486  1605A      2.350513  1606A      2.354966  
    1607A      2.355377  1608A      2.358898  1609A      2.360001  
    1610A      2.360474  1611A      2.363399  1612A      2.365102  
    1613A      2.370579  1614A      2.372570  1615A      2.374095  
    1616A      2.377994  1617A      2.379116  1618A      2.383170  
    1619A      2.383976  1620A      2.384651  1621A      2.388446  
    1622A      2.390502  1623A      2.395292  1624A      2.397118  
    1625A      2.399357  1626A      2.400149  1627A      2.402715  
    1628A      2.407169  1629A      2.410126  1630A      2.411280  
    1631A      2.415546  1632A      2.417942  1633A      2.419041  
    1634A      2.420084  1635A      2.422936  1636A      2.427831  
    1637A      2.428636  1638A      2.431167  1639A      2.435079  
    1640A      2.435453  1641A      2.439347  1642A      2.441018  
    1643A      2.443033  1644A      2.445951  1645A      2.447520  
    1646A      2.452175  1647A      2.452809  1648A      2.456310  
    1649A      2.460713  1650A      2.463217  1651A      2.464209  
    1652A      2.467873  1653A      2.469080  1654A      2.472169  
    1655A      2.472566  1656A      2.479319  1657A      2.482809  
    1658A      2.483510  1659A      2.484172  1660A      2.487098  
    1661A      2.492290  1662A      2.493933  1663A      2.495762  
    1664A      2.498032  1665A      2.500405  1666A      2.502364  
    1667A      2.505488  1668A      2.508741  1669A      2.512332  
    1670A      2.515763  1671A      2.517500  1672A      2.521379  
    1673A      2.523777  1674A      2.526428  1675A      2.527715  
    1676A      2.530318  1677A      2.531778  1678A      2.534033  
    1679A      2.538019  1680A      2.538774  1681A      2.540344  
    1682A      2.544131  1683A      2.548835  1684A      2.549305  
    1685A      2.551151  1686A      2.552821  1687A      2.557158  
    1688A      2.558643  1689A      2.561358  1690A      2.563295  
    1691A      2.567975  1692A      2.568632  1693A      2.570278  
    1694A      2.572852  1695A      2.581058  1696A      2.584757  
    1697A      2.586380  1698A      2.590580  1699A      2.592064  
    1700A      2.594545  1701A      2.597441  1702A      2.601886  
    1703A      2.603108  1704A      2.604613  1705A      2.608924  
    1706A      2.610737  1707A      2.612020  1708A      2.613043  
    1709A      2.616450  1710A      2.619000  1711A      2.620464  
    1712A      2.623381  1713A      2.628931  1714A      2.630641  
    1715A      2.633907  1716A      2.635690  1717A      2.638051  
    1718A      2.638552  1719A      2.643931  1720A      2.645460  
    1721A      2.646528  1722A      2.650675  1723A      2.651635  
    1724A      2.653490  1725A      2.656540  1726A      2.658507  
    1727A      2.664118  1728A      2.665013  1729A      2.668519  
    1730A      2.671243  1731A      2.676862  1732A      2.678077  
    1733A      2.679066  1734A      2.681352  1735A      2.683201  
    1736A      2.686989  1737A      2.688393  1738A      2.690511  
    1739A      2.691544  1740A      2.693105  1741A      2.701391  
    1742A      2.702183  1743A      2.706148  1744A      2.707153  
    1745A      2.710971  1746A      2.711964  1747A      2.717005  
    1748A      2.717542  1749A      2.719590  1750A      2.725342  
    1751A      2.729673  1752A      2.732179  1753A      2.734026  
    1754A      2.736102  1755A      2.736394  1756A      2.740451  
    1757A      2.744564  1758A      2.746179  1759A      2.751442  
    1760A      2.754523  1761A      2.755786  1762A      2.758196  
    1763A      2.759487  1764A      2.764212  1765A      2.766017  
    1766A      2.767037  1767A      2.768483  1768A      2.772183  
    1769A      2.773319  1770A      2.779070  1771A      2.785460  
    1772A      2.787560  1773A      2.791243  1774A      2.792760  
    1775A      2.793379  1776A      2.795614  1777A      2.801262  
    1778A      2.805076  1779A      2.807946  1780A      2.810727  
    1781A      2.814487  1782A      2.818193  1783A      2.821979  
    1784A      2.822962  1785A      2.825939  1786A      2.830377  
    1787A      2.831130  1788A      2.837117  1789A      2.838397  
    1790A      2.843206  1791A      2.846501  1792A      2.848871  
    1793A      2.850985  1794A      2.854627  1795A      2.859404  
    1796A      2.862250  1797A      2.865026  1798A      2.870310  
    1799A      2.875917  1800A      2.878558  1801A      2.878958  
    1802A      2.880868  1803A      2.884572  1804A      2.890278  
    1805A      2.894177  1806A      2.895267  1807A      2.901020  
    1808A      2.901887  1809A      2.906543  1810A      2.906911  
    1811A      2.908357  1812A      2.913589  1813A      2.919743  
    1814A      2.921813  1815A      2.923036  1816A      2.927557  
    1817A      2.931000  1818A      2.937077  1819A      2.940522  
    1820A      2.944805  1821A      2.947222  1822A      2.954097  
    1823A      2.958406  1824A      2.960459  1825A      2.964638  
    1826A      2.967728  1827A      2.970959  1828A      2.971414  
    1829A      2.979252  1830A      2.986491  1831A      2.988505  
    1832A      2.991789  1833A      2.994880  1834A      2.997363  
    1835A      3.000117  1836A      3.003645  1837A      3.010712  
    1838A      3.018952  1839A      3.021917  1840A      3.024375  
    1841A      3.030986  1842A      3.035782  1843A      3.039471  
    1844A      3.048518  1845A      3.050501  1846A      3.052249  
    1847A      3.056959  1848A      3.061065  1849A      3.063967  
    1850A      3.066828  1851A      3.075556  1852A      3.076681  
    1853A      3.081260  1854A      3.087885  1855A      3.091634  
    1856A      3.099938  1857A      3.101860  1858A      3.104874  
    1859A      3.107763  1860A      3.109175  1861A      3.112961  
    1862A      3.116589  1863A      3.122721  1864A      3.127460  
    1865A      3.129707  1866A      3.136968  1867A      3.142061  
    1868A      3.143064  1869A      3.145288  1870A      3.146634  
    1871A      3.152168  1872A      3.156250  1873A      3.160307  
    1874A      3.163903  1875A      3.168147  1876A      3.170251  
    1877A      3.175419  1878A      3.181627  1879A      3.184928  
    1880A      3.189174  1881A      3.193931  1882A      3.196268  
    1883A      3.199859  1884A      3.201568  1885A      3.209997  
    1886A      3.212776  1887A      3.214984  1888A      3.219245  
    1889A      3.221622  1890A      3.226783  1891A      3.230728  
    1892A      3.231228  1893A      3.240555  1894A      3.240631  
    1895A      3.243560  1896A      3.247289  1897A      3.249897  
    1898A      3.255853  1899A      3.257775  1900A      3.263859  
    1901A      3.265607  1902A      3.270784  1903A      3.273642  
    1904A      3.275697  1905A      3.277750  1906A      3.280634  
    1907A      3.282281  1908A      3.289180  1909A      3.291638  
    1910A      3.295605  1911A      3.299565  1912A      3.302423  
    1913A      3.306472  1914A      3.310995  1915A      3.313450  
    1916A      3.314641  1917A      3.319257  1918A      3.324998  
    1919A      3.325967  1920A      3.330335  1921A      3.334958  
    1922A      3.335994  1923A      3.340233  1924A      3.342378  
    1925A      3.347936  1926A      3.349581  1927A      3.353801  
    1928A      3.359064  1929A      3.359304  1930A      3.362855  
    1931A      3.364022  1932A      3.367656  1933A      3.371749  
    1934A      3.374159  1935A      3.376911  1936A      3.380318  
    1937A      3.383425  1938A      3.384707  1939A      3.385916  
    1940A      3.389191  1941A      3.393363  1942A      3.395642  
    1943A      3.399694  1944A      3.403509  1945A      3.405047  
    1946A      3.409509  1947A      3.410832  1948A      3.415705  
    1949A      3.418580  1950A      3.419376  1951A      3.426516  
    1952A      3.430114  1953A      3.430444  1954A      3.431327  
    1955A      3.433994  1956A      3.437417  1957A      3.438694  
    1958A      3.442750  1959A      3.445072  1960A      3.449017  
    1961A      3.452938  1962A      3.454862  1963A      3.457975  
    1964A      3.462751  1965A      3.466935  1966A      3.469054  
    1967A      3.471628  1968A      3.473916  1969A      3.477576  
    1970A      3.482061  1971A      3.482814  1972A      3.488607  
    1973A      3.491331  1974A      3.495354  1975A      3.496796  
    1976A      3.497374  1977A      3.502391  1978A      3.503755  
    1979A      3.507248  1980A      3.509210  1981A      3.511217  
    1982A      3.515084  1983A      3.517986  1984A      3.520206  
    1985A      3.523415  1986A      3.526532  1987A      3.528262  
    1988A      3.533091  1989A      3.535942  1990A      3.538900  
    1991A      3.540412  1992A      3.543767  1993A      3.546325  
    1994A      3.551268  1995A      3.555206  1996A      3.560171  
    1997A      3.561852  1998A      3.565019  1999A      3.568611  
    2000A      3.571516  2001A      3.573440  2002A      3.575444  
    2003A      3.577262  2004A      3.579512  2005A      3.586106  
    2006A      3.589490  2007A      3.591031  2008A      3.592727  
    2009A      3.594039  2010A      3.598319  2011A      3.602459  
    2012A      3.605412  2013A      3.608428  2014A      3.609604  
    2015A      3.613274  2016A      3.616003  2017A      3.619333  
    2018A      3.621010  2019A      3.624003  2020A      3.627841  
    2021A      3.633301  2022A      3.634115  2023A      3.638033  
    2024A      3.642136  2025A      3.646268  2026A      3.647751  
    2027A      3.650738  2028A      3.653488  2029A      3.657234  
    2030A      3.661009  2031A      3.661666  2032A      3.667753  
    2033A      3.668536  2034A      3.670175  2035A      3.676062  
    2036A      3.679713  2037A      3.681653  2038A      3.685698  
    2039A      3.688312  2040A      3.692360  2041A      3.694974  
    2042A      3.697690  2043A      3.698796  2044A      3.701881  
    2045A      3.709327  2046A      3.713596  2047A      3.713985  
    2048A      3.715230  2049A      3.716712  2050A      3.723466  
    2051A      3.724184  2052A      3.728274  2053A      3.732294  
    2054A      3.734085  2055A      3.738425  2056A      3.740462  
    2057A      3.743891  2058A      3.745769  2059A      3.751121  
    2060A      3.753206  2061A      3.756188  2062A      3.759537  
    2063A      3.762196  2064A      3.766496  2065A      3.768778  
    2066A      3.771893  2067A      3.776973  2068A      3.779835  
    2069A      3.781119  2070A      3.785547  2071A      3.789733  
    2072A      3.794578  2073A      3.795118  2074A      3.796210  
    2075A      3.801650  2076A      3.804163  2077A      3.806343  
    2078A      3.810154  2079A      3.815710  2080A      3.817612  
    2081A      3.820169  2082A      3.824256  2083A      3.829339  
    2084A      3.830824  2085A      3.833634  2086A      3.834928  
    2087A      3.837168  2088A      3.840187  2089A      3.841706  
    2090A      3.845681  2091A      3.852405  2092A      3.853140  
    2093A      3.857828  2094A      3.861003  2095A      3.862696  
    2096A      3.866317  2097A      3.869585  2098A      3.872405  
    2099A      3.876716  2100A      3.877565  2101A      3.879358  
    2102A      3.886365  2103A      3.889165  2104A      3.892151  
    2105A      3.897270  2106A      3.900179  2107A      3.902743  
    2108A      3.904809  2109A      3.910315  2110A      3.913249  
    2111A      3.915928  2112A      3.917883  2113A      3.922196  
    2114A      3.927042  2115A      3.930087  2116A      3.932797  
    2117A      3.937424  2118A      3.938192  2119A      3.946464  
    2120A      3.947708  2121A      3.950092  2122A      3.957278  
    2123A      3.960574  2124A      3.964277  2125A      3.965580  
    2126A      3.970568  2127A      3.972462  2128A      3.973670  
    2129A      3.978401  2130A      3.983023  2131A      3.984193  
    2132A      3.988670  2133A      3.993513  2134A      3.994799  
    2135A      3.995988  2136A      4.002610  2137A      4.007571  
    2138A      4.009572  2139A      4.012038  2140A      4.015930  
    2141A      4.018497  2142A      4.021012  2143A      4.024182  
    2144A      4.026594  2145A      4.029135  2146A      4.029516  
    2147A      4.032641  2148A      4.033715  2149A      4.038614  
    2150A      4.043354  2151A      4.048312  2152A      4.052902  
    2153A      4.054577  2154A      4.058158  2155A      4.062190  
    2156A      4.064341  2157A      4.068126  2158A      4.068819  
    2159A      4.073116  2160A      4.076636  2161A      4.081248  
    2162A      4.082059  2163A      4.083214  2164A      4.088883  
    2165A      4.091076  2166A      4.093490  2167A      4.099897  
    2168A      4.100636  2169A      4.101361  2170A      4.106566  
    2171A      4.106978  2172A      4.112212  2173A      4.116126  
    2174A      4.117349  2175A      4.122313  2176A      4.125110  
    2177A      4.126557  2178A      4.129614  2179A      4.135958  
    2180A      4.139901  2181A      4.142586  2182A      4.143084  
    2183A      4.146413  2184A      4.149041  2185A      4.150636  
    2186A      4.151924  2187A      4.153393  2188A      4.157563  
    2189A      4.161273  2190A      4.165430  2191A      4.166937  
    2192A      4.171577  2193A      4.175099  2194A      4.176177  
    2195A      4.179155  2196A      4.181037  2197A      4.185484  
    2198A      4.187414  2199A      4.191148  2200A      4.192929  
    2201A      4.193628  2202A      4.198287  2203A      4.200198  
    2204A      4.200944  2205A      4.202655  2206A      4.205164  
    2207A      4.211577  2208A      4.213443  2209A      4.214403  
    2210A      4.216008  2211A      4.220249  2212A      4.222494  
    2213A      4.223729  2214A      4.226872  2215A      4.227285  
    2216A      4.231923  2217A      4.232783  2218A      4.235274  
    2219A      4.239702  2220A      4.241641  2221A      4.245843  
    2222A      4.251159  2223A      4.253486  2224A      4.254155  
    2225A      4.255316  2226A      4.258454  2227A      4.263855  
    2228A      4.267035  2229A      4.267895  2230A      4.269155  
    2231A      4.272232  2232A      4.273695  2233A      4.278010  
    2234A      4.281560  2235A      4.283141  2236A      4.284612  
    2237A      4.287185  2238A      4.289020  2239A      4.291538  
    2240A      4.295335  2241A      4.297344  2242A      4.299441  
    2243A      4.300814  2244A      4.304071  2245A      4.306296  
    2246A      4.307780  2247A      4.309565  2248A      4.312091  
    2249A      4.313966  2250A      4.314901  2251A      4.317667  
    2252A      4.321095  2253A      4.323386  2254A      4.326918  
    2255A      4.331757  2256A      4.332463  2257A      4.336485  
    2258A      4.338169  2259A      4.338878  2260A      4.341151  
    2261A      4.341538  2262A      4.342995  2263A      4.346118  
    2264A      4.348758  2265A      4.351086  2266A      4.354981  
    2267A      4.357905  2268A      4.361947  2269A      4.362874  
    2270A      4.366489  2271A      4.369322  2272A      4.371287  
    2273A      4.372484  2274A      4.374439  2275A      4.377499  
    2276A      4.380419  2277A      4.380952  2278A      4.382350  
    2279A      4.384140  2280A      4.390938  2281A      4.392112  
    2282A      4.396975  2283A      4.398302  2284A      4.401131  
    2285A      4.402646  2286A      4.404153  2287A      4.406727  
    2288A      4.409490  2289A      4.410929  2290A      4.414225  
    2291A      4.415744  2292A      4.416221  2293A      4.418193  
    2294A      4.423007  2295A      4.423397  2296A      4.424984  
    2297A      4.426120  2298A      4.430506  2299A      4.432468  
    2300A      4.437675  2301A      4.438434  2302A      4.441293  
    2303A      4.443296  2304A      4.444748  2305A      4.447027  
    2306A      4.449553  2307A      4.450944  2308A      4.451630  
    2309A      4.456446  2310A      4.457924  2311A      4.459929  
    2312A      4.463132  2313A      4.466529  2314A      4.467358  
    2315A      4.469299  2316A      4.472544  2317A      4.476151  
    2318A      4.478164  2319A      4.484586  2320A      4.486262  
    2321A      4.488260  2322A      4.489595  2323A      4.490897  
    2324A      4.492810  2325A      4.495672  2326A      4.498521  
    2327A      4.500543  2328A      4.501921  2329A      4.503712  
    2330A      4.505289  2331A      4.508433  2332A      4.510601  
    2333A      4.511642  2334A      4.512673  2335A      4.514475  
    2336A      4.518437  2337A      4.522397  2338A      4.524667  
    2339A      4.525792  2340A      4.529993  2341A      4.530794  
    2342A      4.535545  2343A      4.536945  2344A      4.539822  
    2345A      4.542631  2346A      4.543270  2347A      4.549486  
    2348A      4.551269  2349A      4.555194  2350A      4.555626  
    2351A      4.557891  2352A      4.558461  2353A      4.561156  
    2354A      4.568179  2355A      4.568483  2356A      4.573966  
    2357A      4.574903  2358A      4.578556  2359A      4.579164  
    2360A      4.581644  2361A      4.586739  2362A      4.587355  
    2363A      4.590950  2364A      4.595103  2365A      4.596511  
    2366A      4.596898  2367A      4.599293  2368A      4.602245  
    2369A      4.605165  2370A      4.608234  2371A      4.609920  
    2372A      4.612885  2373A      4.616266  2374A      4.617462  
    2375A      4.621382  2376A      4.625475  2377A      4.626034  
    2378A      4.629334  2379A      4.631985  2380A      4.633065  
    2381A      4.636477  2382A      4.639944  2383A      4.645848  
    2384A      4.647466  2385A      4.649029  2386A      4.650408  
    2387A      4.653836  2388A      4.655590  2389A      4.657099  
    2390A      4.659704  2391A      4.661435  2392A      4.666722  
    2393A      4.669803  2394A      4.671368  2395A      4.673124  
    2396A      4.676374  2397A      4.680202  2398A      4.680612  
    2399A      4.685971  2400A      4.687979  2401A      4.690720  
    2402A      4.691719  2403A      4.693880  2404A      4.696744  
    2405A      4.700281  2406A      4.701636  2407A      4.705625  
    2408A      4.710743  2409A      4.712386  2410A      4.716418  
    2411A      4.718655  2412A      4.721524  2413A      4.724133  
    2414A      4.726307  2415A      4.729257  2416A      4.732817  
    2417A      4.734417  2418A      4.738098  2419A      4.739101  
    2420A      4.741635  2421A      4.742877  2422A      4.744600  
    2423A      4.749772  2424A      4.750608  2425A      4.755957  
    2426A      4.757669  2427A      4.761146  2428A      4.763529  
    2429A      4.764112  2430A      4.769374  2431A      4.770231  
    2432A      4.773007  2433A      4.776450  2434A      4.781779  
    2435A      4.783092  2436A      4.787222  2437A      4.787453  
    2438A      4.790775  2439A      4.792903  2440A      4.795283  
    2441A      4.796557  2442A      4.798830  2443A      4.802261  
    2444A      4.803365  2445A      4.812426  2446A      4.812941  
    2447A      4.813526  2448A      4.816953  2449A      4.819362  
    2450A      4.821355  2451A      4.825593  2452A      4.826604  
    2453A      4.831343  2454A      4.836105  2455A      4.837691  
    2456A      4.839564  2457A      4.841642  2458A      4.846583  
    2459A      4.848030  2460A      4.849869  2461A      4.851795  
    2462A      4.855363  2463A      4.857880  2464A      4.860071  
    2465A      4.864006  2466A      4.866904  2467A      4.869739  
    2468A      4.872364  2469A      4.875516  2470A      4.876592  
    2471A      4.879547  2472A      4.883369  2473A      4.886463  
    2474A      4.890858  2475A      4.893745  2476A      4.896009  
    2477A      4.897975  2478A      4.900226  2479A      4.905515  
    2480A      4.907160  2481A      4.909402  2482A      4.910708  
    2483A      4.914787  2484A      4.917287  2485A      4.918662  
    2486A      4.924622  2487A      4.926276  2488A      4.928310  
    2489A      4.933498  2490A      4.934030  2491A      4.939266  
    2492A      4.940888  2493A      4.944126  2494A      4.947077  
    2495A      4.949615  2496A      4.954078  2497A      4.954667  
    2498A      4.958933  2499A      4.961534  2500A      4.965927  
    2501A      4.968390  2502A      4.971160  2503A      4.971987  
    2504A      4.976797  2505A      4.977865  2506A      4.979983  
    2507A      4.985064  2508A      4.988619  2509A      4.991817  
    2510A      4.994735  2511A      4.996336  2512A      5.000170  
    2513A      5.003562  2514A      5.006945  2515A      5.009279  
    2516A      5.011758  2517A      5.012813  2518A      5.017146  
    2519A      5.020523  2520A      5.021996  2521A      5.022733  
    2522A      5.025808  2523A      5.027988  2524A      5.033514  
    2525A      5.035008  2526A      5.037946  2527A      5.042138  
    2528A      5.044861  2529A      5.048146  2530A      5.050162  
    2531A      5.053311  2532A      5.054822  2533A      5.056950  
    2534A      5.062167  2535A      5.065774  2536A      5.067558  
    2537A      5.071059  2538A      5.071945  2539A      5.075229  
    2540A      5.078688  2541A      5.081936  2542A      5.082858  
    2543A      5.083945  2544A      5.091459  2545A      5.095208  
    2546A      5.095621  2547A      5.101171  2548A      5.103882  
    2549A      5.104670  2550A      5.107621  2551A      5.111705  
    2552A      5.114352  2553A      5.118620  2554A      5.120899  
    2555A      5.121992  2556A      5.125666  2557A      5.127258  
    2558A      5.129951  2559A      5.134478  2560A      5.136985  
    2561A      5.140334  2562A      5.145405  2563A      5.147605  
    2564A      5.148635  2565A      5.153632  2566A      5.156978  
    2567A      5.159828  2568A      5.165239  2569A      5.171199  
    2570A      5.172394  2571A      5.175760  2572A      5.181516  
    2573A      5.185055  2574A      5.185894  2575A      5.189427  
    2576A      5.194360  2577A      5.195480  2578A      5.198782  
    2579A      5.205497  2580A      5.208231  2581A      5.210614  
    2582A      5.212520  2583A      5.218072  2584A      5.219934  
    2585A      5.224133  2586A      5.226526  2587A      5.230865  
    2588A      5.233861  2589A      5.238513  2590A      5.239964  
    2591A      5.242212  2592A      5.246417  2593A      5.246725  
    2594A      5.252657  2595A      5.252796  2596A      5.255192  
    2597A      5.256209  2598A      5.261484  2599A      5.262439  
    2600A      5.265687  2601A      5.270151  2602A      5.275839  
    2603A      5.280697  2604A      5.282977  2605A      5.284164  
    2606A      5.286054  2607A      5.289268  2608A      5.291318  
    2609A      5.299491  2610A      5.302589  2611A      5.305158  
    2612A      5.308445  2613A      5.311904  2614A      5.314261  
    2615A      5.316168  2616A      5.322891  2617A      5.324537  
    2618A      5.328992  2619A      5.331083  2620A      5.333668  
    2621A      5.337463  2622A      5.338819  2623A      5.341356  
    2624A      5.343637  2625A      5.349935  2626A      5.350449  
    2627A      5.357161  2628A      5.360873  2629A      5.363840  
    2630A      5.368383  2631A      5.371240  2632A      5.372485  
    2633A      5.378031  2634A      5.381914  2635A      5.385061  
    2636A      5.387737  2637A      5.389109  2638A      5.393031  
    2639A      5.396197  2640A      5.399251  2641A      5.402872  
    2642A      5.405856  2643A      5.410437  2644A      5.413531  
    2645A      5.415636  2646A      5.420170  2647A      5.430937  
    2648A      5.434505  2649A      5.434959  2650A      5.438166  
    2651A      5.439562  2652A      5.442837  2653A      5.447831  
    2654A      5.450057  2655A      5.454782  2656A      5.457469  
    2657A      5.460912  2658A      5.464251  2659A      5.474097  
    2660A      5.476136  2661A      5.479637  2662A      5.480265  
    2663A      5.487552  2664A      5.493820  2665A      5.495107  
    2666A      5.498332  2667A      5.502033  2668A      5.506014  
    2669A      5.507981  2670A      5.510088  2671A      5.515767  
    2672A      5.516547  2673A      5.525083  2674A      5.525808  
    2675A      5.530425  2676A      5.532680  2677A      5.536164  
    2678A      5.540255  2679A      5.543758  2680A      5.547803  
    2681A      5.553652  2682A      5.557741  2683A      5.561157  
    2684A      5.563082  2685A      5.568954  2686A      5.571547  
    2687A      5.574319  2688A      5.577741  2689A      5.579138  
    2690A      5.585094  2691A      5.586976  2692A      5.589983  
    2693A      5.592868  2694A      5.597126  2695A      5.601340  
    2696A      5.604240  2697A      5.606339  2698A      5.614495  
    2699A      5.615869  2700A      5.617019  2701A      5.622129  
    2702A      5.628347  2703A      5.633187  2704A      5.639183  
    2705A      5.644232  2706A      5.646012  2707A      5.650258  
    2708A      5.656432  2709A      5.658683  2710A      5.661266  
    2711A      5.667020  2712A      5.670435  2713A      5.671130  
    2714A      5.677850  2715A      5.681933  2716A      5.683390  
    2717A      5.686855  2718A      5.688225  2719A      5.696432  
    2720A      5.703241  2721A      5.705100  2722A      5.707641  
    2723A      5.711341  2724A      5.713379  2725A      5.715384  
    2726A      5.720824  2727A      5.724599  2728A      5.727388  
    2729A      5.731440  2730A      5.738656  2731A      5.741072  
    2732A      5.746703  2733A      5.752364  2734A      5.756045  
    2735A      5.758661  2736A      5.760806  2737A      5.766197  
    2738A      5.776928  2739A      5.785404  2740A      5.786911  
    2741A      5.788518  2742A      5.790441  2743A      5.797437  
    2744A      5.801617  2745A      5.804431  2746A      5.805858  
    2747A      5.813008  2748A      5.815844  2749A      5.820185  
    2750A      5.825675  2751A      5.833954  2752A      5.835593  
    2753A      5.839337  2754A      5.844076  2755A      5.849555  
    2756A      5.857232  2757A      5.859360  2758A      5.862207  
    2759A      5.864229  2760A      5.865760  2761A      5.877192  
    2762A      5.881892  2763A      5.886869  2764A      5.893451  
    2765A      5.894671  2766A      5.895963  2767A      5.899134  
    2768A      5.903590  2769A      5.908017  2770A      5.910367  
    2771A      5.920029  2772A      5.921005  2773A      5.932000  
    2774A      5.936748  2775A      5.938172  2776A      5.944718  
    2777A      5.947777  2778A      5.953449  2779A      5.962386  
    2780A      5.967255  2781A      5.969819  2782A      5.971158  
    2783A      5.978512  2784A      5.984051  2785A      5.987728  
    2786A      5.994095  2787A      5.996690  2788A      6.000074  
    2789A      6.002858  2790A      6.010955  2791A      6.013687  
    2792A      6.018256  2793A      6.024465  2794A      6.027783  
    2795A      6.033555  2796A      6.034959  2797A      6.035606  
    2798A      6.042849  2799A      6.051978  2800A      6.057203  
    2801A      6.063260  2802A      6.068602  2803A      6.076011  
    2804A      6.079152  2805A      6.084147  2806A      6.086359  
    2807A      6.090786  2808A      6.093981  2809A      6.101250  
    2810A      6.108274  2811A      6.111627  2812A      6.116686  
    2813A      6.123591  2814A      6.126653  2815A      6.136349  
    2816A      6.139593  2817A      6.147462  2818A      6.156010  
    2819A      6.163169  2820A      6.166593  2821A      6.172589  
    2822A      6.183620  2823A      6.185630  2824A      6.191320  
    2825A      6.192718  2826A      6.199140  2827A      6.210823  
    2828A      6.215118  2829A      6.219718  2830A      6.225222  
    2831A      6.232657  2832A      6.235636  2833A      6.237665  
    2834A      6.244786  2835A      6.248519  2836A      6.255457  
    2837A      6.259295  2838A      6.261551  2839A      6.269003  
    2840A      6.280805  2841A      6.282883  2842A      6.285658  
    2843A      6.292387  2844A      6.303195  2845A      6.314212  
    2846A      6.318909  2847A      6.327193  2848A      6.330154  
    2849A      6.340142  2850A      6.346607  2851A      6.353381  
    2852A      6.370413  2853A      6.372226  2854A      6.379513  
    2855A      6.392600  2856A      6.396889  2857A      6.409319  
    2858A      6.413179  2859A      6.422263  2860A      6.436898  
    2861A      6.449832  2862A      6.456302  2863A      6.465410  
    2864A      6.470617  2865A      6.486449  2866A      6.501000  
    2867A      6.511225  2868A      6.518145  2869A      6.521726  
    2870A      6.525031  2871A      6.526540  2872A      6.549352  
    2873A      6.559021  2874A      6.562838  2875A      6.572543  
    2876A      6.579031  2877A      6.587303  2878A      6.597307  
    2879A      6.613933  2880A      6.620613  2881A      6.628771  
    2882A      6.644194  2883A      6.647385  2884A      6.653846  
    2885A      6.662118  2886A      6.664350  2887A      6.688715  
    2888A      6.702924  2889A      6.705778  2890A      6.709091  
    2891A      6.714496  2892A      6.739581  2893A      6.751781  
    2894A      6.766386  2895A      6.773298  2896A      6.783305  
    2897A      6.787957  2898A      6.802657  2899A      6.822967  
    2900A      6.831287  2901A      6.836186  2902A      6.844348  
    2903A      6.851739  2904A      6.875093  2905A      6.888561  
    2906A      6.917405  2907A      6.921290  2908A      6.928989  
    2909A      6.931700  2910A      6.954239  2911A      6.983923  
    2912A      6.997018  2913A      7.010426  2914A      7.030435  
    2915A      7.045595  2916A      7.054396  2917A      7.082697  
    2918A      7.094113  2919A      7.110813  2920A      7.133765  
    2921A      7.143256  2922A      7.155855  2923A      7.174903  
    2924A      7.181179  2925A      7.207420  2926A      7.212876  
    2927A      7.230260  2928A      7.254651  2929A      7.262731  
    2930A      7.290115  2931A      7.310412  2932A      7.332871  
    2933A      7.345201  2934A      7.354942  2935A      7.380168  
    2936A      7.382074  2937A      7.399910  2938A      7.418162  
    2939A      7.435552  2940A      7.447599  2941A      7.453702  
    2942A      7.472566  2943A      7.483785  2944A      7.490505  
    2945A      7.516472  2946A      7.530335  2947A      7.539473  
    2948A      7.568738  2949A      7.584362  2950A      7.605475  
    2951A      7.618224  2952A      7.640380  2953A      7.658536  
    2954A      7.672613  2955A      7.680757  2956A      7.703759  
    2957A      7.714628  2958A      7.716407  2959A      7.744895  
    2960A      7.756317  2961A      7.760683  2962A      7.768871  
    2963A      7.782303  2964A      7.790969  2965A      7.801414  
    2966A      7.817465  2967A      7.829608  2968A      7.843926  
    2969A      7.864543  2970A      7.870279  2971A      7.887135  
    2972A      7.910897  2973A      7.920729  2974A      7.956766  
    2975A      7.969506  2976A      7.987312  2977A      8.057714  
    2978A      8.078109  2979A      8.125605  2980A      8.147177  
    2981A      8.158025  2982A      8.192629  2983A      8.201962  
    2984A      8.219510  2985A      8.254913  2986A      8.274857  
    2987A      8.296925  2988A      8.307959  2989A      8.360746  
    2990A      8.373118  2991A      8.391192  2992A      8.409157  
    2993A      8.435695  2994A      8.468972  2995A      8.569369  
    2996A      8.584739  2997A      8.604897  2998A      8.626273  
    2999A      8.670918  3000A      8.702306  3001A      8.766951  
    3002A      8.832278  3003A      8.866015  3004A      8.981663  
    3005A      8.988288  3006A      9.037257  3007A      9.169915  
    3008A      9.270780  3009A      9.348523  3010A      9.411503  
    3011A      9.550953  3012A      9.583383  3013A      9.637262  
    3014A      9.713974  3015A      9.717993  3016A      9.787588  
    3017A      9.902910  3018A      9.933300  3019A      9.967795  
    3020A     10.007823  3021A     10.016645  3022A     10.079954  
    3023A     10.104179  3024A     10.195379  3025A     10.281775  
    3026A     10.338639  3027A     10.414639  3028A     10.489290  
    3029A     10.528559  3030A     10.667378  3031A     10.717073  
    3032A     10.791946  3033A     10.934532  3034A     11.021774  
    3035A     11.134342  3036A     11.208495  3037A     11.264476  
    3038A     11.356666  3039A     11.369863  3040A     11.423625  
    3041A     11.637161  3042A     11.808174  3043A     11.865868  
    3044A     11.945330  3045A     12.109685  3046A     12.191469  
    3047A     12.252998  3048A     12.294049  3049A     12.510082  
    3050A     12.591375  3051A     12.646830  3052A     15.123723  
    3053A     15.513924  3054A     15.871504  3055A     16.361256  
    3056A     16.685423  3057A     16.919772  3058A     17.049090  
    3059A     17.486296  3060A     17.944699  3061A     18.279052  
    3062A     18.704507  3063A     19.083546  3064A     19.468968  
    3065A     19.971372  3066A     20.492750  3067A     21.046360  
    3068A     21.290639  3069A     21.518630  3070A     21.597690  
    3071A     21.889242  3072A     22.011340  3073A     22.574003  
    3074A     22.868368  3075A     22.999496  3076A     49.678405  
    3077A     50.631169  3078A     51.423329  3079A     52.183914  
    3080A     52.808467  3081A     53.322762  3082A     53.681127  
    3083A     54.225959  3084A     55.047312  3085A     55.710356  
    3086A     56.627751  3087A     57.423806  3088A     57.962920  
    3089A     58.726124  3090A     59.719646  3091A     60.540893  
    3092A     60.991015  3093A     61.604593  3094A     61.811591  
    3095A     62.405302  3096A     62.627638  3097A     63.584762  
    3098A     63.924838  3099A     64.226958  

    Final Occupation by Irrep:
              A 
    DOCC [    82 ]
    NA   [    82 ]
    NB   [    82 ]

  @DF-RKS Final Energy:  -927.02250725205306

   => Energetics <=

    Nuclear Repulsion Energy =           1864.8412087392382546
    One-Electron Energy =               -4956.7862340093079183
    Two-Electron Energy =                2276.3177025660834261
    DFT Exchange-Correlation Energy =    -111.3540630888402205
    Empirical Dispersion Energy =          -0.0411214592266102
    VV10 Nonlocal Energy =                  0.0000000000000000
    Total Energy =                       -927.0225072520532876

Computation Completed


Properties will be evaluated at   0.000000,   0.000000,   0.000000 [a0]

Properties computed using the SCF density matrix


 Multipole Moments:

 ------------------------------------------------------------------------------------
     Multipole            Electronic (a.u.)      Nuclear  (a.u.)        Total (a.u.)
 ------------------------------------------------------------------------------------

 L = 1.  Multiply by 2.5417464519 to convert [e a0] to [Debye]
 Dipole X            :      -5244.8685790         5244.7985666           -0.0700123
 Dipole Y            :      -3214.1948612         3213.8331896           -0.3616717
 Dipole Z            :      -6901.1613033         6901.1289601           -0.0323432
 Magnitude           :                                                    0.3698029

 ------------------------------------------------------------------------------------

*** tstop() called on atl1-1-03-004-11-1.pace.gatech.edu at Mon Jun 15 13:04:41 2026
Module time:
	user time   =   35975.01 seconds =     599.58 minutes
	system time =    1945.26 seconds =      32.42 minutes
	total time  =       5404 seconds =      90.07 minutes
Total time:
	user time   =   35975.01 seconds =     599.58 minutes
	system time =    1945.26 seconds =      32.42 minutes
	total time  =       5404 seconds =      90.07 minutes

    Psi4 stopped on: Monday, 15 June 2026 01:04PM
    Psi4 wall time for execution: 1:30:13.13

*** Psi4 exiting successfully. Buy a developer a beer!
