
    -----------------------------------------------------------------------
          Psi4: An Open-Source Ab Initio Electronic Structure Package
                               Psi4 1.9.1 release

                         Git: Rev {} zzzzzzz 


    D. G. A. Smith, L. A. Burns, A. C. Simmonett, R. M. Parrish,
    M. C. Schieber, R. Galvelis, P. Kraus, H. Kruse, R. Di Remigio,
    A. Alenaizan, A. M. James, S. Lehtola, J. P. Misiewicz, M. Scheurer,
    R. A. Shaw, J. B. Schriber, Y. Xie, Z. L. Glick, D. A. Sirianni,
    J. S. O'Brien, J. M. Waldrop, A. Kumar, E. G. Hohenstein,
    B. P. Pritchard, B. R. Brooks, H. F. Schaefer III, A. Yu. Sokolov,
    K. Patkowski, A. E. DePrince III, U. Bozkaya, R. A. King,
    F. A. Evangelista, J. M. Turney, T. D. Crawford, C. D. Sherrill,
    J. Chem. Phys. 152(18) 184108 (2020). https://doi.org/10.1063/5.0006002

                            Additional Code Authors
    E. T. Seidl, C. L. Janssen, E. F. Valeev, M. L. Leininger,
    J. F. Gonthier, R. M. Richard, H. R. McAlexander, M. Saitow, X. Wang,
    P. Verma, M. H. Lechner, A. Jiang, S. Behnle, A. G. Heide,
    M. F. Herbst, and D. L. Poole

             Previous Authors, Complete List of Code Contributors,
                       and Citations for Specific Modules
    https://github.com/psi4/psi4/blob/master/codemeta.json
    https://github.com/psi4/psi4/graphs/contributors
    http://psicode.org/psi4manual/master/introduction.html#citing-psifour

    -----------------------------------------------------------------------


    Psi4 started on: Monday, 15 June 2026 12:36PM

    Process ID: 779455
    Host:       atl1-1-02-003-27-2.pace.gatech.edu
    PSIDATADIR: /storage/home/hcoda1/5/vlita3/.conda/envs/p4_qcml/share/psi4
    Memory:     250.0 GiB
    Threads:    10
    
  ==> Input QCSchema <==

--------------------------------------------------------------------------
{'driver': 'energy',
 'extras': {},
 'id': '350',
 'keywords': {},
 'model': {'basis': 'aug-cc-pvtz', 'method': 'b3lyp-d3'},
 'molecule': {'extras': {},
              'fix_com': True,
              'fix_orientation': True,
              'fragment_charges': [0.0, 0.0],
              'fragment_multiplicities': [1, 1],
              'fragments': [[0, 1, 2, 3, 4, 5, 6, 7, 8, 9, 10, 11, 12, 13, 14, 15, 16, 17, 18, 19, 20, 21, 22, 23, 24,
                             25, 26, 27, 28, 29, 30, 31, 32, 33, 34, 35, 36, 37, 38, 39, 40, 41, 42, 43, 44, 45, 46, 47,
                             48, 49, 50, 51, 52, 53, 54, 55, 56, 57, 58, 59, 60, 61, 62, 63, 64, 65, 66, 67],
                            [68, 69, 70, 71, 72, 73, 74, 75, 76, 77, 78, 79, 80, 81, 82, 83]],
              'geometry': [-5.34620642, -4.85206741, -0.42040662, -6.29696543, -3.97249137, -2.73196591, -7.16652857,
                           -1.39360971, -2.91024059, -7.07225732, 0.1478346, -0.75712917, -6.06055521, -0.70522859,
                           1.52779916, -5.14660825, -3.28275871, 1.6937689, -8.00940954, -0.47795161, -5.29622845,
                           -8.00389532, -2.01265111, -7.39175445, -7.1739962, -4.55869367, -7.20967896, -6.3482405,
                           -5.51081404, -4.93971915, -5.79174545, 0.94432733, 3.66064233, -4.5983628, 0.0799819,
                           5.76970066, -3.62293398, -2.4551662, 5.90550866, -3.92400421, -4.11631993, 3.96419018,
                           -2.16569152, -2.61945029, 8.3885177, 0.07636213, -0.84617571, 7.95116799, -0.9078112,
                           1.61784783, 7.8674416, -3.76570071, 1.39135281, 8.20497635, -3.85671125, -0.88804523,
                           10.06281411, 2.58001171, -1.3655127, 7.31184057, 4.1057488, 0.7110172, 6.7716308, 3.12911434,
                           3.1826792, 6.68292857, 0.58226752, 3.66820181, 7.1546987, 5.22477035, 4.85680231, 5.5947568,
                           5.45773257, 3.95265056, 2.86034162, 6.48712479, 1.44012834, 2.99187034, 6.82098554,
                           0.8515344, 5.79382301, 7.56885523, 3.52377684, 6.77238443, 6.80325367, 0.01007923,
                           0.87853632, 6.01230407, 0.99764822, -1.51581981, 4.9476594, 3.51769873, -1.64633715,
                           4.72513697, 4.9862546, 0.62058001, 6.12205861, -0.46131862, -3.71310038, 5.15756848,
                           0.40687221, -6.02295948, 4.08395781, 2.91056166, -6.14884699, 4.05329983, 4.41018879,
                           -3.96462935, 5.13306837, -1.12454068, -8.23614739, 4.07851898, -0.25961114, -10.44460058,
                           2.99478619, 2.19392857, -10.56107574, 3.00851807, 3.73807424, -8.47334713, 3.50361025,
                           -3.823107, 7.21233591, -0.52564981, 6.01194181, 6.93361699, 5.05829719, 6.89567715,
                           5.87089814, 8.0356414, -0.74107273, 6.26352729, 7.58901842, 3.63875572, 8.83518962,
                           9.35421802, 4.19783591, 5.97522954, -5.76611566, -1.64188193, 10.31542343, -2.98864212,
                           -0.45542891, 11.88758146, -4.77253092, 3.11242428, 8.71181923, -1.70891184, -4.50721847,
                           9.0671295, 7.55489696, -1.89976737, 0.96862939, 3.89947197, 6.86430373, 0.5027639,
                           -6.46680418, 2.87873678, 3.51311765, -3.18323648, -6.03153223, 4.04964208, 3.22722344,
                           6.29110633, -4.05969977, 6.91726822, -2.35617478, -3.61337858, 2.17488807, 5.6139636,
                           -8.5558299, 2.15939666, 2.84829877, -12.31851423, 4.06363758, -1.45295543, -12.11512622,
                           5.94772646, -3.00842661, -8.1365677, -4.65219392, -6.78410677, -0.29846731, -7.72607119,
                           2.09308409, -0.89347536, -5.69192784, -7.45269585, -4.79824367, -8.63836085, 1.47325902,
                           -5.4323305, -8.64382367, -1.28398557, -9.20131008, -7.19028923, -5.75067773, -8.88116704,
                           0.69471926, 7.16657411, 6.19908801, 3.21943853, -4.43255237, 5.4924338, -1.01804176,
                           -2.06721752, -6.41424693, -0.04006805, -3.69463605, -4.59993014, 0.29508244, -2.88730801,
                           -2.09508758, -0.32679714, -0.42272984, -1.41690966, -1.32071561, 1.15392876, -3.24915277,
                           -1.68814035, 0.37514049, -5.74325186, 0.62349756, -6.02367305, -5.33266218, 1.25684872,
                           -4.55988854, -0.10878832, -2.01790096, 3.74535177, -2.52671085, -2.46962752, 1.68011751,
                           -7.10722613, -0.06092458, 0.2181685, 0.50639917, -1.23619836, -2.74752497, -8.33105453,
                           2.06085935, -3.52195874, 1.83306118, 1.18336559, -6.86024705, -0.44470452, -2.90698951,
                           5.11929396, -4.19647021, -1.67462389, 4.39177019, -0.3135118],
              'id': 6,
              'identifiers': {'molecular_formula': 'C46FH29N2O6',
                              'molecule_hash': '6059439b7d3ff97eb634aabdaf8efaa815866e92'},
              'molecular_charge': 0.0,
              'molecular_multiplicity': 1,
              'name': 'C46FH29N2O6',
              'provenance': {'creator': 'QCElemental',
                             'routine': 'qcelemental.molparse.from_string',
                             'version': '0.29.0'},
              'schema_name': 'qcschema_molecule',
              'schema_version': 2,
              'symbols': ['C', 'C', 'C', 'C', 'C', 'C', 'C', 'C', 'C', 'C', 'C', 'C', 'C', 'C', 'C', 'C', 'C', 'C', 'C',
                          'C', 'C', 'C', 'C', 'C', 'C', 'C', 'C', 'C', 'C', 'C', 'C', 'C', 'C', 'C', 'C', 'C', 'C', 'C',
                          'C', 'C', 'O', 'O', 'H', 'H', 'H', 'H', 'H', 'H', 'H', 'H', 'H', 'H', 'H', 'H', 'H', 'H', 'H',
                          'H', 'H', 'H', 'H', 'H', 'H', 'H', 'H', 'H', 'H', 'H', 'C', 'C', 'C', 'C', 'C', 'C', 'F', 'N',
                          'N', 'H', 'H', 'H', 'O', 'O', 'O', 'O'],
              'validated': True},
 'protocols': {},
 'provenance': {'creator': 'QCElemental', 'routine': 'qcelemental.models.results', 'version': '0.29.0'},
 'schema_name': 'qcschema_input',
 'schema_version': 1}
--------------------------------------------------------------------------

Scratch directory: /tmp/tmpxqcsxjz2_psi_scratch/
   => Libint2 <=

    Primary   basis highest AM E, G, H:  6, 6, 3
    Auxiliary basis highest AM E, G, H:  7, 7, 4
    Onebody   basis highest AM E, G, H:  -, -, -
    Solid Harmonics ordering:            Gaussian

*** tstart() called on atl1-1-02-003-27-2.pace.gatech.edu
*** at Mon Jun 15 12:36:42 2026

   => Loading Basis Set <=

    Name: AUG-CC-PVTZ
    Role: ORBITAL
    Keyword: BASIS
    atoms 1-40, 69-74  entry C          line   239 file /storage/home/hcoda1/5/vlita3/.conda/envs/p4_qcml/share/psi4/basis/aug-cc-pvtz.gbs 
    atoms 41-42, 81-84 entry O          line   331 file /storage/home/hcoda1/5/vlita3/.conda/envs/p4_qcml/share/psi4/basis/aug-cc-pvtz.gbs 
    atoms 43-68, 78-80 entry H          line    40 file /storage/home/hcoda1/5/vlita3/.conda/envs/p4_qcml/share/psi4/basis/aug-cc-pvtz.gbs 
    atoms 75           entry F          line   377 file /storage/home/hcoda1/5/vlita3/.conda/envs/p4_qcml/share/psi4/basis/aug-cc-pvtz.gbs 
    atoms 76-77        entry N          line   285 file /storage/home/hcoda1/5/vlita3/.conda/envs/p4_qcml/share/psi4/basis/aug-cc-pvtz.gbs 

   => B3LYP-D3: Empirical Dispersion <=

    Grimme's -D3 (zero-damping) Dispersion Correction
    Grimme S.; Antony J.; Ehrlich S.; Krieg H. (2010), J. Chem. Phys., 132: 154104

        s6 =       1.000000
        s8 =       1.703000
       sr6 =       1.261000
    alpha6 =      14.000000
       sr8 =       1.000000


         ---------------------------------------------------------
                                   SCF
               by Justin Turney, Rob Parrish, Andy Simmonett
                          and Daniel G. A. Smith
                              RKS Reference
                       10 Threads, 256000 MiB Core
         ---------------------------------------------------------

  ==> Geometry <==

    Molecular point group: c1
    Full point group: C1

    Geometry (in Bohr), charge = 0, multiplicity = 1:

       Center              X                  Y                   Z               Mass       
    ------------   -----------------  -----------------  -----------------  -----------------
         C           -5.346206420000    -4.852067410000    -0.420406620000    12.000000000000
         C           -6.296965430000    -3.972491370000    -2.731965910000    12.000000000000
         C           -7.166528570000    -1.393609710000    -2.910240590000    12.000000000000
         C           -7.072257320000     0.147834600000    -0.757129170000    12.000000000000
         C           -6.060555210000    -0.705228590000     1.527799160000    12.000000000000
         C           -5.146608250000    -3.282758710000     1.693768900000    12.000000000000
         C           -8.009409540000    -0.477951610000    -5.296228450000    12.000000000000
         C           -8.003895320000    -2.012651110000    -7.391754450000    12.000000000000
         C           -7.173996200000    -4.558693670000    -7.209678960000    12.000000000000
         C           -6.348240500000    -5.510814040000    -4.939719150000    12.000000000000
         C           -5.791745450000     0.944327330000     3.660642330000    12.000000000000
         C           -4.598362800000     0.079981900000     5.769700660000    12.000000000000
         C           -3.622933980000    -2.455166200000     5.905508660000    12.000000000000
         C           -3.924004210000    -4.116319930000     3.964190180000    12.000000000000
         C           -2.165691520000    -2.619450290000     8.388517700000    12.000000000000
         C            0.076362130000    -0.846175710000     7.951167990000    12.000000000000
         C           -0.907811200000     1.617847830000     7.867441600000    12.000000000000
         C           -3.765700710000     1.391352810000     8.204976350000    12.000000000000
         C           -3.856711250000    -0.888045230000    10.062814110000    12.000000000000
         C            2.580011710000    -1.365512700000     7.311840570000    12.000000000000
         C            4.105748800000     0.711017200000     6.771630800000    12.000000000000
         C            3.129114340000     3.182679200000     6.682928570000    12.000000000000
         C            0.582267520000     3.668201810000     7.154698700000    12.000000000000
         C            5.224770350000     4.856802310000     5.594756800000    12.000000000000
         C            5.457732570000     3.952650560000     2.860341620000    12.000000000000
         C            6.487124790000     1.440128340000     2.991870340000    12.000000000000
         C            6.820985540000     0.851534400000     5.793823010000    12.000000000000
         C            7.568855230000     3.523776840000     6.772384430000    12.000000000000
         C            6.803253670000     0.010079230000     0.878536320000    12.000000000000
         C            6.012304070000     0.997648220000    -1.515819810000    12.000000000000
         C            4.947659400000     3.517698730000    -1.646337150000    12.000000000000
         C            4.725136970000     4.986254600000     0.620580010000    12.000000000000
         C            6.122058610000    -0.461318620000    -3.713100380000    12.000000000000
         C            5.157568480000     0.406872210000    -6.022959480000    12.000000000000
         C            4.083957810000     2.910561660000    -6.148846990000    12.000000000000
         C            4.053299830000     4.410188790000    -3.964629350000    12.000000000000
         C            5.133068370000    -1.124540680000    -8.236147390000    12.000000000000
         C            4.078518980000    -0.259611140000   -10.444600580000    12.000000000000
         C            2.994786190000     2.193928570000   -10.561075740000    12.000000000000
         C            3.008518070000     3.738074240000    -8.473347130000    12.000000000000
         O            3.503610250000    -3.823107000000     7.212335910000    15.994914619570
         O           -0.525649810000     6.011941810000     6.933616990000    15.994914619570
         H            5.058297190000     6.895677150000     5.870898140000     1.007825032230
         H            8.035641400000    -0.741072730000     6.263527290000     1.007825032230
         H            7.589018420000     3.638755720000     8.835189620000     1.007825032230
         H            9.354218020000     4.197835910000     5.975229540000     1.007825032230
         H           -5.766115660000    -1.641881930000    10.315423430000     1.007825032230
         H           -2.988642120000    -0.455428910000    11.887581460000     1.007825032230
         H           -4.772530920000     3.112424280000     8.711819230000     1.007825032230
         H           -1.708911840000    -4.507218470000     9.067129500000     1.007825032230
         H            7.554896960000    -1.899767370000     0.968629390000     1.007825032230
         H            3.899471970000     6.864303730000     0.502763900000     1.007825032230
         H           -6.466804180000     2.878736780000     3.513117650000     1.007825032230
         H           -3.183236480000    -6.031532230000     4.049642080000     1.007825032230
         H            3.227223440000     6.291106330000    -4.059699770000     1.007825032230
         H            6.917268220000    -2.356174780000    -3.613378580000     1.007825032230
         H            2.174888070000     5.613963600000    -8.555829900000     1.007825032230
         H            2.159396660000     2.848298770000   -12.318514230000     1.007825032230
         H            4.063637580000    -1.452955430000   -12.115126220000     1.007825032230
         H            5.947726460000    -3.008426610000    -8.136567700000     1.007825032230
         H           -4.652193920000    -6.784106770000    -0.298467310000     1.007825032230
         H           -7.726071190000     2.093084090000    -0.893475360000     1.007825032230
         H           -5.691927840000    -7.452695850000    -4.798243670000     1.007825032230
         H           -8.638360850000     1.473259020000    -5.432330500000     1.007825032230
         H           -8.643823670000    -1.283985570000    -9.201310080000     1.007825032230
         H           -7.190289230000    -5.750677730000    -8.881167040000     1.007825032230
         H            0.694719260000     7.166574110000     6.199088010000     1.007825032230
         H            3.219438530000    -4.432552370000     5.492433800000     1.007825032230
         C           -1.018041760000    -2.067217520000    -6.414246930000    12.000000000000
         C           -0.040068050000    -3.694636050000    -4.599930140000    12.000000000000
         C            0.295082440000    -2.887308010000    -2.095087580000    12.000000000000
         C           -0.326797140000    -0.422729840000    -1.416909660000    12.000000000000
         C           -1.320715610000     1.153928760000    -3.249152770000    12.000000000000
         C           -1.688140350000     0.375140490000    -5.743251860000    12.000000000000
         F            0.623497560000    -6.023673050000    -5.332662180000    18.998403162730
         N            1.256848720000    -4.559888540000    -0.108788320000    14.003074004430
         N           -2.017900960000     3.745351770000    -2.526710850000    14.003074004430
         H           -2.469627520000     1.680117510000    -7.107226130000     1.007825032230
         H           -0.060924580000     0.218168500000     0.506399170000     1.007825032230
         H           -1.236198360000    -2.747524970000    -8.331054530000     1.007825032230
         O            2.060859350000    -3.521958740000     1.833061180000    15.994914619570
         O            1.183365590000    -6.860247050000    -0.444704520000    15.994914619570
         O           -2.906989510000     5.119293960000    -4.196470210000    15.994914619570
         O           -1.674623890000     4.391770190000    -0.313511800000    15.994914619570

  Running in c1 symmetry.

  Rotational constants: A =      0.00269  B =      0.00202  C =      0.00154 [cm^-1]
  Rotational constants: A =     80.53073  B =     60.67005  C =     46.28054 [MHz]
  Nuclear repulsion = 8036.031125408757362

  Charge       = 0
  Multiplicity = 1
  Electrons    = 376
  Nalpha       = 188
  Nbeta        = 188

  ==> Algorithm <==

  SCF Algorithm Type is DF.
  DIIS enabled.
  MOM disabled.
  Fractional occupation disabled.
  Guess Type is SAD.
  Energy threshold   = 1.00e-06
  Density threshold  = 1.00e-06
  Integral threshold = 1.00e-12

  ==> Primary Basis <==

  Basis Set: AUG-CC-PVTZ
    Blend: AUG-CC-PVTZ
    Number of shells: 1031
    Number of basis functions: 3197
    Number of Cartesian functions: 3750
    Spherical Harmonics?: true
    Max angular momentum: 3

  ==> DFT Potential <==

   => LibXC <=

    Version 7.0.0
    S. Lehtola, C. Steigemann, M. J.T. Oliveira, and M. A.L. Marques.,  SoftwareX 7, 1–5 (2018) (10.1016/j.softx.2017.11.002)

   => Composite Functional: B3LYP-D3ZERO2B <= 

    B3LYP-d3zero2b Hyb-GGA Exchange-Correlation Functional

    P. J. Stephens, F. J. Devlin, C. F. Chabalowski, and M. J. Frisch.,  J. Phys. Chem. 98, 11623 (1994) (10.1021/j100096a001)

    Deriv               =              1
    GGA                 =           TRUE
    Meta                =          FALSE

    Exchange Hybrid     =           TRUE
    MP2 Hybrid          =          FALSE

   => Exchange Functionals <=

    0.0800   Slater exchange
    0.7200         Becke 88

   => Exact (HF) Exchange <=

    0.2000               HF 

   => Correlation Functionals <=

    0.1900   Vosko, Wilk & Nusair (VWN5_RPA)
    0.8100   Lee, Yang & Parr

   => LibXC Density Thresholds  <==

    XC_HYB_GGA_XC_B3LYP:  1.00E-15 

   => Molecular Quadrature <=

    Radial Scheme          =       TREUTLER
    Pruning Scheme         =           NONE
    Nuclear Scheme         =       TREUTLER

    Blocking Scheme        =         OCTREE
    BS radius alpha        =              1
    Pruning alpha          =              1
    Radial Points          =             75
    Spherical Points       =            302
    Total Points           =        1660585
    Total Blocks           =          11397
    Max Points             =            256
    Max Functions          =           2139
    Weights Tolerance      =       1.00E-15

   => Loading Basis Set <=

    Name: (AUG-CC-PVTZ AUX)
    Role: JKFIT
    Keyword: DF_BASIS_SCF
    atoms 1-40, 69-74  entry C          line   162 file /storage/home/hcoda1/5/vlita3/.conda/envs/p4_qcml/share/psi4/basis/aug-cc-pvtz-jkfit.gbs 
    atoms 41-42, 81-84 entry O          line   286 file /storage/home/hcoda1/5/vlita3/.conda/envs/p4_qcml/share/psi4/basis/aug-cc-pvtz-jkfit.gbs 
    atoms 43-68, 78-80 entry H          line    70 file /storage/home/hcoda1/5/vlita3/.conda/envs/p4_qcml/share/psi4/basis/aug-cc-pvtz-jkfit.gbs 
    atoms 75           entry F          line   348 file /storage/home/hcoda1/5/vlita3/.conda/envs/p4_qcml/share/psi4/basis/aug-cc-pvtz-jkfit.gbs 
    atoms 76-77        entry N          line   224 file /storage/home/hcoda1/5/vlita3/.conda/envs/p4_qcml/share/psi4/basis/aug-cc-pvtz-jkfit.gbs 

  ==> Integral Setup <==

  ==> DiskDFJK: Density-Fitted J/K Matrices <==

    J tasked:                  Yes
    K tasked:                  Yes
    wK tasked:                  No
    OpenMP threads:             10
    Integrals threads:          10
    Memory [MiB]:           172800
    Algorithm:                Disk
    Integral Cache:           NONE
    Schwarz Cutoff:          1E-12
    Fitting Condition:       1E-10

   => Auxiliary Basis Set <=

  Basis Set: (AUG-CC-PVTZ AUX)
    Blend: AUG-CC-PVTZ-JKFIT
    Number of shells: 2056
    Number of basis functions: 7054
    Number of Cartesian functions: 8800
    Spherical Harmonics?: true
    Max angular momentum: 4

  Minimum eigenvalue in the overlap matrix is 8.4696743678E-09.
  Reciprocal condition number of the overlap matrix is 2.5542464085E-10.
    Using canonical orthogonalization.
  Overall, 16 of 3197 possible MOs eliminated.


  ==> Pre-Iterations <==

  SCF Guess: Superposition of Atomic Densities via on-the-fly atomic UHF (no occupation information).

   -------------------------
    Irrep   Nso     Nmo    
   -------------------------
     A       3197    3181 
   -------------------------
    Total    3197    3181
   -------------------------

  ==> Iterations <==

                           Total Energy        Delta E     RMS |[F,P]|

   @DF-RKS iter SAD: -2432.56036856087849   -2.43256e+03   0.00000e+00 
   @DF-RKS iter   1: -2428.35965307167953    4.20072e+00   8.27083e-04 ADIIS/DIIS
   @DF-RKS iter   2: -2416.64862643737115    1.17110e+01   1.51522e-03 ADIIS/DIIS
   @DF-RKS iter   3: -2425.89344033774387   -9.24481e+00   9.10129e-04 ADIIS/DIIS
   @DF-RKS iter   4: -2431.45843130268304   -5.56499e+00   3.02447e-04 ADIIS/DIIS
   @DF-RKS iter   5: -2431.62740375437761   -1.68972e-01   2.35263e-04 ADIIS/DIIS
   @DF-RKS iter   6: -2431.81216950212502   -1.84766e-01   7.38491e-05 DIIS
   @DF-RKS iter   7: -2431.83194057153696   -1.97711e-02   2.99421e-05 DIIS
   @DF-RKS iter   8: -2431.83534933316014   -3.40876e-03   1.25127e-05 DIIS
   @DF-RKS iter   9: -2431.83592104042737   -5.71707e-04   6.31770e-06 DIIS
   @DF-RKS iter  10: -2431.83605525052553   -1.34210e-04   2.60175e-06 DIIS
   @DF-RKS iter  11: -2431.83608133229063   -2.60818e-05   8.27877e-07 DIIS
   @DF-RKS iter  12: -2431.83608419317034   -2.86088e-06   2.83071e-07 DIIS
   @DF-RKS iter  13: -2431.83608450908969   -3.15919e-07   1.15908e-07 DIIS
  Energy and wave function converged.


  ==> Post-Iterations <==

   Electrons on quadrature grid:
      Ntotal   =  375.9997393660 ; deviation = -2.606e-04 

    Orbital Energies [Eh]
    ---------------------

    Doubly Occupied:                                                      

       1A    -24.733928     2A    -19.188849     3A    -19.187794  
       4A    -19.177757     5A    -19.177367     6A    -19.164451  
       7A    -19.135888     8A    -14.582507     9A    -14.569702  
      10A    -10.316877    11A    -10.272068    12A    -10.260557  
      13A    -10.239744    14A    -10.235644    15A    -10.230358  
      16A    -10.226798    17A    -10.221770    18A    -10.208548  
      19A    -10.199743    20A    -10.199581    21A    -10.199349  
      22A    -10.199152    23A    -10.198786    24A    -10.197078  
      25A    -10.197074    26A    -10.197042    27A    -10.196613  
      28A    -10.196585    29A    -10.196498    30A    -10.194912  
      31A    -10.192645    32A    -10.192599    33A    -10.192465  
      34A    -10.191897    35A    -10.191596    36A    -10.190901  
      37A    -10.190589    38A    -10.190497    39A    -10.190174  
      40A    -10.189749    41A    -10.189722    42A    -10.189664  
      43A    -10.189431    44A    -10.188465    45A    -10.186947  
      46A    -10.186612    47A    -10.186232    48A    -10.185702  
      49A    -10.185376    50A    -10.184091    51A    -10.183499  
      52A    -10.182769    53A    -10.182730    54A    -10.181831  
      55A    -10.181384    56A     -1.269236    57A     -1.247725  
      58A     -1.236837    59A     -1.077182    60A     -1.066315  
      61A     -1.062121    62A     -1.033622    63A     -0.926941  
      64A     -0.918338    65A     -0.910611    66A     -0.890535  
      67A     -0.887882    68A     -0.857913    69A     -0.852040  
      70A     -0.851078    71A     -0.824999    72A     -0.820640  
      73A     -0.802080    74A     -0.797657    75A     -0.795017  
      76A     -0.789791    77A     -0.772700    78A     -0.768728  
      79A     -0.751101    80A     -0.744844    81A     -0.740422  
      82A     -0.736185    83A     -0.735495    84A     -0.724545  
      85A     -0.716998    86A     -0.710711    87A     -0.697933  
      88A     -0.676419    89A     -0.659541    90A     -0.657893  
      91A     -0.654406    92A     -0.628866    93A     -0.620214  
      94A     -0.618758    95A     -0.613212    96A     -0.612908  
      97A     -0.610218    98A     -0.609123    99A     -0.604525  
     100A     -0.596399   101A     -0.590602   102A     -0.574347  
     103A     -0.572767   104A     -0.571062   105A     -0.563420  
     106A     -0.555090   107A     -0.551092   108A     -0.548831  
     109A     -0.547907   110A     -0.537607   111A     -0.535081  
     112A     -0.534423   113A     -0.531823   114A     -0.527832  
     115A     -0.523854   116A     -0.515977   117A     -0.512268  
     118A     -0.507731   119A     -0.505606   120A     -0.500686  
     121A     -0.491154   122A     -0.483540   123A     -0.482506  
     124A     -0.467081   125A     -0.463631   126A     -0.463316  
     127A     -0.462341   128A     -0.459819   129A     -0.454329  
     130A     -0.448342   131A     -0.445197   132A     -0.443647  
     133A     -0.434329   134A     -0.433479   135A     -0.432419  
     136A     -0.431411   137A     -0.429951   138A     -0.428932  
     139A     -0.425895   140A     -0.423762   141A     -0.422915  
     142A     -0.417973   143A     -0.413098   144A     -0.410727  
     145A     -0.405869   146A     -0.404467   147A     -0.400146  
     148A     -0.394256   149A     -0.390396   150A     -0.385585  
     151A     -0.385087   152A     -0.383966   153A     -0.383393  
     154A     -0.372972   155A     -0.367242   156A     -0.365747  
     157A     -0.362157   158A     -0.360332   159A     -0.354377  
     160A     -0.351769   161A     -0.350180   162A     -0.346617  
     163A     -0.345497   164A     -0.343621   165A     -0.342272  
     166A     -0.340502   167A     -0.335521   168A     -0.332221  
     169A     -0.331749   170A     -0.330066   171A     -0.326559  
     172A     -0.319674   173A     -0.314695   174A     -0.312219  
     175A     -0.311740   176A     -0.309926   177A     -0.305833  
     178A     -0.297460   179A     -0.294951   180A     -0.288717  
     181A     -0.270550   182A     -0.266606   183A     -0.253970  
     184A     -0.247090   185A     -0.223779   186A     -0.222173  
     187A     -0.209437   188A     -0.206467  

    Virtual:                                                              

     189A     -0.120655   190A     -0.112667   191A     -0.079218  
     192A     -0.073394   193A     -0.043860   194A     -0.040981  
     195A     -0.033398   196A     -0.022315   197A     -0.017746  
     198A     -0.016650   199A     -0.014881   200A     -0.012782  
     201A     -0.008734   202A     -0.006573   203A     -0.005535  
     204A     -0.004111   205A     -0.000761   206A      0.000655  
     207A      0.003895   208A      0.005705   209A      0.008053  
     210A      0.008364   211A      0.015414   212A      0.016006  
     213A      0.017722   214A      0.019818   215A      0.020124  
     216A      0.022153   217A      0.027676   218A      0.028489  
     219A      0.028732   220A      0.029856   221A      0.031380  
     222A      0.034067   223A      0.035908   224A      0.038186  
     225A      0.038797   226A      0.040645   227A      0.043360  
     228A      0.046950   229A      0.047643   230A      0.048616  
     231A      0.052881   232A      0.053452   233A      0.054552  
     234A      0.055133   235A      0.056292   236A      0.057283  
     237A      0.059267   238A      0.061096   239A      0.061234  
     240A      0.062525   241A      0.063143   242A      0.065437  
     243A      0.066452   244A      0.066940   245A      0.067160  
     246A      0.068426   247A      0.070442   248A      0.073199  
     249A      0.074755   250A      0.075448   251A      0.077476  
     252A      0.078357   253A      0.078420   254A      0.079472  
     255A      0.080084   256A      0.083245   257A      0.084841  
     258A      0.086121   259A      0.086194   260A      0.088239  
     261A      0.089035   262A      0.089780   263A      0.090180  
     264A      0.091090   265A      0.092755   266A      0.095514  
     267A      0.099002   268A      0.099262   269A      0.100264  
     270A      0.100782   271A      0.101614   272A      0.102645  
     273A      0.103940   274A      0.105276   275A      0.105851  
     276A      0.107450   277A      0.108818   278A      0.110602  
     279A      0.112084   280A      0.113177   281A      0.113850  
     282A      0.114285   283A      0.116176   284A      0.117800  
     285A      0.118582   286A      0.120133   287A      0.121136  
     288A      0.122750   289A      0.123082   290A      0.124862  
     291A      0.126939   292A      0.128875   293A      0.130197  
     294A      0.130454   295A      0.130841   296A      0.132891  
     297A      0.134561   298A      0.135838   299A      0.136086  
     300A      0.137616   301A      0.137885   302A      0.138470  
     303A      0.142721   304A      0.143260   305A      0.143795  
     306A      0.144934   307A      0.147015   308A      0.148739  
     309A      0.150081   310A      0.151289   311A      0.151796  
     312A      0.152958   313A      0.154484   314A      0.155518  
     315A      0.156916   316A      0.159576   317A      0.160596  
     318A      0.161508   319A      0.162401   320A      0.163291  
     321A      0.163903   322A      0.164120   323A      0.166480  
     324A      0.167095   325A      0.167932   326A      0.168789  
     327A      0.170667   328A      0.171628   329A      0.172303  
     330A      0.173151   331A      0.174192   332A      0.175413  
     333A      0.176631   334A      0.177282   335A      0.178045  
     336A      0.178963   337A      0.179490   338A      0.179972  
     339A      0.181361   340A      0.182086   341A      0.182629  
     342A      0.183321   343A      0.184312   344A      0.185532  
     345A      0.187636   346A      0.189119   347A      0.190084  
     348A      0.190550   349A      0.192208   350A      0.193244  
     351A      0.193646   352A      0.194266   353A      0.194855  
     354A      0.196589   355A      0.197189   356A      0.197692  
     357A      0.199266   358A      0.199943   359A      0.200511  
     360A      0.201207   361A      0.202422   362A      0.202793  
     363A      0.203585   364A      0.204101   365A      0.204737  
     366A      0.205780   367A      0.206437   368A      0.207045  
     369A      0.208433   370A      0.209333   371A      0.209471  
     372A      0.211151   373A      0.213427   374A      0.213682  
     375A      0.214712   376A      0.215569   377A      0.216693  
     378A      0.216899   379A      0.217160   380A      0.218472  
     381A      0.219570   382A      0.220682   383A      0.221577  
     384A      0.221689   385A      0.223087   386A      0.224439  
     387A      0.225588   388A      0.226645   389A      0.226946  
     390A      0.227416   391A      0.229400   392A      0.230476  
     393A      0.232084   394A      0.233263   395A      0.233935  
     396A      0.234215   397A      0.235641   398A      0.237686  
     399A      0.238311   400A      0.239265   401A      0.239762  
     402A      0.241858   403A      0.241964   404A      0.242968  
     405A      0.243741   406A      0.244441   407A      0.245983  
     408A      0.246845   409A      0.247676   410A      0.248224  
     411A      0.249734   412A      0.250948   413A      0.252570  
     414A      0.252975   415A      0.253754   416A      0.255150  
     417A      0.255594   418A      0.256063   419A      0.257122  
     420A      0.258600   421A      0.259848   422A      0.260561  
     423A      0.261309   424A      0.262043   425A      0.263314  
     426A      0.263526   427A      0.264568   428A      0.265262  
     429A      0.266644   430A      0.267501   431A      0.267976  
     432A      0.270595   433A      0.271109   434A      0.272016  
     435A      0.273642   436A      0.275234   437A      0.275340  
     438A      0.276407   439A      0.278867   440A      0.279297  
     441A      0.281062   442A      0.281394   443A      0.282982  
     444A      0.284504   445A      0.284780   446A      0.286785  
     447A      0.288700   448A      0.289368   449A      0.290052  
     450A      0.292462   451A      0.292580   452A      0.293317  
     453A      0.294454   454A      0.295411   455A      0.297364  
     456A      0.299773   457A      0.299853   458A      0.302067  
     459A      0.302424   460A      0.303670   461A      0.304697  
     462A      0.305356   463A      0.306760   464A      0.306954  
     465A      0.308010   466A      0.309005   467A      0.309529  
     468A      0.310332   469A      0.312464   470A      0.313217  
     471A      0.314025   472A      0.316438   473A      0.316955  
     474A      0.318876   475A      0.319989   476A      0.320878  
     477A      0.322164   478A      0.324173   479A      0.326544  
     480A      0.327271   481A      0.328038   482A      0.329918  
     483A      0.331999   484A      0.332027   485A      0.333248  
     486A      0.334589   487A      0.336506   488A      0.336695  
     489A      0.338324   490A      0.339692   491A      0.340637  
     492A      0.342100   493A      0.342388   494A      0.344708  
     495A      0.345555   496A      0.346894   497A      0.348330  
     498A      0.349502   499A      0.350693   500A      0.352135  
     501A      0.352993   502A      0.353714   503A      0.354635  
     504A      0.356881   505A      0.357707   506A      0.358698  
     507A      0.361350   508A      0.361653   509A      0.362439  
     510A      0.363156   511A      0.364997   512A      0.366625  
     513A      0.367853   514A      0.371855   515A      0.372850  
     516A      0.373453   517A      0.374731   518A      0.375694  
     519A      0.377039   520A      0.377851   521A      0.380470  
     522A      0.382098   523A      0.382639   524A      0.384775  
     525A      0.386490   526A      0.387140   527A      0.388308  
     528A      0.389199   529A      0.390478   530A      0.391041  
     531A      0.394012   532A      0.395523   533A      0.396047  
     534A      0.397049   535A      0.397650   536A      0.398126  
     537A      0.399250   538A      0.401138   539A      0.402094  
     540A      0.403995   541A      0.404486   542A      0.405314  
     543A      0.406125   544A      0.406503   545A      0.408025  
     546A      0.409225   547A      0.410204   548A      0.411136  
     549A      0.412472   550A      0.413778   551A      0.414516  
     552A      0.414849   553A      0.415397   554A      0.416922  
     555A      0.418815   556A      0.421357   557A      0.421983  
     558A      0.422774   559A      0.423502   560A      0.425600  
     561A      0.425670   562A      0.427243   563A      0.428134  
     564A      0.428574   565A      0.430951   566A      0.432990  
     567A      0.434532   568A      0.434628   569A      0.436075  
     570A      0.437068   571A      0.437806   572A      0.438379  
     573A      0.439258   574A      0.440321   575A      0.440922  
     576A      0.441853   577A      0.443232   578A      0.444522  
     579A      0.446074   580A      0.446684   581A      0.448205  
     582A      0.449606   583A      0.450013   584A      0.452117  
     585A      0.452605   586A      0.453394   587A      0.454852  
     588A      0.455476   589A      0.455852   590A      0.457077  
     591A      0.457808   592A      0.458354   593A      0.458993  
     594A      0.460100   595A      0.462079   596A      0.463129  
     597A      0.463967   598A      0.464316   599A      0.465621  
     600A      0.467378   601A      0.468159   602A      0.468901  
     603A      0.470401   604A      0.470861   605A      0.471453  
     606A      0.474191   607A      0.475195   608A      0.476070  
     609A      0.476986   610A      0.477329   611A      0.478743  
     612A      0.480175   613A      0.480842   614A      0.482913  
     615A      0.483654   616A      0.485125   617A      0.485644  
     618A      0.487342   619A      0.488189   620A      0.488660  
     621A      0.491174   622A      0.492480   623A      0.493698  
     624A      0.494432   625A      0.494964   626A      0.497237  
     627A      0.498228   628A      0.498795   629A      0.499749  
     630A      0.500703   631A      0.501054   632A      0.502298  
     633A      0.503057   634A      0.504545   635A      0.504984  
     636A      0.506948   637A      0.508575   638A      0.508976  
     639A      0.509816   640A      0.512085   641A      0.512463  
     642A      0.515484   643A      0.516429   644A      0.517823  
     645A      0.519331   646A      0.519806   647A      0.520223  
     648A      0.521397   649A      0.522887   650A      0.524907  
     651A      0.526389   652A      0.527927   653A      0.528348  
     654A      0.529833   655A      0.531336   656A      0.532254  
     657A      0.534702   658A      0.535682   659A      0.538647  
     660A      0.538747   661A      0.540155   662A      0.542346  
     663A      0.543846   664A      0.546345   665A      0.546869  
     666A      0.547817   667A      0.549094   668A      0.550559  
     669A      0.551364   670A      0.552481   671A      0.554193  
     672A      0.555848   673A      0.556853   674A      0.557857  
     675A      0.558399   676A      0.560632   677A      0.562658  
     678A      0.563292   679A      0.564360   680A      0.564593  
     681A      0.565380   682A      0.568454   683A      0.570533  
     684A      0.572197   685A      0.573268   686A      0.573903  
     687A      0.574038   688A      0.576638   689A      0.577853  
     690A      0.580144   691A      0.580325   692A      0.581932  
     693A      0.584123   694A      0.585173   695A      0.586052  
     696A      0.588006   697A      0.589112   698A      0.590554  
     699A      0.592186   700A      0.594102   701A      0.594526  
     702A      0.597324   703A      0.598067   704A      0.598974  
     705A      0.601143   706A      0.601747   707A      0.602738  
     708A      0.605509   709A      0.606328   710A      0.608830  
     711A      0.610016   712A      0.610409   713A      0.612639  
     714A      0.613866   715A      0.616178   716A      0.617327  
     717A      0.618601   718A      0.619759   719A      0.620031  
     720A      0.622650   721A      0.624019   722A      0.625103  
     723A      0.627748   724A      0.628533   725A      0.630039  
     726A      0.631333   727A      0.632154   728A      0.632948  
     729A      0.633189   730A      0.635038   731A      0.637992  
     732A      0.638846   733A      0.640997   734A      0.642698  
     735A      0.644111   736A      0.646264   737A      0.647906  
     738A      0.648606   739A      0.650769   740A      0.651136  
     741A      0.652509   742A      0.653926   743A      0.655769  
     744A      0.656993   745A      0.658373   746A      0.659783  
     747A      0.660601   748A      0.662878   749A      0.662990  
     750A      0.663895   751A      0.665132   752A      0.668283  
     753A      0.669391   754A      0.670595   755A      0.672051  
     756A      0.673300   757A      0.673570   758A      0.676852  
     759A      0.679004   760A      0.679352   761A      0.680713  
     762A      0.680833   763A      0.682510   764A      0.683065  
     765A      0.684640   766A      0.685529   767A      0.688098  
     768A      0.688817   769A      0.690648   770A      0.691587  
     771A      0.692965   772A      0.693850   773A      0.696093  
     774A      0.697356   775A      0.698661   776A      0.699966  
     777A      0.701044   778A      0.701848   779A      0.704524  
     780A      0.704748   781A      0.707405   782A      0.707877  
     783A      0.708272   784A      0.709285   785A      0.710815  
     786A      0.712266   787A      0.712421   788A      0.714880  
     789A      0.716018   790A      0.720722   791A      0.721009  
     792A      0.721506   793A      0.722880   794A      0.723615  
     795A      0.724466   796A      0.727518   797A      0.729240  
     798A      0.732166   799A      0.733181   800A      0.734314  
     801A      0.736749   802A      0.737450   803A      0.739234  
     804A      0.740504   805A      0.740945   806A      0.743032  
     807A      0.744031   808A      0.745553   809A      0.746525  
     810A      0.747606   811A      0.749916   812A      0.751235  
     813A      0.752162   814A      0.753532   815A      0.755709  
     816A      0.757182   817A      0.758873   818A      0.760182  
     819A      0.761221   820A      0.763067   821A      0.763489  
     822A      0.766014   823A      0.766284   824A      0.768419  
     825A      0.769276   826A      0.771369   827A      0.772191  
     828A      0.774920   829A      0.775527   830A      0.777363  
     831A      0.778784   832A      0.781222   833A      0.781968  
     834A      0.783879   835A      0.784609   836A      0.786073  
     837A      0.786532   838A      0.787064   839A      0.787754  
     840A      0.790090   841A      0.791180   842A      0.792479  
     843A      0.793371   844A      0.796468   845A      0.797519  
     846A      0.798660   847A      0.799348   848A      0.800284  
     849A      0.800551   850A      0.802580   851A      0.803996  
     852A      0.805839   853A      0.807235   854A      0.809215  
     855A      0.810099   856A      0.810702   857A      0.811072  
     858A      0.813009   859A      0.814059   860A      0.815086  
     861A      0.816572   862A      0.816880   863A      0.818477  
     864A      0.818989   865A      0.823236   866A      0.824034  
     867A      0.824451   868A      0.826284   869A      0.826378  
     870A      0.828656   871A      0.828762   872A      0.829454  
     873A      0.832306   874A      0.832975   875A      0.834984  
     876A      0.836309   877A      0.836788   878A      0.838882  
     879A      0.840348   880A      0.840455   881A      0.843222  
     882A      0.843390   883A      0.845421   884A      0.846604  
     885A      0.846655   886A      0.848003   887A      0.848573  
     888A      0.850574   889A      0.852751   890A      0.854496  
     891A      0.855172   892A      0.855924   893A      0.856537  
     894A      0.857305   895A      0.859006   896A      0.860149  
     897A      0.861927   898A      0.862748   899A      0.864541  
     900A      0.865228   901A      0.867165   902A      0.869577  
     903A      0.871328   904A      0.871685   905A      0.872405  
     906A      0.873857   907A      0.875960   908A      0.876546  
     909A      0.877677   910A      0.879159   911A      0.881617  
     912A      0.883452   913A      0.885063   914A      0.887305  
     915A      0.888714   916A      0.889397   917A      0.890538  
     918A      0.892034   919A      0.892790   920A      0.894150  
     921A      0.895704   922A      0.897499   923A      0.899400  
     924A      0.900948   925A      0.902401   926A      0.903055  
     927A      0.904739   928A      0.905888   929A      0.909094  
     930A      0.910232   931A      0.911271   932A      0.913089  
     933A      0.914042   934A      0.916563   935A      0.917078  
     936A      0.918698   937A      0.920242   938A      0.921029  
     939A      0.923562   940A      0.923848   941A      0.927337  
     942A      0.927444   943A      0.928320   944A      0.931235  
     945A      0.931274   946A      0.932150   947A      0.934439  
     948A      0.935298   949A      0.936102   950A      0.939468  
     951A      0.939674   952A      0.940732   953A      0.942831  
     954A      0.943617   955A      0.944975   956A      0.945343  
     957A      0.946116   958A      0.947083   959A      0.948813  
     960A      0.951853   961A      0.953504   962A      0.954707  
     963A      0.957243   964A      0.958309   965A      0.959037  
     966A      0.961135   967A      0.962594   968A      0.965045  
     969A      0.966544   970A      0.968456   971A      0.970244  
     972A      0.972258   973A      0.973651   974A      0.974900  
     975A      0.976814   976A      0.978628   977A      0.980406  
     978A      0.980947   979A      0.983508   980A      0.984454  
     981A      0.985793   982A      0.987391   983A      0.990487  
     984A      0.991773   985A      0.992853   986A      0.993197  
     987A      0.994362   988A      0.995902   989A      0.996273  
     990A      0.999333   991A      1.000959   992A      1.001426  
     993A      1.004484   994A      1.006302   995A      1.006947  
     996A      1.007918   997A      1.009523   998A      1.010920  
     999A      1.012346  1000A      1.014408  1001A      1.015727  
    1002A      1.016588  1003A      1.017822  1004A      1.019604  
    1005A      1.020259  1006A      1.022573  1007A      1.024984  
    1008A      1.025421  1009A      1.026954  1010A      1.028685  
    1011A      1.030075  1012A      1.031782  1013A      1.032905  
    1014A      1.034233  1015A      1.035302  1016A      1.037064  
    1017A      1.037383  1018A      1.038415  1019A      1.041432  
    1020A      1.041733  1021A      1.044531  1022A      1.046100  
    1023A      1.048120  1024A      1.049293  1025A      1.050392  
    1026A      1.050893  1027A      1.051576  1028A      1.053474  
    1029A      1.056238  1030A      1.056882  1031A      1.057650  
    1032A      1.059158  1033A      1.060540  1034A      1.063340  
    1035A      1.064419  1036A      1.064992  1037A      1.066701  
    1038A      1.067075  1039A      1.070872  1040A      1.072569  
    1041A      1.075695  1042A      1.075985  1043A      1.077503  
    1044A      1.078514  1045A      1.079347  1046A      1.082325  
    1047A      1.083476  1048A      1.083652  1049A      1.085667  
    1050A      1.087348  1051A      1.089693  1052A      1.091217  
    1053A      1.093516  1054A      1.094540  1055A      1.096433  
    1056A      1.097608  1057A      1.098744  1058A      1.100260  
    1059A      1.101924  1060A      1.103835  1061A      1.106403  
    1062A      1.107817  1063A      1.110104  1064A      1.111115  
    1065A      1.112569  1066A      1.113537  1067A      1.115038  
    1068A      1.116298  1069A      1.116785  1070A      1.119222  
    1071A      1.120037  1072A      1.121264  1073A      1.123241  
    1074A      1.125495  1075A      1.126233  1076A      1.126964  
    1077A      1.128693  1078A      1.129477  1079A      1.129958  
    1080A      1.134309  1081A      1.136295  1082A      1.137195  
    1083A      1.139683  1084A      1.140307  1085A      1.142269  
    1086A      1.143991  1087A      1.145470  1088A      1.148021  
    1089A      1.148447  1090A      1.150093  1091A      1.151094  
    1092A      1.152980  1093A      1.153726  1094A      1.156118  
    1095A      1.156943  1096A      1.158890  1097A      1.159875  
    1098A      1.161750  1099A      1.163689  1100A      1.165963  
    1101A      1.166461  1102A      1.167666  1103A      1.169558  
    1104A      1.170570  1105A      1.171258  1106A      1.172720  
    1107A      1.173101  1108A      1.175897  1109A      1.177431  
    1110A      1.178109  1111A      1.181370  1112A      1.182130  
    1113A      1.183305  1114A      1.186333  1115A      1.188441  
    1116A      1.189047  1117A      1.191250  1118A      1.191639  
    1119A      1.194240  1120A      1.195971  1121A      1.197505  
    1122A      1.200069  1123A      1.200685  1124A      1.201163  
    1125A      1.201964  1126A      1.205279  1127A      1.206505  
    1128A      1.208402  1129A      1.209095  1130A      1.210782  
    1131A      1.212829  1132A      1.214148  1133A      1.216975  
    1134A      1.218699  1135A      1.220274  1136A      1.220812  
    1137A      1.223825  1138A      1.225366  1139A      1.227592  
    1140A      1.228647  1141A      1.232331  1142A      1.232461  
    1143A      1.233789  1144A      1.234896  1145A      1.235903  
    1146A      1.237920  1147A      1.239185  1148A      1.241667  
    1149A      1.243906  1150A      1.244880  1151A      1.245615  
    1152A      1.246761  1153A      1.248967  1154A      1.250064  
    1155A      1.251049  1156A      1.253157  1157A      1.254185  
    1158A      1.256509  1159A      1.257188  1160A      1.259002  
    1161A      1.260718  1162A      1.261313  1163A      1.265358  
    1164A      1.266575  1165A      1.267781  1166A      1.271124  
    1167A      1.272546  1168A      1.273876  1169A      1.275397  
    1170A      1.277611  1171A      1.278883  1172A      1.279904  
    1173A      1.281734  1174A      1.282813  1175A      1.284445  
    1176A      1.285139  1177A      1.287409  1178A      1.290047  
    1179A      1.291165  1180A      1.292048  1181A      1.293214  
    1182A      1.297251  1183A      1.297940  1184A      1.299341  
    1185A      1.301643  1186A      1.302485  1187A      1.304045  
    1188A      1.305895  1189A      1.307709  1190A      1.308976  
    1191A      1.309776  1192A      1.310785  1193A      1.311786  
    1194A      1.313606  1195A      1.316144  1196A      1.317148  
    1197A      1.319200  1198A      1.320720  1199A      1.321589  
    1200A      1.322358  1201A      1.325295  1202A      1.326631  
    1203A      1.327228  1204A      1.330181  1205A      1.330430  
    1206A      1.331931  1207A      1.333109  1208A      1.335039  
    1209A      1.337620  1210A      1.338362  1211A      1.341469  
    1212A      1.343301  1213A      1.344381  1214A      1.345204  
    1215A      1.347257  1216A      1.347446  1217A      1.349003  
    1218A      1.350566  1219A      1.350692  1220A      1.353276  
    1221A      1.354264  1222A      1.356402  1223A      1.357793  
    1224A      1.358341  1225A      1.360064  1226A      1.363603  
    1227A      1.364857  1228A      1.366087  1229A      1.369071  
    1230A      1.370865  1231A      1.372346  1232A      1.373968  
    1233A      1.375072  1234A      1.375995  1235A      1.378293  
    1236A      1.381345  1237A      1.381575  1238A      1.381943  
    1239A      1.384392  1240A      1.384737  1241A      1.388304  
    1242A      1.389436  1243A      1.389654  1244A      1.391486  
    1245A      1.393476  1246A      1.394446  1247A      1.396410  
    1248A      1.400618  1249A      1.400918  1250A      1.401787  
    1251A      1.404079  1252A      1.406131  1253A      1.406926  
    1254A      1.408190  1255A      1.409853  1256A      1.411199  
    1257A      1.413782  1258A      1.414208  1259A      1.415860  
    1260A      1.417690  1261A      1.418826  1262A      1.422307  
    1263A      1.423780  1264A      1.424961  1265A      1.426197  
    1266A      1.426863  1267A      1.429301  1268A      1.431860  
    1269A      1.432420  1270A      1.434426  1271A      1.436685  
    1272A      1.437836  1273A      1.439050  1274A      1.440457  
    1275A      1.441769  1276A      1.442743  1277A      1.445035  
    1278A      1.445752  1279A      1.447566  1280A      1.449625  
    1281A      1.452159  1282A      1.454918  1283A      1.455290  
    1284A      1.457017  1285A      1.457939  1286A      1.458859  
    1287A      1.461827  1288A      1.462300  1289A      1.464320  
    1290A      1.465381  1291A      1.468241  1292A      1.468491  
    1293A      1.470408  1294A      1.472703  1295A      1.473909  
    1296A      1.475487  1297A      1.477265  1298A      1.478237  
    1299A      1.478847  1300A      1.481486  1301A      1.482844  
    1302A      1.483771  1303A      1.484529  1304A      1.487430  
    1305A      1.488232  1306A      1.490673  1307A      1.491983  
    1308A      1.494133  1309A      1.495110  1310A      1.496148  
    1311A      1.496786  1312A      1.499542  1313A      1.501263  
    1314A      1.502109  1315A      1.505411  1316A      1.505747  
    1317A      1.507245  1318A      1.508953  1319A      1.510910  
    1320A      1.511332  1321A      1.512940  1322A      1.514939  
    1323A      1.515635  1324A      1.517737  1325A      1.518751  
    1326A      1.519773  1327A      1.522241  1328A      1.523011  
    1329A      1.524854  1330A      1.528011  1331A      1.528525  
    1332A      1.529587  1333A      1.530925  1334A      1.533049  
    1335A      1.535041  1336A      1.537310  1337A      1.538325  
    1338A      1.538934  1339A      1.541340  1340A      1.542208  
    1341A      1.542365  1342A      1.545149  1343A      1.546829  
    1344A      1.549008  1345A      1.549851  1346A      1.551596  
    1347A      1.552017  1348A      1.554238  1349A      1.554917  
    1350A      1.556283  1351A      1.557695  1352A      1.560161  
    1353A      1.562550  1354A      1.563804  1355A      1.564235  
    1356A      1.565735  1357A      1.567371  1358A      1.570045  
    1359A      1.571304  1360A      1.572097  1361A      1.575578  
    1362A      1.576515  1363A      1.579889  1364A      1.580958  
    1365A      1.582483  1366A      1.586181  1367A      1.587155  
    1368A      1.588317  1369A      1.590153  1370A      1.592487  
    1371A      1.593316  1372A      1.593655  1373A      1.595175  
    1374A      1.596292  1375A      1.598133  1376A      1.600929  
    1377A      1.602538  1378A      1.603580  1379A      1.604913  
    1380A      1.605740  1381A      1.607817  1382A      1.608669  
    1383A      1.610731  1384A      1.613321  1385A      1.614443  
    1386A      1.616159  1387A      1.618197  1388A      1.618574  
    1389A      1.621895  1390A      1.623013  1391A      1.625084  
    1392A      1.625429  1393A      1.626403  1394A      1.627785  
    1395A      1.629219  1396A      1.630848  1397A      1.632651  
    1398A      1.636175  1399A      1.638622  1400A      1.639067  
    1401A      1.640481  1402A      1.643727  1403A      1.644460  
    1404A      1.645239  1405A      1.646259  1406A      1.650202  
    1407A      1.651042  1408A      1.652797  1409A      1.654349  
    1410A      1.654766  1411A      1.655745  1412A      1.658590  
    1413A      1.661271  1414A      1.661878  1415A      1.664650  
    1416A      1.665642  1417A      1.667187  1418A      1.668349  
    1419A      1.671303  1420A      1.672150  1421A      1.674187  
    1422A      1.675160  1423A      1.675619  1424A      1.678229  
    1425A      1.680171  1426A      1.680900  1427A      1.682784  
    1428A      1.684529  1429A      1.685455  1430A      1.687702  
    1431A      1.689335  1432A      1.690449  1433A      1.691545  
    1434A      1.695046  1435A      1.695808  1436A      1.698782  
    1437A      1.699761  1438A      1.702477  1439A      1.703634  
    1440A      1.704314  1441A      1.705993  1442A      1.708809  
    1443A      1.709575  1444A      1.711856  1445A      1.714360  
    1446A      1.715775  1447A      1.717093  1448A      1.719551  
    1449A      1.720582  1450A      1.723243  1451A      1.724414  
    1452A      1.726697  1453A      1.728261  1454A      1.731257  
    1455A      1.731966  1456A      1.733876  1457A      1.737895  
    1458A      1.738754  1459A      1.740608  1460A      1.742543  
    1461A      1.744082  1462A      1.745747  1463A      1.746366  
    1464A      1.749775  1465A      1.753865  1466A      1.756594  
    1467A      1.756868  1468A      1.758212  1469A      1.760200  
    1470A      1.763134  1471A      1.764235  1472A      1.765201  
    1473A      1.768595  1474A      1.768733  1475A      1.769139  
    1476A      1.772224  1477A      1.773035  1478A      1.776994  
    1479A      1.779427  1480A      1.780680  1481A      1.782244  
    1482A      1.785144  1483A      1.786319  1484A      1.789045  
    1485A      1.789857  1486A      1.790392  1487A      1.791874  
    1488A      1.792602  1489A      1.797040  1490A      1.797804  
    1491A      1.799531  1492A      1.802731  1493A      1.803768  
    1494A      1.804601  1495A      1.806500  1496A      1.808586  
    1497A      1.809556  1498A      1.811080  1499A      1.813390  
    1500A      1.815030  1501A      1.816897  1502A      1.818515  
    1503A      1.819535  1504A      1.822253  1505A      1.824162  
    1506A      1.824565  1507A      1.826066  1508A      1.828564  
    1509A      1.832273  1510A      1.833849  1511A      1.835491  
    1512A      1.836484  1513A      1.837967  1514A      1.841430  
    1515A      1.842906  1516A      1.843491  1517A      1.846466  
    1518A      1.848772  1519A      1.850779  1520A      1.853236  
    1521A      1.853335  1522A      1.854310  1523A      1.856676  
    1524A      1.858714  1525A      1.860627  1526A      1.862091  
    1527A      1.865275  1528A      1.868031  1529A      1.869735  
    1530A      1.871287  1531A      1.873156  1532A      1.875823  
    1533A      1.877713  1534A      1.879426  1535A      1.880147  
    1536A      1.883410  1537A      1.883946  1538A      1.884747  
    1539A      1.886782  1540A      1.888074  1541A      1.891022  
    1542A      1.891620  1543A      1.893434  1544A      1.894378  
    1545A      1.899018  1546A      1.901003  1547A      1.902217  
    1548A      1.904233  1549A      1.905142  1550A      1.906215  
    1551A      1.909290  1552A      1.912182  1553A      1.913303  
    1554A      1.915897  1555A      1.917274  1556A      1.918541  
    1557A      1.920350  1558A      1.922668  1559A      1.924022  
    1560A      1.926067  1561A      1.927718  1562A      1.928922  
    1563A      1.930449  1564A      1.932077  1565A      1.934605  
    1566A      1.936685  1567A      1.938855  1568A      1.940088  
    1569A      1.943935  1570A      1.946534  1571A      1.947742  
    1572A      1.950823  1573A      1.951892  1574A      1.953978  
    1575A      1.956571  1576A      1.958861  1577A      1.960990  
    1578A      1.964455  1579A      1.964698  1580A      1.966069  
    1581A      1.968340  1582A      1.970411  1583A      1.972791  
    1584A      1.974689  1585A      1.976486  1586A      1.977888  
    1587A      1.979445  1588A      1.981308  1589A      1.983178  
    1590A      1.984319  1591A      1.985413  1592A      1.989207  
    1593A      1.990098  1594A      1.991945  1595A      1.994397  
    1596A      1.995971  1597A      1.998226  1598A      2.001515  
    1599A      2.002457  1600A      2.003578  1601A      2.005421  
    1602A      2.008582  1603A      2.009706  1604A      2.010317  
    1605A      2.013734  1606A      2.014572  1607A      2.015632  
    1608A      2.018349  1609A      2.021512  1610A      2.023551  
    1611A      2.025930  1612A      2.026774  1613A      2.029574  
    1614A      2.032698  1615A      2.033881  1616A      2.035923  
    1617A      2.038707  1618A      2.039090  1619A      2.041658  
    1620A      2.044623  1621A      2.047520  1622A      2.047634  
    1623A      2.049354  1624A      2.052544  1625A      2.053823  
    1626A      2.054235  1627A      2.057378  1628A      2.058295  
    1629A      2.062647  1630A      2.063425  1631A      2.066587  
    1632A      2.067213  1633A      2.069690  1634A      2.070117  
    1635A      2.071954  1636A      2.075331  1637A      2.075707  
    1638A      2.078539  1639A      2.081222  1640A      2.081654  
    1641A      2.083450  1642A      2.085957  1643A      2.086521  
    1644A      2.089192  1645A      2.091336  1646A      2.093692  
    1647A      2.095658  1648A      2.096496  1649A      2.098500  
    1650A      2.099892  1651A      2.104413  1652A      2.104826  
    1653A      2.106905  1654A      2.108946  1655A      2.110522  
    1656A      2.114351  1657A      2.115565  1658A      2.116988  
    1659A      2.118629  1660A      2.120785  1661A      2.123776  
    1662A      2.127592  1663A      2.128370  1664A      2.130628  
    1665A      2.133315  1666A      2.136857  1667A      2.137447  
    1668A      2.141345  1669A      2.142302  1670A      2.145297  
    1671A      2.146473  1672A      2.149388  1673A      2.152194  
    1674A      2.153696  1675A      2.157049  1676A      2.159088  
    1677A      2.160131  1678A      2.163411  1679A      2.164577  
    1680A      2.167005  1681A      2.169070  1682A      2.171626  
    1683A      2.174799  1684A      2.176450  1685A      2.179234  
    1686A      2.181439  1687A      2.182136  1688A      2.183088  
    1689A      2.189037  1690A      2.189226  1691A      2.190658  
    1692A      2.192204  1693A      2.193179  1694A      2.196341  
    1695A      2.198982  1696A      2.202018  1697A      2.202436  
    1698A      2.204029  1699A      2.207322  1700A      2.208579  
    1701A      2.211754  1702A      2.213470  1703A      2.214812  
    1704A      2.215834  1705A      2.218109  1706A      2.221040  
    1707A      2.222278  1708A      2.227485  1709A      2.230478  
    1710A      2.231056  1711A      2.232914  1712A      2.237027  
    1713A      2.238025  1714A      2.239678  1715A      2.240722  
    1716A      2.243474  1717A      2.247841  1718A      2.249764  
    1719A      2.251121  1720A      2.251935  1721A      2.255144  
    1722A      2.257217  1723A      2.259832  1724A      2.260195  
    1725A      2.261531  1726A      2.263712  1727A      2.265228  
    1728A      2.267737  1729A      2.270007  1730A      2.272169  
    1731A      2.274645  1732A      2.275137  1733A      2.277873  
    1734A      2.282471  1735A      2.283501  1736A      2.284290  
    1737A      2.284947  1738A      2.286779  1739A      2.291049  
    1740A      2.292338  1741A      2.294547  1742A      2.297389  
    1743A      2.298471  1744A      2.300291  1745A      2.303115  
    1746A      2.305691  1747A      2.307921  1748A      2.309801  
    1749A      2.313082  1750A      2.315033  1751A      2.315748  
    1752A      2.319885  1753A      2.321356  1754A      2.322834  
    1755A      2.327210  1756A      2.327963  1757A      2.331605  
    1758A      2.332138  1759A      2.334570  1760A      2.336177  
    1761A      2.339678  1762A      2.342849  1763A      2.344444  
    1764A      2.347346  1765A      2.349566  1766A      2.353328  
    1767A      2.354383  1768A      2.357859  1769A      2.360306  
    1770A      2.362249  1771A      2.364024  1772A      2.365247  
    1773A      2.365768  1774A      2.370834  1775A      2.372327  
    1776A      2.374505  1777A      2.377169  1778A      2.379568  
    1779A      2.381000  1780A      2.382408  1781A      2.384067  
    1782A      2.387159  1783A      2.391963  1784A      2.393567  
    1785A      2.398241  1786A      2.400221  1787A      2.402695  
    1788A      2.405667  1789A      2.407576  1790A      2.411079  
    1791A      2.412408  1792A      2.414206  1793A      2.416136  
    1794A      2.419771  1795A      2.423197  1796A      2.426232  
    1797A      2.427395  1798A      2.429831  1799A      2.432865  
    1800A      2.436004  1801A      2.437082  1802A      2.437902  
    1803A      2.439298  1804A      2.442771  1805A      2.444073  
    1806A      2.450081  1807A      2.452094  1808A      2.454673  
    1809A      2.456285  1810A      2.458073  1811A      2.459763  
    1812A      2.461215  1813A      2.462650  1814A      2.466391  
    1815A      2.471420  1816A      2.472128  1817A      2.474976  
    1818A      2.481479  1819A      2.482627  1820A      2.482897  
    1821A      2.486469  1822A      2.490213  1823A      2.491761  
    1824A      2.494691  1825A      2.499520  1826A      2.501960  
    1827A      2.502821  1828A      2.505972  1829A      2.507028  
    1830A      2.512460  1831A      2.513987  1832A      2.516411  
    1833A      2.517337  1834A      2.522707  1835A      2.528453  
    1836A      2.528647  1837A      2.530874  1838A      2.534561  
    1839A      2.537178  1840A      2.537550  1841A      2.541213  
    1842A      2.541723  1843A      2.545871  1844A      2.547869  
    1845A      2.551474  1846A      2.552980  1847A      2.557177  
    1848A      2.559811  1849A      2.560207  1850A      2.562455  
    1851A      2.564349  1852A      2.568821  1853A      2.569244  
    1854A      2.570715  1855A      2.577291  1856A      2.578878  
    1857A      2.579839  1858A      2.583897  1859A      2.588948  
    1860A      2.590679  1861A      2.594178  1862A      2.596238  
    1863A      2.599366  1864A      2.602192  1865A      2.607356  
    1866A      2.607681  1867A      2.610684  1868A      2.612223  
    1869A      2.613089  1870A      2.615351  1871A      2.619262  
    1872A      2.621439  1873A      2.623795  1874A      2.626189  
    1875A      2.630718  1876A      2.631122  1877A      2.634943  
    1878A      2.636376  1879A      2.639322  1880A      2.643889  
    1881A      2.645654  1882A      2.650294  1883A      2.651910  
    1884A      2.657449  1885A      2.657582  1886A      2.661888  
    1887A      2.664424  1888A      2.665961  1889A      2.668695  
    1890A      2.672400  1891A      2.675827  1892A      2.677246  
    1893A      2.681410  1894A      2.683724  1895A      2.688048  
    1896A      2.689171  1897A      2.695567  1898A      2.696324  
    1899A      2.699477  1900A      2.701833  1901A      2.703693  
    1902A      2.707250  1903A      2.711232  1904A      2.716266  
    1905A      2.718421  1906A      2.720502  1907A      2.723375  
    1908A      2.726445  1909A      2.726990  1910A      2.731547  
    1911A      2.735742  1912A      2.738585  1913A      2.740229  
    1914A      2.746291  1915A      2.748236  1916A      2.754248  
    1917A      2.757392  1918A      2.759738  1919A      2.763700  
    1920A      2.766494  1921A      2.770626  1922A      2.771407  
    1923A      2.775566  1924A      2.780614  1925A      2.781211  
    1926A      2.791597  1927A      2.792834  1928A      2.796947  
    1929A      2.801273  1930A      2.804727  1931A      2.808979  
    1932A      2.812399  1933A      2.815991  1934A      2.818895  
    1935A      2.824566  1936A      2.829104  1937A      2.831974  
    1938A      2.836052  1939A      2.837704  1940A      2.840522  
    1941A      2.847300  1942A      2.855808  1943A      2.858354  
    1944A      2.863291  1945A      2.866235  1946A      2.869686  
    1947A      2.877414  1948A      2.878730  1949A      2.885286  
    1950A      2.886229  1951A      2.888837  1952A      2.893398  
    1953A      2.897395  1954A      2.901828  1955A      2.908004  
    1956A      2.910630  1957A      2.916872  1958A      2.919544  
    1959A      2.925504  1960A      2.929428  1961A      2.935123  
    1962A      2.936525  1963A      2.940028  1964A      2.945332  
    1965A      2.948910  1966A      2.952538  1967A      2.956763  
    1968A      2.960774  1969A      2.965939  1970A      2.971787  
    1971A      2.975553  1972A      2.979796  1973A      2.983254  
    1974A      2.986587  1975A      2.988656  1976A      2.995693  
    1977A      2.998746  1978A      3.001375  1979A      3.005698  
    1980A      3.006516  1981A      3.013897  1982A      3.020047  
    1983A      3.024814  1984A      3.026950  1985A      3.031061  
    1986A      3.033021  1987A      3.037887  1988A      3.040113  
    1989A      3.047867  1990A      3.050718  1991A      3.053242  
    1992A      3.055209  1993A      3.062305  1994A      3.064591  
    1995A      3.066345  1996A      3.068903  1997A      3.070734  
    1998A      3.074393  1999A      3.080530  2000A      3.084721  
    2001A      3.085713  2002A      3.093374  2003A      3.094632  
    2004A      3.097305  2005A      3.099355  2006A      3.103219  
    2007A      3.105202  2008A      3.111945  2009A      3.115182  
    2010A      3.120293  2011A      3.122437  2012A      3.127921  
    2013A      3.129822  2014A      3.136631  2015A      3.137935  
    2016A      3.143830  2017A      3.147303  2018A      3.148680  
    2019A      3.154312  2020A      3.155968  2021A      3.159619  
    2022A      3.162600  2023A      3.165392  2024A      3.167745  
    2025A      3.170045  2026A      3.171308  2027A      3.173512  
    2028A      3.177382  2029A      3.178382  2030A      3.184407  
    2031A      3.188642  2032A      3.190058  2033A      3.193457  
    2034A      3.194995  2035A      3.198159  2036A      3.200141  
    2037A      3.204728  2038A      3.210543  2039A      3.211814  
    2040A      3.213826  2041A      3.219645  2042A      3.221595  
    2043A      3.222642  2044A      3.222748  2045A      3.228426  
    2046A      3.229030  2047A      3.233477  2048A      3.235078  
    2049A      3.238190  2050A      3.241164  2051A      3.244301  
    2052A      3.247973  2053A      3.251484  2054A      3.253715  
    2055A      3.254964  2056A      3.257907  2057A      3.262973  
    2058A      3.265797  2059A      3.266014  2060A      3.267720  
    2061A      3.268666  2062A      3.272562  2063A      3.273639  
    2064A      3.274919  2065A      3.277054  2066A      3.279052  
    2067A      3.285968  2068A      3.286828  2069A      3.289392  
    2070A      3.292172  2071A      3.293216  2072A      3.295964  
    2073A      3.300009  2074A      3.300726  2075A      3.305519  
    2076A      3.306673  2077A      3.308355  2078A      3.311661  
    2079A      3.312116  2080A      3.316297  2081A      3.317644  
    2082A      3.320281  2083A      3.325491  2084A      3.326801  
    2085A      3.331096  2086A      3.334032  2087A      3.335654  
    2088A      3.337189  2089A      3.339795  2090A      3.342074  
    2091A      3.344047  2092A      3.346171  2093A      3.349332  
    2094A      3.352648  2095A      3.354800  2096A      3.357272  
    2097A      3.357818  2098A      3.360366  2099A      3.363553  
    2100A      3.367193  2101A      3.368424  2102A      3.371899  
    2103A      3.372015  2104A      3.375239  2105A      3.376690  
    2106A      3.379380  2107A      3.382249  2108A      3.384222  
    2109A      3.386399  2110A      3.388757  2111A      3.389856  
    2112A      3.394023  2113A      3.396606  2114A      3.400142  
    2115A      3.400948  2116A      3.403460  2117A      3.404511  
    2118A      3.407169  2119A      3.407882  2120A      3.409917  
    2121A      3.412565  2122A      3.414770  2123A      3.415966  
    2124A      3.418621  2125A      3.420344  2126A      3.421909  
    2127A      3.426414  2128A      3.427848  2129A      3.430630  
    2130A      3.432406  2131A      3.436473  2132A      3.438991  
    2133A      3.440049  2134A      3.442605  2135A      3.446482  
    2136A      3.447931  2137A      3.450071  2138A      3.452273  
    2139A      3.454522  2140A      3.458552  2141A      3.459632  
    2142A      3.462298  2143A      3.462467  2144A      3.465793  
    2145A      3.467530  2146A      3.470919  2147A      3.472355  
    2148A      3.473000  2149A      3.475726  2150A      3.479632  
    2151A      3.480568  2152A      3.482135  2153A      3.486074  
    2154A      3.489629  2155A      3.491916  2156A      3.493921  
    2157A      3.495537  2158A      3.495717  2159A      3.499338  
    2160A      3.499903  2161A      3.503298  2162A      3.505077  
    2163A      3.506222  2164A      3.510418  2165A      3.512646  
    2166A      3.513787  2167A      3.515495  2168A      3.516484  
    2169A      3.522635  2170A      3.523011  2171A      3.525325  
    2172A      3.528705  2173A      3.530760  2174A      3.532118  
    2175A      3.534875  2176A      3.536366  2177A      3.538055  
    2178A      3.540126  2179A      3.542080  2180A      3.546870  
    2181A      3.548823  2182A      3.550042  2183A      3.551934  
    2184A      3.554443  2185A      3.555884  2186A      3.561356  
    2187A      3.562996  2188A      3.563853  2189A      3.567202  
    2190A      3.569092  2191A      3.569781  2192A      3.571255  
    2193A      3.574988  2194A      3.576319  2195A      3.577717  
    2196A      3.581532  2197A      3.583156  2198A      3.586951  
    2199A      3.588234  2200A      3.589784  2201A      3.590030  
    2202A      3.593134  2203A      3.596065  2204A      3.597904  
    2205A      3.602059  2206A      3.603416  2207A      3.606241  
    2208A      3.608151  2209A      3.610632  2210A      3.613010  
    2211A      3.613560  2212A      3.615094  2213A      3.616913  
    2214A      3.619063  2215A      3.621757  2216A      3.622915  
    2217A      3.626436  2218A      3.628044  2219A      3.630543  
    2220A      3.633436  2221A      3.635212  2222A      3.637627  
    2223A      3.638288  2224A      3.639312  2225A      3.640726  
    2226A      3.643141  2227A      3.647120  2228A      3.649390  
    2229A      3.651432  2230A      3.653852  2231A      3.655770  
    2232A      3.656318  2233A      3.659544  2234A      3.660392  
    2235A      3.663744  2236A      3.665580  2237A      3.668825  
    2238A      3.671796  2239A      3.673198  2240A      3.674536  
    2241A      3.676509  2242A      3.677935  2243A      3.678621  
    2244A      3.681853  2245A      3.682341  2246A      3.686022  
    2247A      3.688522  2248A      3.691787  2249A      3.693797  
    2250A      3.695126  2251A      3.696733  2252A      3.698059  
    2253A      3.701417  2254A      3.703076  2255A      3.706289  
    2256A      3.708029  2257A      3.712010  2258A      3.713945  
    2259A      3.715799  2260A      3.717234  2261A      3.720143  
    2262A      3.720270  2263A      3.723590  2264A      3.727400  
    2265A      3.727974  2266A      3.730441  2267A      3.732930  
    2268A      3.734886  2269A      3.736148  2270A      3.737230  
    2271A      3.739920  2272A      3.743218  2273A      3.744271  
    2274A      3.748491  2275A      3.748924  2276A      3.749983  
    2277A      3.751654  2278A      3.753299  2279A      3.754679  
    2280A      3.758013  2281A      3.761194  2282A      3.762409  
    2283A      3.766276  2284A      3.766673  2285A      3.770703  
    2286A      3.773063  2287A      3.775097  2288A      3.776729  
    2289A      3.777598  2290A      3.779485  2291A      3.782629  
    2292A      3.785038  2293A      3.786610  2294A      3.790278  
    2295A      3.790942  2296A      3.791089  2297A      3.795322  
    2298A      3.796734  2299A      3.799285  2300A      3.800789  
    2301A      3.801940  2302A      3.804024  2303A      3.807015  
    2304A      3.808446  2305A      3.811697  2306A      3.812939  
    2307A      3.814062  2308A      3.814665  2309A      3.820116  
    2310A      3.820894  2311A      3.823543  2312A      3.825157  
    2313A      3.827076  2314A      3.827851  2315A      3.831458  
    2316A      3.833924  2317A      3.834341  2318A      3.838758  
    2319A      3.842496  2320A      3.843902  2321A      3.845525  
    2322A      3.849224  2323A      3.850489  2324A      3.851171  
    2325A      3.852146  2326A      3.855710  2327A      3.856541  
    2328A      3.858705  2329A      3.862550  2330A      3.864491  
    2331A      3.864709  2332A      3.872391  2333A      3.873049  
    2334A      3.874573  2335A      3.878045  2336A      3.878785  
    2337A      3.879683  2338A      3.880505  2339A      3.885157  
    2340A      3.887398  2341A      3.890649  2342A      3.892442  
    2343A      3.894092  2344A      3.896836  2345A      3.898717  
    2346A      3.901996  2347A      3.905506  2348A      3.907810  
    2349A      3.909327  2350A      3.910360  2351A      3.912949  
    2352A      3.915456  2353A      3.917808  2354A      3.919612  
    2355A      3.922126  2356A      3.923715  2357A      3.924607  
    2358A      3.927701  2359A      3.930134  2360A      3.933782  
    2361A      3.934986  2362A      3.936269  2363A      3.941083  
    2364A      3.942763  2365A      3.946806  2366A      3.949209  
    2367A      3.951868  2368A      3.955172  2369A      3.956990  
    2370A      3.960244  2371A      3.962036  2372A      3.964710  
    2373A      3.966255  2374A      3.968441  2375A      3.969540  
    2376A      3.970510  2377A      3.973567  2378A      3.974211  
    2379A      3.976053  2380A      3.977087  2381A      3.978356  
    2382A      3.982125  2383A      3.986090  2384A      3.986562  
    2385A      3.990388  2386A      3.993516  2387A      3.995038  
    2388A      3.998657  2389A      4.001123  2390A      4.003311  
    2391A      4.004448  2392A      4.005583  2393A      4.011412  
    2394A      4.013185  2395A      4.014110  2396A      4.015059  
    2397A      4.017665  2398A      4.019244  2399A      4.021971  
    2400A      4.023988  2401A      4.025245  2402A      4.028163  
    2403A      4.031023  2404A      4.033766  2405A      4.036926  
    2406A      4.040505  2407A      4.041983  2408A      4.045752  
    2409A      4.048038  2410A      4.050306  2411A      4.054525  
    2412A      4.055132  2413A      4.055959  2414A      4.058652  
    2415A      4.062312  2416A      4.063539  2417A      4.065904  
    2418A      4.066431  2419A      4.068417  2420A      4.071796  
    2421A      4.073981  2422A      4.074700  2423A      4.076767  
    2424A      4.079151  2425A      4.081393  2426A      4.082038  
    2427A      4.085442  2428A      4.088776  2429A      4.089872  
    2430A      4.092192  2431A      4.092913  2432A      4.095084  
    2433A      4.096783  2434A      4.099252  2435A      4.099623  
    2436A      4.101700  2437A      4.104541  2438A      4.107560  
    2439A      4.111304  2440A      4.112614  2441A      4.115184  
    2442A      4.115831  2443A      4.119513  2444A      4.120268  
    2445A      4.122918  2446A      4.124057  2447A      4.128216  
    2448A      4.129443  2449A      4.133099  2450A      4.134925  
    2451A      4.136344  2452A      4.138368  2453A      4.141067  
    2454A      4.142090  2455A      4.144596  2456A      4.146880  
    2457A      4.149739  2458A      4.151098  2459A      4.152341  
    2460A      4.154866  2461A      4.158799  2462A      4.160453  
    2463A      4.162060  2464A      4.164600  2465A      4.167709  
    2466A      4.168306  2467A      4.170020  2468A      4.174071  
    2469A      4.177704  2470A      4.178869  2471A      4.181555  
    2472A      4.182704  2473A      4.183580  2474A      4.186498  
    2475A      4.188132  2476A      4.190998  2477A      4.195013  
    2478A      4.198164  2479A      4.199178  2480A      4.201012  
    2481A      4.202685  2482A      4.206555  2483A      4.207169  
    2484A      4.210202  2485A      4.212511  2486A      4.213569  
    2487A      4.214349  2488A      4.217479  2489A      4.220824  
    2490A      4.221670  2491A      4.226349  2492A      4.229765  
    2493A      4.231188  2494A      4.234231  2495A      4.235690  
    2496A      4.236757  2497A      4.239946  2498A      4.242707  
    2499A      4.244773  2500A      4.247411  2501A      4.251646  
    2502A      4.252567  2503A      4.253938  2504A      4.254564  
    2505A      4.257114  2506A      4.259519  2507A      4.261713  
    2508A      4.262473  2509A      4.265369  2510A      4.271752  
    2511A      4.274737  2512A      4.277400  2513A      4.279431  
    2514A      4.281753  2515A      4.283909  2516A      4.286428  
    2517A      4.288099  2518A      4.292958  2519A      4.294348  
    2520A      4.295957  2521A      4.299052  2522A      4.302155  
    2523A      4.303935  2524A      4.308968  2525A      4.311123  
    2526A      4.314434  2527A      4.316711  2528A      4.317037  
    2529A      4.319722  2530A      4.322607  2531A      4.322899  
    2532A      4.327762  2533A      4.328081  2534A      4.328502  
    2535A      4.334113  2536A      4.334777  2537A      4.336081  
    2538A      4.339338  2539A      4.340262  2540A      4.345338  
    2541A      4.346586  2542A      4.349492  2543A      4.353632  
    2544A      4.355206  2545A      4.357670  2546A      4.359063  
    2547A      4.361070  2548A      4.365154  2549A      4.369707  
    2550A      4.371828  2551A      4.373445  2552A      4.374922  
    2553A      4.376146  2554A      4.380377  2555A      4.383391  
    2556A      4.385116  2557A      4.388144  2558A      4.388943  
    2559A      4.391567  2560A      4.392819  2561A      4.394225  
    2562A      4.396276  2563A      4.403713  2564A      4.404700  
    2565A      4.406047  2566A      4.409030  2567A      4.411807  
    2568A      4.413844  2569A      4.417186  2570A      4.419423  
    2571A      4.422319  2572A      4.426779  2573A      4.430347  
    2574A      4.431586  2575A      4.436025  2576A      4.437554  
    2577A      4.439326  2578A      4.441574  2579A      4.443085  
    2580A      4.446396  2581A      4.448614  2582A      4.450116  
    2583A      4.455242  2584A      4.460390  2585A      4.461560  
    2586A      4.464535  2587A      4.466168  2588A      4.467548  
    2589A      4.471119  2590A      4.472620  2591A      4.476948  
    2592A      4.479805  2593A      4.481328  2594A      4.483120  
    2595A      4.483993  2596A      4.487804  2597A      4.489967  
    2598A      4.490701  2599A      4.495613  2600A      4.497124  
    2601A      4.503268  2602A      4.504134  2603A      4.504516  
    2604A      4.510973  2605A      4.511720  2606A      4.513712  
    2607A      4.516563  2608A      4.517404  2609A      4.522673  
    2610A      4.524191  2611A      4.525385  2612A      4.527896  
    2613A      4.533417  2614A      4.535575  2615A      4.537745  
    2616A      4.539621  2617A      4.542697  2618A      4.548015  
    2619A      4.550555  2620A      4.552042  2621A      4.555463  
    2622A      4.557725  2623A      4.559095  2624A      4.560179  
    2625A      4.564043  2626A      4.565028  2627A      4.569204  
    2628A      4.574725  2629A      4.576984  2630A      4.581636  
    2631A      4.581940  2632A      4.587284  2633A      4.590101  
    2634A      4.595058  2635A      4.595830  2636A      4.600047  
    2637A      4.600877  2638A      4.603550  2639A      4.607520  
    2640A      4.612277  2641A      4.614610  2642A      4.617158  
    2643A      4.621569  2644A      4.624070  2645A      4.625206  
    2646A      4.631921  2647A      4.632955  2648A      4.634722  
    2649A      4.638130  2650A      4.641441  2651A      4.645287  
    2652A      4.647197  2653A      4.650663  2654A      4.651894  
    2655A      4.653049  2656A      4.654766  2657A      4.659476  
    2658A      4.662709  2659A      4.663984  2660A      4.665623  
    2661A      4.672002  2662A      4.674465  2663A      4.675520  
    2664A      4.678996  2665A      4.681622  2666A      4.684087  
    2667A      4.686766  2668A      4.690568  2669A      4.693555  
    2670A      4.694825  2671A      4.700521  2672A      4.702020  
    2673A      4.703234  2674A      4.704585  2675A      4.710281  
    2676A      4.711122  2677A      4.714681  2678A      4.718207  
    2679A      4.720535  2680A      4.722284  2681A      4.726294  
    2682A      4.727461  2683A      4.732717  2684A      4.736953  
    2685A      4.738028  2686A      4.742300  2687A      4.743608  
    2688A      4.745055  2689A      4.749924  2690A      4.754188  
    2691A      4.755470  2692A      4.758810  2693A      4.762432  
    2694A      4.764593  2695A      4.767379  2696A      4.771398  
    2697A      4.775112  2698A      4.778737  2699A      4.779477  
    2700A      4.784356  2701A      4.787001  2702A      4.790966  
    2703A      4.792997  2704A      4.795357  2705A      4.799200  
    2706A      4.800556  2707A      4.803938  2708A      4.811559  
    2709A      4.816758  2710A      4.821004  2711A      4.824355  
    2712A      4.826829  2713A      4.829045  2714A      4.832239  
    2715A      4.835696  2716A      4.839423  2717A      4.841583  
    2718A      4.844485  2719A      4.847064  2720A      4.848448  
    2721A      4.854169  2722A      4.857158  2723A      4.860447  
    2724A      4.862694  2725A      4.864715  2726A      4.868882  
    2727A      4.872354  2728A      4.874294  2729A      4.879961  
    2730A      4.881561  2731A      4.885419  2732A      4.888189  
    2733A      4.888587  2734A      4.892841  2735A      4.897453  
    2736A      4.898285  2737A      4.900424  2738A      4.906325  
    2739A      4.907364  2740A      4.911956  2741A      4.915445  
    2742A      4.915902  2743A      4.918784  2744A      4.921160  
    2745A      4.921867  2746A      4.924106  2747A      4.929078  
    2748A      4.931841  2749A      4.934260  2750A      4.940577  
    2751A      4.943687  2752A      4.946220  2753A      4.949119  
    2754A      4.955767  2755A      4.959313  2756A      4.961559  
    2757A      4.966210  2758A      4.969885  2759A      4.974824  
    2760A      4.978248  2761A      4.979486  2762A      4.985353  
    2763A      4.988899  2764A      4.992651  2765A      4.993794  
    2766A      5.002839  2767A      5.005019  2768A      5.007410  
    2769A      5.010794  2770A      5.011868  2771A      5.014424  
    2772A      5.019020  2773A      5.023484  2774A      5.024594  
    2775A      5.028259  2776A      5.031785  2777A      5.036482  
    2778A      5.038197  2779A      5.039816  2780A      5.043533  
    2781A      5.045013  2782A      5.051064  2783A      5.058217  
    2784A      5.058966  2785A      5.061617  2786A      5.063887  
    2787A      5.069818  2788A      5.071673  2789A      5.073751  
    2790A      5.078077  2791A      5.079335  2792A      5.083232  
    2793A      5.084923  2794A      5.088501  2795A      5.089857  
    2796A      5.093179  2797A      5.095339  2798A      5.102174  
    2799A      5.105270  2800A      5.106330  2801A      5.109109  
    2802A      5.109585  2803A      5.117219  2804A      5.122468  
    2805A      5.124519  2806A      5.128721  2807A      5.129649  
    2808A      5.132247  2809A      5.139842  2810A      5.140909  
    2811A      5.143087  2812A      5.147207  2813A      5.154858  
    2814A      5.156376  2815A      5.163531  2816A      5.166325  
    2817A      5.167730  2818A      5.172801  2819A      5.179775  
    2820A      5.182652  2821A      5.188332  2822A      5.195398  
    2823A      5.200921  2824A      5.202982  2825A      5.205800  
    2826A      5.208594  2827A      5.212964  2828A      5.215501  
    2829A      5.223152  2830A      5.224006  2831A      5.227611  
    2832A      5.231705  2833A      5.233829  2834A      5.238378  
    2835A      5.240689  2836A      5.244060  2837A      5.247767  
    2838A      5.250097  2839A      5.260248  2840A      5.263519  
    2841A      5.271593  2842A      5.278557  2843A      5.281245  
    2844A      5.286334  2845A      5.290928  2846A      5.297508  
    2847A      5.304478  2848A      5.305802  2849A      5.314167  
    2850A      5.316279  2851A      5.324722  2852A      5.325418  
    2853A      5.333176  2854A      5.334147  2855A      5.337814  
    2856A      5.342378  2857A      5.351911  2858A      5.354357  
    2859A      5.356917  2860A      5.365970  2861A      5.366185  
    2862A      5.368885  2863A      5.372894  2864A      5.375260  
    2865A      5.379663  2866A      5.381591  2867A      5.386321  
    2868A      5.392064  2869A      5.395385  2870A      5.396591  
    2871A      5.402137  2872A      5.406814  2873A      5.410069  
    2874A      5.411914  2875A      5.412218  2876A      5.417586  
    2877A      5.420633  2878A      5.428308  2879A      5.430225  
    2880A      5.441431  2881A      5.447388  2882A      5.454316  
    2883A      5.458487  2884A      5.462956  2885A      5.468687  
    2886A      5.470419  2887A      5.474102  2888A      5.481792  
    2889A      5.483059  2890A      5.486932  2891A      5.493664  
    2892A      5.495451  2893A      5.498915  2894A      5.512200  
    2895A      5.520666  2896A      5.527774  2897A      5.530799  
    2898A      5.537620  2899A      5.543514  2900A      5.560363  
    2901A      5.562984  2902A      5.567103  2903A      5.572707  
    2904A      5.582390  2905A      5.585286  2906A      5.587691  
    2907A      5.595649  2908A      5.598270  2909A      5.607314  
    2910A      5.610716  2911A      5.617846  2912A      5.622124  
    2913A      5.625661  2914A      5.629497  2915A      5.637661  
    2916A      5.643138  2917A      5.645088  2918A      5.649798  
    2919A      5.656987  2920A      5.659006  2921A      5.667665  
    2922A      5.680783  2923A      5.688164  2924A      5.699562  
    2925A      5.705734  2926A      5.712204  2927A      5.721610  
    2928A      5.736302  2929A      5.742355  2930A      5.742904  
    2931A      5.750869  2932A      5.767812  2933A      5.779430  
    2934A      5.792594  2935A      5.793674  2936A      5.799744  
    2937A      5.807346  2938A      5.810838  2939A      5.816335  
    2940A      5.824373  2941A      5.829523  2942A      5.857160  
    2943A      5.872655  2944A      5.873977  2945A      5.880775  
    2946A      5.883382  2947A      5.894152  2948A      5.904915  
    2949A      5.907966  2950A      5.913341  2951A      5.919485  
    2952A      5.931279  2953A      5.945570  2954A      5.966908  
    2955A      5.971663  2956A      5.977281  2957A      5.993644  
    2958A      5.999114  2959A      6.007567  2960A      6.035465  
    2961A      6.046467  2962A      6.060933  2963A      6.078201  
    2964A      6.090661  2965A      6.093564  2966A      6.106145  
    2967A      6.119234  2968A      6.122995  2969A      6.130297  
    2970A      6.136775  2971A      6.144444  2972A      6.158928  
    2973A      6.170174  2974A      6.178805  2975A      6.202634  
    2976A      6.211484  2977A      6.216580  2978A      6.219106  
    2979A      6.222609  2980A      6.227176  2981A      6.228791  
    2982A      6.242587  2983A      6.244629  2984A      6.246671  
    2985A      6.253671  2986A      6.260536  2987A      6.266806  
    2988A      6.276949  2989A      6.282963  2990A      6.296740  
    2991A      6.305080  2992A      6.311371  2993A      6.315716  
    2994A      6.328099  2995A      6.332318  2996A      6.340164  
    2997A      6.344327  2998A      6.353533  2999A      6.358929  
    3000A      6.360494  3001A      6.381638  3002A      6.384068  
    3003A      6.387962  3004A      6.394165  3005A      6.404498  
    3006A      6.408557  3007A      6.416206  3008A      6.422923  
    3009A      6.436057  3010A      6.442071  3011A      6.446181  
    3012A      6.452814  3013A      6.463712  3014A      6.486089  
    3015A      6.492810  3016A      6.502017  3017A      6.506353  
    3018A      6.525438  3019A      6.525887  3020A      6.542592  
    3021A      6.551070  3022A      6.554411  3023A      6.558588  
    3024A      6.562798  3025A      6.565178  3026A      6.567702  
    3027A      6.579270  3028A      6.580945  3029A      6.591385  
    3030A      6.597469  3031A      6.600797  3032A      6.604822  
    3033A      6.624885  3034A      6.635923  3035A      6.642063  
    3036A      6.652170  3037A      6.670826  3038A      6.674692  
    3039A      6.678307  3040A      6.683640  3041A      6.687892  
    3042A      6.698884  3043A      6.704884  3044A      6.716733  
    3045A      6.721291  3046A      6.729316  3047A      6.738587  
    3048A      6.747715  3049A      6.753458  3050A      6.753811  
    3051A      6.778396  3052A      6.782510  3053A      6.790389  
    3054A      6.797429  3055A      6.799567  3056A      6.811498  
    3057A      6.824212  3058A      6.833759  3059A      6.847989  
    3060A      6.857461  3061A      6.885796  3062A      6.906790  
    3063A      6.920083  3064A      6.938177  3065A      6.948257  
    3066A      6.965903  3067A      6.982441  3068A      6.985701  
    3069A      7.002406  3070A      7.015144  3071A      7.019164  
    3072A      7.026713  3073A      7.027885  3074A      7.033111  
    3075A      7.042768  3076A      7.052564  3077A      7.071775  
    3078A      7.077347  3079A      7.083293  3080A      7.107536  
    3081A      7.117644  3082A      7.125059  3083A      7.173787  
    3084A      7.206573  3085A      7.236790  3086A      7.252634  
    3087A      7.278704  3088A      7.294156  3089A      7.304144  
    3090A      7.314788  3091A      7.334009  3092A      7.386443  
    3093A      7.398789  3094A      7.412901  3095A      7.449483  
    3096A      7.512487  3097A      7.544293  3098A      7.568508  
    3099A      7.574209  3100A      7.579153  3101A      7.621724  
    3102A      7.642630  3103A      7.652747  3104A      7.717214  
    3105A      7.749004  3106A      7.752990  3107A      7.793401  
    3108A      8.000621  3109A      8.019615  3110A      8.064049  
    3111A      8.240426  3112A      8.292624  3113A      8.305871  
    3114A      8.392913  3115A      8.478000  3116A      8.600680  
    3117A      8.779539  3118A      8.821188  3119A      8.962549  
    3120A      9.061941  3121A      9.086364  3122A      9.103456  
    3123A      9.150502  3124A      9.205044  3125A      9.474236  
    3126A      9.578549  3127A     15.292200  3128A     15.318417  
    3129A     15.750111  3130A     15.960752  3131A     16.131037  
    3132A     16.139295  3133A     16.199729  3134A     16.253557  
    3135A     16.321478  3136A     16.499643  3137A     16.689378  
    3138A     16.807570  3139A     16.949178  3140A     17.063332  
    3141A     17.259058  3142A     17.476304  3143A     17.499695  
    3144A     17.547739  3145A     17.775111  3146A     17.811775  
    3147A     17.878904  3148A     17.993394  3149A     18.164718  
    3150A     18.224354  3151A     18.753425  3152A     18.951116  
    3153A     18.980836  3154A     19.272712  3155A     19.497791  
    3156A     19.535125  3157A     19.597414  3158A     20.245071  
    3159A     20.503097  3160A     20.559768  3161A     20.688875  
    3162A     20.789874  3163A     20.824352  3164A     21.029616  
    3165A     21.175436  3166A     21.178485  3167A     21.301578  
    3168A     21.313409  3169A     21.386043  3170A     21.470962  
    3171A     21.533555  3172A     21.686635  3173A     21.763899  
    3174A     21.827911  3175A     21.876378  3176A     22.061119  
    3177A     22.098922  3178A     22.194378  3179A     22.321300  
    3180A     22.489784  3181A     22.557012  

    Final Occupation by Irrep:
              A 
    DOCC [   188 ]
    NA   [   188 ]
    NB   [   188 ]

  @DF-RKS Final Energy: -2431.83608450908969

   => Energetics <=

    Nuclear Repulsion Energy =           8036.0311254087573616
    One-Electron Energy =              -19319.1214003981149290
    Two-Electron Energy =                9123.7115879162320198
    DFT Exchange-Correlation Energy =    -272.3184634370113599
    Empirical Dispersion Energy =          -0.1389339989533593
    VV10 Nonlocal Energy =                  0.0000000000000000
    Total Energy =                      -2431.8360845090901421

Computation Completed


Properties will be evaluated at   0.000000,   0.000000,   0.000000 [a0]

Properties computed using the SCF density matrix


 Multipole Moments:

 ------------------------------------------------------------------------------------
     Multipole            Electronic (a.u.)      Nuclear  (a.u.)        Total (a.u.)
 ------------------------------------------------------------------------------------

 L = 1.  Multiply by 2.5417464519 to convert [e a0] to [Debye]
 Dipole X            :        -10.8086023           10.8896665            0.0810642
 Dipole Y            :         38.7589458          -38.3816908            0.3772550
 Dipole Z            :        -32.5937660           31.3327632           -1.2610028
 Magnitude           :                                                    1.3187194

 ------------------------------------------------------------------------------------

*** tstop() called on atl1-1-02-003-27-2.pace.gatech.edu at Mon Jun 15 14:29:30 2026
Module time:
	user time   =   46535.47 seconds =     775.59 minutes
	system time =    2332.21 seconds =      38.87 minutes
	total time  =       6768 seconds =     112.80 minutes
Total time:
	user time   =   46535.47 seconds =     775.59 minutes
	system time =    2332.21 seconds =      38.87 minutes
	total time  =       6768 seconds =     112.80 minutes

    Psi4 stopped on: Monday, 15 June 2026 02:29PM
    Psi4 wall time for execution: 1:52:57.05

*** Psi4 exiting successfully. Buy a developer a beer!
