
    -----------------------------------------------------------------------
          Psi4: An Open-Source Ab Initio Electronic Structure Package
                               Psi4 1.9.1 release

                         Git: Rev {} zzzzzzz 


    D. G. A. Smith, L. A. Burns, A. C. Simmonett, R. M. Parrish,
    M. C. Schieber, R. Galvelis, P. Kraus, H. Kruse, R. Di Remigio,
    A. Alenaizan, A. M. James, S. Lehtola, J. P. Misiewicz, M. Scheurer,
    R. A. Shaw, J. B. Schriber, Y. Xie, Z. L. Glick, D. A. Sirianni,
    J. S. O'Brien, J. M. Waldrop, A. Kumar, E. G. Hohenstein,
    B. P. Pritchard, B. R. Brooks, H. F. Schaefer III, A. Yu. Sokolov,
    K. Patkowski, A. E. DePrince III, U. Bozkaya, R. A. King,
    F. A. Evangelista, J. M. Turney, T. D. Crawford, C. D. Sherrill,
    J. Chem. Phys. 152(18) 184108 (2020). https://doi.org/10.1063/5.0006002

                            Additional Code Authors
    E. T. Seidl, C. L. Janssen, E. F. Valeev, M. L. Leininger,
    J. F. Gonthier, R. M. Richard, H. R. McAlexander, M. Saitow, X. Wang,
    P. Verma, M. H. Lechner, A. Jiang, S. Behnle, A. G. Heide,
    M. F. Herbst, and D. L. Poole

             Previous Authors, Complete List of Code Contributors,
                       and Citations for Specific Modules
    https://github.com/psi4/psi4/blob/master/codemeta.json
    https://github.com/psi4/psi4/graphs/contributors
    http://psicode.org/psi4manual/master/introduction.html#citing-psifour

    -----------------------------------------------------------------------


    Psi4 started on: Monday, 15 June 2026 11:21AM

    Process ID: 1473310
    Host:       atl1-1-03-004-20-2.pace.gatech.edu
    PSIDATADIR: /storage/home/hcoda1/5/vlita3/.conda/envs/p4_qcml/share/psi4
    Memory:     250.0 GiB
    Threads:    10
    
  ==> Input QCSchema <==

--------------------------------------------------------------------------
{'driver': 'energy',
 'extras': {},
 'id': '343',
 'keywords': {},
 'model': {'basis': 'aug-cc-pvtz', 'method': 'b3lyp-d3'},
 'molecule': {'extras': {},
              'fix_com': True,
              'fix_orientation': True,
              'fragment_charges': [0.0, 0.0],
              'fragment_multiplicities': [1, 1],
              'fragments': [[0, 1, 2, 3, 4, 5, 6, 7, 8, 9, 10, 11, 12, 13, 14, 15, 16, 17, 18, 19, 20, 21, 22, 23, 24,
                             25, 26, 27, 28, 29, 30, 31, 32, 33, 34, 35, 36, 37, 38, 39, 40, 41, 42, 43, 44, 45, 46, 47,
                             48, 49, 50, 51, 52, 53, 54, 55, 56, 57, 58, 59, 60, 61, 62, 63, 64, 65, 66, 67, 68, 69, 70,
                             71],
                            [72, 73, 74, 75, 76, 77, 78, 79, 80, 81, 82, 83, 84, 85, 86, 87, 88, 89, 90, 91]],
              'geometry': [-0.27392714, 6.18819166, -1.19323544, -2.46344698, 5.77825337, -2.60449614, -4.6940608,
                           5.39705781, -1.25234985, -4.71896739, 5.33938337, 1.40379628, -2.51326016, 5.65638493,
                           2.81229042, -0.29786241, 6.1264921, 1.46128175, -7.4236946, 4.94664159, -2.11437677,
                           -8.0102089, 2.21933216, -1.3518118, -8.03725088, 2.16388759, 1.30730308, -7.46490952,
                           4.85601033, 2.19433108, -8.21278754, 0.01810099, -2.78449255, -8.41651891, -2.24308601,
                           -1.44718061, -8.44656555, -2.29788807, 1.20944929, -8.27108559, -0.09424159, 2.64331111,
                           -8.82968863, 6.36030791, 0.05739419, 2.39027678, 6.99321499, -1.97848656, 2.35234998,
                           6.89052727, 2.33048585, 4.24147139, 4.87579576, 1.47132186, 4.26509297, 4.93957402,
                           -1.18371122, 5.91295305, 3.35513315, 2.83024282, 7.66850862, 1.97164575, 1.43096487,
                           7.69269711, 2.03631218, -1.22332744, 5.96134893, 3.48626124, -2.58482409, 2.91214355,
                           8.90127146, 0.22748523, 9.87956377, 0.34201964, -2.07607202, 9.16122218, -2.35520346,
                           -1.32189933, 9.13548411, -2.42066358, 1.33912796, 9.83927481, 0.23553924, 2.23913649,
                           8.55002806, -4.47912335, -2.729596, 7.90073706, -6.7005909, -1.42801501, 7.87418641,
                           -6.76523843, 1.20657123, 8.49702124, -4.61078057, 2.62830668, 11.77284258, 0.92596769,
                           0.1150709, -8.31764844, -5.08264518, 1.9809621, -5.66577687, -5.91321761, 1.16915466,
                           -5.63425624, -5.85826437, -1.48990165, -8.26696598, -4.99384695, -2.32929532, -3.49926256,
                           -6.47956853, 2.52781105, -1.27490751, -7.03089613, 1.18478458, -1.24350593, -6.97650981,
                           -1.44679133, -3.43540871, -6.36901955, -2.81856431, -9.87669139, -6.270716, -0.2182029,
                           -2.4529401, 5.84171037, -4.65828828, -2.54030214, 5.62747212, 4.86674397, -7.86022133,
                           5.46728004, -4.05896164, -7.93792687, 5.29540945, 4.15038659, -8.11773431, 0.05695332,
                           -4.83605482, -8.21892915, -0.14041005, 4.69617729, -8.40519945, 8.38335422, 0.10379812,
                           -10.87140543, 6.03249712, 0.03110168, 2.58575005, 7.68646102, -3.90969218, 2.51428061,
                           7.49055311, 4.29570653, 5.92036077, 3.32542665, 4.88460188, 6.00539845, 3.55672913,
                           -4.63769027, 1.57808761, 10.48166831, 0.25357668, 4.86729199, 9.57563912, 0.26070473,
                           10.52462179, 0.60197793, -4.01470426, 10.44833354, 0.39868497, 4.19987852, 8.5531839,
                           -4.43267388, -4.7823677, 7.42214502, -8.39155563, -2.48982755, 7.37512864, -8.50599744,
                           2.1742055, 8.4600204, -4.66543145, 4.68064374, 12.34503276, 2.91199237, 0.16959272,
                           13.42257349, -0.321261, 0.09956022, -8.86591468, -5.52843157, 3.91606055, -8.76902842,
                           -5.35979242, -4.29349555, -3.50574432, -6.49980749, 4.58215122, 0.4449946, -7.48906022,
                           2.20842844, 0.50076797, -7.39238184, -2.44683628, -3.39254972, -6.30418305, -4.87158167,
                           -11.84561594, -5.6407569, -0.22849246, -9.76051103, -8.33473156, -0.2592572, 0.45225115,
                           -0.84580551, -2.67537976, 2.67838443, -1.53842793, -1.2866805, 2.65068104, -1.59445642,
                           1.27425178, 0.39459182, -0.96458424, 2.64450164, -1.86313012, -0.39368286, 1.25325503,
                           -1.83502422, -0.33633346, -1.30877329, 0.51180775, -0.67721548, -5.30584073, 2.77402347,
                           -1.11680357, -6.67834882, 4.65792923, -1.46517081, -7.76197447, -1.67832057, -0.01779464,
                           -6.70601441, -3.49875233, 0.52904962, -7.81566159, 0.39835616, -0.91584254, 5.28048061,
                           2.63210503, -1.41763286, 6.67793308, 4.4946569, -1.81660506, 7.78079614, -1.82246132,
                           -0.32547131, 6.66298535, -3.66775054, 0.16586372, 7.75745803, 4.38153789, -2.03474371,
                           -2.30489896, 4.33176251, -2.13518265, 2.30622176, -3.59287959, 0.00412869, 2.26776584,
                           -3.54227272, 0.1076148, -2.34208877],
              'id': 12,
              'identifiers': {'molecular_formula': 'C54H34N4',
                              'molecule_hash': '4a657d34a675ca0620b0386855333ac1d6937145'},
              'masses': [12.0, 12.0, 12.0, 12.0, 12.0, 12.0, 12.0, 12.0, 12.0, 12.0, 12.0, 12.0, 12.0, 12.0, 12.0, 12.0,
                         12.0, 12.0, 12.0, 12.0, 12.0, 12.0, 12.0, 12.0, 12.0, 12.0, 12.0, 12.0, 12.0, 12.0, 12.0, 12.0,
                         12.0, 12.0, 12.0, 12.0, 12.0, 12.0, 12.0, 12.0, 12.0, 12.0, 1.00782503223, 1.00782503223,
                         1.00782503223, 1.00782503223, 1.00782503223, 1.00782503223, 1.00782503223, 1.00782503223,
                         1.00782503223, 1.00782503223, 1.00782503223, 1.00782503223, 1.00782503223, 1.00782503223,
                         1.00782503223, 1.00782503223, 1.00782503223, 1.00782503223, 1.00782503223, 1.00782503223,
                         1.00782503223, 1.00782503223, 1.00782503223, 1.00782503223, 1.00782503223, 1.00782503223,
                         1.00782503223, 1.00782503223, 1.00782503223, 1.00782503223, 12.0, 12.0, 12.0, 12.0, 12.0, 12.0,
                         12.0, 12.0, 14.00307400443, 12.0, 14.00307400443, 12.0, 12.0, 14.00307400443, 12.0,
                         14.00307400443, 1.00782503223, 1.00782503223, 1.00782503223, 1.00782503223],
              'molecular_charge': 0.0,
              'molecular_multiplicity': 1,
              'name': 'C54H34N4 ([0],[1])',
              'provenance': {'creator': 'QCElemental',
                             'routine': 'qcelemental.molparse.from_schema',
                             'version': '0.29.0'},
              'real': [True, True, True, True, True, True, True, True, True, True, True, True, True, True, True, True,
                       True, True, True, True, True, True, True, True, True, True, True, True, True, True, True, True,
                       True, True, True, True, True, True, True, True, True, True, True, True, True, True, True, True,
                       True, True, True, True, True, True, True, True, True, True, True, True, True, True, True, True,
                       True, True, True, True, True, True, True, True, False, False, False, False, False, False, False,
                       False, False, False, False, False, False, False, False, False, False, False, False, False],
              'schema_name': 'qcschema_molecule',
              'schema_version': 2,
              'symbols': ['C', 'C', 'C', 'C', 'C', 'C', 'C', 'C', 'C', 'C', 'C', 'C', 'C', 'C', 'C', 'C', 'C', 'C', 'C',
                          'C', 'C', 'C', 'C', 'C', 'C', 'C', 'C', 'C', 'C', 'C', 'C', 'C', 'C', 'C', 'C', 'C', 'C', 'C',
                          'C', 'C', 'C', 'C', 'H', 'H', 'H', 'H', 'H', 'H', 'H', 'H', 'H', 'H', 'H', 'H', 'H', 'H', 'H',
                          'H', 'H', 'H', 'H', 'H', 'H', 'H', 'H', 'H', 'H', 'H', 'H', 'H', 'H', 'H', 'C', 'C', 'C', 'C',
                          'C', 'C', 'C', 'C', 'N', 'C', 'N', 'C', 'C', 'N', 'C', 'N', 'H', 'H', 'H', 'H'],
              'validated': True},
 'protocols': {},
 'provenance': {'creator': 'QCElemental', 'routine': 'qcelemental.models.results', 'version': '0.29.0'},
 'schema_name': 'qcschema_input',
 'schema_version': 1}
--------------------------------------------------------------------------

Scratch directory: /tmp/tmp004a8ny6_psi_scratch/
   => Libint2 <=

    Primary   basis highest AM E, G, H:  6, 6, 3
    Auxiliary basis highest AM E, G, H:  7, 7, 4
    Onebody   basis highest AM E, G, H:  -, -, -
    Solid Harmonics ordering:            Gaussian

*** tstart() called on atl1-1-03-004-20-2.pace.gatech.edu
*** at Mon Jun 15 11:21:50 2026

   => Loading Basis Set <=

    Name: AUG-CC-PVTZ
    Role: ORBITAL
    Keyword: BASIS
    atoms 1-42, 73-80, 82, 84-85, 87 entry C          line   239 file /storage/home/hcoda1/5/vlita3/.conda/envs/p4_qcml/share/psi4/basis/aug-cc-pvtz.gbs 
    atoms 43-72, 89-92               entry H          line    40 file /storage/home/hcoda1/5/vlita3/.conda/envs/p4_qcml/share/psi4/basis/aug-cc-pvtz.gbs 
    atoms 81, 83, 86, 88             entry N          line   285 file /storage/home/hcoda1/5/vlita3/.conda/envs/p4_qcml/share/psi4/basis/aug-cc-pvtz.gbs 

   => B3LYP-D3: Empirical Dispersion <=

    Grimme's -D3 (zero-damping) Dispersion Correction
    Grimme S.; Antony J.; Ehrlich S.; Krieg H. (2010), J. Chem. Phys., 132: 154104

        s6 =       1.000000
        s8 =       1.703000
       sr6 =       1.261000
    alpha6 =      14.000000
       sr8 =       1.000000


         ---------------------------------------------------------
                                   SCF
               by Justin Turney, Rob Parrish, Andy Simmonett
                          and Daniel G. A. Smith
                              RKS Reference
                       10 Threads, 256000 MiB Core
         ---------------------------------------------------------

  ==> Geometry <==

    Molecular point group: c1
    Full point group: C1

    Geometry (in Bohr), charge = 0, multiplicity = 1:

       Center              X                  Y                   Z               Mass       
    ------------   -----------------  -----------------  -----------------  -----------------
         C           -0.273927140000     6.188191660000    -1.193235440000    12.000000000000
         C           -2.463446980000     5.778253370000    -2.604496140000    12.000000000000
         C           -4.694060800000     5.397057810000    -1.252349850000    12.000000000000
         C           -4.718967390000     5.339383370000     1.403796280000    12.000000000000
         C           -2.513260160000     5.656384930000     2.812290420000    12.000000000000
         C           -0.297862410000     6.126492100000     1.461281750000    12.000000000000
         C           -7.423694600000     4.946641590000    -2.114376770000    12.000000000000
         C           -8.010208900000     2.219332160000    -1.351811800000    12.000000000000
         C           -8.037250880000     2.163887590000     1.307303080000    12.000000000000
         C           -7.464909520000     4.856010330000     2.194331080000    12.000000000000
         C           -8.212787540000     0.018100990000    -2.784492550000    12.000000000000
         C           -8.416518910000    -2.243086010000    -1.447180610000    12.000000000000
         C           -8.446565550000    -2.297888070000     1.209449290000    12.000000000000
         C           -8.271085590000    -0.094241590000     2.643311110000    12.000000000000
         C           -8.829688630000     6.360307910000     0.057394190000    12.000000000000
         C            2.390276780000     6.993214990000    -1.978486560000    12.000000000000
         C            2.352349980000     6.890527270000     2.330485850000    12.000000000000
         C            4.241471390000     4.875795760000     1.471321860000    12.000000000000
         C            4.265092970000     4.939574020000    -1.183711220000    12.000000000000
         C            5.912953050000     3.355133150000     2.830242820000    12.000000000000
         C            7.668508620000     1.971645750000     1.430964870000    12.000000000000
         C            7.692697110000     2.036312180000    -1.223327440000    12.000000000000
         C            5.961348930000     3.486261240000    -2.584824090000    12.000000000000
         C            2.912143550000     8.901271460000     0.227485230000    12.000000000000
         C            9.879563770000     0.342019640000    -2.076072020000    12.000000000000
         C            9.161222180000    -2.355203460000    -1.321899330000    12.000000000000
         C            9.135484110000    -2.420663580000     1.339127960000    12.000000000000
         C            9.839274810000     0.235539240000     2.239136490000    12.000000000000
         C            8.550028060000    -4.479123350000    -2.729596000000    12.000000000000
         C            7.900737060000    -6.700590900000    -1.428015010000    12.000000000000
         C            7.874186410000    -6.765238430000     1.206571230000    12.000000000000
         C            8.497021240000    -4.610780570000     2.628306680000    12.000000000000
         C           11.772842580000     0.925967690000     0.115070900000    12.000000000000
         C           -8.317648440000    -5.082645180000     1.980962100000    12.000000000000
         C           -5.665776870000    -5.913217610000     1.169154660000    12.000000000000
         C           -5.634256240000    -5.858264370000    -1.489901650000    12.000000000000
         C           -8.266965980000    -4.993846950000    -2.329295320000    12.000000000000
         C           -3.499262560000    -6.479568530000     2.527811050000    12.000000000000
         C           -1.274907510000    -7.030896130000     1.184784580000    12.000000000000
         C           -1.243505930000    -6.976509810000    -1.446791330000    12.000000000000
         C           -3.435408710000    -6.369019550000    -2.818564310000    12.000000000000
         C           -9.876691390000    -6.270716000000    -0.218202900000    12.000000000000
         H           -2.452940100000     5.841710370000    -4.658288280000     1.007825032230
         H           -2.540302140000     5.627472120000     4.866743970000     1.007825032230
         H           -7.860221330000     5.467280040000    -4.058961640000     1.007825032230
         H           -7.937926870000     5.295409450000     4.150386590000     1.007825032230
         H           -8.117734310000     0.056953320000    -4.836054820000     1.007825032230
         H           -8.218929150000    -0.140410050000     4.696177290000     1.007825032230
         H           -8.405199450000     8.383354220000     0.103798120000     1.007825032230
         H          -10.871405430000     6.032497120000     0.031101680000     1.007825032230
         H            2.585750050000     7.686461020000    -3.909692180000     1.007825032230
         H            2.514280610000     7.490553110000     4.295706530000     1.007825032230
         H            5.920360770000     3.325426650000     4.884601880000     1.007825032230
         H            6.005398450000     3.556729130000    -4.637690270000     1.007825032230
         H            1.578087610000    10.481668310000     0.253576680000     1.007825032230
         H            4.867291990000     9.575639120000     0.260704730000     1.007825032230
         H           10.524621790000     0.601977930000    -4.014704260000     1.007825032230
         H           10.448333540000     0.398684970000     4.199878520000     1.007825032230
         H            8.553183900000    -4.432673880000    -4.782367700000     1.007825032230
         H            7.422145020000    -8.391555630000    -2.489827550000     1.007825032230
         H            7.375128640000    -8.505997440000     2.174205500000     1.007825032230
         H            8.460020400000    -4.665431450000     4.680643740000     1.007825032230
         H           12.345032760000     2.911992370000     0.169592720000     1.007825032230
         H           13.422573490000    -0.321261000000     0.099560220000     1.007825032230
         H           -8.865914680000    -5.528431570000     3.916060550000     1.007825032230
         H           -8.769028420000    -5.359792420000    -4.293495550000     1.007825032230
         H           -3.505744320000    -6.499807490000     4.582151220000     1.007825032230
         H            0.444994600000    -7.489060220000     2.208428440000     1.007825032230
         H            0.500767970000    -7.392381840000    -2.446836280000     1.007825032230
         H           -3.392549720000    -6.304183050000    -4.871581670000     1.007825032230
         H          -11.845615940000    -5.640756900000    -0.228492460000     1.007825032230
         H           -9.760511030000    -8.334731560000    -0.259257200000     1.007825032230
      Gh(C)           0.452251150000    -0.845805510000    -2.675379760000    12.000000000000
      Gh(C)           2.678384430000    -1.538427930000    -1.286680500000    12.000000000000
      Gh(C)           2.650681040000    -1.594456420000     1.274251780000    12.000000000000
      Gh(C)           0.394591820000    -0.964584240000     2.644501640000    12.000000000000
      Gh(C)          -1.863130120000    -0.393682860000     1.253255030000    12.000000000000
      Gh(C)          -1.835024220000    -0.336333460000    -1.308773290000    12.000000000000
      Gh(C)           0.511807750000    -0.677215480000    -5.305840730000    12.000000000000
      Gh(C)           2.774023470000    -1.116803570000    -6.678348820000    12.000000000000
      Gh(N)           4.657929230000    -1.465170810000    -7.761974470000    14.003074004430
      Gh(C)          -1.678320570000    -0.017794640000    -6.706014410000    12.000000000000
      Gh(N)          -3.498752330000     0.529049620000    -7.815661590000    14.003074004430
      Gh(C)           0.398356160000    -0.915842540000     5.280480610000    12.000000000000
      Gh(C)           2.632105030000    -1.417632860000     6.677933080000    12.000000000000
      Gh(N)           4.494656900000    -1.816605060000     7.780796140000    14.003074004430
      Gh(C)          -1.822461320000    -0.325471310000     6.662985350000    12.000000000000
      Gh(N)          -3.667750540000     0.165863720000     7.757458030000    14.003074004430
      Gh(H)           4.381537890000    -2.034743710000    -2.304898960000     1.007825032230
      Gh(H)           4.331762510000    -2.135182650000     2.306221760000     1.007825032230
      Gh(H)          -3.592879590000     0.004128690000     2.267765840000     1.007825032230
      Gh(H)          -3.542272720000     0.107614800000    -2.342088770000     1.007825032230

  Running in c1 symmetry.

  Rotational constants: A =      0.00267  B =      0.00168  C =      0.00146 [cm^-1]
  Rotational constants: A =     80.12542  B =     50.33918  C =     43.84220 [MHz]
  Nuclear repulsion = 4480.390671897964239

  Charge       = 0
  Multiplicity = 1
  Electrons    = 282
  Nalpha       = 141
  Nbeta        = 141

  ==> Algorithm <==

  SCF Algorithm Type is DF.
  DIIS enabled.
  MOM disabled.
  Fractional occupation disabled.
  Guess Type is SAD.
  Energy threshold   = 1.00e-06
  Density threshold  = 1.00e-06
  Integral threshold = 1.00e-12

  ==> Primary Basis <==

  Basis Set: AUG-CC-PVTZ
    Blend: AUG-CC-PVTZ
    Number of shells: 1118
    Number of basis functions: 3450
    Number of Cartesian functions: 4040
    Spherical Harmonics?: true
    Max angular momentum: 3

  ==> DFT Potential <==

   => LibXC <=

    Version 7.0.0
    S. Lehtola, C. Steigemann, M. J.T. Oliveira, and M. A.L. Marques.,  SoftwareX 7, 1–5 (2018) (10.1016/j.softx.2017.11.002)

   => Composite Functional: B3LYP-D3ZERO2B <= 

    B3LYP-d3zero2b Hyb-GGA Exchange-Correlation Functional

    P. J. Stephens, F. J. Devlin, C. F. Chabalowski, and M. J. Frisch.,  J. Phys. Chem. 98, 11623 (1994) (10.1021/j100096a001)

    Deriv               =              1
    GGA                 =           TRUE
    Meta                =          FALSE

    Exchange Hybrid     =           TRUE
    MP2 Hybrid          =          FALSE

   => Exchange Functionals <=

    0.0800   Slater exchange
    0.7200         Becke 88

   => Exact (HF) Exchange <=

    0.2000               HF 

   => Correlation Functionals <=

    0.1900   Vosko, Wilk & Nusair (VWN5_RPA)
    0.8100   Lee, Yang & Parr

   => LibXC Density Thresholds  <==

    XC_HYB_GGA_XC_B3LYP:  1.00E-15 

   => Molecular Quadrature <=

    Radial Scheme          =       TREUTLER
    Pruning Scheme         =           NONE
    Nuclear Scheme         =       TREUTLER

    Blocking Scheme        =         OCTREE
    BS radius alpha        =              1
    Pruning alpha          =              1
    Radial Points          =             75
    Spherical Points       =            302
    Total Points           =        1810751
    Total Blocks           =          12182
    Max Points             =            256
    Max Functions          =           2258
    Weights Tolerance      =       1.00E-15

   => Loading Basis Set <=

    Name: (AUG-CC-PVTZ AUX)
    Role: JKFIT
    Keyword: DF_BASIS_SCF
    atoms 1-42, 73-80, 82, 84-85, 87 entry C          line   162 file /storage/home/hcoda1/5/vlita3/.conda/envs/p4_qcml/share/psi4/basis/aug-cc-pvtz-jkfit.gbs 
    atoms 43-72, 89-92               entry H          line    70 file /storage/home/hcoda1/5/vlita3/.conda/envs/p4_qcml/share/psi4/basis/aug-cc-pvtz-jkfit.gbs 
    atoms 81, 83, 86, 88             entry N          line   224 file /storage/home/hcoda1/5/vlita3/.conda/envs/p4_qcml/share/psi4/basis/aug-cc-pvtz-jkfit.gbs 

  ==> Integral Setup <==

  ==> DiskDFJK: Density-Fitted J/K Matrices <==

    J tasked:                  Yes
    K tasked:                  Yes
    wK tasked:                  No
    OpenMP threads:             10
    Integrals threads:          10
    Memory [MiB]:           172800
    Algorithm:                Disk
    Integral Cache:           NONE
    Schwarz Cutoff:          1E-12
    Fitting Condition:       1E-10

   => Auxiliary Basis Set <=

  Basis Set: (AUG-CC-PVTZ AUX)
    Blend: AUG-CC-PVTZ-JKFIT
    Number of shells: 2216
    Number of basis functions: 7596
    Number of Cartesian functions: 9468
    Spherical Harmonics?: true
    Max angular momentum: 4

  Minimum eigenvalue in the overlap matrix is 3.2999283483E-10.
  Reciprocal condition number of the overlap matrix is 8.9829939844E-12.
    Using canonical orthogonalization.
  Overall, 31 of 3450 possible MOs eliminated.


  ==> Pre-Iterations <==

  SCF Guess: Superposition of Atomic Densities via on-the-fly atomic UHF (no occupation information).

   -------------------------
    Irrep   Nso     Nmo    
   -------------------------
     A       3450    3419 
   -------------------------
    Total    3450    3419
   -------------------------

  ==> Iterations <==

                           Total Energy        Delta E     RMS |[F,P]|

   @DF-RKS iter SAD: -1620.09472447270923   -1.62009e+03   0.00000e+00 
   @DF-RKS iter   1: -1615.90035753011102    4.19437e+00   7.07331e-04 ADIIS/DIIS
   @DF-RKS iter   2: -1603.34472707664440    1.25556e+01   1.42785e-03 ADIIS/DIIS
   @DF-RKS iter   3: -1618.52141545729705   -1.51767e+01   3.03439e-04 ADIIS/DIIS
   @DF-RKS iter   4: -1618.97337534500139   -4.51960e-01   1.38715e-04 ADIIS/DIIS
   @DF-RKS iter   5: -1619.06214014131774   -8.87648e-02   6.81149e-05 DIIS
   @DF-RKS iter   6: -1619.08798169484908   -2.58416e-02   2.36561e-05 DIIS
   @DF-RKS iter   7: -1619.09084939756895   -2.86770e-03   9.22509e-06 DIIS
   @DF-RKS iter   8: -1619.09132954072811   -4.80143e-04   2.41952e-06 DIIS
   @DF-RKS iter   9: -1619.09136066929659   -3.11286e-05   9.25012e-07 DIIS
   @DF-RKS iter  10: -1619.09136442046997   -3.75117e-06   4.81955e-07 DIIS
   @DF-RKS iter  11: -1619.09136574503873   -1.32457e-06   1.34673e-07 DIIS
   @DF-RKS iter  12: -1619.09136584841008   -1.03371e-07   3.11416e-08 DIIS
  Energy and wave function converged.


  ==> Post-Iterations <==

   Electrons on quadrature grid:
      Ntotal   =  281.9995921856 ; deviation = -4.078e-04 

    Orbital Energies [Eh]
    ---------------------

    Doubly Occupied:                                                      

       1A    -10.193374     2A    -10.193362     3A    -10.191658  
       4A    -10.191630     5A    -10.190569     6A    -10.190557  
       7A    -10.190455     8A    -10.190423     9A    -10.181917  
      10A    -10.181000    11A    -10.179915    12A    -10.179371  
      13A    -10.178620    14A    -10.178216    15A    -10.178070  
      16A    -10.177554    17A    -10.177448    18A    -10.176956  
      19A    -10.176452    20A    -10.176422    21A    -10.176394  
      22A    -10.176371    23A    -10.176356    24A    -10.176320  
      25A    -10.176207    26A    -10.176121    27A    -10.176077  
      28A    -10.176001    29A    -10.175735    30A    -10.175711  
      31A    -10.175573    32A    -10.175501    33A    -10.175056  
      34A    -10.175018    35A    -10.174874    36A    -10.174433  
      37A    -10.174418    38A    -10.174283    39A    -10.172081  
      40A    -10.172046    41A    -10.169600    42A    -10.168985  
      43A     -0.910196    44A     -0.906952    45A     -0.900235  
      46A     -0.892377    47A     -0.846292    48A     -0.839376  
      49A     -0.825490    50A     -0.807572    51A     -0.789644  
      52A     -0.769385    53A     -0.765515    54A     -0.757450  
      55A     -0.747738    56A     -0.740170    57A     -0.732205  
      58A     -0.724353    59A     -0.713343    60A     -0.709835  
      61A     -0.697837    62A     -0.696645    63A     -0.687782  
      64A     -0.680152    65A     -0.664124    66A     -0.629532  
      67A     -0.624330    68A     -0.615335    69A     -0.606341  
      70A     -0.602037    71A     -0.582851    72A     -0.581578  
      73A     -0.578362    74A     -0.575407    75A     -0.570281  
      76A     -0.560034    77A     -0.556101    78A     -0.534904  
      79A     -0.520113    80A     -0.516469    81A     -0.515441  
      82A     -0.510664    83A     -0.503458    84A     -0.497601  
      85A     -0.486667    86A     -0.483283    87A     -0.469078  
      88A     -0.455801    89A     -0.452450    90A     -0.447994  
      91A     -0.445813    92A     -0.445727    93A     -0.444164  
      94A     -0.443527    95A     -0.426844    96A     -0.422392  
      97A     -0.416224    98A     -0.416048    99A     -0.415122  
     100A     -0.411339   101A     -0.408145   102A     -0.407209  
     103A     -0.406051   104A     -0.405633   105A     -0.404318  
     106A     -0.392934   107A     -0.389832   108A     -0.384939  
     109A     -0.381867   110A     -0.375451   111A     -0.369881  
     112A     -0.366849   113A     -0.361383   114A     -0.356227  
     115A     -0.351563   116A     -0.351001   117A     -0.349241  
     118A     -0.345166   119A     -0.341799   120A     -0.341725  
     121A     -0.339015   122A     -0.337883   123A     -0.332521  
     124A     -0.331250   125A     -0.329935   126A     -0.325632  
     127A     -0.324024   128A     -0.321859   129A     -0.318465  
     130A     -0.317700   131A     -0.312993   132A     -0.254494  
     133A     -0.251873   134A     -0.247759   135A     -0.245284  
     136A     -0.242640   137A     -0.242181   138A     -0.241066  
     139A     -0.228905   140A     -0.216481   141A     -0.202472  

    Virtual:                                                              

     142A     -0.027739   143A     -0.026961   144A     -0.021636  
     145A     -0.019364   146A     -0.010866   147A     -0.008849  
     148A     -0.007354   149A     -0.005093   150A     -0.004823  
     151A     -0.002996   152A      0.000019   153A      0.002437  
     154A      0.003042   155A      0.005103   156A      0.005537  
     157A      0.007021   158A      0.009922   159A      0.010586  
     160A      0.014618   161A      0.017723   162A      0.017974  
     163A      0.018761   164A      0.021634   165A      0.022987  
     166A      0.023611   167A      0.027144   168A      0.029948  
     169A      0.031333   170A      0.033576   171A      0.034443  
     172A      0.035486   173A      0.037121   174A      0.038381  
     175A      0.039764   176A      0.044631   177A      0.047685  
     178A      0.047918   179A      0.049281   180A      0.050383  
     181A      0.052816   182A      0.054645   183A      0.056457  
     184A      0.056833   185A      0.057918   186A      0.058895  
     187A      0.060976   188A      0.061245   189A      0.063292  
     190A      0.064269   191A      0.065518   192A      0.065562  
     193A      0.068541   194A      0.069205   195A      0.069241  
     196A      0.070843   197A      0.073680   198A      0.074749  
     199A      0.075100   200A      0.076200   201A      0.076434  
     202A      0.077127   203A      0.078093   204A      0.078342  
     205A      0.079874   206A      0.082076   207A      0.082525  
     208A      0.085282   209A      0.086767   210A      0.088549  
     211A      0.089903   212A      0.090164   213A      0.092210  
     214A      0.092388   215A      0.093661   216A      0.093874  
     217A      0.094668   218A      0.096320   219A      0.096544  
     220A      0.096819   221A      0.098528   222A      0.100728  
     223A      0.101807   224A      0.104233   225A      0.106047  
     226A      0.106354   227A      0.107280   228A      0.108053  
     229A      0.109207   230A      0.111642   231A      0.112713  
     232A      0.113926   233A      0.116224   234A      0.116919  
     235A      0.118721   236A      0.118884   237A      0.120074  
     238A      0.121837   239A      0.122697   240A      0.123998  
     241A      0.124903   242A      0.125660   243A      0.126186  
     244A      0.126811   245A      0.127830   246A      0.128540  
     247A      0.129389   248A      0.132061   249A      0.133118  
     250A      0.134010   251A      0.135194   252A      0.136512  
     253A      0.138444   254A      0.140171   255A      0.140491  
     256A      0.142582   257A      0.142879   258A      0.143312  
     259A      0.145491   260A      0.148465   261A      0.149020  
     262A      0.152395   263A      0.153099   264A      0.154156  
     265A      0.155192   266A      0.155553   267A      0.157032  
     268A      0.157842   269A      0.159604   270A      0.159637  
     271A      0.163521   272A      0.163867   273A      0.164366  
     274A      0.164657   275A      0.165458   276A      0.166430  
     277A      0.167530   278A      0.168424   279A      0.168780  
     280A      0.169225   281A      0.171741   282A      0.171936  
     283A      0.172091   284A      0.174234   285A      0.176047  
     286A      0.176482   287A      0.178101   288A      0.178652  
     289A      0.180165   290A      0.181280   291A      0.181565  
     292A      0.182159   293A      0.182661   294A      0.182941  
     295A      0.184797   296A      0.185528   297A      0.185812  
     298A      0.186377   299A      0.188590   300A      0.190066  
     301A      0.190873   302A      0.191437   303A      0.192257  
     304A      0.192663   305A      0.194300   306A      0.195833  
     307A      0.195879   308A      0.196183   309A      0.196688  
     310A      0.197533   311A      0.198051   312A      0.200778  
     313A      0.200850   314A      0.201358   315A      0.202053  
     316A      0.202938   317A      0.205038   318A      0.206132  
     319A      0.206884   320A      0.207945   321A      0.208218  
     322A      0.209332   323A      0.210445   324A      0.211891  
     325A      0.212160   326A      0.212860   327A      0.213595  
     328A      0.213879   329A      0.214207   330A      0.215575  
     331A      0.216902   332A      0.217102   333A      0.218261  
     334A      0.218640   335A      0.218879   336A      0.219025  
     337A      0.220443   338A      0.221654   339A      0.221727  
     340A      0.222747   341A      0.223046   342A      0.224348  
     343A      0.224939   344A      0.225948   345A      0.226816  
     346A      0.228110   347A      0.228361   348A      0.228799  
     349A      0.230486   350A      0.230751   351A      0.231146  
     352A      0.232857   353A      0.233335   354A      0.233391  
     355A      0.234428   356A      0.236335   357A      0.236994  
     358A      0.237200   359A      0.238411   360A      0.239531  
     361A      0.240970   362A      0.241462   363A      0.241803  
     364A      0.243558   365A      0.244217   366A      0.247510  
     367A      0.248673   368A      0.250011   369A      0.251781  
     370A      0.252186   371A      0.253810   372A      0.254312  
     373A      0.255779   374A      0.256457   375A      0.258471  
     376A      0.258616   377A      0.260064   378A      0.261691  
     379A      0.262160   380A      0.262647   381A      0.264384  
     382A      0.265130   383A      0.265226   384A      0.266201  
     385A      0.267161   386A      0.267733   387A      0.269261  
     388A      0.269832   389A      0.271396   390A      0.271747  
     391A      0.271815   392A      0.274229   393A      0.274628  
     394A      0.276233   395A      0.277133   396A      0.278406  
     397A      0.279028   398A      0.280752   399A      0.281291  
     400A      0.282658   401A      0.284120   402A      0.285617  
     403A      0.285889   404A      0.288006   405A      0.288234  
     406A      0.288344   407A      0.288851   408A      0.290881  
     409A      0.291746   410A      0.293444   411A      0.293527  
     412A      0.294710   413A      0.294913   414A      0.296219  
     415A      0.296779   416A      0.299719   417A      0.301488  
     418A      0.301835   419A      0.302493   420A      0.305339  
     421A      0.305709   422A      0.306597   423A      0.308741  
     424A      0.309673   425A      0.311694   426A      0.312455  
     427A      0.313312   428A      0.314088   429A      0.315739  
     430A      0.316677   431A      0.318340   432A      0.319719  
     433A      0.320175   434A      0.320534   435A      0.321304  
     436A      0.324042   437A      0.324541   438A      0.324726  
     439A      0.326357   440A      0.326759   441A      0.329146  
     442A      0.331281   443A      0.331768   444A      0.331871  
     445A      0.333959   446A      0.335183   447A      0.335371  
     448A      0.337001   449A      0.337046   450A      0.338814  
     451A      0.339782   452A      0.341678   453A      0.342758  
     454A      0.344038   455A      0.345249   456A      0.347077  
     457A      0.347501   458A      0.348555   459A      0.351070  
     460A      0.351543   461A      0.354157   462A      0.355690  
     463A      0.355824   464A      0.356818   465A      0.357246  
     466A      0.360635   467A      0.360995   468A      0.361949  
     469A      0.364915   470A      0.368065   471A      0.369573  
     472A      0.370589   473A      0.370893   474A      0.373064  
     475A      0.373566   476A      0.373967   477A      0.376884  
     478A      0.377575   479A      0.378856   480A      0.379297  
     481A      0.380736   482A      0.381882   483A      0.383335  
     484A      0.384391   485A      0.386206   486A      0.386788  
     487A      0.387548   488A      0.390886   489A      0.393480  
     490A      0.393506   491A      0.394180   492A      0.395421  
     493A      0.396753   494A      0.397452   495A      0.399532  
     496A      0.400373   497A      0.401448   498A      0.403010  
     499A      0.403069   500A      0.405644   501A      0.405875  
     502A      0.407152   503A      0.408638   504A      0.411236  
     505A      0.412744   506A      0.413628   507A      0.414676  
     508A      0.415329   509A      0.415935   510A      0.416856  
     511A      0.417726   512A      0.418154   513A      0.419387  
     514A      0.420553   515A      0.421317   516A      0.423069  
     517A      0.424739   518A      0.425449   519A      0.426394  
     520A      0.427815   521A      0.427923   522A      0.429794  
     523A      0.430067   524A      0.432347   525A      0.433177  
     526A      0.433303   527A      0.434640   528A      0.435189  
     529A      0.436406   530A      0.438130   531A      0.439045  
     532A      0.440788   533A      0.441015   534A      0.442275  
     535A      0.442959   536A      0.443087   537A      0.443744  
     538A      0.443955   539A      0.445367   540A      0.446624  
     541A      0.446991   542A      0.448202   543A      0.449028  
     544A      0.450250   545A      0.451856   546A      0.455068  
     547A      0.455146   548A      0.455899   549A      0.456981  
     550A      0.458012   551A      0.458591   552A      0.460592  
     553A      0.460826   554A      0.461621   555A      0.463459  
     556A      0.464096   557A      0.464345   558A      0.464723  
     559A      0.466331   560A      0.467949   561A      0.469647  
     562A      0.471345   563A      0.472469   564A      0.473256  
     565A      0.473441   566A      0.473618   567A      0.473963  
     568A      0.475607   569A      0.476433   570A      0.477546  
     571A      0.477850   572A      0.479830   573A      0.481204  
     574A      0.481394   575A      0.481889   576A      0.482506  
     577A      0.483630   578A      0.484979   579A      0.485568  
     580A      0.486645   581A      0.487573   582A      0.487767  
     583A      0.488836   584A      0.489921   585A      0.490617  
     586A      0.494213   587A      0.494763   588A      0.495592  
     589A      0.496314   590A      0.496836   591A      0.500178  
     592A      0.500949   593A      0.501050   594A      0.502056  
     595A      0.502535   596A      0.503931   597A      0.504342  
     598A      0.505257   599A      0.505873   600A      0.506060  
     601A      0.508731   602A      0.509313   603A      0.509860  
     604A      0.510196   605A      0.511112   606A      0.512439  
     607A      0.513091   608A      0.515146   609A      0.516649  
     610A      0.518088   611A      0.519420   612A      0.521201  
     613A      0.521790   614A      0.523283   615A      0.523682  
     616A      0.524821   617A      0.525096   618A      0.528585  
     619A      0.528833   620A      0.529548   621A      0.531541  
     622A      0.534623   623A      0.534839   624A      0.535214  
     625A      0.537395   626A      0.537749   627A      0.539328  
     628A      0.541290   629A      0.541966   630A      0.542902  
     631A      0.545112   632A      0.545867   633A      0.547334  
     634A      0.547384   635A      0.549168   636A      0.551350  
     637A      0.552287   638A      0.552487   639A      0.553104  
     640A      0.554816   641A      0.556143   642A      0.558798  
     643A      0.559005   644A      0.559119   645A      0.561205  
     646A      0.563025   647A      0.564802   648A      0.565626  
     649A      0.566756   650A      0.567835   651A      0.569389  
     652A      0.570280   653A      0.571825   654A      0.573889  
     655A      0.574026   656A      0.574768   657A      0.575766  
     658A      0.577247   659A      0.579162   660A      0.580567  
     661A      0.581342   662A      0.581549   663A      0.582989  
     664A      0.584360   665A      0.585313   666A      0.589162  
     667A      0.589474   668A      0.590514   669A      0.592207  
     670A      0.594112   671A      0.595173   672A      0.595871  
     673A      0.597705   674A      0.598115   675A      0.600353  
     676A      0.601040   677A      0.604115   678A      0.604915  
     679A      0.604999   680A      0.606407   681A      0.607848  
     682A      0.609822   683A      0.610101   684A      0.611635  
     685A      0.613296   686A      0.616164   687A      0.617774  
     688A      0.618054   689A      0.618956   690A      0.620068  
     691A      0.620221   692A      0.622238   693A      0.624167  
     694A      0.625907   695A      0.628512   696A      0.630278  
     697A      0.631082   698A      0.632407   699A      0.633760  
     700A      0.635670   701A      0.635891   702A      0.638203  
     703A      0.638825   704A      0.640361   705A      0.642089  
     706A      0.644280   707A      0.645171   708A      0.646621  
     709A      0.648109   710A      0.648407   711A      0.649552  
     712A      0.651439   713A      0.652794   714A      0.654037  
     715A      0.655345   716A      0.657603   717A      0.658587  
     718A      0.659204   719A      0.660925   720A      0.661869  
     721A      0.662784   722A      0.663819   723A      0.665359  
     724A      0.665617   725A      0.668044   726A      0.669568  
     727A      0.671168   728A      0.672922   729A      0.674084  
     730A      0.674482   731A      0.675486   732A      0.678756  
     733A      0.679970   734A      0.680625   735A      0.683756  
     736A      0.684441   737A      0.685310   738A      0.687246  
     739A      0.688016   740A      0.689964   741A      0.691924  
     742A      0.692343   743A      0.694996   744A      0.696345  
     745A      0.696570   746A      0.697133   747A      0.700461  
     748A      0.701491   749A      0.704825   750A      0.705852  
     751A      0.706670   752A      0.707441   753A      0.709528  
     754A      0.711633   755A      0.712199   756A      0.713553  
     757A      0.715624   758A      0.716314   759A      0.717388  
     760A      0.719956   761A      0.720175   762A      0.723881  
     763A      0.724205   764A      0.726717   765A      0.727976  
     766A      0.728190   767A      0.729790   768A      0.731075  
     769A      0.731220   770A      0.732756   771A      0.733658  
     772A      0.735111   773A      0.737422   774A      0.738133  
     775A      0.739359   776A      0.739823   777A      0.741117  
     778A      0.742809   779A      0.742985   780A      0.745671  
     781A      0.747238   782A      0.748567   783A      0.749118  
     784A      0.749931   785A      0.750743   786A      0.752820  
     787A      0.753699   788A      0.755874   789A      0.757077  
     790A      0.757962   791A      0.758863   792A      0.760720  
     793A      0.761130   794A      0.765398   795A      0.765948  
     796A      0.766571   797A      0.768138   798A      0.769086  
     799A      0.769243   800A      0.771357   801A      0.771951  
     802A      0.772948   803A      0.773210   804A      0.776348  
     805A      0.776624   806A      0.780735   807A      0.780957  
     808A      0.783536   809A      0.784179   810A      0.785912  
     811A      0.786670   812A      0.788173   813A      0.789764  
     814A      0.792891   815A      0.794333   816A      0.794687  
     817A      0.795463   818A      0.796220   819A      0.797148  
     820A      0.798668   821A      0.800181   822A      0.800666  
     823A      0.802968   824A      0.803792   825A      0.806023  
     826A      0.806716   827A      0.808433   828A      0.808559  
     829A      0.810426   830A      0.810996   831A      0.811593  
     832A      0.812941   833A      0.813391   834A      0.814314  
     835A      0.815133   836A      0.816055   837A      0.818559  
     838A      0.820402   839A      0.821114   840A      0.822147  
     841A      0.823050   842A      0.825628   843A      0.825817  
     844A      0.826963   845A      0.827355   846A      0.828380  
     847A      0.831245   848A      0.831953   849A      0.832726  
     850A      0.833279   851A      0.833831   852A      0.834482  
     853A      0.835125   854A      0.836757   855A      0.838244  
     856A      0.841104   857A      0.841249   858A      0.842837  
     859A      0.843160   860A      0.845047   861A      0.847315  
     862A      0.848623   863A      0.849717   864A      0.850529  
     865A      0.850602   866A      0.852544   867A      0.855461  
     868A      0.857862   869A      0.858249   870A      0.858497  
     871A      0.858933   872A      0.860527   873A      0.861970  
     874A      0.862879   875A      0.863282   876A      0.866027  
     877A      0.866187   878A      0.866789   879A      0.868061  
     880A      0.868927   881A      0.871527   882A      0.872140  
     883A      0.872361   884A      0.872815   885A      0.874402  
     886A      0.876392   887A      0.879052   888A      0.879347  
     889A      0.879732   890A      0.881344   891A      0.882405  
     892A      0.885476   893A      0.886642   894A      0.887299  
     895A      0.887519   896A      0.889749   897A      0.890489  
     898A      0.890755   899A      0.891218   900A      0.893157  
     901A      0.893906   902A      0.895099   903A      0.896969  
     904A      0.897674   905A      0.897810   906A      0.898970  
     907A      0.900143   908A      0.900675   909A      0.903270  
     910A      0.904244   911A      0.906030   912A      0.907520  
     913A      0.907654   914A      0.910052   915A      0.911127  
     916A      0.911737   917A      0.912901   918A      0.914299  
     919A      0.915542   920A      0.918827   921A      0.919818  
     922A      0.920365   923A      0.920754   924A      0.921501  
     925A      0.923512   926A      0.926670   927A      0.927627  
     928A      0.929165   929A      0.930649   930A      0.932491  
     931A      0.932940   932A      0.933782   933A      0.935594  
     934A      0.936450   935A      0.936755   936A      0.937421  
     937A      0.940444   938A      0.941518   939A      0.942682  
     940A      0.943469   941A      0.943752   942A      0.944033  
     943A      0.945370   944A      0.947018   945A      0.949162  
     946A      0.950528   947A      0.953310   948A      0.953618  
     949A      0.957135   950A      0.957788   951A      0.958730  
     952A      0.959818   953A      0.962226   954A      0.964081  
     955A      0.964476   956A      0.964888   957A      0.966273  
     958A      0.967856   959A      0.969657   960A      0.972895  
     961A      0.973507   962A      0.973534   963A      0.974476  
     964A      0.975402   965A      0.977094   966A      0.978077  
     967A      0.980378   968A      0.982866   969A      0.983432  
     970A      0.984287   971A      0.985619   972A      0.986207  
     973A      0.989312   974A      0.990719   975A      0.991361  
     976A      0.992398   977A      0.992687   978A      0.996487  
     979A      0.997085   980A      0.998590   981A      1.000904  
     982A      1.002532   983A      1.003403   984A      1.004285  
     985A      1.007334   986A      1.008410   987A      1.009133  
     988A      1.009819   989A      1.011344   990A      1.011530  
     991A      1.013914   992A      1.016222   993A      1.017537  
     994A      1.017896   995A      1.018914   996A      1.021057  
     997A      1.022573   998A      1.023818   999A      1.024620  
    1000A      1.025728  1001A      1.026629  1002A      1.027601  
    1003A      1.030787  1004A      1.030927  1005A      1.032440  
    1006A      1.034602  1007A      1.034822  1008A      1.036938  
    1009A      1.039082  1010A      1.039261  1011A      1.040316  
    1012A      1.041137  1013A      1.042877  1014A      1.043112  
    1015A      1.046977  1016A      1.047193  1017A      1.048125  
    1018A      1.050634  1019A      1.051979  1020A      1.052763  
    1021A      1.053103  1022A      1.053843  1023A      1.054977  
    1024A      1.057873  1025A      1.060071  1026A      1.062805  
    1027A      1.063572  1028A      1.063951  1029A      1.067349  
    1030A      1.069094  1031A      1.069620  1032A      1.070481  
    1033A      1.070587  1034A      1.073323  1035A      1.075114  
    1036A      1.075907  1037A      1.078697  1038A      1.080178  
    1039A      1.080551  1040A      1.081335  1041A      1.082724  
    1042A      1.085458  1043A      1.087020  1044A      1.088366  
    1045A      1.090950  1046A      1.092718  1047A      1.093560  
    1048A      1.095912  1049A      1.096081  1050A      1.097725  
    1051A      1.098595  1052A      1.099608  1053A      1.103793  
    1054A      1.104203  1055A      1.105223  1056A      1.105646  
    1057A      1.106040  1058A      1.110263  1059A      1.110437  
    1060A      1.114499  1061A      1.115766  1062A      1.117046  
    1063A      1.121282  1064A      1.122207  1065A      1.123203  
    1066A      1.124784  1067A      1.126261  1068A      1.127134  
    1069A      1.129662  1070A      1.130303  1071A      1.131460  
    1072A      1.133027  1073A      1.133641  1074A      1.134010  
    1075A      1.135336  1076A      1.137124  1077A      1.138116  
    1078A      1.138785  1079A      1.141170  1080A      1.142242  
    1081A      1.142946  1082A      1.146800  1083A      1.148602  
    1084A      1.149337  1085A      1.152092  1086A      1.154669  
    1087A      1.156801  1088A      1.159503  1089A      1.159889  
    1090A      1.160141  1091A      1.160673  1092A      1.162432  
    1093A      1.163822  1094A      1.164686  1095A      1.166887  
    1096A      1.168536  1097A      1.169972  1098A      1.171515  
    1099A      1.173306  1100A      1.176287  1101A      1.177108  
    1102A      1.178079  1103A      1.179437  1104A      1.180562  
    1105A      1.182267  1106A      1.182965  1107A      1.183870  
    1108A      1.186636  1109A      1.187924  1110A      1.188029  
    1111A      1.189205  1112A      1.189931  1113A      1.193154  
    1114A      1.195215  1115A      1.196238  1116A      1.199523  
    1117A      1.203629  1118A      1.204039  1119A      1.207658  
    1120A      1.209256  1121A      1.209940  1122A      1.210632  
    1123A      1.210942  1124A      1.214683  1125A      1.215491  
    1126A      1.217419  1127A      1.218775  1128A      1.218947  
    1129A      1.221560  1130A      1.221768  1131A      1.222635  
    1132A      1.225395  1133A      1.225488  1134A      1.226461  
    1135A      1.228727  1136A      1.229469  1137A      1.230216  
    1138A      1.232058  1139A      1.232654  1140A      1.234150  
    1141A      1.234807  1142A      1.235870  1143A      1.237268  
    1144A      1.238256  1145A      1.241850  1146A      1.244454  
    1147A      1.245323  1148A      1.245736  1149A      1.246977  
    1150A      1.249497  1151A      1.251528  1152A      1.252898  
    1153A      1.253386  1154A      1.254950  1155A      1.256496  
    1156A      1.258476  1157A      1.258820  1158A      1.260394  
    1159A      1.262098  1160A      1.265250  1161A      1.266421  
    1162A      1.269286  1163A      1.271219  1164A      1.272739  
    1165A      1.273271  1166A      1.274984  1167A      1.276432  
    1168A      1.276575  1169A      1.279179  1170A      1.281133  
    1171A      1.281319  1172A      1.284532  1173A      1.285319  
    1174A      1.286086  1175A      1.288011  1176A      1.290755  
    1177A      1.292160  1178A      1.292304  1179A      1.293131  
    1180A      1.295291  1181A      1.295547  1182A      1.298308  
    1183A      1.298778  1184A      1.299369  1185A      1.301116  
    1186A      1.302024  1187A      1.302867  1188A      1.305492  
    1189A      1.306354  1190A      1.309244  1191A      1.310130  
    1192A      1.314636  1193A      1.315044  1194A      1.316332  
    1195A      1.316811  1196A      1.318369  1197A      1.320071  
    1198A      1.321068  1199A      1.322359  1200A      1.323469  
    1201A      1.326007  1202A      1.327449  1203A      1.329379  
    1204A      1.329945  1205A      1.333274  1206A      1.333459  
    1207A      1.336956  1208A      1.338629  1209A      1.339478  
    1210A      1.340844  1211A      1.341499  1212A      1.344287  
    1213A      1.345012  1214A      1.347170  1215A      1.347829  
    1216A      1.349511  1217A      1.351993  1218A      1.353285  
    1219A      1.354451  1220A      1.355967  1221A      1.356401  
    1222A      1.359159  1223A      1.360700  1224A      1.361274  
    1225A      1.362667  1226A      1.366289  1227A      1.367123  
    1228A      1.368452  1229A      1.369134  1230A      1.370001  
    1231A      1.370272  1232A      1.373460  1233A      1.375492  
    1234A      1.377295  1235A      1.379273  1236A      1.382328  
    1237A      1.382975  1238A      1.384615  1239A      1.385784  
    1240A      1.386157  1241A      1.388715  1242A      1.391301  
    1243A      1.392711  1244A      1.394061  1245A      1.397144  
    1246A      1.398618  1247A      1.398768  1248A      1.400491  
    1249A      1.400981  1250A      1.402421  1251A      1.404152  
    1252A      1.405342  1253A      1.406667  1254A      1.407912  
    1255A      1.410148  1256A      1.411808  1257A      1.413425  
    1258A      1.414564  1259A      1.416241  1260A      1.417754  
    1261A      1.418283  1262A      1.420028  1263A      1.421346  
    1264A      1.422483  1265A      1.422727  1266A      1.423761  
    1267A      1.426760  1268A      1.427468  1269A      1.430960  
    1270A      1.432174  1271A      1.433302  1272A      1.433725  
    1273A      1.435933  1274A      1.436475  1275A      1.437838  
    1276A      1.439773  1277A      1.439883  1278A      1.440430  
    1279A      1.441486  1280A      1.445738  1281A      1.445953  
    1282A      1.446682  1283A      1.448295  1284A      1.448752  
    1285A      1.452783  1286A      1.454383  1287A      1.457109  
    1288A      1.457943  1289A      1.459809  1290A      1.460590  
    1291A      1.461117  1292A      1.464387  1293A      1.465059  
    1294A      1.467389  1295A      1.468951  1296A      1.469628  
    1297A      1.470563  1298A      1.471172  1299A      1.474774  
    1300A      1.475502  1301A      1.477875  1302A      1.478371  
    1303A      1.478738  1304A      1.479449  1305A      1.481704  
    1306A      1.482570  1307A      1.484569  1308A      1.487446  
    1309A      1.487687  1310A      1.488934  1311A      1.491288  
    1312A      1.492001  1313A      1.492896  1314A      1.493781  
    1315A      1.495056  1316A      1.495904  1317A      1.499071  
    1318A      1.499565  1319A      1.502028  1320A      1.504879  
    1321A      1.505763  1322A      1.506838  1323A      1.508293  
    1324A      1.509432  1325A      1.510953  1326A      1.512173  
    1327A      1.514252  1328A      1.515706  1329A      1.517716  
    1330A      1.520340  1331A      1.520868  1332A      1.522219  
    1333A      1.523025  1334A      1.523527  1335A      1.524492  
    1336A      1.526363  1337A      1.527617  1338A      1.528127  
    1339A      1.530856  1340A      1.533212  1341A      1.534704  
    1342A      1.535871  1343A      1.536439  1344A      1.538030  
    1345A      1.538657  1346A      1.542378  1347A      1.542853  
    1348A      1.544467  1349A      1.545889  1350A      1.550154  
    1351A      1.550359  1352A      1.553267  1353A      1.555655  
    1354A      1.556358  1355A      1.556734  1356A      1.557388  
    1357A      1.557500  1358A      1.559304  1359A      1.562016  
    1360A      1.564251  1361A      1.565264  1362A      1.565643  
    1363A      1.569537  1364A      1.570671  1365A      1.570779  
    1366A      1.572323  1367A      1.574637  1368A      1.576279  
    1369A      1.576964  1370A      1.578142  1371A      1.580018  
    1372A      1.580640  1373A      1.582969  1374A      1.584352  
    1375A      1.585338  1376A      1.587616  1377A      1.588095  
    1378A      1.589652  1379A      1.591021  1380A      1.591274  
    1381A      1.593234  1382A      1.593827  1383A      1.594335  
    1384A      1.595780  1385A      1.599073  1386A      1.600832  
    1387A      1.601420  1388A      1.602530  1389A      1.606530  
    1390A      1.606683  1391A      1.607623  1392A      1.609587  
    1393A      1.610798  1394A      1.612090  1395A      1.613866  
    1396A      1.616923  1397A      1.617620  1398A      1.618341  
    1399A      1.619653  1400A      1.622936  1401A      1.624385  
    1402A      1.626033  1403A      1.628193  1404A      1.628692  
    1405A      1.631231  1406A      1.632849  1407A      1.633434  
    1408A      1.634787  1409A      1.636038  1410A      1.636740  
    1411A      1.638935  1412A      1.639729  1413A      1.641932  
    1414A      1.645589  1415A      1.645792  1416A      1.647167  
    1417A      1.647833  1418A      1.650045  1419A      1.650538  
    1420A      1.651605  1421A      1.654350  1422A      1.654537  
    1423A      1.657165  1424A      1.657660  1425A      1.659027  
    1426A      1.660264  1427A      1.663194  1428A      1.663566  
    1429A      1.664056  1430A      1.664694  1431A      1.668212  
    1432A      1.671191  1433A      1.673485  1434A      1.674453  
    1435A      1.675152  1436A      1.677610  1437A      1.680165  
    1438A      1.680352  1439A      1.681890  1440A      1.683984  
    1441A      1.687202  1442A      1.687405  1443A      1.688615  
    1444A      1.692725  1445A      1.692825  1446A      1.694210  
    1447A      1.694562  1448A      1.696412  1449A      1.698275  
    1450A      1.700052  1451A      1.702100  1452A      1.703852  
    1453A      1.705578  1454A      1.707644  1455A      1.708245  
    1456A      1.711522  1457A      1.712904  1458A      1.714144  
    1459A      1.718041  1460A      1.718602  1461A      1.719061  
    1462A      1.721641  1463A      1.723312  1464A      1.723511  
    1465A      1.725142  1466A      1.725929  1467A      1.729174  
    1468A      1.731331  1469A      1.731695  1470A      1.733764  
    1471A      1.735264  1472A      1.736656  1473A      1.737154  
    1474A      1.739634  1475A      1.739904  1476A      1.741528  
    1477A      1.745735  1478A      1.747056  1479A      1.749470  
    1480A      1.751525  1481A      1.752405  1482A      1.754175  
    1483A      1.755151  1484A      1.757177  1485A      1.758844  
    1486A      1.759425  1487A      1.759798  1488A      1.760847  
    1489A      1.762027  1490A      1.763625  1491A      1.765015  
    1492A      1.765789  1493A      1.769056  1494A      1.769446  
    1495A      1.769525  1496A      1.773209  1497A      1.773847  
    1498A      1.774835  1499A      1.775901  1500A      1.777252  
    1501A      1.777848  1502A      1.779923  1503A      1.780808  
    1504A      1.781409  1505A      1.783437  1506A      1.785405  
    1507A      1.786850  1508A      1.789757  1509A      1.790728  
    1510A      1.791487  1511A      1.793541  1512A      1.796618  
    1513A      1.799126  1514A      1.799267  1515A      1.801042  
    1516A      1.804104  1517A      1.804423  1518A      1.804788  
    1519A      1.809949  1520A      1.810134  1521A      1.811310  
    1522A      1.812037  1523A      1.812865  1524A      1.814519  
    1525A      1.815999  1526A      1.817679  1527A      1.819876  
    1528A      1.820945  1529A      1.823240  1530A      1.825628  
    1531A      1.828190  1532A      1.828746  1533A      1.830714  
    1534A      1.831197  1535A      1.832626  1536A      1.836957  
    1537A      1.837636  1538A      1.838171  1539A      1.839853  
    1540A      1.841766  1541A      1.842677  1542A      1.843650  
    1543A      1.845237  1544A      1.845911  1545A      1.851136  
    1546A      1.851898  1547A      1.852444  1548A      1.853488  
    1549A      1.854638  1550A      1.856366  1551A      1.856862  
    1552A      1.859959  1553A      1.861060  1554A      1.861813  
    1555A      1.862942  1556A      1.863966  1557A      1.865392  
    1558A      1.867290  1559A      1.870188  1560A      1.872365  
    1561A      1.874325  1562A      1.874740  1563A      1.875132  
    1564A      1.877576  1565A      1.878377  1566A      1.881115  
    1567A      1.881960  1568A      1.883268  1569A      1.884522  
    1570A      1.886869  1571A      1.887080  1572A      1.891112  
    1573A      1.892404  1574A      1.894644  1575A      1.896588  
    1576A      1.897409  1577A      1.897595  1578A      1.898703  
    1579A      1.901397  1580A      1.901976  1581A      1.904281  
    1582A      1.907046  1583A      1.907614  1584A      1.909273  
    1585A      1.910011  1586A      1.911987  1587A      1.913174  
    1588A      1.916188  1589A      1.916784  1590A      1.919789  
    1591A      1.920035  1592A      1.921801  1593A      1.923934  
    1594A      1.925358  1595A      1.925810  1596A      1.927364  
    1597A      1.930359  1598A      1.931324  1599A      1.933355  
    1600A      1.934379  1601A      1.937131  1602A      1.938331  
    1603A      1.939656  1604A      1.940558  1605A      1.941006  
    1606A      1.943861  1607A      1.945689  1608A      1.947539  
    1609A      1.948126  1610A      1.948809  1611A      1.949729  
    1612A      1.952436  1613A      1.955261  1614A      1.957419  
    1615A      1.960040  1616A      1.961493  1617A      1.962036  
    1618A      1.963758  1619A      1.964992  1620A      1.966909  
    1621A      1.969802  1622A      1.970767  1623A      1.972368  
    1624A      1.975890  1625A      1.977241  1626A      1.980298  
    1627A      1.981073  1628A      1.981664  1629A      1.984438  
    1630A      1.987054  1631A      1.987485  1632A      1.991501  
    1633A      1.991679  1634A      1.994125  1635A      1.994587  
    1636A      1.995920  1637A      1.997238  1638A      1.998168  
    1639A      2.003170  1640A      2.003228  1641A      2.004077  
    1642A      2.008816  1643A      2.009681  1644A      2.011480  
    1645A      2.012781  1646A      2.014441  1647A      2.015525  
    1648A      2.016034  1649A      2.018469  1650A      2.020731  
    1651A      2.020874  1652A      2.022721  1653A      2.023547  
    1654A      2.024560  1655A      2.026219  1656A      2.027554  
    1657A      2.030580  1658A      2.031494  1659A      2.034895  
    1660A      2.035053  1661A      2.035718  1662A      2.036570  
    1663A      2.041744  1664A      2.044126  1665A      2.044635  
    1666A      2.046669  1667A      2.047812  1668A      2.048794  
    1669A      2.052171  1670A      2.054519  1671A      2.056305  
    1672A      2.056778  1673A      2.058375  1674A      2.059581  
    1675A      2.061831  1676A      2.062740  1677A      2.064028  
    1678A      2.065718  1679A      2.068215  1680A      2.069846  
    1681A      2.070738  1682A      2.072555  1683A      2.073931  
    1684A      2.074864  1685A      2.079069  1686A      2.079867  
    1687A      2.081504  1688A      2.084701  1689A      2.087509  
    1690A      2.090752  1691A      2.091302  1692A      2.092409  
    1693A      2.095566  1694A      2.096080  1695A      2.097291  
    1696A      2.099281  1697A      2.101339  1698A      2.102368  
    1699A      2.105723  1700A      2.106391  1701A      2.107672  
    1702A      2.108817  1703A      2.110466  1704A      2.111460  
    1705A      2.114654  1706A      2.115103  1707A      2.119619  
    1708A      2.120664  1709A      2.123662  1710A      2.123902  
    1711A      2.125541  1712A      2.128305  1713A      2.132216  
    1714A      2.134699  1715A      2.135196  1716A      2.136706  
    1717A      2.137096  1718A      2.139441  1719A      2.140655  
    1720A      2.144548  1721A      2.146243  1722A      2.148051  
    1723A      2.151772  1724A      2.152064  1725A      2.153569  
    1726A      2.155082  1727A      2.155716  1728A      2.159450  
    1729A      2.159979  1730A      2.162624  1731A      2.163105  
    1732A      2.164032  1733A      2.166360  1734A      2.167229  
    1735A      2.168858  1736A      2.169912  1737A      2.176189  
    1738A      2.176263  1739A      2.179759  1740A      2.181176  
    1741A      2.182294  1742A      2.184461  1743A      2.185152  
    1744A      2.187087  1745A      2.188938  1746A      2.192587  
    1747A      2.192855  1748A      2.193887  1749A      2.196092  
    1750A      2.196901  1751A      2.197288  1752A      2.198675  
    1753A      2.200537  1754A      2.202728  1755A      2.205002  
    1756A      2.205600  1757A      2.206494  1758A      2.210987  
    1759A      2.212713  1760A      2.215303  1761A      2.217360  
    1762A      2.219705  1763A      2.219985  1764A      2.221555  
    1765A      2.223462  1766A      2.226645  1767A      2.228458  
    1768A      2.229866  1769A      2.230132  1770A      2.232687  
    1771A      2.237571  1772A      2.239033  1773A      2.239644  
    1774A      2.241057  1775A      2.244355  1776A      2.245554  
    1777A      2.246746  1778A      2.249643  1779A      2.251622  
    1780A      2.252644  1781A      2.254409  1782A      2.258813  
    1783A      2.259272  1784A      2.260096  1785A      2.260609  
    1786A      2.262163  1787A      2.263975  1788A      2.266453  
    1789A      2.268795  1790A      2.270726  1791A      2.271520  
    1792A      2.273262  1793A      2.276157  1794A      2.281569  
    1795A      2.281891  1796A      2.281996  1797A      2.284594  
    1798A      2.286077  1799A      2.287604  1800A      2.289644  
    1801A      2.290050  1802A      2.291004  1803A      2.291758  
    1804A      2.297650  1805A      2.298211  1806A      2.299648  
    1807A      2.300329  1808A      2.301844  1809A      2.303933  
    1810A      2.304781  1811A      2.309633  1812A      2.309985  
    1813A      2.311958  1814A      2.316042  1815A      2.316759  
    1816A      2.318976  1817A      2.320415  1818A      2.324141  
    1819A      2.325612  1820A      2.325819  1821A      2.327991  
    1822A      2.329353  1823A      2.331741  1824A      2.333173  
    1825A      2.334459  1826A      2.335772  1827A      2.337676  
    1828A      2.338074  1829A      2.341578  1830A      2.343215  
    1831A      2.344024  1832A      2.346344  1833A      2.348838  
    1834A      2.350002  1835A      2.350987  1836A      2.351617  
    1837A      2.359430  1838A      2.359900  1839A      2.361381  
    1840A      2.362389  1841A      2.362885  1842A      2.364085  
    1843A      2.368509  1844A      2.371940  1845A      2.373014  
    1846A      2.374342  1847A      2.375131  1848A      2.375382  
    1849A      2.379239  1850A      2.381452  1851A      2.382670  
    1852A      2.382786  1853A      2.384260  1854A      2.387016  
    1855A      2.389022  1856A      2.391054  1857A      2.392297  
    1858A      2.394451  1859A      2.398211  1860A      2.399574  
    1861A      2.400816  1862A      2.405040  1863A      2.405370  
    1864A      2.407500  1865A      2.411437  1866A      2.412262  
    1867A      2.413591  1868A      2.416773  1869A      2.420004  
    1870A      2.420614  1871A      2.422977  1872A      2.427080  
    1873A      2.430632  1874A      2.433153  1875A      2.433808  
    1876A      2.438634  1877A      2.439039  1878A      2.439430  
    1879A      2.442171  1880A      2.445903  1881A      2.448203  
    1882A      2.450102  1883A      2.450862  1884A      2.453709  
    1885A      2.454559  1886A      2.456660  1887A      2.457607  
    1888A      2.462668  1889A      2.465088  1890A      2.465682  
    1891A      2.466391  1892A      2.467570  1893A      2.470055  
    1894A      2.471054  1895A      2.471522  1896A      2.477041  
    1897A      2.477877  1898A      2.480686  1899A      2.481424  
    1900A      2.485843  1901A      2.490526  1902A      2.495572  
    1903A      2.495837  1904A      2.498024  1905A      2.498783  
    1906A      2.501666  1907A      2.501901  1908A      2.506976  
    1909A      2.510089  1910A      2.510994  1911A      2.511583  
    1912A      2.516717  1913A      2.518320  1914A      2.518858  
    1915A      2.521334  1916A      2.522589  1917A      2.528137  
    1918A      2.529251  1919A      2.530073  1920A      2.532415  
    1921A      2.535117  1922A      2.536941  1923A      2.543043  
    1924A      2.543729  1925A      2.546863  1926A      2.547560  
    1927A      2.548499  1928A      2.551314  1929A      2.552530  
    1930A      2.553749  1931A      2.557040  1932A      2.558884  
    1933A      2.565215  1934A      2.565384  1935A      2.567777  
    1936A      2.568671  1937A      2.571095  1938A      2.575475  
    1939A      2.577126  1940A      2.579400  1941A      2.580301  
    1942A      2.582548  1943A      2.585453  1944A      2.586234  
    1945A      2.589698  1946A      2.593423  1947A      2.596396  
    1948A      2.597578  1949A      2.600998  1950A      2.601475  
    1951A      2.604628  1952A      2.607331  1953A      2.608835  
    1954A      2.609288  1955A      2.613709  1956A      2.613854  
    1957A      2.618312  1958A      2.621784  1959A      2.623994  
    1960A      2.624472  1961A      2.624811  1962A      2.626869  
    1963A      2.632171  1964A      2.633658  1965A      2.636971  
    1966A      2.637491  1967A      2.641521  1968A      2.645348  
    1969A      2.648450  1970A      2.652203  1971A      2.653142  
    1972A      2.654310  1973A      2.657938  1974A      2.658858  
    1975A      2.662139  1976A      2.663929  1977A      2.670341  
    1978A      2.672003  1979A      2.674160  1980A      2.677247  
    1981A      2.678006  1982A      2.682305  1983A      2.685650  
    1984A      2.686122  1985A      2.687690  1986A      2.689115  
    1987A      2.690758  1988A      2.696152  1989A      2.697796  
    1990A      2.702508  1991A      2.704296  1992A      2.711273  
    1993A      2.712319  1994A      2.715566  1995A      2.717166  
    1996A      2.722220  1997A      2.723481  1998A      2.726663  
    1999A      2.728124  2000A      2.728411  2001A      2.734678  
    2002A      2.742729  2003A      2.744497  2004A      2.746795  
    2005A      2.749974  2006A      2.751343  2007A      2.753957  
    2008A      2.754609  2009A      2.756833  2010A      2.761987  
    2011A      2.764444  2012A      2.766252  2013A      2.774398  
    2014A      2.778735  2015A      2.781165  2016A      2.785364  
    2017A      2.787030  2018A      2.791607  2019A      2.793231  
    2020A      2.802218  2021A      2.802525  2022A      2.805003  
    2023A      2.808688  2024A      2.812061  2025A      2.816222  
    2026A      2.817758  2027A      2.821084  2028A      2.825129  
    2029A      2.828137  2030A      2.830303  2031A      2.830415  
    2032A      2.832714  2033A      2.835057  2034A      2.840021  
    2035A      2.840834  2036A      2.845206  2037A      2.846277  
    2038A      2.854994  2039A      2.860513  2040A      2.861750  
    2041A      2.865185  2042A      2.868133  2043A      2.869789  
    2044A      2.876029  2045A      2.881893  2046A      2.883128  
    2047A      2.886197  2048A      2.886872  2049A      2.889787  
    2050A      2.894527  2051A      2.895526  2052A      2.897348  
    2053A      2.898650  2054A      2.904693  2055A      2.907587  
    2056A      2.912038  2057A      2.915017  2058A      2.920382  
    2059A      2.920892  2060A      2.932557  2061A      2.940333  
    2062A      2.941908  2063A      2.944430  2064A      2.945681  
    2065A      2.956957  2066A      2.960617  2067A      2.963571  
    2068A      2.966354  2069A      2.968958  2070A      2.973994  
    2071A      2.975212  2072A      2.979328  2073A      2.987869  
    2074A      2.989947  2075A      2.992349  2076A      2.999614  
    2077A      3.002629  2078A      3.004043  2079A      3.011118  
    2080A      3.012760  2081A      3.014838  2082A      3.022522  
    2083A      3.027481  2084A      3.031744  2085A      3.032832  
    2086A      3.034521  2087A      3.042623  2088A      3.044971  
    2089A      3.054559  2090A      3.056912  2091A      3.059266  
    2092A      3.064806  2093A      3.068308  2094A      3.072306  
    2095A      3.075727  2096A      3.076036  2097A      3.083667  
    2098A      3.090443  2099A      3.090930  2100A      3.091995  
    2101A      3.098187  2102A      3.109262  2103A      3.112622  
    2104A      3.116133  2105A      3.122060  2106A      3.125691  
    2107A      3.129810  2108A      3.131258  2109A      3.133846  
    2110A      3.139447  2111A      3.142406  2112A      3.147194  
    2113A      3.152938  2114A      3.161656  2115A      3.162924  
    2116A      3.163360  2117A      3.168911  2118A      3.174823  
    2119A      3.176527  2120A      3.178346  2121A      3.182864  
    2122A      3.189490  2123A      3.194537  2124A      3.195772  
    2125A      3.200493  2126A      3.203512  2127A      3.206585  
    2128A      3.208873  2129A      3.209657  2130A      3.215142  
    2131A      3.215925  2132A      3.218927  2133A      3.221334  
    2134A      3.226671  2135A      3.227493  2136A      3.234683  
    2137A      3.239566  2138A      3.243942  2139A      3.245968  
    2140A      3.247636  2141A      3.250723  2142A      3.253762  
    2143A      3.260230  2144A      3.262444  2145A      3.265340  
    2146A      3.269113  2147A      3.273072  2148A      3.273783  
    2149A      3.279985  2150A      3.280745  2151A      3.281686  
    2152A      3.284779  2153A      3.287639  2154A      3.290628  
    2155A      3.293611  2156A      3.296325  2157A      3.299772  
    2158A      3.300908  2159A      3.301271  2160A      3.303492  
    2161A      3.304054  2162A      3.313466  2163A      3.315288  
    2164A      3.317782  2165A      3.320361  2166A      3.322493  
    2167A      3.325566  2168A      3.326631  2169A      3.331628  
    2170A      3.336396  2171A      3.337765  2172A      3.341002  
    2173A      3.342763  2174A      3.345786  2175A      3.348416  
    2176A      3.352370  2177A      3.355003  2178A      3.358558  
    2179A      3.363225  2180A      3.365493  2181A      3.367155  
    2182A      3.368505  2183A      3.372130  2184A      3.374569  
    2185A      3.375800  2186A      3.377123  2187A      3.377943  
    2188A      3.381131  2189A      3.381691  2190A      3.385144  
    2191A      3.385349  2192A      3.388486  2193A      3.391253  
    2194A      3.396136  2195A      3.396795  2196A      3.402482  
    2197A      3.405094  2198A      3.406067  2199A      3.409312  
    2200A      3.411869  2201A      3.413186  2202A      3.413745  
    2203A      3.417135  2204A      3.417372  2205A      3.418001  
    2206A      3.420947  2207A      3.426460  2208A      3.427672  
    2209A      3.430834  2210A      3.432285  2211A      3.436584  
    2212A      3.438566  2213A      3.439740  2214A      3.441847  
    2215A      3.443518  2216A      3.446130  2217A      3.450813  
    2218A      3.452172  2219A      3.452817  2220A      3.454897  
    2221A      3.456810  2222A      3.460554  2223A      3.463466  
    2224A      3.464623  2225A      3.470014  2226A      3.470467  
    2227A      3.474510  2228A      3.477995  2229A      3.479831  
    2230A      3.480552  2231A      3.482483  2232A      3.485543  
    2233A      3.486510  2234A      3.488326  2235A      3.490133  
    2236A      3.495050  2237A      3.497665  2238A      3.498616  
    2239A      3.504915  2240A      3.505134  2241A      3.507392  
    2242A      3.508356  2243A      3.510115  2244A      3.513520  
    2245A      3.516067  2246A      3.516451  2247A      3.518630  
    2248A      3.520449  2249A      3.521391  2250A      3.522909  
    2251A      3.528621  2252A      3.529884  2253A      3.530201  
    2254A      3.532673  2255A      3.533005  2256A      3.535185  
    2257A      3.538505  2258A      3.541268  2259A      3.542225  
    2260A      3.543877  2261A      3.547620  2262A      3.548400  
    2263A      3.549878  2264A      3.550419  2265A      3.551560  
    2266A      3.552759  2267A      3.559578  2268A      3.560876  
    2269A      3.563774  2270A      3.565081  2271A      3.569201  
    2272A      3.570131  2273A      3.572584  2274A      3.574036  
    2275A      3.575538  2276A      3.580192  2277A      3.581006  
    2278A      3.581596  2279A      3.584220  2280A      3.585689  
    2281A      3.586903  2282A      3.591653  2283A      3.593897  
    2284A      3.594083  2285A      3.596546  2286A      3.601448  
    2287A      3.604712  2288A      3.605608  2289A      3.606979  
    2290A      3.607519  2291A      3.610105  2292A      3.614711  
    2293A      3.615187  2294A      3.616530  2295A      3.619208  
    2296A      3.621721  2297A      3.621834  2298A      3.622813  
    2299A      3.627456  2300A      3.627765  2301A      3.632329  
    2302A      3.633545  2303A      3.635646  2304A      3.636494  
    2305A      3.638937  2306A      3.639160  2307A      3.640738  
    2308A      3.646660  2309A      3.648504  2310A      3.651162  
    2311A      3.652919  2312A      3.654087  2313A      3.657154  
    2314A      3.659765  2315A      3.660402  2316A      3.665463  
    2317A      3.666790  2318A      3.669889  2319A      3.671284  
    2320A      3.673250  2321A      3.674168  2322A      3.675143  
    2323A      3.678485  2324A      3.680506  2325A      3.680814  
    2326A      3.682721  2327A      3.683335  2328A      3.687792  
    2329A      3.688132  2330A      3.688614  2331A      3.697419  
    2332A      3.697833  2333A      3.698348  2334A      3.700743  
    2335A      3.702414  2336A      3.705978  2337A      3.706787  
    2338A      3.711392  2339A      3.712420  2340A      3.714207  
    2341A      3.714663  2342A      3.717882  2343A      3.720333  
    2344A      3.723645  2345A      3.724432  2346A      3.725106  
    2347A      3.727150  2348A      3.732890  2349A      3.735681  
    2350A      3.736136  2351A      3.737576  2352A      3.738914  
    2353A      3.741945  2354A      3.742672  2355A      3.745649  
    2356A      3.748308  2357A      3.749456  2358A      3.750934  
    2359A      3.753210  2360A      3.758765  2361A      3.758995  
    2362A      3.760978  2363A      3.763238  2364A      3.763717  
    2365A      3.764306  2366A      3.766875  2367A      3.769963  
    2368A      3.770581  2369A      3.772244  2370A      3.773421  
    2371A      3.775499  2372A      3.780659  2373A      3.781583  
    2374A      3.782633  2375A      3.783701  2376A      3.786337  
    2377A      3.788833  2378A      3.792476  2379A      3.796737  
    2380A      3.797748  2381A      3.798391  2382A      3.800183  
    2383A      3.802474  2384A      3.805484  2385A      3.806673  
    2386A      3.807048  2387A      3.809826  2388A      3.812308  
    2389A      3.813721  2390A      3.816818  2391A      3.818566  
    2392A      3.819318  2393A      3.820636  2394A      3.821248  
    2395A      3.826558  2396A      3.827772  2397A      3.829580  
    2398A      3.831440  2399A      3.832841  2400A      3.835371  
    2401A      3.838174  2402A      3.839072  2403A      3.843240  
    2404A      3.844998  2405A      3.845481  2406A      3.846182  
    2407A      3.851564  2408A      3.854408  2409A      3.858520  
    2410A      3.859045  2411A      3.862908  2412A      3.864585  
    2413A      3.865577  2414A      3.870304  2415A      3.872940  
    2416A      3.875010  2417A      3.875568  2418A      3.875928  
    2419A      3.879842  2420A      3.880923  2421A      3.882841  
    2422A      3.889526  2423A      3.890059  2424A      3.893611  
    2425A      3.894634  2426A      3.895731  2427A      3.897488  
    2428A      3.898234  2429A      3.901503  2430A      3.904148  
    2431A      3.906320  2432A      3.909456  2433A      3.911818  
    2434A      3.912309  2435A      3.915426  2436A      3.916316  
    2437A      3.921002  2438A      3.921594  2439A      3.925449  
    2440A      3.929237  2441A      3.929732  2442A      3.932298  
    2443A      3.933469  2444A      3.939004  2445A      3.940478  
    2446A      3.944553  2447A      3.944999  2448A      3.951989  
    2449A      3.953042  2450A      3.953969  2451A      3.957779  
    2452A      3.961705  2453A      3.964763  2454A      3.965652  
    2455A      3.970420  2456A      3.970945  2457A      3.971472  
    2458A      3.972641  2459A      3.975320  2460A      3.976650  
    2461A      3.978126  2462A      3.983547  2463A      3.986041  
    2464A      3.987092  2465A      3.987340  2466A      3.992085  
    2467A      3.992852  2468A      3.994011  2469A      3.994647  
    2470A      3.998891  2471A      3.999405  2472A      3.999900  
    2473A      4.001511  2474A      4.008510  2475A      4.012739  
    2476A      4.017085  2477A      4.017382  2478A      4.017920  
    2479A      4.020895  2480A      4.021652  2481A      4.025676  
    2482A      4.026411  2483A      4.028616  2484A      4.029081  
    2485A      4.037447  2486A      4.039458  2487A      4.044515  
    2488A      4.045814  2489A      4.047434  2490A      4.048970  
    2491A      4.051955  2492A      4.053964  2493A      4.057925  
    2494A      4.059777  2495A      4.064236  2496A      4.065382  
    2497A      4.066084  2498A      4.067656  2499A      4.071127  
    2500A      4.072026  2501A      4.075106  2502A      4.079496  
    2503A      4.080391  2504A      4.080645  2505A      4.083878  
    2506A      4.086693  2507A      4.087613  2508A      4.094606  
    2509A      4.096342  2510A      4.097805  2511A      4.097962  
    2512A      4.099246  2513A      4.101706  2514A      4.103708  
    2515A      4.107786  2516A      4.110164  2517A      4.111302  
    2518A      4.115927  2519A      4.120509  2520A      4.120761  
    2521A      4.124270  2522A      4.126612  2523A      4.129417  
    2524A      4.129869  2525A      4.132618  2526A      4.135001  
    2527A      4.137804  2528A      4.138644  2529A      4.139625  
    2530A      4.142369  2531A      4.144886  2532A      4.146508  
    2533A      4.146806  2534A      4.151017  2535A      4.153066  
    2536A      4.153788  2537A      4.159477  2538A      4.160373  
    2539A      4.162809  2540A      4.164533  2541A      4.166178  
    2542A      4.169695  2543A      4.172567  2544A      4.174085  
    2545A      4.175091  2546A      4.176896  2547A      4.178009  
    2548A      4.181995  2549A      4.182700  2550A      4.186892  
    2551A      4.187902  2552A      4.188547  2553A      4.190107  
    2554A      4.195198  2555A      4.200772  2556A      4.201887  
    2557A      4.203100  2558A      4.205355  2559A      4.207774  
    2560A      4.209164  2561A      4.212297  2562A      4.212896  
    2563A      4.213328  2564A      4.217434  2565A      4.218174  
    2566A      4.218275  2567A      4.219634  2568A      4.223174  
    2569A      4.225529  2570A      4.229781  2571A      4.231912  
    2572A      4.235162  2573A      4.235451  2574A      4.239131  
    2575A      4.240614  2576A      4.243147  2577A      4.243541  
    2578A      4.246380  2579A      4.249023  2580A      4.251929  
    2581A      4.253860  2582A      4.256839  2583A      4.259879  
    2584A      4.260675  2585A      4.264612  2586A      4.265807  
    2587A      4.269208  2588A      4.270352  2589A      4.271717  
    2590A      4.272554  2591A      4.274527  2592A      4.275991  
    2593A      4.277782  2594A      4.279800  2595A      4.281021  
    2596A      4.284206  2597A      4.284548  2598A      4.286920  
    2599A      4.290815  2600A      4.292560  2601A      4.296398  
    2602A      4.298115  2603A      4.303650  2604A      4.304233  
    2605A      4.304762  2606A      4.305130  2607A      4.306527  
    2608A      4.310934  2609A      4.312475  2610A      4.317548  
    2611A      4.318621  2612A      4.323027  2613A      4.324072  
    2614A      4.326456  2615A      4.327579  2616A      4.329333  
    2617A      4.329830  2618A      4.332355  2619A      4.336651  
    2620A      4.337943  2621A      4.340143  2622A      4.340465  
    2623A      4.343440  2624A      4.344500  2625A      4.348061  
    2626A      4.348415  2627A      4.350134  2628A      4.352050  
    2629A      4.357557  2630A      4.359027  2631A      4.359409  
    2632A      4.363158  2633A      4.363855  2634A      4.365298  
    2635A      4.368529  2636A      4.369563  2637A      4.373228  
    2638A      4.373901  2639A      4.377972  2640A      4.379866  
    2641A      4.381003  2642A      4.383043  2643A      4.384592  
    2644A      4.384979  2645A      4.386957  2646A      4.390443  
    2647A      4.393169  2648A      4.394050  2649A      4.396416  
    2650A      4.403159  2651A      4.403988  2652A      4.406460  
    2653A      4.408759  2654A      4.411031  2655A      4.414561  
    2656A      4.415792  2657A      4.418023  2658A      4.419309  
    2659A      4.422289  2660A      4.423121  2661A      4.428973  
    2662A      4.429788  2663A      4.431741  2664A      4.432137  
    2665A      4.433313  2666A      4.436397  2667A      4.437138  
    2668A      4.443608  2669A      4.443874  2670A      4.447165  
    2671A      4.448731  2672A      4.451412  2673A      4.452354  
    2674A      4.456517  2675A      4.457140  2676A      4.457308  
    2677A      4.460871  2678A      4.462835  2679A      4.464764  
    2680A      4.473615  2681A      4.475964  2682A      4.476321  
    2683A      4.480107  2684A      4.481210  2685A      4.482383  
    2686A      4.485891  2687A      4.487499  2688A      4.491903  
    2689A      4.493826  2690A      4.501003  2691A      4.501842  
    2692A      4.505441  2693A      4.507919  2694A      4.509375  
    2695A      4.512941  2696A      4.513613  2697A      4.517993  
    2698A      4.520672  2699A      4.524303  2700A      4.526038  
    2701A      4.530361  2702A      4.530856  2703A      4.535219  
    2704A      4.536700  2705A      4.537561  2706A      4.540094  
    2707A      4.546394  2708A      4.548697  2709A      4.549381  
    2710A      4.550883  2711A      4.555169  2712A      4.555736  
    2713A      4.562036  2714A      4.563164  2715A      4.566127  
    2716A      4.569882  2717A      4.570218  2718A      4.571933  
    2719A      4.574613  2720A      4.576986  2721A      4.581209  
    2722A      4.582440  2723A      4.584327  2724A      4.587301  
    2725A      4.593216  2726A      4.593990  2727A      4.596792  
    2728A      4.597433  2729A      4.603785  2730A      4.604305  
    2731A      4.607198  2732A      4.607838  2733A      4.610443  
    2734A      4.617076  2735A      4.618540  2736A      4.620415  
    2737A      4.622131  2738A      4.623152  2739A      4.626656  
    2740A      4.628773  2741A      4.630006  2742A      4.633087  
    2743A      4.636743  2744A      4.637954  2745A      4.638828  
    2746A      4.640746  2747A      4.641304  2748A      4.645160  
    2749A      4.648928  2750A      4.650742  2751A      4.654380  
    2752A      4.656256  2753A      4.657263  2754A      4.663318  
    2755A      4.663817  2756A      4.666641  2757A      4.667272  
    2758A      4.668017  2759A      4.673602  2760A      4.674498  
    2761A      4.679111  2762A      4.681208  2763A      4.682784  
    2764A      4.684935  2765A      4.687126  2766A      4.692931  
    2767A      4.696269  2768A      4.696419  2769A      4.697056  
    2770A      4.699412  2771A      4.704932  2772A      4.707666  
    2773A      4.710751  2774A      4.711291  2775A      4.714433  
    2776A      4.715398  2777A      4.720769  2778A      4.723690  
    2779A      4.724867  2780A      4.729601  2781A      4.732744  
    2782A      4.733259  2783A      4.734681  2784A      4.739993  
    2785A      4.740424  2786A      4.746325  2787A      4.751316  
    2788A      4.752599  2789A      4.755895  2790A      4.756617  
    2791A      4.757811  2792A      4.765337  2793A      4.772435  
    2794A      4.774618  2795A      4.778577  2796A      4.780210  
    2797A      4.787354  2798A      4.789511  2799A      4.791612  
    2800A      4.793033  2801A      4.798429  2802A      4.805302  
    2803A      4.806048  2804A      4.809338  2805A      4.809607  
    2806A      4.811267  2807A      4.813597  2808A      4.815919  
    2809A      4.817788  2810A      4.820000  2811A      4.826539  
    2812A      4.829190  2813A      4.835152  2814A      4.836670  
    2815A      4.840849  2816A      4.842919  2817A      4.849362  
    2818A      4.850790  2819A      4.855829  2820A      4.858646  
    2821A      4.865054  2822A      4.868654  2823A      4.870592  
    2824A      4.871105  2825A      4.876801  2826A      4.879727  
    2827A      4.880405  2828A      4.884866  2829A      4.888524  
    2830A      4.889958  2831A      4.894467  2832A      4.897084  
    2833A      4.897386  2834A      4.903896  2835A      4.904729  
    2836A      4.907221  2837A      4.909581  2838A      4.910619  
    2839A      4.912417  2840A      4.915819  2841A      4.915914  
    2842A      4.919713  2843A      4.921963  2844A      4.929200  
    2845A      4.930489  2846A      4.932819  2847A      4.936449  
    2848A      4.937270  2849A      4.940265  2850A      4.941348  
    2851A      4.942178  2852A      4.946273  2853A      4.948489  
    2854A      4.949837  2855A      4.953796  2856A      4.955157  
    2857A      4.958201  2858A      4.961791  2859A      4.966455  
    2860A      4.968516  2861A      4.971617  2862A      4.976915  
    2863A      4.979519  2864A      4.981373  2865A      4.985826  
    2866A      4.988906  2867A      4.990904  2868A      4.994321  
    2869A      4.996276  2870A      5.002150  2871A      5.003888  
    2872A      5.005484  2873A      5.007201  2874A      5.009104  
    2875A      5.012094  2876A      5.015411  2877A      5.020126  
    2878A      5.023339  2879A      5.025275  2880A      5.025998  
    2881A      5.028253  2882A      5.034084  2883A      5.041391  
    2884A      5.042241  2885A      5.043878  2886A      5.046076  
    2887A      5.046763  2888A      5.050152  2889A      5.053472  
    2890A      5.059118  2891A      5.059462  2892A      5.060988  
    2893A      5.067245  2894A      5.070746  2895A      5.075641  
    2896A      5.076962  2897A      5.079515  2898A      5.080125  
    2899A      5.085230  2900A      5.086174  2901A      5.090567  
    2902A      5.092470  2903A      5.095400  2904A      5.097503  
    2905A      5.098576  2906A      5.101111  2907A      5.109699  
    2908A      5.110588  2909A      5.114021  2910A      5.115264  
    2911A      5.120653  2912A      5.125817  2913A      5.126343  
    2914A      5.128287  2915A      5.133365  2916A      5.134793  
    2917A      5.135442  2918A      5.140943  2919A      5.145889  
    2920A      5.149792  2921A      5.152429  2922A      5.154675  
    2923A      5.155583  2924A      5.156290  2925A      5.158845  
    2926A      5.165596  2927A      5.166069  2928A      5.171559  
    2929A      5.171970  2930A      5.172860  2931A      5.176572  
    2932A      5.178750  2933A      5.179914  2934A      5.185160  
    2935A      5.186493  2936A      5.189311  2937A      5.191580  
    2938A      5.192014  2939A      5.195846  2940A      5.197388  
    2941A      5.199999  2942A      5.203012  2943A      5.206814  
    2944A      5.208378  2945A      5.209146  2946A      5.215329  
    2947A      5.221202  2948A      5.222885  2949A      5.225453  
    2950A      5.232235  2951A      5.237463  2952A      5.238982  
    2953A      5.240744  2954A      5.242329  2955A      5.243138  
    2956A      5.251167  2957A      5.252517  2958A      5.255421  
    2959A      5.259010  2960A      5.263610  2961A      5.265402  
    2962A      5.268739  2963A      5.272205  2964A      5.277345  
    2965A      5.287916  2966A      5.290489  2967A      5.290895  
    2968A      5.292963  2969A      5.298197  2970A      5.299063  
    2971A      5.300848  2972A      5.304165  2973A      5.309039  
    2974A      5.313448  2975A      5.314249  2976A      5.315101  
    2977A      5.317369  2978A      5.319856  2979A      5.322078  
    2980A      5.324053  2981A      5.326857  2982A      5.331360  
    2983A      5.331680  2984A      5.334295  2985A      5.340349  
    2986A      5.340692  2987A      5.343427  2988A      5.350195  
    2989A      5.353998  2990A      5.354934  2991A      5.355403  
    2992A      5.359035  2993A      5.359970  2994A      5.365448  
    2995A      5.366631  2996A      5.370428  2997A      5.377577  
    2998A      5.378533  2999A      5.382703  3000A      5.389471  
    3001A      5.390942  3002A      5.392069  3003A      5.393148  
    3004A      5.398912  3005A      5.404880  3006A      5.409252  
    3007A      5.412047  3008A      5.413685  3009A      5.418277  
    3010A      5.418392  3011A      5.420915  3012A      5.425058  
    3013A      5.426442  3014A      5.430069  3015A      5.431526  
    3016A      5.432996  3017A      5.438696  3018A      5.440734  
    3019A      5.445877  3020A      5.447053  3021A      5.453520  
    3022A      5.453560  3023A      5.458547  3024A      5.458908  
    3025A      5.465283  3026A      5.471034  3027A      5.477404  
    3028A      5.480169  3029A      5.489290  3030A      5.489774  
    3031A      5.492118  3032A      5.496795  3033A      5.502891  
    3034A      5.506188  3035A      5.508444  3036A      5.509880  
    3037A      5.519526  3038A      5.520435  3039A      5.527881  
    3040A      5.533525  3041A      5.534140  3042A      5.538384  
    3043A      5.544594  3044A      5.546418  3045A      5.549575  
    3046A      5.552335  3047A      5.555708  3048A      5.555928  
    3049A      5.570330  3050A      5.571293  3051A      5.579788  
    3052A      5.582005  3053A      5.586958  3054A      5.593175  
    3055A      5.594988  3056A      5.595860  3057A      5.598715  
    3058A      5.602677  3059A      5.606065  3060A      5.612514  
    3061A      5.616102  3062A      5.619925  3063A      5.624157  
    3064A      5.629132  3065A      5.634321  3066A      5.639707  
    3067A      5.643099  3068A      5.653030  3069A      5.655137  
    3070A      5.657989  3071A      5.663272  3072A      5.673400  
    3073A      5.680738  3074A      5.682526  3075A      5.684365  
    3076A      5.687408  3077A      5.690719  3078A      5.694854  
    3079A      5.700342  3080A      5.711191  3081A      5.712952  
    3082A      5.719678  3083A      5.721035  3084A      5.727670  
    3085A      5.731828  3086A      5.732381  3087A      5.743516  
    3088A      5.749698  3089A      5.750635  3090A      5.765711  
    3091A      5.771239  3092A      5.773761  3093A      5.778395  
    3094A      5.781787  3095A      5.788888  3096A      5.790432  
    3097A      5.795019  3098A      5.797455  3099A      5.804780  
    3100A      5.806489  3101A      5.809537  3102A      5.811997  
    3103A      5.818933  3104A      5.824731  3105A      5.827001  
    3106A      5.828450  3107A      5.836524  3108A      5.843398  
    3109A      5.852208  3110A      5.855786  3111A      5.856833  
    3112A      5.860349  3113A      5.872147  3114A      5.872436  
    3115A      5.874521  3116A      5.881351  3117A      5.892842  
    3118A      5.893468  3119A      5.902101  3120A      5.903325  
    3121A      5.904858  3122A      5.910171  3123A      5.918793  
    3124A      5.919493  3125A      5.925180  3126A      5.928018  
    3127A      5.929794  3128A      5.933033  3129A      5.937895  
    3130A      5.940791  3131A      5.948671  3132A      5.954368  
    3133A      5.956541  3134A      5.965407  3135A      5.969416  
    3136A      5.973441  3137A      5.982079  3138A      5.983352  
    3139A      5.997231  3140A      6.000310  3141A      6.007561  
    3142A      6.030869  3143A      6.041165  3144A      6.050057  
    3145A      6.053959  3146A      6.058656  3147A      6.061583  
    3148A      6.068372  3149A      6.075560  3150A      6.091611  
    3151A      6.100921  3152A      6.107757  3153A      6.113969  
    3154A      6.115097  3155A      6.119528  3156A      6.120891  
    3157A      6.128299  3158A      6.137622  3159A      6.160764  
    3160A      6.161935  3161A      6.162827  3162A      6.173952  
    3163A      6.183584  3164A      6.197155  3165A      6.197511  
    3166A      6.213320  3167A      6.217098  3168A      6.222642  
    3169A      6.224290  3170A      6.230108  3171A      6.239569  
    3172A      6.243710  3173A      6.244627  3174A      6.248991  
    3175A      6.252173  3176A      6.258787  3177A      6.264616  
    3178A      6.265538  3179A      6.273996  3180A      6.279027  
    3181A      6.279722  3182A      6.283694  3183A      6.284182  
    3184A      6.289714  3185A      6.292691  3186A      6.297312  
    3187A      6.299860  3188A      6.306898  3189A      6.314777  
    3190A      6.316840  3191A      6.319924  3192A      6.324906  
    3193A      6.329707  3194A      6.339992  3195A      6.343650  
    3196A      6.349001  3197A      6.364574  3198A      6.375396  
    3199A      6.376890  3200A      6.387285  3201A      6.388799  
    3202A      6.399326  3203A      6.410177  3204A      6.416863  
    3205A      6.431007  3206A      6.439921  3207A      6.445749  
    3208A      6.490852  3209A      6.495226  3210A      6.498724  
    3211A      6.532034  3212A      6.548610  3213A      6.565684  
    3214A      6.570091  3215A      6.583445  3216A      6.593795  
    3217A      6.597661  3218A      6.600161  3219A      6.620261  
    3220A      6.632813  3221A      6.635641  3222A      6.637707  
    3223A      6.653302  3224A      6.654620  3225A      6.661885  
    3226A      6.668774  3227A      6.690248  3228A      6.703455  
    3229A      6.719469  3230A      6.729034  3231A      6.733380  
    3232A      6.743691  3233A      6.746735  3234A      6.754758  
    3235A      6.755930  3236A      6.774438  3237A      6.776101  
    3238A      6.787118  3239A      6.795375  3240A      6.796703  
    3241A      6.800406  3242A      6.819371  3243A      6.824568  
    3244A      6.830117  3245A      6.843490  3246A      6.849072  
    3247A      6.859541  3248A      6.866545  3249A      6.869741  
    3250A      6.875495  3251A      6.892133  3252A      6.915100  
    3253A      6.938029  3254A      6.965538  3255A      6.966134  
    3256A      6.970547  3257A      6.978160  3258A      6.998082  
    3259A      6.998463  3260A      7.006858  3261A      7.029733  
    3262A      7.036667  3263A      7.050569  3264A      7.059968  
    3265A      7.143769  3266A      7.253191  3267A      7.269515  
    3268A      7.293468  3269A      7.309251  3270A      7.311477  
    3271A      7.331989  3272A      7.349474  3273A      7.419614  
    3274A      7.449227  3275A      7.461480  3276A      7.477215  
    3277A      7.480757  3278A      7.507490  3279A      7.514029  
    3280A      7.526502  3281A      7.531652  3282A      7.542708  
    3283A      7.545272  3284A      7.575730  3285A      7.586007  
    3286A      7.598151  3287A      7.602793  3288A      7.611625  
    3289A      7.629843  3290A      7.632704  3291A      7.682103  
    3292A      7.704834  3293A      7.756295  3294A      7.803118  
    3295A      7.811932  3296A      7.881190  3297A      7.912953  
    3298A      7.929206  3299A      7.999216  3300A      8.008361  
    3301A      8.013523  3302A      8.138977  3303A      8.143925  
    3304A      8.146543  3305A      8.153449  3306A      8.174660  
    3307A      8.209136  3308A      8.210671  3309A      8.216931  
    3310A      8.286828  3311A      8.316113  3312A      8.376855  
    3313A      8.453281  3314A      8.473442  3315A      8.523161  
    3316A      8.627504  3317A      8.694139  3318A      8.695056  
    3319A      8.720855  3320A      8.784685  3321A      8.845036  
    3322A      8.943222  3323A      9.150047  3324A      9.451444  
    3325A      9.606567  3326A      9.658040  3327A      9.776820  
    3328A      9.882543  3329A      9.901095  3330A      9.975283  
    3331A     10.078489  3332A     10.130089  3333A     10.172160  
    3334A     10.201907  3335A     10.286033  3336A     10.322400  
    3337A     10.349607  3338A     10.386893  3339A     10.394449  
    3340A     10.455848  3341A     10.492413  3342A     10.510614  
    3343A     10.526027  3344A     10.729964  3345A     10.934457  
    3346A     10.976744  3347A     11.043323  3348A     11.567744  
    3349A     11.717369  3350A     11.843553  3351A     11.902123  
    3352A     11.971134  3353A     12.171306  3354A     12.340631  
    3355A     12.348378  3356A     12.672945  3357A     12.724089  
    3358A     13.651153  3359A     13.754644  3360A     13.806651  
    3361A     13.842261  3362A     15.709323  3363A     15.772462  
    3364A     16.015346  3365A     16.082327  3366A     16.257091  
    3367A     16.571494  3368A     16.621915  3369A     17.588280  
    3370A     17.651211  3371A     17.960197  3372A     17.982887  
    3373A     18.069891  3374A     18.075401  3375A     18.159714  
    3376A     18.198702  3377A     18.368338  3378A     18.432958  
    3379A     18.571183  3380A     18.610781  3381A     18.927980  
    3382A     19.345485  3383A     19.765480  3384A     19.837266  
    3385A     20.244596  3386A     20.282099  3387A     20.458683  
    3388A     20.657351  3389A     20.744542  3390A     20.931715  
    3391A     21.085237  3392A     21.141645  3393A     21.199601  
    3394A     21.275359  3395A     21.319297  3396A     21.347359  
    3397A     21.448989  3398A     21.473031  3399A     21.553281  
    3400A     21.685730  3401A     21.918048  3402A     22.018445  
    3403A     22.286247  3404A     51.979243  3405A     52.260577  
    3406A     52.416339  3407A     53.924145  3408A     55.640842  
    3409A     56.429058  3410A     57.550585  3411A     61.382869  
    3412A     61.629276  3413A     62.510407  3414A     63.752271  
    3415A     64.385244  3416A     65.523270  3417A     65.997900  
    3418A     66.275588  3419A     66.507745  

    Final Occupation by Irrep:
              A 
    DOCC [   141 ]
    NA   [   141 ]
    NB   [   141 ]

  @DF-RKS Final Energy: -1619.09136584841008

   => Energetics <=

    Nuclear Repulsion Energy =           4480.3906718979642392
    One-Electron Energy =              -11106.3649325559017598
    Two-Electron Energy =                5200.8042505968678597
    DFT Exchange-Correlation Energy =    -193.8448773775149334
    Empirical Dispersion Energy =          -0.0764784098254141
    VV10 Nonlocal Energy =                  0.0000000000000000
    Total Energy =                      -1619.0913658484098505

Computation Completed


Properties will be evaluated at   0.000000,   0.000000,   0.000000 [a0]

Properties computed using the SCF density matrix


 Multipole Moments:

 ------------------------------------------------------------------------------------
     Multipole            Electronic (a.u.)      Nuclear  (a.u.)        Total (a.u.)
 ------------------------------------------------------------------------------------

 L = 1.  Multiply by 2.5417464519 to convert [e a0] to [Debye]
 Dipole X            :         55.3465627          -55.2647875            0.0817752
 Dipole Y            :        -81.5454778           82.0981714            0.5526936
 Dipole Z            :         -1.2367802            1.2497874            0.0130072
 Magnitude           :                                                    0.5588618

 ------------------------------------------------------------------------------------

*** tstop() called on atl1-1-03-004-20-2.pace.gatech.edu at Mon Jun 15 15:33:11 2026
Module time:
	user time   =   55395.39 seconds =     923.26 minutes
	system time =    2650.91 seconds =      44.18 minutes
	total time  =      15081 seconds =     251.35 minutes
Total time:
	user time   =   55395.39 seconds =     923.26 minutes
	system time =    2650.91 seconds =      44.18 minutes
	total time  =      15081 seconds =     251.35 minutes

    Psi4 stopped on: Monday, 15 June 2026 03:33PM
    Psi4 wall time for execution: 4:11:31.09

*** Psi4 exiting successfully. Buy a developer a beer!
