
    -----------------------------------------------------------------------
          Psi4: An Open-Source Ab Initio Electronic Structure Package
                               Psi4 1.9.1 release

                         Git: Rev {} zzzzzzz 


    D. G. A. Smith, L. A. Burns, A. C. Simmonett, R. M. Parrish,
    M. C. Schieber, R. Galvelis, P. Kraus, H. Kruse, R. Di Remigio,
    A. Alenaizan, A. M. James, S. Lehtola, J. P. Misiewicz, M. Scheurer,
    R. A. Shaw, J. B. Schriber, Y. Xie, Z. L. Glick, D. A. Sirianni,
    J. S. O'Brien, J. M. Waldrop, A. Kumar, E. G. Hohenstein,
    B. P. Pritchard, B. R. Brooks, H. F. Schaefer III, A. Yu. Sokolov,
    K. Patkowski, A. E. DePrince III, U. Bozkaya, R. A. King,
    F. A. Evangelista, J. M. Turney, T. D. Crawford, C. D. Sherrill,
    J. Chem. Phys. 152(18) 184108 (2020). https://doi.org/10.1063/5.0006002

                            Additional Code Authors
    E. T. Seidl, C. L. Janssen, E. F. Valeev, M. L. Leininger,
    J. F. Gonthier, R. M. Richard, H. R. McAlexander, M. Saitow, X. Wang,
    P. Verma, M. H. Lechner, A. Jiang, S. Behnle, A. G. Heide,
    M. F. Herbst, and D. L. Poole

             Previous Authors, Complete List of Code Contributors,
                       and Citations for Specific Modules
    https://github.com/psi4/psi4/blob/master/codemeta.json
    https://github.com/psi4/psi4/graphs/contributors
    http://psicode.org/psi4manual/master/introduction.html#citing-psifour

    -----------------------------------------------------------------------


    Psi4 started on: Saturday, 13 June 2026 07:44PM

    Process ID: 1402294
    Host:       atl1-1-03-004-6-2.pace.gatech.edu
    PSIDATADIR: /storage/home/hcoda1/5/vlita3/.conda/envs/p4_qcml/share/psi4
    Memory:     250.0 GiB
    Threads:    10
    
  ==> Input QCSchema <==

--------------------------------------------------------------------------
{'driver': 'energy',
 'extras': {},
 'id': '293',
 'keywords': {},
 'model': {'basis': 'aug-cc-pvtz', 'method': 'b3lyp-d3'},
 'molecule': {'extras': {},
              'fix_com': True,
              'fix_orientation': True,
              'fragment_charges': [0.0, 0.0],
              'fragment_multiplicities': [1, 1],
              'fragments': [[0, 1, 2, 3, 4, 5, 6, 7, 8, 9, 10, 11, 12, 13, 14, 15, 16, 17, 18, 19, 20, 21, 22, 23, 24,
                             25, 26, 27, 28, 29, 30, 31, 32, 33, 34, 35, 36, 37, 38, 39, 40, 41, 42, 43],
                            [44, 45, 46, 47, 48, 49, 50, 51, 52, 53, 54, 55, 56, 57, 58, 59, 60, 61, 62, 63, 64, 65, 66,
                             67, 68, 69, 70, 71, 72, 73, 74, 75, 76, 77, 78, 79, 80, 81, 82, 83, 84, 85, 86, 87]],
              'geometry': [25.47963781, 23.08351049, 43.1296896, 24.89690954, 20.52012331, 43.887087, 25.07057198,
                           18.48699404, 42.07353641, 25.8424877, 19.04880944, 39.52013663, 26.46903607, 21.61452675,
                           38.85199593, 26.30318821, 23.59330066, 40.54460103, 24.46577176, 15.9279092, 42.77036087,
                           23.76811717, 15.37695629, 45.40838081, 23.59859476, 17.38880058, 47.22265844, 24.1081018,
                           20.02007671, 46.44346413, 22.96694077, 16.77267612, 49.77192758, 22.51062738, 14.29130626,
                           50.58597185, 22.67427055, 12.32177999, 48.76231557, 23.27971306, 12.86309326, 46.25226043,
                           25.97467497, 17.0727052, 37.71068154, 25.34789586, 14.59123463, 38.39437083, 24.59969708,
                           14.0277518, 40.88784347, 25.20039992, 25.0588727, 44.92111126, 24.35321071, 24.59525103,
                           47.39946073, 23.84084877, 22.08099208, 48.12795237, 21.86046838, 13.69556932, 53.32235171,
                           24.04555383, 26.76370654, 49.27889773, 26.50915633, 27.41178979, 50.73375129, 26.93108599,
                           26.27094839, 39.72356046, 27.10311578, 21.98163565, 36.89906984, 22.32265299, 10.34583799,
                           49.33666834, 23.39372081, 11.28300305, 44.90489504, 26.57612038, 17.51973959, 35.76596134,
                           25.43664936, 13.06203906, 36.97800898, 24.12002947, 12.05854919, 41.3527408, 25.62817825,
                           27.01761767, 44.36171793, 23.18724332, 21.75219607, 50.07608394, 23.27013145, 12.38510294,
                           54.17857328, 21.79629273, 15.42803966, 54.50687769, 19.98705402, 12.74487252, 53.47527914,
                           22.53167906, 26.28198386, 50.6619148, 23.38069793, 28.48102898, 48.25612267, 27.19569266,
                           25.7565067, 51.83310019, 28.04156267, 27.96965392, 49.40821263, 28.39145441, 27.1428651,
                           40.95513515, 25.23456206, 27.51897461, 39.79892028, 27.66207922, 26.29954115, 37.75755015,
                           26.2022166, 29.00071195, 52.0780899, 22.83611537, 18.29134925, 51.1881473, 30.81342193,
                           18.71017989, 45.99359029, 31.5788239, 19.74555973, 43.58027113, 32.18922921, 22.39746574,
                           43.36009841, 32.04731473, 23.98056161, 45.57578145, 31.25562095, 22.88485355, 47.94186375,
                           30.64065655, 20.36296812, 48.19759324, 32.96098858, 23.46875558, 40.98068543, 32.9776879,
                           21.8498177, 38.71563215, 32.39688051, 19.20754673, 38.92783428, 31.75108262, 18.1119644,
                           41.41040042, 32.38510148, 17.70859001, 36.6883681, 32.89884869, 18.70388423, 34.28627015,
                           33.46045747, 21.32787429, 34.10603582, 33.50020544, 22.84413785, 36.26471359, 32.71084168,
                           26.57519902, 45.39430813, 33.51746054, 27.59229626, 43.0833912, 33.64071365, 26.05933156,
                           40.9078722, 30.26834315, 16.09166271, 46.16720061, 30.49746548, 14.47431826, 44.06910385,
                           31.23964841, 15.50757785, 41.72580743, 32.85245858, 17.05660123, 31.93007182, 30.0352396,
                           11.64386798, 44.33912194, 32.45644731, 10.16276856, 45.08627623, 29.83741229, 19.30937345,
                           50.74453249, 31.15944353, 24.13692378, 49.60598037, 33.86115259, 22.17547238, 32.24063318,
                           33.92403613, 24.86828461, 36.03931452, 32.60693264, 27.77144276, 47.1004289, 34.05705016,
                           29.60331272, 42.95688301, 34.27807476, 26.92308174, 39.12655219, 29.64722791, 15.28713696,
                           47.98302787, 31.38145507, 14.21615321, 40.10268471, 34.735737, 17.01308892, 30.98680081,
                           32.31443775, 15.0754773, 32.37170495, 31.48589123, 17.79122297, 30.50534659, 29.28049933,
                           10.88478084, 42.52649407, 28.54357618, 11.31799443, 45.78690148, 33.97269455, 10.41059171,
                           43.64975571, 33.2192207, 10.84125701, 46.92494523, 31.18221652, 17.84465276, 51.44063809,
                           27.94896357, 18.39273342, 50.64394079, 29.74125873, 20.82714016, 52.19033882, 32.06613232,
                           8.10297733, 45.26704002, 31.91846208, 15.68652669, 36.81860417],
              'id': 16,
              'identifiers': {'molecular_formula': 'C48H40',
                              'molecule_hash': 'c7032f6b2da4c5ceb2b85b46228cc9bc6b33b25c'},
              'masses': [12.0, 12.0, 12.0, 12.0, 12.0, 12.0, 12.0, 12.0, 12.0, 12.0, 12.0, 12.0, 12.0, 12.0, 12.0, 12.0,
                         12.0, 12.0, 12.0, 12.0, 12.0, 12.0, 12.0, 12.0, 1.00782503223, 1.00782503223, 1.00782503223,
                         1.00782503223, 1.00782503223, 1.00782503223, 1.00782503223, 1.00782503223, 1.00782503223,
                         1.00782503223, 1.00782503223, 1.00782503223, 1.00782503223, 1.00782503223, 1.00782503223,
                         1.00782503223, 1.00782503223, 1.00782503223, 1.00782503223, 1.00782503223, 12.0, 12.0, 12.0,
                         12.0, 12.0, 12.0, 12.0, 12.0, 12.0, 12.0, 12.0, 12.0, 12.0, 12.0, 12.0, 12.0, 12.0, 12.0, 12.0,
                         12.0, 12.0, 12.0, 12.0, 12.0, 1.00782503223, 1.00782503223, 1.00782503223, 1.00782503223,
                         1.00782503223, 1.00782503223, 1.00782503223, 1.00782503223, 1.00782503223, 1.00782503223,
                         1.00782503223, 1.00782503223, 1.00782503223, 1.00782503223, 1.00782503223, 1.00782503223,
                         1.00782503223, 1.00782503223, 1.00782503223, 1.00782503223],
              'molecular_charge': 0.0,
              'molecular_multiplicity': 1,
              'name': 'C48H40 ([0],[1])',
              'provenance': {'creator': 'QCElemental',
                             'routine': 'qcelemental.molparse.from_schema',
                             'version': '0.29.0'},
              'real': [True, True, True, True, True, True, True, True, True, True, True, True, True, True, True, True,
                       True, True, True, True, True, True, True, True, True, True, True, True, True, True, True, True,
                       True, True, True, True, True, True, True, True, True, True, True, True, False, False, False,
                       False, False, False, False, False, False, False, False, False, False, False, False, False, False,
                       False, False, False, False, False, False, False, False, False, False, False, False, False, False,
                       False, False, False, False, False, False, False, False, False, False, False, False, False],
              'schema_name': 'qcschema_molecule',
              'schema_version': 2,
              'symbols': ['C', 'C', 'C', 'C', 'C', 'C', 'C', 'C', 'C', 'C', 'C', 'C', 'C', 'C', 'C', 'C', 'C', 'C', 'C',
                          'C', 'C', 'C', 'C', 'C', 'H', 'H', 'H', 'H', 'H', 'H', 'H', 'H', 'H', 'H', 'H', 'H', 'H', 'H',
                          'H', 'H', 'H', 'H', 'H', 'H', 'C', 'C', 'C', 'C', 'C', 'C', 'C', 'C', 'C', 'C', 'C', 'C', 'C',
                          'C', 'C', 'C', 'C', 'C', 'C', 'C', 'C', 'C', 'C', 'C', 'H', 'H', 'H', 'H', 'H', 'H', 'H', 'H',
                          'H', 'H', 'H', 'H', 'H', 'H', 'H', 'H', 'H', 'H', 'H', 'H'],
              'validated': True},
 'protocols': {},
 'provenance': {'creator': 'QCElemental', 'routine': 'qcelemental.models.results', 'version': '0.29.0'},
 'schema_name': 'qcschema_input',
 'schema_version': 1}
--------------------------------------------------------------------------

Scratch directory: /tmp/tmpasg8czxp_psi_scratch/
   => Libint2 <=

    Primary   basis highest AM E, G, H:  6, 6, 3
    Auxiliary basis highest AM E, G, H:  7, 7, 4
    Onebody   basis highest AM E, G, H:  -, -, -
    Solid Harmonics ordering:            Gaussian

*** tstart() called on atl1-1-03-004-6-2.pace.gatech.edu
*** at Sat Jun 13 19:44:18 2026

   => Loading Basis Set <=

    Name: AUG-CC-PVTZ
    Role: ORBITAL
    Keyword: BASIS
    atoms 1-24, 45-68  entry C          line   239 file /storage/home/hcoda1/5/vlita3/.conda/envs/p4_qcml/share/psi4/basis/aug-cc-pvtz.gbs 
    atoms 25-44, 69-88 entry H          line    40 file /storage/home/hcoda1/5/vlita3/.conda/envs/p4_qcml/share/psi4/basis/aug-cc-pvtz.gbs 

   => B3LYP-D3: Empirical Dispersion <=

    Grimme's -D3 (zero-damping) Dispersion Correction
    Grimme S.; Antony J.; Ehrlich S.; Krieg H. (2010), J. Chem. Phys., 132: 154104

        s6 =       1.000000
        s8 =       1.703000
       sr6 =       1.261000
    alpha6 =      14.000000
       sr8 =       1.000000


         ---------------------------------------------------------
                                   SCF
               by Justin Turney, Rob Parrish, Andy Simmonett
                          and Daniel G. A. Smith
                              RKS Reference
                       10 Threads, 256000 MiB Core
         ---------------------------------------------------------

  ==> Geometry <==

    Molecular point group: c1
    Full point group: C1

    Geometry (in Bohr), charge = 0, multiplicity = 1:

       Center              X                  Y                   Z               Mass       
    ------------   -----------------  -----------------  -----------------  -----------------
         C           25.479637810000    23.083510490000    43.129689600000    12.000000000000
         C           24.896909540000    20.520123310000    43.887087000000    12.000000000000
         C           25.070571980000    18.486994040000    42.073536410000    12.000000000000
         C           25.842487700000    19.048809440000    39.520136630000    12.000000000000
         C           26.469036070000    21.614526750000    38.851995930000    12.000000000000
         C           26.303188210000    23.593300660000    40.544601030000    12.000000000000
         C           24.465771760000    15.927909200000    42.770360870000    12.000000000000
         C           23.768117170000    15.376956290000    45.408380810000    12.000000000000
         C           23.598594760000    17.388800580000    47.222658440000    12.000000000000
         C           24.108101800000    20.020076710000    46.443464130000    12.000000000000
         C           22.966940770000    16.772676120000    49.771927580000    12.000000000000
         C           22.510627380000    14.291306260000    50.585971850000    12.000000000000
         C           22.674270550000    12.321779990000    48.762315570000    12.000000000000
         C           23.279713060000    12.863093260000    46.252260430000    12.000000000000
         C           25.974674970000    17.072705200000    37.710681540000    12.000000000000
         C           25.347895860000    14.591234630000    38.394370830000    12.000000000000
         C           24.599697080000    14.027751800000    40.887843470000    12.000000000000
         C           25.200399920000    25.058872700000    44.921111260000    12.000000000000
         C           24.353210710000    24.595251030000    47.399460730000    12.000000000000
         C           23.840848770000    22.080992080000    48.127952370000    12.000000000000
         C           21.860468380000    13.695569320000    53.322351710000    12.000000000000
         C           24.045553830000    26.763706540000    49.278897730000    12.000000000000
         C           26.509156330000    27.411789790000    50.733751290000    12.000000000000
         C           26.931085990000    26.270948390000    39.723560460000    12.000000000000
         H           27.103115780000    21.981635650000    36.899069840000     1.007825032230
         H           22.322652990000    10.345837990000    49.336668340000     1.007825032230
         H           23.393720810000    11.283003050000    44.904895040000     1.007825032230
         H           26.576120380000    17.519739590000    35.765961340000     1.007825032230
         H           25.436649360000    13.062039060000    36.978008980000     1.007825032230
         H           24.120029470000    12.058549190000    41.352740800000     1.007825032230
         H           25.628178250000    27.017617670000    44.361717930000     1.007825032230
         H           23.187243320000    21.752196070000    50.076083940000     1.007825032230
         H           23.270131450000    12.385102940000    54.178573280000     1.007825032230
         H           21.796292730000    15.428039660000    54.506877690000     1.007825032230
         H           19.987054020000    12.744872520000    53.475279140000     1.007825032230
         H           22.531679060000    26.281983860000    50.661914800000     1.007825032230
         H           23.380697930000    28.481028980000    48.256122670000     1.007825032230
         H           27.195692660000    25.756506700000    51.833100190000     1.007825032230
         H           28.041562670000    27.969653920000    49.408212630000     1.007825032230
         H           28.391454410000    27.142865100000    40.955135150000     1.007825032230
         H           25.234562060000    27.518974610000    39.798920280000     1.007825032230
         H           27.662079220000    26.299541150000    37.757550150000     1.007825032230
         H           26.202216600000    29.000711950000    52.078089900000     1.007825032230
         H           22.836115370000    18.291349250000    51.188147300000     1.007825032230
      Gh(C)          30.813421930000    18.710179890000    45.993590290000    12.000000000000
      Gh(C)          31.578823900000    19.745559730000    43.580271130000    12.000000000000
      Gh(C)          32.189229210000    22.397465740000    43.360098410000    12.000000000000
      Gh(C)          32.047314730000    23.980561610000    45.575781450000    12.000000000000
      Gh(C)          31.255620950000    22.884853550000    47.941863750000    12.000000000000
      Gh(C)          30.640656550000    20.362968120000    48.197593240000    12.000000000000
      Gh(C)          32.960988580000    23.468755580000    40.980685430000    12.000000000000
      Gh(C)          32.977687900000    21.849817700000    38.715632150000    12.000000000000
      Gh(C)          32.396880510000    19.207546730000    38.927834280000    12.000000000000
      Gh(C)          31.751082620000    18.111964400000    41.410400420000    12.000000000000
      Gh(C)          32.385101480000    17.708590010000    36.688368100000    12.000000000000
      Gh(C)          32.898848690000    18.703884230000    34.286270150000    12.000000000000
      Gh(C)          33.460457470000    21.327874290000    34.106035820000    12.000000000000
      Gh(C)          33.500205440000    22.844137850000    36.264713590000    12.000000000000
      Gh(C)          32.710841680000    26.575199020000    45.394308130000    12.000000000000
      Gh(C)          33.517460540000    27.592296260000    43.083391200000    12.000000000000
      Gh(C)          33.640713650000    26.059331560000    40.907872200000    12.000000000000
      Gh(C)          30.268343150000    16.091662710000    46.167200610000    12.000000000000
      Gh(C)          30.497465480000    14.474318260000    44.069103850000    12.000000000000
      Gh(C)          31.239648410000    15.507577850000    41.725807430000    12.000000000000
      Gh(C)          32.852458580000    17.056601230000    31.930071820000    12.000000000000
      Gh(C)          30.035239600000    11.643867980000    44.339121940000    12.000000000000
      Gh(C)          32.456447310000    10.162768560000    45.086276230000    12.000000000000
      Gh(C)          29.837412290000    19.309373450000    50.744532490000    12.000000000000
      Gh(H)          31.159443530000    24.136923780000    49.605980370000     1.007825032230
      Gh(H)          33.861152590000    22.175472380000    32.240633180000     1.007825032230
      Gh(H)          33.924036130000    24.868284610000    36.039314520000     1.007825032230
      Gh(H)          32.606932640000    27.771442760000    47.100428900000     1.007825032230
      Gh(H)          34.057050160000    29.603312720000    42.956883010000     1.007825032230
      Gh(H)          34.278074760000    26.923081740000    39.126552190000     1.007825032230
      Gh(H)          29.647227910000    15.287136960000    47.983027870000     1.007825032230
      Gh(H)          31.381455070000    14.216153210000    40.102684710000     1.007825032230
      Gh(H)          34.735737000000    17.013088920000    30.986800810000     1.007825032230
      Gh(H)          32.314437750000    15.075477300000    32.371704950000     1.007825032230
      Gh(H)          31.485891230000    17.791222970000    30.505346590000     1.007825032230
      Gh(H)          29.280499330000    10.884780840000    42.526494070000     1.007825032230
      Gh(H)          28.543576180000    11.317994430000    45.786901480000     1.007825032230
      Gh(H)          33.972694550000    10.410591710000    43.649755710000     1.007825032230
      Gh(H)          33.219220700000    10.841257010000    46.924945230000     1.007825032230
      Gh(H)          31.182216520000    17.844652760000    51.440638090000     1.007825032230
      Gh(H)          27.948963570000    18.392733420000    50.643940790000     1.007825032230
      Gh(H)          29.741258730000    20.827140160000    52.190338820000     1.007825032230
      Gh(H)          32.066132320000     8.102977330000    45.267040020000     1.007825032230
      Gh(H)          31.918462080000    15.686526690000    36.818604170000     1.007825032230

  Running in c1 symmetry.

  Rotational constants: A =      0.00210  B =      0.00003  C =      0.00003 [cm^-1]
  Rotational constants: A =     62.96897  B =      0.94325  C =      0.93874 [MHz]
  Nuclear repulsion = 1863.800486968835230

  Charge       = 0
  Multiplicity = 1
  Electrons    = 164
  Nalpha       = 82
  Nbeta        = 82

  ==> Algorithm <==

  SCF Algorithm Type is DF.
  DIIS enabled.
  MOM disabled.
  Fractional occupation disabled.
  Guess Type is SAD.
  Energy threshold   = 1.00e-06
  Density threshold  = 1.00e-06
  Integral threshold = 1.00e-12

  ==> Primary Basis <==

  Basis Set: AUG-CC-PVTZ
    Blend: AUG-CC-PVTZ
    Number of shells: 1032
    Number of basis functions: 3128
    Number of Cartesian functions: 3640
    Spherical Harmonics?: true
    Max angular momentum: 3

  ==> DFT Potential <==

   => LibXC <=

    Version 7.0.0
    S. Lehtola, C. Steigemann, M. J.T. Oliveira, and M. A.L. Marques.,  SoftwareX 7, 1–5 (2018) (10.1016/j.softx.2017.11.002)

   => Composite Functional: B3LYP-D3ZERO2B <= 

    B3LYP-d3zero2b Hyb-GGA Exchange-Correlation Functional

    P. J. Stephens, F. J. Devlin, C. F. Chabalowski, and M. J. Frisch.,  J. Phys. Chem. 98, 11623 (1994) (10.1021/j100096a001)

    Deriv               =              1
    GGA                 =           TRUE
    Meta                =          FALSE

    Exchange Hybrid     =           TRUE
    MP2 Hybrid          =          FALSE

   => Exchange Functionals <=

    0.0800   Slater exchange
    0.7200         Becke 88

   => Exact (HF) Exchange <=

    0.2000               HF 

   => Correlation Functionals <=

    0.1900   Vosko, Wilk & Nusair (VWN5_RPA)
    0.8100   Lee, Yang & Parr

   => LibXC Density Thresholds  <==

    XC_HYB_GGA_XC_B3LYP:  1.00E-15 

   => Molecular Quadrature <=

    Radial Scheme          =       TREUTLER
    Pruning Scheme         =           NONE
    Nuclear Scheme         =       TREUTLER

    Blocking Scheme        =         OCTREE
    BS radius alpha        =              1
    Pruning alpha          =              1
    Radial Points          =             75
    Spherical Points       =            302
    Total Points           =        1755895
    Total Blocks           =          12038
    Max Points             =            256
    Max Functions          =           2202
    Weights Tolerance      =       1.00E-15

   => Loading Basis Set <=

    Name: (AUG-CC-PVTZ AUX)
    Role: JKFIT
    Keyword: DF_BASIS_SCF
    atoms 1-24, 45-68  entry C          line   162 file /storage/home/hcoda1/5/vlita3/.conda/envs/p4_qcml/share/psi4/basis/aug-cc-pvtz-jkfit.gbs 
    atoms 25-44, 69-88 entry H          line    70 file /storage/home/hcoda1/5/vlita3/.conda/envs/p4_qcml/share/psi4/basis/aug-cc-pvtz-jkfit.gbs 

  ==> Integral Setup <==

  ==> DiskDFJK: Density-Fitted J/K Matrices <==

    J tasked:                  Yes
    K tasked:                  Yes
    wK tasked:                  No
    OpenMP threads:             10
    Integrals threads:          10
    Memory [MiB]:           172800
    Algorithm:                Disk
    Integral Cache:           NONE
    Schwarz Cutoff:          1E-12
    Fitting Condition:       1E-10

   => Auxiliary Basis Set <=

  Basis Set: (AUG-CC-PVTZ AUX)
    Blend: AUG-CC-PVTZ-JKFIT
    Number of shells: 2000
    Number of basis functions: 6832
    Number of Cartesian functions: 8488
    Spherical Harmonics?: true
    Max angular momentum: 4

  Minimum eigenvalue in the overlap matrix is 6.3711160731E-10.
  Reciprocal condition number of the overlap matrix is 1.7895063395E-11.
    Using canonical orthogonalization.
  Overall, 29 of 3128 possible MOs eliminated.


  ==> Pre-Iterations <==

  SCF Guess: Superposition of Atomic Densities via on-the-fly atomic UHF (no occupation information).

   -------------------------
    Irrep   Nso     Nmo    
   -------------------------
     A       3128    3099 
   -------------------------
    Total    3128    3099
   -------------------------

  ==> Iterations <==

                           Total Energy        Delta E     RMS |[F,P]|

   @DF-RKS iter SAD:  -925.99187996383557   -9.25992e+02   0.00000e+00 
   @DF-RKS iter   1:  -925.19938568951477    7.92494e-01   5.91789e-04 DIIS/ADIIS
   @DF-RKS iter   2:  -924.10516863783994    1.09422e+00   7.11958e-04 DIIS/ADIIS
   @DF-RKS iter   3:  -926.95217452379222   -2.84701e+00   1.09743e-04 DIIS/ADIIS
   @DF-RKS iter   4:  -926.97144967983218   -1.92752e-02   9.70697e-05 DIIS
   @DF-RKS iter   5:  -927.01924204727368   -4.77924e-02   2.52077e-05 DIIS
   @DF-RKS iter   6:  -927.02196450745498   -2.72246e-03   9.94972e-06 DIIS
   @DF-RKS iter   7:  -927.02241422097768   -4.49714e-04   3.23756e-06 DIIS
   @DF-RKS iter   8:  -927.02246224168641   -4.80207e-05   1.12079e-06 DIIS
   @DF-RKS iter   9:  -927.02246812839132   -5.88670e-06   5.04124e-07 DIIS
   @DF-RKS iter  10:  -927.02246944577189   -1.31738e-06   1.08887e-07 DIIS
   @DF-RKS iter  11:  -927.02246949771848   -5.19466e-08   3.68878e-08 DIIS
  Energy and wave function converged.


  ==> Post-Iterations <==

   Electrons on quadrature grid:
      Ntotal   =  164.0007715391 ; deviation = 7.715e-04 

    Orbital Energies [Eh]
    ---------------------

    Doubly Occupied:                                                      

       1A    -10.199181     2A    -10.198736     3A    -10.197842  
       4A    -10.196996     5A    -10.196220     6A    -10.195871  
       7A    -10.195826     8A    -10.195378     9A    -10.194399  
      10A    -10.193625    11A    -10.192510    12A    -10.187377  
      13A    -10.186414    14A    -10.185661    15A    -10.184454  
      16A    -10.184337    17A    -10.184201    18A    -10.183526  
      19A    -10.183044    20A    -10.182651    21A    -10.182561  
      22A    -10.181979    23A    -10.181335    24A    -10.175709  
      25A     -0.889582    26A     -0.857408    27A     -0.849632  
      28A     -0.819266    29A     -0.802262    30A     -0.780977  
      31A     -0.763605    32A     -0.759617    33A     -0.743966  
      34A     -0.719636    35A     -0.713841    36A     -0.686188  
      37A     -0.684471    38A     -0.641133    39A     -0.631072  
      40A     -0.613755    41A     -0.610077    42A     -0.599183  
      43A     -0.577170    44A     -0.542453    45A     -0.531307  
      46A     -0.521222    47A     -0.501644    48A     -0.491615  
      49A     -0.469596    50A     -0.466485    51A     -0.459390  
      52A     -0.448433    53A     -0.446058    54A     -0.433674  
      55A     -0.427063    56A     -0.423597    57A     -0.421151  
      58A     -0.418484    59A     -0.416374    60A     -0.407995  
      61A     -0.405196    62A     -0.400022    63A     -0.388158  
      64A     -0.387439    65A     -0.382445    66A     -0.377915  
      67A     -0.367795    68A     -0.365052    69A     -0.362953  
      70A     -0.354062    71A     -0.352856    72A     -0.348036  
      73A     -0.343819    74A     -0.320943    75A     -0.319775  
      76A     -0.309380    77A     -0.289373    78A     -0.287780  
      79A     -0.247127    80A     -0.246720    81A     -0.220888  
      82A     -0.204412  

    Virtual:                                                              

      83A     -0.065318    84A     -0.047868    85A     -0.032486  
      86A     -0.023016    87A     -0.014579    88A     -0.009338  
      89A     -0.007529    90A      0.000579    91A      0.003546  
      92A      0.004326    93A      0.011921    94A      0.014006  
      95A      0.015617    96A      0.017099    97A      0.018054  
      98A      0.021026    99A      0.025004   100A      0.025804  
     101A      0.028690   102A      0.030219   103A      0.031044  
     104A      0.031478   105A      0.034019   106A      0.034756  
     107A      0.037278   108A      0.037927   109A      0.041429  
     110A      0.042461   111A      0.044611   112A      0.045912  
     113A      0.047202   114A      0.048419   115A      0.051461  
     116A      0.052347   117A      0.053546   118A      0.055386  
     119A      0.056522   120A      0.056968   121A      0.058228  
     122A      0.059309   123A      0.062324   124A      0.062911  
     125A      0.064951   126A      0.066460   127A      0.068416  
     128A      0.069667   129A      0.073044   130A      0.073197  
     131A      0.073581   132A      0.075513   133A      0.077042  
     134A      0.077488   135A      0.079331   136A      0.079746  
     137A      0.080950   138A      0.081936   139A      0.083695  
     140A      0.086031   141A      0.086381   142A      0.087791  
     143A      0.090127   144A      0.091221   145A      0.093185  
     146A      0.094676   147A      0.096179   148A      0.097012  
     149A      0.098344   150A      0.099186   151A      0.101082  
     152A      0.101414   153A      0.102164   154A      0.104963  
     155A      0.105397   156A      0.106453   157A      0.107502  
     158A      0.108134   159A      0.109451   160A      0.111201  
     161A      0.112379   162A      0.112925   163A      0.113857  
     164A      0.115444   165A      0.116087   166A      0.117911  
     167A      0.120693   168A      0.121208   169A      0.123583  
     170A      0.123970   171A      0.124506   172A      0.126729  
     173A      0.128287   174A      0.129617   175A      0.130608  
     176A      0.131869   177A      0.132436   178A      0.133825  
     179A      0.135225   180A      0.136310   181A      0.137821  
     182A      0.138293   183A      0.140644   184A      0.141060  
     185A      0.142808   186A      0.144945   187A      0.146180  
     188A      0.148686   189A      0.149750   190A      0.150340  
     191A      0.151924   192A      0.152301   193A      0.153604  
     194A      0.154797   195A      0.156842   196A      0.157508  
     197A      0.158122   198A      0.159484   199A      0.160367  
     200A      0.161617   201A      0.163187   202A      0.164691  
     203A      0.165872   204A      0.166942   205A      0.167441  
     206A      0.168663   207A      0.169212   208A      0.171125  
     209A      0.173608   210A      0.176388   211A      0.177746  
     212A      0.178860   213A      0.180223   214A      0.182109  
     215A      0.182167   216A      0.183743   217A      0.184407  
     218A      0.186429   219A      0.186866   220A      0.188043  
     221A      0.188968   222A      0.190538   223A      0.191074  
     224A      0.191769   225A      0.193820   226A      0.195236  
     227A      0.196014   228A      0.197606   229A      0.198983  
     230A      0.199545   231A      0.201766   232A      0.202492  
     233A      0.202742   234A      0.203681   235A      0.204279  
     236A      0.206402   237A      0.207138   238A      0.207520  
     239A      0.208474   240A      0.209803   241A      0.211136  
     242A      0.211525   243A      0.212480   244A      0.213197  
     245A      0.214842   246A      0.216370   247A      0.216505  
     248A      0.218475   249A      0.219011   250A      0.220360  
     251A      0.221567   252A      0.222769   253A      0.224059  
     254A      0.224758   255A      0.225065   256A      0.227644  
     257A      0.228689   258A      0.229470   259A      0.230893  
     260A      0.231246   261A      0.233292   262A      0.234487  
     263A      0.235998   264A      0.236328   265A      0.237532  
     266A      0.239272   267A      0.240064   268A      0.241869  
     269A      0.243200   270A      0.245444   271A      0.245968  
     272A      0.246066   273A      0.246880   274A      0.247588  
     275A      0.248803   276A      0.250414   277A      0.251476  
     278A      0.253482   279A      0.255481   280A      0.256021  
     281A      0.256765   282A      0.257968   283A      0.258315  
     284A      0.260089   285A      0.261355   286A      0.261879  
     287A      0.262124   288A      0.263345   289A      0.264504  
     290A      0.265111   291A      0.266158   292A      0.268213  
     293A      0.269026   294A      0.269877   295A      0.271154  
     296A      0.273720   297A      0.274282   298A      0.276990  
     299A      0.277667   300A      0.279522   301A      0.280301  
     302A      0.281414   303A      0.282881   304A      0.284241  
     305A      0.285393   306A      0.286441   307A      0.287962  
     308A      0.288659   309A      0.289521   310A      0.290292  
     311A      0.291568   312A      0.293586   313A      0.294886  
     314A      0.296029   315A      0.297804   316A      0.298116  
     317A      0.300062   318A      0.301396   319A      0.302531  
     320A      0.303390   321A      0.305560   322A      0.306334  
     323A      0.307536   324A      0.309234   325A      0.309743  
     326A      0.310118   327A      0.312518   328A      0.313589  
     329A      0.314811   330A      0.316462   331A      0.317808  
     332A      0.318524   333A      0.319543   334A      0.320838  
     335A      0.322440   336A      0.322649   337A      0.324343  
     338A      0.325803   339A      0.327349   340A      0.328993  
     341A      0.330104   342A      0.331095   343A      0.331598  
     344A      0.333669   345A      0.334996   346A      0.335376  
     347A      0.337494   348A      0.338296   349A      0.339871  
     350A      0.340983   351A      0.342334   352A      0.343475  
     353A      0.345785   354A      0.346346   355A      0.350171  
     356A      0.350970   357A      0.352584   358A      0.353734  
     359A      0.354602   360A      0.356623   361A      0.358525  
     362A      0.359521   363A      0.360263   364A      0.361742  
     365A      0.362405   366A      0.363885   367A      0.366338  
     368A      0.367952   369A      0.369780   370A      0.370820  
     371A      0.371649   372A      0.372416   373A      0.373539  
     374A      0.375633   375A      0.377024   376A      0.377476  
     377A      0.378554   378A      0.380556   379A      0.382717  
     380A      0.383879   381A      0.384522   382A      0.385991  
     383A      0.387066   384A      0.387763   385A      0.390821  
     386A      0.391367   387A      0.392362   388A      0.392825  
     389A      0.396024   390A      0.397030   391A      0.397844  
     392A      0.399492   393A      0.400897   394A      0.402106  
     395A      0.403595   396A      0.405113   397A      0.406550  
     398A      0.407374   399A      0.409010   400A      0.411084  
     401A      0.412631   402A      0.413302   403A      0.413669  
     404A      0.415192   405A      0.416020   406A      0.416477  
     407A      0.418080   408A      0.419333   409A      0.419804  
     410A      0.420786   411A      0.421421   412A      0.423939  
     413A      0.424992   414A      0.425914   415A      0.426815  
     416A      0.426998   417A      0.430031   418A      0.430662  
     419A      0.432447   420A      0.433199   421A      0.433814  
     422A      0.434776   423A      0.437457   424A      0.437797  
     425A      0.438529   426A      0.441129   427A      0.441333  
     428A      0.443188   429A      0.444326   430A      0.445388  
     431A      0.445964   432A      0.447534   433A      0.449016  
     434A      0.449793   435A      0.451348   436A      0.452008  
     437A      0.453757   438A      0.454228   439A      0.455382  
     440A      0.457406   441A      0.457872   442A      0.458712  
     443A      0.460073   444A      0.460448   445A      0.462255  
     446A      0.463219   447A      0.464200   448A      0.465305  
     449A      0.468287   450A      0.468990   451A      0.469420  
     452A      0.470647   453A      0.472251   454A      0.473571  
     455A      0.474038   456A      0.474927   457A      0.475845  
     458A      0.478867   459A      0.479370   460A      0.479951  
     461A      0.480443   462A      0.481752   463A      0.483513  
     464A      0.485449   465A      0.486549   466A      0.487490  
     467A      0.487837   468A      0.489114   469A      0.490168  
     470A      0.491648   471A      0.492002   472A      0.493492  
     473A      0.495769   474A      0.496906   475A      0.498022  
     476A      0.498974   477A      0.499523   478A      0.501450  
     479A      0.501670   480A      0.503538   481A      0.504551  
     482A      0.506019   483A      0.506799   484A      0.507674  
     485A      0.509643   486A      0.510476   487A      0.511372  
     488A      0.513723   489A      0.514044   490A      0.515867  
     491A      0.516769   492A      0.519345   493A      0.519904  
     494A      0.522140   495A      0.522483   496A      0.523733  
     497A      0.523989   498A      0.524525   499A      0.526846  
     500A      0.528610   501A      0.530201   502A      0.531099  
     503A      0.532016   504A      0.534479   505A      0.535447  
     506A      0.535884   507A      0.539730   508A      0.541006  
     509A      0.542719   510A      0.543062   511A      0.545264  
     512A      0.546102   513A      0.547971   514A      0.548975  
     515A      0.550468   516A      0.551752   517A      0.552501  
     518A      0.554889   519A      0.555429   520A      0.557241  
     521A      0.558090   522A      0.559130   523A      0.561677  
     524A      0.563061   525A      0.564812   526A      0.566279  
     527A      0.566616   528A      0.567558   529A      0.568815  
     530A      0.569399   531A      0.571265   532A      0.573062  
     533A      0.573918   534A      0.575687   535A      0.577759  
     536A      0.577813   537A      0.581254   538A      0.582495  
     539A      0.584039   540A      0.584803   541A      0.586437  
     542A      0.587081   543A      0.589992   544A      0.591257  
     545A      0.592543   546A      0.594897   547A      0.595118  
     548A      0.595580   549A      0.597023   550A      0.597438  
     551A      0.600446   552A      0.601875   553A      0.603045  
     554A      0.604630   555A      0.604670   556A      0.605982  
     557A      0.608026   558A      0.609007   559A      0.609691  
     560A      0.611794   561A      0.612552   562A      0.617259  
     563A      0.617929   564A      0.619867   565A      0.621005  
     566A      0.622567   567A      0.622964   568A      0.625213  
     569A      0.626636   570A      0.628447   571A      0.630564  
     572A      0.632852   573A      0.633108   574A      0.633727  
     575A      0.637165   576A      0.638000   577A      0.638711  
     578A      0.640041   579A      0.640991   580A      0.642935  
     581A      0.644439   582A      0.646682   583A      0.647861  
     584A      0.648829   585A      0.650934   586A      0.652125  
     587A      0.653143   588A      0.653468   589A      0.656856  
     590A      0.659177   591A      0.660234   592A      0.661429  
     593A      0.663532   594A      0.664382   595A      0.667261  
     596A      0.668380   597A      0.669590   598A      0.672623  
     599A      0.674322   600A      0.674905   601A      0.675766  
     602A      0.676463   603A      0.678566   604A      0.680462  
     605A      0.682324   606A      0.683980   607A      0.684811  
     608A      0.685431   609A      0.687072   610A      0.689138  
     611A      0.689901   612A      0.690391   613A      0.692354  
     614A      0.693405   615A      0.694278   616A      0.696387  
     617A      0.698334   618A      0.699520   619A      0.700757  
     620A      0.701414   621A      0.701966   622A      0.704625  
     623A      0.705839   624A      0.706379   625A      0.709751  
     626A      0.711012   627A      0.711709   628A      0.712944  
     629A      0.715620   630A      0.715805   631A      0.716871  
     632A      0.718787   633A      0.720084   634A      0.722570  
     635A      0.724081   636A      0.726224   637A      0.727297  
     638A      0.728429   639A      0.728849   640A      0.730549  
     641A      0.731429   642A      0.732251   643A      0.734713  
     644A      0.735476   645A      0.737260   646A      0.738216  
     647A      0.738975   648A      0.740903   649A      0.741638  
     650A      0.741986   651A      0.743221   652A      0.745640  
     653A      0.747632   654A      0.749922   655A      0.751481  
     656A      0.752974   657A      0.754584   658A      0.755981  
     659A      0.756831   660A      0.757841   661A      0.759001  
     662A      0.760401   663A      0.762454   664A      0.763921  
     665A      0.765063   666A      0.766533   667A      0.767453  
     668A      0.769252   669A      0.771019   670A      0.771687  
     671A      0.773541   672A      0.774875   673A      0.776940  
     674A      0.777084   675A      0.778907   676A      0.781171  
     677A      0.781558   678A      0.783726   679A      0.785279  
     680A      0.787220   681A      0.787697   682A      0.788729  
     683A      0.790341   684A      0.791748   685A      0.792524  
     686A      0.793473   687A      0.797132   688A      0.798104  
     689A      0.798534   690A      0.799692   691A      0.801541  
     692A      0.803575   693A      0.804585   694A      0.806021  
     695A      0.806718   696A      0.808130   697A      0.809145  
     698A      0.810988   699A      0.814160   700A      0.814520  
     701A      0.815332   702A      0.818295   703A      0.819144  
     704A      0.820936   705A      0.821725   706A      0.824212  
     707A      0.825656   708A      0.826238   709A      0.826515  
     710A      0.827821   711A      0.831550   712A      0.832319  
     713A      0.832982   714A      0.834478   715A      0.835449  
     716A      0.838720   717A      0.839904   718A      0.840934  
     719A      0.841350   720A      0.842339   721A      0.844178  
     722A      0.845719   723A      0.847054   724A      0.848773  
     725A      0.850444   726A      0.853109   727A      0.854713  
     728A      0.856225   729A      0.856979   730A      0.857671  
     731A      0.858106   732A      0.860120   733A      0.862508  
     734A      0.863196   735A      0.863834   736A      0.866375  
     737A      0.866995   738A      0.868082   739A      0.870196  
     740A      0.871644   741A      0.873197   742A      0.874465  
     743A      0.876102   744A      0.877138   745A      0.878963  
     746A      0.880540   747A      0.881423   748A      0.882491  
     749A      0.883702   750A      0.884955   751A      0.887331  
     752A      0.889514   753A      0.890312   754A      0.891389  
     755A      0.891646   756A      0.894162   757A      0.894400  
     758A      0.895930   759A      0.896935   760A      0.898589  
     761A      0.900837   762A      0.901918   763A      0.903775  
     764A      0.905897   765A      0.907568   766A      0.908517  
     767A      0.909683   768A      0.911420   769A      0.912295  
     770A      0.914240   771A      0.916447   772A      0.917152  
     773A      0.919357   774A      0.921865   775A      0.922574  
     776A      0.924047   777A      0.925324   778A      0.926950  
     779A      0.929353   780A      0.930778   781A      0.932270  
     782A      0.934145   783A      0.934849   784A      0.936787  
     785A      0.938119   786A      0.938420   787A      0.938750  
     788A      0.942775   789A      0.943036   790A      0.945053  
     791A      0.946314   792A      0.948602   793A      0.949601  
     794A      0.951105   795A      0.951527   796A      0.952389  
     797A      0.953346   798A      0.954762   799A      0.956708  
     800A      0.957104   801A      0.960185   802A      0.962524  
     803A      0.963305   804A      0.965934   805A      0.966636  
     806A      0.968925   807A      0.971119   808A      0.973047  
     809A      0.974180   810A      0.975730   811A      0.976774  
     812A      0.979173   813A      0.980198   814A      0.981459  
     815A      0.982267   816A      0.985609   817A      0.988003  
     818A      0.989580   819A      0.990271   820A      0.991304  
     821A      0.994293   822A      0.995510   823A      0.997546  
     824A      0.999445   825A      1.000843   826A      1.001355  
     827A      1.002367   828A      1.003367   829A      1.004810  
     830A      1.006914   831A      1.008744   832A      1.010480  
     833A      1.010889   834A      1.012314   835A      1.014603  
     836A      1.016001   837A      1.017867   838A      1.017952  
     839A      1.019611   840A      1.020106   841A      1.021805  
     842A      1.023530   843A      1.024309   844A      1.028084  
     845A      1.028610   846A      1.029707   847A      1.033106  
     848A      1.034489   849A      1.036521   850A      1.037289  
     851A      1.038137   852A      1.039246   853A      1.042739  
     854A      1.044300   855A      1.044522   856A      1.046578  
     857A      1.047285   858A      1.049656   859A      1.051938  
     860A      1.052673   861A      1.054148   862A      1.055149  
     863A      1.056198   864A      1.058799   865A      1.060125  
     866A      1.061729   867A      1.062736   868A      1.064809  
     869A      1.065909   870A      1.067290   871A      1.070017  
     872A      1.072963   873A      1.073887   874A      1.076059  
     875A      1.077325   876A      1.078555   877A      1.079506  
     878A      1.081947   879A      1.083116   880A      1.083559  
     881A      1.084849   882A      1.085800   883A      1.089024  
     884A      1.089518   885A      1.091136   886A      1.092626  
     887A      1.093461   888A      1.095320   889A      1.096176  
     890A      1.096834   891A      1.098846   892A      1.100281  
     893A      1.102653   894A      1.103271   895A      1.105725  
     896A      1.106657   897A      1.107502   898A      1.108693  
     899A      1.112007   900A      1.114077   901A      1.114944  
     902A      1.116589   903A      1.119181   904A      1.120103  
     905A      1.121936   906A      1.124539   907A      1.125265  
     908A      1.125469   909A      1.127433   910A      1.129747  
     911A      1.130806   912A      1.131355   913A      1.133888  
     914A      1.134871   915A      1.137605   916A      1.138533  
     917A      1.139329   918A      1.140878   919A      1.143164  
     920A      1.144698   921A      1.147365   922A      1.148692  
     923A      1.149132   924A      1.152859   925A      1.154698  
     926A      1.155484   927A      1.156162   928A      1.158537  
     929A      1.160204   930A      1.161824   931A      1.162890  
     932A      1.165291   933A      1.166707   934A      1.168031  
     935A      1.169066   936A      1.171416   937A      1.173066  
     938A      1.175231   939A      1.175583   940A      1.177612  
     941A      1.180080   942A      1.181730   943A      1.182968  
     944A      1.184780   945A      1.185372   946A      1.187104  
     947A      1.189417   948A      1.191794   949A      1.192662  
     950A      1.196033   951A      1.199422   952A      1.200885  
     953A      1.201606   954A      1.202612   955A      1.203414  
     956A      1.206237   957A      1.206831   958A      1.208798  
     959A      1.210895   960A      1.212438   961A      1.213907  
     962A      1.215534   963A      1.215866   964A      1.218139  
     965A      1.218984   966A      1.220772   967A      1.222331  
     968A      1.223552   969A      1.226165   970A      1.227270  
     971A      1.228236   972A      1.230406   973A      1.231270  
     974A      1.233652   975A      1.235307   976A      1.237324  
     977A      1.239131   978A      1.240710   979A      1.242405  
     980A      1.245403   981A      1.245688   982A      1.246143  
     983A      1.248006   984A      1.250303   985A      1.251807  
     986A      1.252223   987A      1.254028   988A      1.255814  
     989A      1.256656   990A      1.259338   991A      1.260111  
     992A      1.261466   993A      1.265796   994A      1.267857  
     995A      1.268494   996A      1.268937   997A      1.269933  
     998A      1.271408   999A      1.272360  1000A      1.273895  
    1001A      1.275293  1002A      1.275795  1003A      1.278687  
    1004A      1.279008  1005A      1.281335  1006A      1.281584  
    1007A      1.284237  1008A      1.287014  1009A      1.288124  
    1010A      1.289552  1011A      1.291408  1012A      1.293117  
    1013A      1.293218  1014A      1.295567  1015A      1.297330  
    1016A      1.297914  1017A      1.298463  1018A      1.299967  
    1019A      1.302656  1020A      1.304712  1021A      1.306056  
    1022A      1.308702  1023A      1.310284  1024A      1.311358  
    1025A      1.312811  1026A      1.313904  1027A      1.316279  
    1028A      1.316632  1029A      1.318518  1030A      1.320502  
    1031A      1.322366  1032A      1.324150  1033A      1.326386  
    1034A      1.327171  1035A      1.328997  1036A      1.329952  
    1037A      1.330746  1038A      1.331524  1039A      1.335305  
    1040A      1.337292  1041A      1.338150  1042A      1.338901  
    1043A      1.340609  1044A      1.342033  1045A      1.343177  
    1046A      1.344185  1047A      1.347229  1048A      1.348382  
    1049A      1.349697  1050A      1.351441  1051A      1.351534  
    1052A      1.354668  1053A      1.355225  1054A      1.357643  
    1055A      1.358021  1056A      1.360870  1057A      1.363613  
    1058A      1.364243  1059A      1.365979  1060A      1.367347  
    1061A      1.370000  1062A      1.372143  1063A      1.373479  
    1064A      1.375300  1065A      1.376553  1066A      1.378083  
    1067A      1.379249  1068A      1.381020  1069A      1.382098  
    1070A      1.383731  1071A      1.384149  1072A      1.386892  
    1073A      1.389326  1074A      1.390458  1075A      1.392472  
    1076A      1.392921  1077A      1.394873  1078A      1.395745  
    1079A      1.396718  1080A      1.397751  1081A      1.398956  
    1082A      1.400888  1083A      1.402108  1084A      1.404449  
    1085A      1.405843  1086A      1.407855  1087A      1.408890  
    1088A      1.412063  1089A      1.413071  1090A      1.413734  
    1091A      1.415411  1092A      1.417307  1093A      1.418139  
    1094A      1.420685  1095A      1.422162  1096A      1.423083  
    1097A      1.424772  1098A      1.427457  1099A      1.428844  
    1100A      1.429156  1101A      1.431084  1102A      1.432683  
    1103A      1.434603  1104A      1.436370  1105A      1.436993  
    1106A      1.437956  1107A      1.439307  1108A      1.439916  
    1109A      1.441880  1110A      1.444549  1111A      1.446535  
    1112A      1.448235  1113A      1.448629  1114A      1.448956  
    1115A      1.449820  1116A      1.452000  1117A      1.455267  
    1118A      1.456370  1119A      1.456704  1120A      1.458823  
    1121A      1.460909  1122A      1.462778  1123A      1.463785  
    1124A      1.465737  1125A      1.467654  1126A      1.469670  
    1127A      1.470785  1128A      1.472211  1129A      1.474409  
    1130A      1.475293  1131A      1.476699  1132A      1.478623  
    1133A      1.480183  1134A      1.481195  1135A      1.481588  
    1136A      1.483550  1137A      1.485472  1138A      1.489121  
    1139A      1.490681  1140A      1.490984  1141A      1.493464  
    1142A      1.494695  1143A      1.495915  1144A      1.496924  
    1145A      1.497003  1146A      1.500216  1147A      1.501034  
    1148A      1.502686  1149A      1.505137  1150A      1.505846  
    1151A      1.507212  1152A      1.508195  1153A      1.509247  
    1154A      1.511783  1155A      1.513472  1156A      1.514699  
    1157A      1.515794  1158A      1.517423  1159A      1.518803  
    1160A      1.520762  1161A      1.522436  1162A      1.523610  
    1163A      1.524601  1164A      1.526127  1165A      1.528793  
    1166A      1.530269  1167A      1.530988  1168A      1.532488  
    1169A      1.534933  1170A      1.536691  1171A      1.537778  
    1172A      1.540745  1173A      1.541400  1174A      1.544600  
    1175A      1.545372  1176A      1.546708  1177A      1.547460  
    1178A      1.549449  1179A      1.549985  1180A      1.551752  
    1181A      1.552216  1182A      1.553167  1183A      1.556724  
    1184A      1.558263  1185A      1.558639  1186A      1.561682  
    1187A      1.562689  1188A      1.565298  1189A      1.566153  
    1190A      1.566650  1191A      1.568221  1192A      1.570027  
    1193A      1.570918  1194A      1.573069  1195A      1.575529  
    1196A      1.576299  1197A      1.580448  1198A      1.580925  
    1199A      1.582454  1200A      1.583218  1201A      1.584290  
    1202A      1.586066  1203A      1.587664  1204A      1.589306  
    1205A      1.589943  1206A      1.591317  1207A      1.593656  
    1208A      1.594889  1209A      1.596665  1210A      1.599819  
    1211A      1.601274  1212A      1.604404  1213A      1.604950  
    1214A      1.606196  1215A      1.607816  1216A      1.609509  
    1217A      1.611334  1218A      1.612902  1219A      1.613322  
    1220A      1.613765  1221A      1.616347  1222A      1.618106  
    1223A      1.620369  1224A      1.620861  1225A      1.623643  
    1226A      1.625470  1227A      1.626892  1228A      1.628544  
    1229A      1.629557  1230A      1.631367  1231A      1.632549  
    1232A      1.635510  1233A      1.636133  1234A      1.637236  
    1235A      1.637716  1236A      1.640725  1237A      1.643235  
    1238A      1.644199  1239A      1.645790  1240A      1.646703  
    1241A      1.649344  1242A      1.649706  1243A      1.651275  
    1244A      1.654326  1245A      1.655869  1246A      1.656382  
    1247A      1.658272  1248A      1.660685  1249A      1.662900  
    1250A      1.664294  1251A      1.665928  1252A      1.667427  
    1253A      1.668811  1254A      1.669994  1255A      1.671278  
    1256A      1.673722  1257A      1.675825  1258A      1.676636  
    1259A      1.678264  1260A      1.680039  1261A      1.681119  
    1262A      1.683946  1263A      1.685182  1264A      1.686492  
    1265A      1.687156  1266A      1.689811  1267A      1.692173  
    1268A      1.694267  1269A      1.695038  1270A      1.696905  
    1271A      1.698451  1272A      1.700052  1273A      1.702975  
    1274A      1.704532  1275A      1.705362  1276A      1.706615  
    1277A      1.708966  1278A      1.711726  1279A      1.713494  
    1280A      1.714952  1281A      1.716927  1282A      1.718513  
    1283A      1.720451  1284A      1.721296  1285A      1.722441  
    1286A      1.723412  1287A      1.726239  1288A      1.726971  
    1289A      1.729681  1290A      1.731493  1291A      1.732016  
    1292A      1.735895  1293A      1.738055  1294A      1.740886  
    1295A      1.741400  1296A      1.743396  1297A      1.745031  
    1298A      1.745412  1299A      1.748673  1300A      1.749559  
    1301A      1.750859  1302A      1.752807  1303A      1.753998  
    1304A      1.756057  1305A      1.757267  1306A      1.758425  
    1307A      1.761498  1308A      1.764007  1309A      1.764804  
    1310A      1.765822  1311A      1.766116  1312A      1.769033  
    1313A      1.771398  1314A      1.774207  1315A      1.776156  
    1316A      1.777352  1317A      1.778814  1318A      1.781382  
    1319A      1.782846  1320A      1.785286  1321A      1.786896  
    1322A      1.788021  1323A      1.789711  1324A      1.791711  
    1325A      1.791945  1326A      1.795776  1327A      1.797289  
    1328A      1.799659  1329A      1.800476  1330A      1.802833  
    1331A      1.804415  1332A      1.805994  1333A      1.806363  
    1334A      1.809831  1335A      1.812521  1336A      1.812761  
    1337A      1.814923  1338A      1.818465  1339A      1.819514  
    1340A      1.821344  1341A      1.822237  1342A      1.825571  
    1343A      1.826838  1344A      1.828350  1345A      1.829699  
    1346A      1.830689  1347A      1.834011  1348A      1.837184  
    1349A      1.838027  1350A      1.840472  1351A      1.842371  
    1352A      1.844846  1353A      1.847362  1354A      1.847691  
    1355A      1.849182  1356A      1.850649  1357A      1.851204  
    1358A      1.852843  1359A      1.855099  1360A      1.856363  
    1361A      1.858078  1362A      1.859635  1363A      1.862065  
    1364A      1.863746  1365A      1.864819  1366A      1.866662  
    1367A      1.868136  1368A      1.870233  1369A      1.871196  
    1370A      1.872277  1371A      1.873864  1372A      1.876602  
    1373A      1.878334  1374A      1.882008  1375A      1.883469  
    1376A      1.884890  1377A      1.885948  1378A      1.887452  
    1379A      1.890850  1380A      1.893324  1381A      1.894346  
    1382A      1.896063  1383A      1.898874  1384A      1.900812  
    1385A      1.901564  1386A      1.903791  1387A      1.905706  
    1388A      1.907317  1389A      1.909194  1390A      1.910583  
    1391A      1.913006  1392A      1.913319  1393A      1.914932  
    1394A      1.916704  1395A      1.919635  1396A      1.922208  
    1397A      1.922420  1398A      1.925039  1399A      1.926121  
    1400A      1.929487  1401A      1.929852  1402A      1.932083  
    1403A      1.933387  1404A      1.936593  1405A      1.938070  
    1406A      1.940578  1407A      1.941536  1408A      1.943445  
    1409A      1.945238  1410A      1.946620  1411A      1.949648  
    1412A      1.951470  1413A      1.953569  1414A      1.956242  
    1415A      1.956711  1416A      1.958659  1417A      1.960770  
    1418A      1.962732  1419A      1.963166  1420A      1.964247  
    1421A      1.967936  1422A      1.970823  1423A      1.971266  
    1424A      1.972888  1425A      1.973156  1426A      1.976356  
    1427A      1.976969  1428A      1.977469  1429A      1.981071  
    1430A      1.983216  1431A      1.984008  1432A      1.986459  
    1433A      1.989366  1434A      1.989915  1435A      1.991099  
    1436A      1.993913  1437A      1.995872  1438A      1.999143  
    1439A      2.000747  1440A      2.001978  1441A      2.004330  
    1442A      2.006713  1443A      2.007860  1444A      2.009721  
    1445A      2.010921  1446A      2.013636  1447A      2.013942  
    1448A      2.016064  1449A      2.018169  1450A      2.019947  
    1451A      2.022222  1452A      2.023444  1453A      2.027015  
    1454A      2.028343  1455A      2.029752  1456A      2.032653  
    1457A      2.035001  1458A      2.036017  1459A      2.036836  
    1460A      2.039180  1461A      2.040921  1462A      2.042813  
    1463A      2.046054  1464A      2.048724  1465A      2.049904  
    1466A      2.053419  1467A      2.054326  1468A      2.056374  
    1469A      2.056888  1470A      2.058455  1471A      2.059746  
    1472A      2.061608  1473A      2.063828  1474A      2.065894  
    1475A      2.067652  1476A      2.069339  1477A      2.071595  
    1478A      2.073376  1479A      2.075057  1480A      2.077350  
    1481A      2.077987  1482A      2.080369  1483A      2.082949  
    1484A      2.084567  1485A      2.086445  1486A      2.087327  
    1487A      2.091990  1488A      2.093113  1489A      2.096587  
    1490A      2.098510  1491A      2.100422  1492A      2.103255  
    1493A      2.104719  1494A      2.106102  1495A      2.108174  
    1496A      2.113550  1497A      2.114061  1498A      2.115246  
    1499A      2.116616  1500A      2.118550  1501A      2.120599  
    1502A      2.121562  1503A      2.123817  1504A      2.127437  
    1505A      2.129475  1506A      2.131542  1507A      2.134304  
    1508A      2.136322  1509A      2.138379  1510A      2.140128  
    1511A      2.141402  1512A      2.142831  1513A      2.146404  
    1514A      2.148860  1515A      2.149967  1516A      2.152777  
    1517A      2.153894  1518A      2.154746  1519A      2.156505  
    1520A      2.160048  1521A      2.160918  1522A      2.163518  
    1523A      2.166921  1524A      2.168009  1525A      2.172822  
    1526A      2.173762  1527A      2.175198  1528A      2.177749  
    1529A      2.178312  1530A      2.180731  1531A      2.183327  
    1532A      2.184176  1533A      2.186225  1534A      2.189713  
    1535A      2.193615  1536A      2.196014  1537A      2.197188  
    1538A      2.199343  1539A      2.203856  1540A      2.206530  
    1541A      2.208041  1542A      2.208690  1543A      2.210721  
    1544A      2.211207  1545A      2.214612  1546A      2.217799  
    1547A      2.219486  1548A      2.222065  1549A      2.225539  
    1550A      2.229371  1551A      2.229671  1552A      2.233885  
    1553A      2.235057  1554A      2.238802  1555A      2.241844  
    1556A      2.244000  1557A      2.245457  1558A      2.247782  
    1559A      2.249821  1560A      2.251964  1561A      2.254389  
    1562A      2.257539  1563A      2.259940  1564A      2.261241  
    1565A      2.261782  1566A      2.265345  1567A      2.267527  
    1568A      2.270438  1569A      2.272172  1570A      2.274393  
    1571A      2.277101  1572A      2.278590  1573A      2.279636  
    1574A      2.282972  1575A      2.284330  1576A      2.284899  
    1577A      2.285389  1578A      2.289737  1579A      2.290104  
    1580A      2.295563  1581A      2.297589  1582A      2.299466  
    1583A      2.300590  1584A      2.302148  1585A      2.304025  
    1586A      2.305232  1587A      2.310447  1588A      2.315735  
    1589A      2.316429  1590A      2.318336  1591A      2.321209  
    1592A      2.322871  1593A      2.325703  1594A      2.328529  
    1595A      2.328931  1596A      2.329605  1597A      2.335315  
    1598A      2.336271  1599A      2.336832  1600A      2.337819  
    1601A      2.339320  1602A      2.341473  1603A      2.345126  
    1604A      2.349338  1605A      2.351624  1606A      2.352226  
    1607A      2.354229  1608A      2.356105  1609A      2.358094  
    1610A      2.360108  1611A      2.361627  1612A      2.365177  
    1613A      2.369382  1614A      2.372587  1615A      2.374113  
    1616A      2.377679  1617A      2.380525  1618A      2.381044  
    1619A      2.384288  1620A      2.385927  1621A      2.388045  
    1622A      2.391138  1623A      2.392569  1624A      2.396379  
    1625A      2.399164  1626A      2.401742  1627A      2.404321  
    1628A      2.405521  1629A      2.407524  1630A      2.408838  
    1631A      2.411466  1632A      2.413612  1633A      2.416179  
    1634A      2.420752  1635A      2.423681  1636A      2.425180  
    1637A      2.427725  1638A      2.430452  1639A      2.431931  
    1640A      2.434966  1641A      2.437075  1642A      2.440765  
    1643A      2.444072  1644A      2.446989  1645A      2.448562  
    1646A      2.452724  1647A      2.454828  1648A      2.455873  
    1649A      2.460817  1650A      2.463405  1651A      2.464939  
    1652A      2.465702  1653A      2.469120  1654A      2.470948  
    1655A      2.473541  1656A      2.475358  1657A      2.477830  
    1658A      2.479096  1659A      2.484321  1660A      2.488156  
    1661A      2.489186  1662A      2.491704  1663A      2.494443  
    1664A      2.497592  1665A      2.501291  1666A      2.502050  
    1667A      2.504421  1668A      2.506091  1669A      2.509500  
    1670A      2.512734  1671A      2.514556  1672A      2.515156  
    1673A      2.518586  1674A      2.519875  1675A      2.522692  
    1676A      2.526674  1677A      2.526712  1678A      2.530676  
    1679A      2.533242  1680A      2.537959  1681A      2.541445  
    1682A      2.541954  1683A      2.542941  1684A      2.545469  
    1685A      2.548400  1686A      2.551341  1687A      2.553590  
    1688A      2.557405  1689A      2.560854  1690A      2.561923  
    1691A      2.567866  1692A      2.569534  1693A      2.571830  
    1694A      2.575690  1695A      2.577726  1696A      2.579253  
    1697A      2.581781  1698A      2.583459  1699A      2.586636  
    1700A      2.588846  1701A      2.590442  1702A      2.595031  
    1703A      2.598817  1704A      2.600135  1705A      2.600897  
    1706A      2.603439  1707A      2.605776  1708A      2.609041  
    1709A      2.613289  1710A      2.616762  1711A      2.618533  
    1712A      2.619063  1713A      2.624794  1714A      2.625387  
    1715A      2.626714  1716A      2.629099  1717A      2.634035  
    1718A      2.636238  1719A      2.640888  1720A      2.642603  
    1721A      2.644871  1722A      2.648784  1723A      2.650646  
    1724A      2.654419  1725A      2.656566  1726A      2.658830  
    1727A      2.662490  1728A      2.664604  1729A      2.665802  
    1730A      2.667000  1731A      2.670011  1732A      2.671311  
    1733A      2.675868  1734A      2.680873  1735A      2.683970  
    1736A      2.687723  1737A      2.689683  1738A      2.691918  
    1739A      2.695243  1740A      2.697205  1741A      2.700536  
    1742A      2.703530  1743A      2.705811  1744A      2.711001  
    1745A      2.711800  1746A      2.714508  1747A      2.717370  
    1748A      2.721015  1749A      2.722921  1750A      2.725901  
    1751A      2.729139  1752A      2.731332  1753A      2.733711  
    1754A      2.735505  1755A      2.739857  1756A      2.741049  
    1757A      2.744657  1758A      2.746884  1759A      2.748221  
    1760A      2.753728  1761A      2.755232  1762A      2.757985  
    1763A      2.759861  1764A      2.764291  1765A      2.767167  
    1766A      2.767753  1767A      2.774744  1768A      2.777800  
    1769A      2.779951  1770A      2.781584  1771A      2.784198  
    1772A      2.787625  1773A      2.790687  1774A      2.792419  
    1775A      2.793834  1776A      2.795335  1777A      2.799728  
    1778A      2.803905  1779A      2.806574  1780A      2.808025  
    1781A      2.815017  1782A      2.817049  1783A      2.821495  
    1784A      2.824129  1785A      2.825802  1786A      2.831037  
    1787A      2.833108  1788A      2.834591  1789A      2.836946  
    1790A      2.844399  1791A      2.845385  1792A      2.850174  
    1793A      2.851231  1794A      2.854358  1795A      2.859841  
    1796A      2.863948  1797A      2.865185  1798A      2.868771  
    1799A      2.874949  1800A      2.879965  1801A      2.882224  
    1802A      2.884611  1803A      2.888113  1804A      2.892766  
    1805A      2.893716  1806A      2.898233  1807A      2.900807  
    1808A      2.902310  1809A      2.907245  1810A      2.912620  
    1811A      2.914586  1812A      2.916574  1813A      2.920963  
    1814A      2.927683  1815A      2.932121  1816A      2.933819  
    1817A      2.935738  1818A      2.940292  1819A      2.942823  
    1820A      2.949321  1821A      2.951423  1822A      2.953440  
    1823A      2.955918  1824A      2.958874  1825A      2.965230  
    1826A      2.966457  1827A      2.973521  1828A      2.977672  
    1829A      2.983368  1830A      2.987348  1831A      2.991491  
    1832A      2.991547  1833A      2.993589  1834A      2.997849  
    1835A      3.004274  1836A      3.012009  1837A      3.014669  
    1838A      3.016706  1839A      3.021746  1840A      3.026225  
    1841A      3.031270  1842A      3.034138  1843A      3.044310  
    1844A      3.045706  1845A      3.049626  1846A      3.054201  
    1847A      3.063085  1848A      3.065595  1849A      3.067114  
    1850A      3.068271  1851A      3.075458  1852A      3.077412  
    1853A      3.080043  1854A      3.084821  1855A      3.085917  
    1856A      3.093261  1857A      3.097562  1858A      3.102108  
    1859A      3.105429  1860A      3.108510  1861A      3.117982  
    1862A      3.120080  1863A      3.125552  1864A      3.128133  
    1865A      3.131238  1866A      3.137900  1867A      3.139945  
    1868A      3.145528  1869A      3.151190  1870A      3.152316  
    1871A      3.155956  1872A      3.161604  1873A      3.165384  
    1874A      3.167666  1875A      3.169224  1876A      3.170818  
    1877A      3.172605  1878A      3.182704  1879A      3.185319  
    1880A      3.186613  1881A      3.194161  1882A      3.197657  
    1883A      3.200934  1884A      3.206479  1885A      3.208143  
    1886A      3.213246  1887A      3.219159  1888A      3.220224  
    1889A      3.224026  1890A      3.231402  1891A      3.235245  
    1892A      3.237857  1893A      3.241482  1894A      3.248240  
    1895A      3.248666  1896A      3.250380  1897A      3.254832  
    1898A      3.256338  1899A      3.258378  1900A      3.261833  
    1901A      3.266859  1902A      3.270106  1903A      3.278636  
    1904A      3.280706  1905A      3.285572  1906A      3.287109  
    1907A      3.292112  1908A      3.296899  1909A      3.298359  
    1910A      3.303030  1911A      3.307347  1912A      3.308391  
    1913A      3.310145  1914A      3.313275  1915A      3.316114  
    1916A      3.319127  1917A      3.323335  1918A      3.328619  
    1919A      3.331302  1920A      3.336032  1921A      3.339077  
    1922A      3.340945  1923A      3.341594  1924A      3.346330  
    1925A      3.347168  1926A      3.353064  1927A      3.355942  
    1928A      3.357982  1929A      3.362603  1930A      3.364364  
    1931A      3.367140  1932A      3.371845  1933A      3.375365  
    1934A      3.380890  1935A      3.381663  1936A      3.384326  
    1937A      3.388856  1938A      3.389543  1939A      3.391237  
    1940A      3.392509  1941A      3.398499  1942A      3.402919  
    1943A      3.408725  1944A      3.409835  1945A      3.413732  
    1946A      3.414525  1947A      3.419666  1948A      3.420823  
    1949A      3.425102  1950A      3.425678  1951A      3.427031  
    1952A      3.430970  1953A      3.433077  1954A      3.439205  
    1955A      3.440558  1956A      3.442553  1957A      3.444586  
    1958A      3.450567  1959A      3.452470  1960A      3.453284  
    1961A      3.455213  1962A      3.457837  1963A      3.461067  
    1964A      3.466482  1965A      3.469000  1966A      3.470479  
    1967A      3.472954  1968A      3.477074  1969A      3.480585  
    1970A      3.483819  1971A      3.486672  1972A      3.488728  
    1973A      3.490972  1974A      3.493836  1975A      3.494762  
    1976A      3.499585  1977A      3.502164  1978A      3.507098  
    1979A      3.508570  1980A      3.510519  1981A      3.512510  
    1982A      3.517644  1983A      3.520728  1984A      3.522511  
    1985A      3.524026  1986A      3.527398  1987A      3.529101  
    1988A      3.531701  1989A      3.536916  1990A      3.541040  
    1991A      3.543408  1992A      3.545309  1993A      3.548071  
    1994A      3.551510  1995A      3.554868  1996A      3.558722  
    1997A      3.563214  1998A      3.565427  1999A      3.566228  
    2000A      3.569038  2001A      3.574317  2002A      3.576547  
    2003A      3.578457  2004A      3.581797  2005A      3.584241  
    2006A      3.586770  2007A      3.588980  2008A      3.592019  
    2009A      3.594357  2010A      3.599763  2011A      3.602508  
    2012A      3.608327  2013A      3.609414  2014A      3.612348  
    2015A      3.614313  2016A      3.618802  2017A      3.621259  
    2018A      3.623223  2019A      3.625718  2020A      3.633089  
    2021A      3.634541  2022A      3.639674  2023A      3.640200  
    2024A      3.641046  2025A      3.646888  2026A      3.647975  
    2027A      3.650809  2028A      3.652766  2029A      3.657704  
    2030A      3.662285  2031A      3.667320  2032A      3.671866  
    2033A      3.672306  2034A      3.675983  2035A      3.677724  
    2036A      3.681857  2037A      3.684811  2038A      3.687936  
    2039A      3.690913  2040A      3.694175  2041A      3.696467  
    2042A      3.699545  2043A      3.704081  2044A      3.705373  
    2045A      3.710696  2046A      3.714680  2047A      3.718566  
    2048A      3.720529  2049A      3.724016  2050A      3.726297  
    2051A      3.729775  2052A      3.730568  2053A      3.733133  
    2054A      3.734707  2055A      3.739760  2056A      3.741859  
    2057A      3.749229  2058A      3.750937  2059A      3.755439  
    2060A      3.757026  2061A      3.759171  2062A      3.760155  
    2063A      3.761562  2064A      3.766216  2065A      3.769283  
    2066A      3.772099  2067A      3.778349  2068A      3.782250  
    2069A      3.782932  2070A      3.783859  2071A      3.788602  
    2072A      3.790482  2073A      3.793594  2074A      3.796229  
    2075A      3.799752  2076A      3.801480  2077A      3.807146  
    2078A      3.811584  2079A      3.815328  2080A      3.817566  
    2081A      3.819534  2082A      3.824934  2083A      3.826677  
    2084A      3.828771  2085A      3.833841  2086A      3.834821  
    2087A      3.837771  2088A      3.839663  2089A      3.843769  
    2090A      3.848805  2091A      3.850932  2092A      3.854999  
    2093A      3.859309  2094A      3.863091  2095A      3.864180  
    2096A      3.869439  2097A      3.871725  2098A      3.876533  
    2099A      3.877774  2100A      3.885331  2101A      3.890791  
    2102A      3.894950  2103A      3.897937  2104A      3.899715  
    2105A      3.903088  2106A      3.905463  2107A      3.906969  
    2108A      3.910164  2109A      3.914357  2110A      3.916690  
    2111A      3.918810  2112A      3.922724  2113A      3.925161  
    2114A      3.930226  2115A      3.932260  2116A      3.936420  
    2117A      3.938822  2118A      3.943022  2119A      3.944970  
    2120A      3.947937  2121A      3.951844  2122A      3.957777  
    2123A      3.962257  2124A      3.962933  2125A      3.964685  
    2126A      3.967059  2127A      3.974551  2128A      3.978200  
    2129A      3.982659  2130A      3.984321  2131A      3.987635  
    2132A      3.991429  2133A      3.995664  2134A      3.998342  
    2135A      4.000263  2136A      4.008089  2137A      4.010110  
    2138A      4.013207  2139A      4.015577  2140A      4.020296  
    2141A      4.022705  2142A      4.025938  2143A      4.028132  
    2144A      4.030447  2145A      4.032746  2146A      4.035173  
    2147A      4.039146  2148A      4.043622  2149A      4.045665  
    2150A      4.047183  2151A      4.050158  2152A      4.053915  
    2153A      4.055440  2154A      4.060416  2155A      4.060818  
    2156A      4.063741  2157A      4.065795  2158A      4.072555  
    2159A      4.074339  2160A      4.080024  2161A      4.083067  
    2162A      4.085735  2163A      4.089919  2164A      4.090795  
    2165A      4.094238  2166A      4.095749  2167A      4.098531  
    2168A      4.104548  2169A      4.108657  2170A      4.111587  
    2171A      4.112136  2172A      4.117293  2173A      4.118877  
    2174A      4.121320  2175A      4.121613  2176A      4.123878  
    2177A      4.128643  2178A      4.130180  2179A      4.131253  
    2180A      4.136434  2181A      4.140382  2182A      4.142952  
    2183A      4.146395  2184A      4.147703  2185A      4.150601  
    2186A      4.154560  2187A      4.156905  2188A      4.157140  
    2189A      4.161202  2190A      4.165096  2191A      4.168322  
    2192A      4.169820  2193A      4.172926  2194A      4.175929  
    2195A      4.179548  2196A      4.181132  2197A      4.182939  
    2198A      4.185798  2199A      4.187194  2200A      4.188297  
    2201A      4.192881  2202A      4.193973  2203A      4.196996  
    2204A      4.199792  2205A      4.201393  2206A      4.203774  
    2207A      4.208358  2208A      4.210450  2209A      4.212092  
    2210A      4.214525  2211A      4.217740  2212A      4.219490  
    2213A      4.222811  2214A      4.223740  2215A      4.227752  
    2216A      4.229828  2217A      4.232684  2218A      4.235978  
    2219A      4.237612  2220A      4.238815  2221A      4.240306  
    2222A      4.246598  2223A      4.248261  2224A      4.253327  
    2225A      4.253693  2226A      4.259703  2227A      4.260600  
    2228A      4.261687  2229A      4.265709  2230A      4.268439  
    2231A      4.269208  2232A      4.269998  2233A      4.272730  
    2234A      4.278440  2235A      4.280092  2236A      4.281332  
    2237A      4.282118  2238A      4.284694  2239A      4.288908  
    2240A      4.290113  2241A      4.291831  2242A      4.295110  
    2243A      4.298582  2244A      4.299333  2245A      4.306492  
    2246A      4.307219  2247A      4.308441  2248A      4.310059  
    2249A      4.313692  2250A      4.317606  2251A      4.317864  
    2252A      4.319601  2253A      4.325723  2254A      4.326137  
    2255A      4.331197  2256A      4.333358  2257A      4.335208  
    2258A      4.339668  2259A      4.341635  2260A      4.344153  
    2261A      4.346829  2262A      4.348119  2263A      4.350576  
    2264A      4.354652  2265A      4.356238  2266A      4.358625  
    2267A      4.360296  2268A      4.361172  2269A      4.361999  
    2270A      4.365896  2271A      4.367600  2272A      4.370399  
    2273A      4.370534  2274A      4.373724  2275A      4.376748  
    2276A      4.377898  2277A      4.380934  2278A      4.384223  
    2279A      4.384720  2280A      4.386759  2281A      4.390796  
    2282A      4.393897  2283A      4.394907  2284A      4.396967  
    2285A      4.401615  2286A      4.403525  2287A      4.405466  
    2288A      4.408321  2289A      4.411390  2290A      4.412169  
    2291A      4.414589  2292A      4.418313  2293A      4.419114  
    2294A      4.421568  2295A      4.425653  2296A      4.426591  
    2297A      4.429766  2298A      4.431744  2299A      4.433671  
    2300A      4.437223  2301A      4.439360  2302A      4.440680  
    2303A      4.444512  2304A      4.447591  2305A      4.450039  
    2306A      4.452790  2307A      4.453877  2308A      4.455673  
    2309A      4.459370  2310A      4.463412  2311A      4.464292  
    2312A      4.467267  2313A      4.468713  2314A      4.469577  
    2315A      4.471744  2316A      4.475508  2317A      4.478976  
    2318A      4.480583  2319A      4.482814  2320A      4.483216  
    2321A      4.484836  2322A      4.489561  2323A      4.491971  
    2324A      4.492052  2325A      4.494877  2326A      4.497930  
    2327A      4.498706  2328A      4.503141  2329A      4.505480  
    2330A      4.506974  2331A      4.509320  2332A      4.511091  
    2333A      4.513046  2334A      4.515711  2335A      4.517938  
    2336A      4.522244  2337A      4.525130  2338A      4.527362  
    2339A      4.529069  2340A      4.532349  2341A      4.535081  
    2342A      4.536881  2343A      4.537521  2344A      4.541574  
    2345A      4.543488  2346A      4.546579  2347A      4.549864  
    2348A      4.551822  2349A      4.556076  2350A      4.557937  
    2351A      4.559935  2352A      4.562133  2353A      4.564312  
    2354A      4.565136  2355A      4.568031  2356A      4.570509  
    2357A      4.574273  2358A      4.576161  2359A      4.577400  
    2360A      4.581526  2361A      4.582197  2362A      4.589384  
    2363A      4.590317  2364A      4.592267  2365A      4.596136  
    2366A      4.598258  2367A      4.599200  2368A      4.604186  
    2369A      4.605633  2370A      4.610167  2371A      4.614091  
    2372A      4.615294  2373A      4.620305  2374A      4.623401  
    2375A      4.624121  2376A      4.625653  2377A      4.627411  
    2378A      4.628387  2379A      4.630211  2380A      4.635157  
    2381A      4.635814  2382A      4.637867  2383A      4.639630  
    2384A      4.644192  2385A      4.646484  2386A      4.648728  
    2387A      4.653017  2388A      4.655137  2389A      4.658713  
    2390A      4.661246  2391A      4.664382  2392A      4.665802  
    2393A      4.668775  2394A      4.672394  2395A      4.673156  
    2396A      4.677265  2397A      4.678550  2398A      4.681980  
    2399A      4.683558  2400A      4.685670  2401A      4.688849  
    2402A      4.692394  2403A      4.695230  2404A      4.695604  
    2405A      4.700287  2406A      4.701789  2407A      4.707086  
    2408A      4.709151  2409A      4.710118  2410A      4.712683  
    2411A      4.716712  2412A      4.719143  2413A      4.721351  
    2414A      4.724053  2415A      4.728330  2416A      4.730785  
    2417A      4.732844  2418A      4.733643  2419A      4.735599  
    2420A      4.739599  2421A      4.741725  2422A      4.743118  
    2423A      4.744525  2424A      4.749420  2425A      4.750509  
    2426A      4.752781  2427A      4.754569  2428A      4.760714  
    2429A      4.762045  2430A      4.764200  2431A      4.768213  
    2432A      4.768676  2433A      4.770455  2434A      4.773319  
    2435A      4.777593  2436A      4.784198  2437A      4.786632  
    2438A      4.789378  2439A      4.790019  2440A      4.793445  
    2441A      4.794931  2442A      4.797091  2443A      4.799162  
    2444A      4.804142  2445A      4.807486  2446A      4.809507  
    2447A      4.811219  2448A      4.815052  2449A      4.818082  
    2450A      4.825693  2451A      4.826705  2452A      4.827886  
    2453A      4.830210  2454A      4.833892  2455A      4.835931  
    2456A      4.839151  2457A      4.842085  2458A      4.844943  
    2459A      4.849067  2460A      4.850280  2461A      4.852594  
    2462A      4.855372  2463A      4.857757  2464A      4.859853  
    2465A      4.864185  2466A      4.866232  2467A      4.868509  
    2468A      4.868908  2469A      4.874104  2470A      4.877599  
    2471A      4.880549  2472A      4.882449  2473A      4.884531  
    2474A      4.887614  2475A      4.890162  2476A      4.892918  
    2477A      4.894802  2478A      4.897900  2479A      4.899569  
    2480A      4.902319  2481A      4.904634  2482A      4.907723  
    2483A      4.910067  2484A      4.914246  2485A      4.916059  
    2486A      4.919136  2487A      4.921089  2488A      4.924650  
    2489A      4.927649  2490A      4.931472  2491A      4.934628  
    2492A      4.936039  2493A      4.937918  2494A      4.943222  
    2495A      4.945691  2496A      4.948051  2497A      4.949944  
    2498A      4.953516  2499A      4.956704  2500A      4.961368  
    2501A      4.964081  2502A      4.966845  2503A      4.970794  
    2504A      4.972172  2505A      4.979049  2506A      4.982267  
    2507A      4.985742  2508A      4.988511  2509A      4.990108  
    2510A      4.992298  2511A      4.998586  2512A      5.000231  
    2513A      5.002174  2514A      5.004548  2515A      5.006128  
    2516A      5.010799  2517A      5.012757  2518A      5.015753  
    2519A      5.018821  2520A      5.019254  2521A      5.020563  
    2522A      5.025261  2523A      5.031643  2524A      5.032785  
    2525A      5.037532  2526A      5.038372  2527A      5.041866  
    2528A      5.045440  2529A      5.049431  2530A      5.051634  
    2531A      5.053661  2532A      5.057492  2533A      5.058598  
    2534A      5.060021  2535A      5.062499  2536A      5.064090  
    2537A      5.067279  2538A      5.070186  2539A      5.071820  
    2540A      5.074047  2541A      5.078399  2542A      5.083611  
    2543A      5.087068  2544A      5.091288  2545A      5.093738  
    2546A      5.097104  2547A      5.097850  2548A      5.102737  
    2549A      5.106693  2550A      5.109553  2551A      5.112575  
    2552A      5.115034  2553A      5.115280  2554A      5.122936  
    2555A      5.124615  2556A      5.128116  2557A      5.129066  
    2558A      5.132263  2559A      5.134808  2560A      5.140060  
    2561A      5.142228  2562A      5.144822  2563A      5.149286  
    2564A      5.154022  2565A      5.155097  2566A      5.156432  
    2567A      5.160544  2568A      5.162612  2569A      5.168830  
    2570A      5.172948  2571A      5.174737  2572A      5.182923  
    2573A      5.184734  2574A      5.186884  2575A      5.190069  
    2576A      5.191548  2577A      5.194782  2578A      5.196841  
    2579A      5.203812  2580A      5.204742  2581A      5.207276  
    2582A      5.208941  2583A      5.211520  2584A      5.216868  
    2585A      5.219698  2586A      5.223128  2587A      5.223770  
    2588A      5.228173  2589A      5.230622  2590A      5.232715  
    2591A      5.236766  2592A      5.240927  2593A      5.242318  
    2594A      5.245673  2595A      5.251130  2596A      5.254202  
    2597A      5.256536  2598A      5.259797  2599A      5.268142  
    2600A      5.269468  2601A      5.273273  2602A      5.275189  
    2603A      5.276754  2604A      5.280330  2605A      5.285215  
    2606A      5.290277  2607A      5.293211  2608A      5.294861  
    2609A      5.297499  2610A      5.302360  2611A      5.305303  
    2612A      5.308712  2613A      5.311619  2614A      5.315876  
    2615A      5.318250  2616A      5.326318  2617A      5.327066  
    2618A      5.332012  2619A      5.332641  2620A      5.337391  
    2621A      5.341666  2622A      5.343970  2623A      5.349780  
    2624A      5.350232  2625A      5.351509  2626A      5.355922  
    2627A      5.362978  2628A      5.363480  2629A      5.367684  
    2630A      5.368597  2631A      5.371388  2632A      5.373875  
    2633A      5.379323  2634A      5.382095  2635A      5.384129  
    2636A      5.386991  2637A      5.387908  2638A      5.393690  
    2639A      5.395098  2640A      5.400322  2641A      5.404233  
    2642A      5.410281  2643A      5.411607  2644A      5.416991  
    2645A      5.420936  2646A      5.421660  2647A      5.427800  
    2648A      5.429324  2649A      5.434541  2650A      5.440880  
    2651A      5.443673  2652A      5.445556  2653A      5.449119  
    2654A      5.450559  2655A      5.454827  2656A      5.457978  
    2657A      5.459175  2658A      5.462783  2659A      5.469390  
    2660A      5.475782  2661A      5.481880  2662A      5.486359  
    2663A      5.488884  2664A      5.489844  2665A      5.497021  
    2666A      5.499983  2667A      5.501810  2668A      5.504039  
    2669A      5.512936  2670A      5.517079  2671A      5.518399  
    2672A      5.520571  2673A      5.522442  2674A      5.526360  
    2675A      5.529894  2676A      5.531881  2677A      5.534650  
    2678A      5.538757  2679A      5.540571  2680A      5.543941  
    2681A      5.548821  2682A      5.552673  2683A      5.554587  
    2684A      5.558171  2685A      5.560238  2686A      5.565497  
    2687A      5.569643  2688A      5.572624  2689A      5.577023  
    2690A      5.578453  2691A      5.582417  2692A      5.584472  
    2693A      5.587884  2694A      5.592764  2695A      5.597368  
    2696A      5.600946  2697A      5.602806  2698A      5.607269  
    2699A      5.608697  2700A      5.609222  2701A      5.619954  
    2702A      5.626141  2703A      5.631430  2704A      5.632678  
    2705A      5.637711  2706A      5.643443  2707A      5.645947  
    2708A      5.654139  2709A      5.654989  2710A      5.664557  
    2711A      5.666061  2712A      5.667540  2713A      5.672712  
    2714A      5.674487  2715A      5.675525  2716A      5.682329  
    2717A      5.687741  2718A      5.692628  2719A      5.697219  
    2720A      5.699723  2721A      5.701744  2722A      5.705707  
    2723A      5.709870  2724A      5.712691  2725A      5.716712  
    2726A      5.721188  2727A      5.724362  2728A      5.727698  
    2729A      5.732590  2730A      5.738051  2731A      5.745489  
    2732A      5.748366  2733A      5.751820  2734A      5.760508  
    2735A      5.762247  2736A      5.763560  2737A      5.769863  
    2738A      5.773510  2739A      5.778309  2740A      5.780987  
    2741A      5.784467  2742A      5.793119  2743A      5.793643  
    2744A      5.796028  2745A      5.805326  2746A      5.809905  
    2747A      5.813511  2748A      5.815905  2749A      5.820428  
    2750A      5.823138  2751A      5.830405  2752A      5.832248  
    2753A      5.837322  2754A      5.848295  2755A      5.851854  
    2756A      5.855387  2757A      5.858083  2758A      5.863093  
    2759A      5.867463  2760A      5.869490  2761A      5.874612  
    2762A      5.876490  2763A      5.882642  2764A      5.885587  
    2765A      5.887358  2766A      5.897886  2767A      5.900414  
    2768A      5.906334  2769A      5.909648  2770A      5.912268  
    2771A      5.914633  2772A      5.918532  2773A      5.924244  
    2774A      5.930957  2775A      5.933423  2776A      5.938555  
    2777A      5.947513  2778A      5.948475  2779A      5.953411  
    2780A      5.960949  2781A      5.966706  2782A      5.973622  
    2783A      5.975000  2784A      5.977164  2785A      5.983923  
    2786A      5.990732  2787A      5.997975  2788A      6.001609  
    2789A      6.007043  2790A      6.009872  2791A      6.019190  
    2792A      6.025566  2793A      6.028137  2794A      6.031779  
    2795A      6.037784  2796A      6.046636  2797A      6.049587  
    2798A      6.055481  2799A      6.061374  2800A      6.069803  
    2801A      6.073091  2802A      6.077251  2803A      6.080724  
    2804A      6.087641  2805A      6.091344  2806A      6.093084  
    2807A      6.102020  2808A      6.106647  2809A      6.110229  
    2810A      6.115099  2811A      6.127513  2812A      6.132463  
    2813A      6.138107  2814A      6.141393  2815A      6.146939  
    2816A      6.153525  2817A      6.154528  2818A      6.163602  
    2819A      6.172709  2820A      6.176600  2821A      6.180008  
    2822A      6.192971  2823A      6.194206  2824A      6.200484  
    2825A      6.204548  2826A      6.210402  2827A      6.216702  
    2828A      6.223921  2829A      6.227012  2830A      6.230514  
    2831A      6.234873  2832A      6.239421  2833A      6.245750  
    2834A      6.249914  2835A      6.255162  2836A      6.261834  
    2837A      6.263311  2838A      6.270064  2839A      6.271934  
    2840A      6.278170  2841A      6.284407  2842A      6.302970  
    2843A      6.304132  2844A      6.307571  2845A      6.313793  
    2846A      6.318517  2847A      6.326950  2848A      6.332852  
    2849A      6.334176  2850A      6.358002  2851A      6.366050  
    2852A      6.378422  2853A      6.382069  2854A      6.386476  
    2855A      6.396425  2856A      6.402323  2857A      6.404193  
    2858A      6.416382  2859A      6.427539  2860A      6.428746  
    2861A      6.446164  2862A      6.448997  2863A      6.469287  
    2864A      6.474497  2865A      6.491993  2866A      6.496526  
    2867A      6.507480  2868A      6.516958  2869A      6.523463  
    2870A      6.530873  2871A      6.540282  2872A      6.549883  
    2873A      6.561501  2874A      6.568577  2875A      6.573138  
    2876A      6.587159  2877A      6.587469  2878A      6.593339  
    2879A      6.609598  2880A      6.618619  2881A      6.629296  
    2882A      6.635951  2883A      6.652495  2884A      6.659601  
    2885A      6.665225  2886A      6.668348  2887A      6.685408  
    2888A      6.691971  2889A      6.701267  2890A      6.709376  
    2891A      6.714591  2892A      6.727164  2893A      6.738244  
    2894A      6.751950  2895A      6.758622  2896A      6.773333  
    2897A      6.798801  2898A      6.815327  2899A      6.827522  
    2900A      6.833322  2901A      6.836413  2902A      6.845754  
    2903A      6.853843  2904A      6.890484  2905A      6.891162  
    2906A      6.905227  2907A      6.929278  2908A      6.932206  
    2909A      6.942254  2910A      6.973513  2911A      6.985252  
    2912A      7.006974  2913A      7.008703  2914A      7.017677  
    2915A      7.037342  2916A      7.057294  2917A      7.069683  
    2918A      7.097786  2919A      7.113447  2920A      7.127403  
    2921A      7.135171  2922A      7.156645  2923A      7.164747  
    2924A      7.187589  2925A      7.191725  2926A      7.211830  
    2927A      7.224770  2928A      7.229490  2929A      7.248737  
    2930A      7.273582  2931A      7.286675  2932A      7.296909  
    2933A      7.325857  2934A      7.343555  2935A      7.361017  
    2936A      7.365366  2937A      7.398443  2938A      7.415074  
    2939A      7.438000  2940A      7.442336  2941A      7.461402  
    2942A      7.474223  2943A      7.480845  2944A      7.497110  
    2945A      7.522801  2946A      7.525338  2947A      7.542452  
    2948A      7.568176  2949A      7.573134  2950A      7.601197  
    2951A      7.613760  2952A      7.641582  2953A      7.663999  
    2954A      7.664198  2955A      7.682406  2956A      7.698732  
    2957A      7.722046  2958A      7.736895  2959A      7.748927  
    2960A      7.755869  2961A      7.760516  2962A      7.766171  
    2963A      7.778644  2964A      7.783943  2965A      7.791429  
    2966A      7.799872  2967A      7.829847  2968A      7.833692  
    2969A      7.866183  2970A      7.874384  2971A      7.891259  
    2972A      7.906126  2973A      7.924552  2974A      7.952565  
    2975A      7.968260  2976A      7.992105  2977A      8.045935  
    2978A      8.074540  2979A      8.116417  2980A      8.147107  
    2981A      8.174427  2982A      8.200839  2983A      8.228090  
    2984A      8.235096  2985A      8.265968  2986A      8.279422  
    2987A      8.305706  2988A      8.315687  2989A      8.359836  
    2990A      8.381286  2991A      8.397208  2992A      8.424659  
    2993A      8.449752  2994A      8.483642  2995A      8.565418  
    2996A      8.587741  2997A      8.628283  2998A      8.649223  
    2999A      8.671075  3000A      8.719406  3001A      8.823812  
    3002A      8.860240  3003A      8.894683  3004A      8.979755  
    3005A      8.999039  3006A      9.068448  3007A      9.200601  
    3008A      9.290001  3009A      9.385088  3010A      9.400596  
    3011A      9.552516  3012A      9.617258  3013A      9.639706  
    3014A      9.703901  3015A      9.738617  3016A      9.795666  
    3017A      9.900984  3018A      9.953164  3019A      9.971578  
    3020A     10.013668  3021A     10.029369  3022A     10.099147  
    3023A     10.128718  3024A     10.220099  3025A     10.267170  
    3026A     10.349545  3027A     10.404784  3028A     10.477230  
    3029A     10.553884  3030A     10.675354  3031A     10.732813  
    3032A     10.802648  3033A     10.964981  3034A     11.041160  
    3035A     11.153972  3036A     11.186130  3037A     11.262726  
    3038A     11.363148  3039A     11.368654  3040A     11.427938  
    3041A     11.639533  3042A     11.821704  3043A     11.838774  
    3044A     11.947785  3045A     12.141351  3046A     12.189948  
    3047A     12.240970  3048A     12.289554  3049A     12.507943  
    3050A     12.623121  3051A     12.672458  3052A     15.101037  
    3053A     15.524861  3054A     15.899541  3055A     16.336534  
    3056A     16.616819  3057A     16.918685  3058A     17.206910  
    3059A     17.490127  3060A     17.904766  3061A     18.205549  
    3062A     18.677488  3063A     19.008955  3064A     19.407062  
    3065A     20.051507  3066A     20.589330  3067A     21.005014  
    3068A     21.144874  3069A     21.556497  3070A     21.615702  
    3071A     21.868592  3072A     22.055103  3073A     22.598910  
    3074A     22.777139  3075A     22.942054  3076A     49.717600  
    3077A     50.599095  3078A     51.374662  3079A     52.226463  
    3080A     52.913962  3081A     53.161882  3082A     53.457115  
    3083A     54.231452  3084A     55.131791  3085A     55.941642  
    3086A     56.676579  3087A     57.552717  3088A     58.096993  
    3089A     58.532550  3090A     59.568602  3091A     60.618701  
    3092A     61.349047  3093A     61.517038  3094A     61.748538  
    3095A     62.371047  3096A     62.622133  3097A     63.528525  
    3098A     64.109437  3099A     64.316379  

    Final Occupation by Irrep:
              A 
    DOCC [    82 ]
    NA   [    82 ]
    NB   [    82 ]

  @DF-RKS Final Energy:  -927.02246949771848

   => Energetics <=

    Nuclear Repulsion Energy =           1863.8004869688352301
    One-Electron Energy =               -4954.7044706374435918
    Two-Electron Energy =                2275.2747944519633165
    DFT Exchange-Correlation Energy =    -111.3522210614264338
    Empirical Dispersion Energy =          -0.0410592196468363
    VV10 Nonlocal Energy =                  0.0000000000000000
    Total Energy =                       -927.0224694977183617

Computation Completed


Properties will be evaluated at   0.000000,   0.000000,   0.000000 [a0]

Properties computed using the SCF density matrix


 Multipole Moments:

 ------------------------------------------------------------------------------------
     Multipole            Electronic (a.u.)      Nuclear  (a.u.)        Total (a.u.)
 ------------------------------------------------------------------------------------

 L = 1.  Multiply by 2.5417464519 to convert [e a0] to [Debye]
 Dipole X            :      -4034.9005960         4034.8790109           -0.0215851
 Dipole Y            :      -3189.3661678         3189.5933564            0.2271886
 Dipole Z            :      -7377.8285616         7378.1192754            0.2907138
 Magnitude           :                                                    0.3695877

 ------------------------------------------------------------------------------------

*** tstop() called on atl1-1-03-004-6-2.pace.gatech.edu at Sat Jun 13 21:14:54 2026
Module time:
	user time   =   36122.92 seconds =     602.05 minutes
	system time =    1949.75 seconds =      32.50 minutes
	total time  =       5436 seconds =      90.60 minutes
Total time:
	user time   =   36122.92 seconds =     602.05 minutes
	system time =    1949.75 seconds =      32.50 minutes
	total time  =       5436 seconds =      90.60 minutes

    Psi4 stopped on: Saturday, 13 June 2026 09:15PM
    Psi4 wall time for execution: 1:30:44.52

*** Psi4 exiting successfully. Buy a developer a beer!
