
    -----------------------------------------------------------------------
          Psi4: An Open-Source Ab Initio Electronic Structure Package
                               Psi4 1.9.1 release

                         Git: Rev {} zzzzzzz 


    D. G. A. Smith, L. A. Burns, A. C. Simmonett, R. M. Parrish,
    M. C. Schieber, R. Galvelis, P. Kraus, H. Kruse, R. Di Remigio,
    A. Alenaizan, A. M. James, S. Lehtola, J. P. Misiewicz, M. Scheurer,
    R. A. Shaw, J. B. Schriber, Y. Xie, Z. L. Glick, D. A. Sirianni,
    J. S. O'Brien, J. M. Waldrop, A. Kumar, E. G. Hohenstein,
    B. P. Pritchard, B. R. Brooks, H. F. Schaefer III, A. Yu. Sokolov,
    K. Patkowski, A. E. DePrince III, U. Bozkaya, R. A. King,
    F. A. Evangelista, J. M. Turney, T. D. Crawford, C. D. Sherrill,
    J. Chem. Phys. 152(18) 184108 (2020). https://doi.org/10.1063/5.0006002

                            Additional Code Authors
    E. T. Seidl, C. L. Janssen, E. F. Valeev, M. L. Leininger,
    J. F. Gonthier, R. M. Richard, H. R. McAlexander, M. Saitow, X. Wang,
    P. Verma, M. H. Lechner, A. Jiang, S. Behnle, A. G. Heide,
    M. F. Herbst, and D. L. Poole

             Previous Authors, Complete List of Code Contributors,
                       and Citations for Specific Modules
    https://github.com/psi4/psi4/blob/master/codemeta.json
    https://github.com/psi4/psi4/graphs/contributors
    http://psicode.org/psi4manual/master/introduction.html#citing-psifour

    -----------------------------------------------------------------------


    Psi4 started on: Monday, 15 June 2026 12:01PM

    Process ID: 1122912
    Host:       atl1-1-03-004-15-2.pace.gatech.edu
    PSIDATADIR: /storage/home/hcoda1/5/vlita3/.conda/envs/p4_qcml/share/psi4
    Memory:     250.0 GiB
    Threads:    10
    
  ==> Input QCSchema <==

--------------------------------------------------------------------------
{'driver': 'energy',
 'extras': {},
 'id': '347',
 'keywords': {},
 'model': {'basis': 'aug-cc-pvtz', 'method': 'b3lyp-d3'},
 'molecule': {'extras': {},
              'fix_com': True,
              'fix_orientation': True,
              'fragment_charges': [0.0, 0.0],
              'fragment_multiplicities': [1, 1],
              'fragments': [[0, 1, 2, 3, 4, 5, 6, 7, 8, 9, 10, 11, 12, 13, 14, 15, 16, 17, 18, 19, 20, 21, 22, 23, 24,
                             25, 26, 27, 28, 29, 30, 31, 32, 33, 34, 35, 36, 37, 38, 39, 40, 41, 42, 43],
                            [44, 45, 46, 47, 48, 49, 50, 51, 52, 53, 54, 55, 56, 57, 58, 59, 60, 61, 62, 63, 64, 65, 66,
                             67, 68, 69, 70, 71, 72, 73, 74, 75, 76, 77, 78, 79, 80, 81, 82, 83, 84, 85, 86, 87]],
              'geometry': [25.47963781, 23.08351049, 43.1296896, 24.89690954, 20.52012331, 43.887087, 25.07057198,
                           18.48699404, 42.07353641, 25.8424877, 19.04880944, 39.52013663, 26.46903607, 21.61452675,
                           38.85199593, 26.30318821, 23.59330066, 40.54460103, 24.46577176, 15.9279092, 42.77036087,
                           23.76811717, 15.37695629, 45.40838081, 23.59859476, 17.38880058, 47.22265844, 24.1081018,
                           20.02007671, 46.44346413, 22.96694077, 16.77267612, 49.77192758, 22.51062738, 14.29130626,
                           50.58597185, 22.67427055, 12.32177999, 48.76231557, 23.27971306, 12.86309326, 46.25226043,
                           25.97467497, 17.0727052, 37.71068154, 25.34789586, 14.59123463, 38.39437083, 24.59969708,
                           14.0277518, 40.88784347, 25.20039992, 25.0588727, 44.92111126, 24.35321071, 24.59525103,
                           47.39946073, 23.84084877, 22.08099208, 48.12795237, 21.86046838, 13.69556932, 53.32235171,
                           24.04555383, 26.76370654, 49.27889773, 26.50915633, 27.41178979, 50.73375129, 26.93108599,
                           26.27094839, 39.72356046, 27.10311578, 21.98163565, 36.89906984, 22.32265299, 10.34583799,
                           49.33666834, 23.39372081, 11.28300305, 44.90489504, 26.57612038, 17.51973959, 35.76596134,
                           25.43664936, 13.06203906, 36.97800898, 24.12002947, 12.05854919, 41.3527408, 25.62817825,
                           27.01761767, 44.36171793, 23.18724332, 21.75219607, 50.07608394, 23.27013145, 12.38510294,
                           54.17857328, 21.79629273, 15.42803966, 54.50687769, 19.98705402, 12.74487252, 53.47527914,
                           22.53167906, 26.28198386, 50.6619148, 23.38069793, 28.48102898, 48.25612267, 27.19569266,
                           25.7565067, 51.83310019, 28.04156267, 27.96965392, 49.40821263, 28.39145441, 27.1428651,
                           40.95513515, 25.23456206, 27.51897461, 39.79892028, 27.66207922, 26.29954115, 37.75755015,
                           26.2022166, 29.00071195, 52.0780899, 22.83611537, 18.29134925, 51.1881473, 30.81342193,
                           18.71017989, 45.99359029, 31.5788239, 19.74555973, 43.58027113, 32.18922921, 22.39746574,
                           43.36009841, 32.04731473, 23.98056161, 45.57578145, 31.25562095, 22.88485355, 47.94186375,
                           30.64065655, 20.36296812, 48.19759324, 32.96098858, 23.46875558, 40.98068543, 32.9776879,
                           21.8498177, 38.71563215, 32.39688051, 19.20754673, 38.92783428, 31.75108262, 18.1119644,
                           41.41040042, 32.38510148, 17.70859001, 36.6883681, 32.89884869, 18.70388423, 34.28627015,
                           33.46045747, 21.32787429, 34.10603582, 33.50020544, 22.84413785, 36.26471359, 32.71084168,
                           26.57519902, 45.39430813, 33.51746054, 27.59229626, 43.0833912, 33.64071365, 26.05933156,
                           40.9078722, 30.26834315, 16.09166271, 46.16720061, 30.49746548, 14.47431826, 44.06910385,
                           31.23964841, 15.50757785, 41.72580743, 32.85245858, 17.05660123, 31.93007182, 30.0352396,
                           11.64386798, 44.33912194, 32.45644731, 10.16276856, 45.08627623, 29.83741229, 19.30937345,
                           50.74453249, 31.15944353, 24.13692378, 49.60598037, 33.86115259, 22.17547238, 32.24063318,
                           33.92403613, 24.86828461, 36.03931452, 32.60693264, 27.77144276, 47.1004289, 34.05705016,
                           29.60331272, 42.95688301, 34.27807476, 26.92308174, 39.12655219, 29.64722791, 15.28713696,
                           47.98302787, 31.38145507, 14.21615321, 40.10268471, 34.735737, 17.01308892, 30.98680081,
                           32.31443775, 15.0754773, 32.37170495, 31.48589123, 17.79122297, 30.50534659, 29.28049933,
                           10.88478084, 42.52649407, 28.54357618, 11.31799443, 45.78690148, 33.97269455, 10.41059171,
                           43.64975571, 33.2192207, 10.84125701, 46.92494523, 31.18221652, 17.84465276, 51.44063809,
                           27.94896357, 18.39273342, 50.64394079, 29.74125873, 20.82714016, 52.19033882, 32.06613232,
                           8.10297733, 45.26704002, 31.91846208, 15.68652669, 36.81860417],
              'id': 5,
              'identifiers': {'molecular_formula': 'C48H40',
                              'molecule_hash': '15b64246f541ee1ce312b171a08939958d334f77'},
              'molecular_charge': 0.0,
              'molecular_multiplicity': 1,
              'name': 'C48H40',
              'provenance': {'creator': 'QCElemental',
                             'routine': 'qcelemental.molparse.from_string',
                             'version': '0.29.0'},
              'schema_name': 'qcschema_molecule',
              'schema_version': 2,
              'symbols': ['C', 'C', 'C', 'C', 'C', 'C', 'C', 'C', 'C', 'C', 'C', 'C', 'C', 'C', 'C', 'C', 'C', 'C', 'C',
                          'C', 'C', 'C', 'C', 'C', 'H', 'H', 'H', 'H', 'H', 'H', 'H', 'H', 'H', 'H', 'H', 'H', 'H', 'H',
                          'H', 'H', 'H', 'H', 'H', 'H', 'C', 'C', 'C', 'C', 'C', 'C', 'C', 'C', 'C', 'C', 'C', 'C', 'C',
                          'C', 'C', 'C', 'C', 'C', 'C', 'C', 'C', 'C', 'C', 'C', 'H', 'H', 'H', 'H', 'H', 'H', 'H', 'H',
                          'H', 'H', 'H', 'H', 'H', 'H', 'H', 'H', 'H', 'H', 'H', 'H'],
              'validated': True},
 'protocols': {},
 'provenance': {'creator': 'QCElemental', 'routine': 'qcelemental.models.results', 'version': '0.29.0'},
 'schema_name': 'qcschema_input',
 'schema_version': 1}
--------------------------------------------------------------------------

Scratch directory: /tmp/tmpulma_4wx_psi_scratch/
   => Libint2 <=

    Primary   basis highest AM E, G, H:  6, 6, 3
    Auxiliary basis highest AM E, G, H:  7, 7, 4
    Onebody   basis highest AM E, G, H:  -, -, -
    Solid Harmonics ordering:            Gaussian

*** tstart() called on atl1-1-03-004-15-2.pace.gatech.edu
*** at Mon Jun 15 12:01:58 2026

   => Loading Basis Set <=

    Name: AUG-CC-PVTZ
    Role: ORBITAL
    Keyword: BASIS
    atoms 1-24, 45-68  entry C          line   239 file /storage/home/hcoda1/5/vlita3/.conda/envs/p4_qcml/share/psi4/basis/aug-cc-pvtz.gbs 
    atoms 25-44, 69-88 entry H          line    40 file /storage/home/hcoda1/5/vlita3/.conda/envs/p4_qcml/share/psi4/basis/aug-cc-pvtz.gbs 

   => B3LYP-D3: Empirical Dispersion <=

    Grimme's -D3 (zero-damping) Dispersion Correction
    Grimme S.; Antony J.; Ehrlich S.; Krieg H. (2010), J. Chem. Phys., 132: 154104

        s6 =       1.000000
        s8 =       1.703000
       sr6 =       1.261000
    alpha6 =      14.000000
       sr8 =       1.000000


         ---------------------------------------------------------
                                   SCF
               by Justin Turney, Rob Parrish, Andy Simmonett
                          and Daniel G. A. Smith
                              RKS Reference
                       10 Threads, 256000 MiB Core
         ---------------------------------------------------------

  ==> Geometry <==

    Molecular point group: c1
    Full point group: C1

    Geometry (in Bohr), charge = 0, multiplicity = 1:

       Center              X                  Y                   Z               Mass       
    ------------   -----------------  -----------------  -----------------  -----------------
         C           25.479637810000    23.083510490000    43.129689600000    12.000000000000
         C           24.896909540000    20.520123310000    43.887087000000    12.000000000000
         C           25.070571980000    18.486994040000    42.073536410000    12.000000000000
         C           25.842487700000    19.048809440000    39.520136630000    12.000000000000
         C           26.469036070000    21.614526750000    38.851995930000    12.000000000000
         C           26.303188210000    23.593300660000    40.544601030000    12.000000000000
         C           24.465771760000    15.927909200000    42.770360870000    12.000000000000
         C           23.768117170000    15.376956290000    45.408380810000    12.000000000000
         C           23.598594760000    17.388800580000    47.222658440000    12.000000000000
         C           24.108101800000    20.020076710000    46.443464130000    12.000000000000
         C           22.966940770000    16.772676120000    49.771927580000    12.000000000000
         C           22.510627380000    14.291306260000    50.585971850000    12.000000000000
         C           22.674270550000    12.321779990000    48.762315570000    12.000000000000
         C           23.279713060000    12.863093260000    46.252260430000    12.000000000000
         C           25.974674970000    17.072705200000    37.710681540000    12.000000000000
         C           25.347895860000    14.591234630000    38.394370830000    12.000000000000
         C           24.599697080000    14.027751800000    40.887843470000    12.000000000000
         C           25.200399920000    25.058872700000    44.921111260000    12.000000000000
         C           24.353210710000    24.595251030000    47.399460730000    12.000000000000
         C           23.840848770000    22.080992080000    48.127952370000    12.000000000000
         C           21.860468380000    13.695569320000    53.322351710000    12.000000000000
         C           24.045553830000    26.763706540000    49.278897730000    12.000000000000
         C           26.509156330000    27.411789790000    50.733751290000    12.000000000000
         C           26.931085990000    26.270948390000    39.723560460000    12.000000000000
         H           27.103115780000    21.981635650000    36.899069840000     1.007825032230
         H           22.322652990000    10.345837990000    49.336668340000     1.007825032230
         H           23.393720810000    11.283003050000    44.904895040000     1.007825032230
         H           26.576120380000    17.519739590000    35.765961340000     1.007825032230
         H           25.436649360000    13.062039060000    36.978008980000     1.007825032230
         H           24.120029470000    12.058549190000    41.352740800000     1.007825032230
         H           25.628178250000    27.017617670000    44.361717930000     1.007825032230
         H           23.187243320000    21.752196070000    50.076083940000     1.007825032230
         H           23.270131450000    12.385102940000    54.178573280000     1.007825032230
         H           21.796292730000    15.428039660000    54.506877690000     1.007825032230
         H           19.987054020000    12.744872520000    53.475279140000     1.007825032230
         H           22.531679060000    26.281983860000    50.661914800000     1.007825032230
         H           23.380697930000    28.481028980000    48.256122670000     1.007825032230
         H           27.195692660000    25.756506700000    51.833100190000     1.007825032230
         H           28.041562670000    27.969653920000    49.408212630000     1.007825032230
         H           28.391454410000    27.142865100000    40.955135150000     1.007825032230
         H           25.234562060000    27.518974610000    39.798920280000     1.007825032230
         H           27.662079220000    26.299541150000    37.757550150000     1.007825032230
         H           26.202216600000    29.000711950000    52.078089900000     1.007825032230
         H           22.836115370000    18.291349250000    51.188147300000     1.007825032230
         C           30.813421930000    18.710179890000    45.993590290000    12.000000000000
         C           31.578823900000    19.745559730000    43.580271130000    12.000000000000
         C           32.189229210000    22.397465740000    43.360098410000    12.000000000000
         C           32.047314730000    23.980561610000    45.575781450000    12.000000000000
         C           31.255620950000    22.884853550000    47.941863750000    12.000000000000
         C           30.640656550000    20.362968120000    48.197593240000    12.000000000000
         C           32.960988580000    23.468755580000    40.980685430000    12.000000000000
         C           32.977687900000    21.849817700000    38.715632150000    12.000000000000
         C           32.396880510000    19.207546730000    38.927834280000    12.000000000000
         C           31.751082620000    18.111964400000    41.410400420000    12.000000000000
         C           32.385101480000    17.708590010000    36.688368100000    12.000000000000
         C           32.898848690000    18.703884230000    34.286270150000    12.000000000000
         C           33.460457470000    21.327874290000    34.106035820000    12.000000000000
         C           33.500205440000    22.844137850000    36.264713590000    12.000000000000
         C           32.710841680000    26.575199020000    45.394308130000    12.000000000000
         C           33.517460540000    27.592296260000    43.083391200000    12.000000000000
         C           33.640713650000    26.059331560000    40.907872200000    12.000000000000
         C           30.268343150000    16.091662710000    46.167200610000    12.000000000000
         C           30.497465480000    14.474318260000    44.069103850000    12.000000000000
         C           31.239648410000    15.507577850000    41.725807430000    12.000000000000
         C           32.852458580000    17.056601230000    31.930071820000    12.000000000000
         C           30.035239600000    11.643867980000    44.339121940000    12.000000000000
         C           32.456447310000    10.162768560000    45.086276230000    12.000000000000
         C           29.837412290000    19.309373450000    50.744532490000    12.000000000000
         H           31.159443530000    24.136923780000    49.605980370000     1.007825032230
         H           33.861152590000    22.175472380000    32.240633180000     1.007825032230
         H           33.924036130000    24.868284610000    36.039314520000     1.007825032230
         H           32.606932640000    27.771442760000    47.100428900000     1.007825032230
         H           34.057050160000    29.603312720000    42.956883010000     1.007825032230
         H           34.278074760000    26.923081740000    39.126552190000     1.007825032230
         H           29.647227910000    15.287136960000    47.983027870000     1.007825032230
         H           31.381455070000    14.216153210000    40.102684710000     1.007825032230
         H           34.735737000000    17.013088920000    30.986800810000     1.007825032230
         H           32.314437750000    15.075477300000    32.371704950000     1.007825032230
         H           31.485891230000    17.791222970000    30.505346590000     1.007825032230
         H           29.280499330000    10.884780840000    42.526494070000     1.007825032230
         H           28.543576180000    11.317994430000    45.786901480000     1.007825032230
         H           33.972694550000    10.410591710000    43.649755710000     1.007825032230
         H           33.219220700000    10.841257010000    46.924945230000     1.007825032230
         H           31.182216520000    17.844652760000    51.440638090000     1.007825032230
         H           27.948963570000    18.392733420000    50.643940790000     1.007825032230
         H           29.741258730000    20.827140160000    52.190338820000     1.007825032230
         H           32.066132320000     8.102977330000    45.267040020000     1.007825032230
         H           31.918462080000    15.686526690000    36.818604170000     1.007825032230

  Running in c1 symmetry.

  Rotational constants: A =      0.00210  B =      0.00003  C =      0.00003 [cm^-1]
  Rotational constants: A =     62.96897  B =      0.94325  C =      0.93874 [MHz]
  Nuclear repulsion = 6199.614502676580742

  Charge       = 0
  Multiplicity = 1
  Electrons    = 328
  Nalpha       = 164
  Nbeta        = 164

  ==> Algorithm <==

  SCF Algorithm Type is DF.
  DIIS enabled.
  MOM disabled.
  Fractional occupation disabled.
  Guess Type is SAD.
  Energy threshold   = 1.00e-06
  Density threshold  = 1.00e-06
  Integral threshold = 1.00e-12

  ==> Primary Basis <==

  Basis Set: AUG-CC-PVTZ
    Blend: AUG-CC-PVTZ
    Number of shells: 1032
    Number of basis functions: 3128
    Number of Cartesian functions: 3640
    Spherical Harmonics?: true
    Max angular momentum: 3

  ==> DFT Potential <==

   => LibXC <=

    Version 7.0.0
    S. Lehtola, C. Steigemann, M. J.T. Oliveira, and M. A.L. Marques.,  SoftwareX 7, 1–5 (2018) (10.1016/j.softx.2017.11.002)

   => Composite Functional: B3LYP-D3ZERO2B <= 

    B3LYP-d3zero2b Hyb-GGA Exchange-Correlation Functional

    P. J. Stephens, F. J. Devlin, C. F. Chabalowski, and M. J. Frisch.,  J. Phys. Chem. 98, 11623 (1994) (10.1021/j100096a001)

    Deriv               =              1
    GGA                 =           TRUE
    Meta                =          FALSE

    Exchange Hybrid     =           TRUE
    MP2 Hybrid          =          FALSE

   => Exchange Functionals <=

    0.0800   Slater exchange
    0.7200         Becke 88

   => Exact (HF) Exchange <=

    0.2000               HF 

   => Correlation Functionals <=

    0.1900   Vosko, Wilk & Nusair (VWN5_RPA)
    0.8100   Lee, Yang & Parr

   => LibXC Density Thresholds  <==

    XC_HYB_GGA_XC_B3LYP:  1.00E-15 

   => Molecular Quadrature <=

    Radial Scheme          =       TREUTLER
    Pruning Scheme         =           NONE
    Nuclear Scheme         =       TREUTLER

    Blocking Scheme        =         OCTREE
    BS radius alpha        =              1
    Pruning alpha          =              1
    Radial Points          =             75
    Spherical Points       =            302
    Total Points           =        1755895
    Total Blocks           =          12038
    Max Points             =            256
    Max Functions          =           2202
    Weights Tolerance      =       1.00E-15

   => Loading Basis Set <=

    Name: (AUG-CC-PVTZ AUX)
    Role: JKFIT
    Keyword: DF_BASIS_SCF
    atoms 1-24, 45-68  entry C          line   162 file /storage/home/hcoda1/5/vlita3/.conda/envs/p4_qcml/share/psi4/basis/aug-cc-pvtz-jkfit.gbs 
    atoms 25-44, 69-88 entry H          line    70 file /storage/home/hcoda1/5/vlita3/.conda/envs/p4_qcml/share/psi4/basis/aug-cc-pvtz-jkfit.gbs 

  ==> Integral Setup <==

  ==> DiskDFJK: Density-Fitted J/K Matrices <==

    J tasked:                  Yes
    K tasked:                  Yes
    wK tasked:                  No
    OpenMP threads:             10
    Integrals threads:          10
    Memory [MiB]:           172800
    Algorithm:                Disk
    Integral Cache:           NONE
    Schwarz Cutoff:          1E-12
    Fitting Condition:       1E-10

   => Auxiliary Basis Set <=

  Basis Set: (AUG-CC-PVTZ AUX)
    Blend: AUG-CC-PVTZ-JKFIT
    Number of shells: 2000
    Number of basis functions: 6832
    Number of Cartesian functions: 8488
    Spherical Harmonics?: true
    Max angular momentum: 4

  Minimum eigenvalue in the overlap matrix is 6.3711160731E-10.
  Reciprocal condition number of the overlap matrix is 1.7895063395E-11.
    Using canonical orthogonalization.
  Overall, 29 of 3128 possible MOs eliminated.


  ==> Pre-Iterations <==

  SCF Guess: Superposition of Atomic Densities via on-the-fly atomic UHF (no occupation information).

   -------------------------
    Irrep   Nso     Nmo    
   -------------------------
     A       3128    3099 
   -------------------------
    Total    3128    3099
   -------------------------

  ==> Iterations <==

                           Total Energy        Delta E     RMS |[F,P]|

   @DF-RKS iter SAD: -1852.61676001919182   -1.85262e+03   0.00000e+00 
   @DF-RKS iter   1: -1850.47895262043789    2.13781e+00   8.34553e-04 ADIIS/DIIS
   @DF-RKS iter   2: -1837.39251307673089    1.30864e+01   1.53310e-03 ADIIS/DIIS
   @DF-RKS iter   3: -1850.78391080457141   -1.33914e+01   7.67975e-04 ADIIS/DIIS
   @DF-RKS iter   4: -1853.93833410841103   -3.15442e+00   1.55493e-04 ADIIS/DIIS
   @DF-RKS iter   5: -1853.98190440224494   -4.35703e-02   1.34450e-04 ADIIS/DIIS
   @DF-RKS iter   6: -1854.06296823859998   -8.10638e-02   4.93398e-05 DIIS
   @DF-RKS iter   7: -1854.07382337667286   -1.08551e-02   2.21035e-05 DIIS
   @DF-RKS iter   8: -1854.07629144827342   -2.46807e-03   6.12483e-06 DIIS
   @DF-RKS iter   9: -1854.07644516719051   -1.53719e-04   2.84950e-06 DIIS
   @DF-RKS iter  10: -1854.07648526605385   -4.00989e-05   8.54347e-07 DIIS
   @DF-RKS iter  11: -1854.07648856129526   -3.29524e-06   3.52112e-07 DIIS
   @DF-RKS iter  12: -1854.07648915486016   -5.93565e-07   1.19816e-07 DIIS
  Energy and wave function converged.


  ==> Post-Iterations <==

   Electrons on quadrature grid:
      Ntotal   =  328.0004891799 ; deviation = 4.892e-04 

    Orbital Energies [Eh]
    ---------------------

    Doubly Occupied:                                                      

       1A    -10.197915     2A    -10.196243     3A    -10.195829  
       4A    -10.194956     5A    -10.194541     6A    -10.194290  
       7A    -10.194109     8A    -10.193848     9A    -10.193670  
      10A    -10.191708    11A    -10.190870    12A    -10.190098  
      13A    -10.190014    14A    -10.189630    15A    -10.189542  
      16A    -10.189465    17A    -10.189111    18A    -10.188879  
      19A    -10.188334    20A    -10.187985    21A    -10.187912  
      22A    -10.186491    23A    -10.185297    24A    -10.184617  
      25A    -10.184607    26A    -10.184533    27A    -10.183616  
      28A    -10.183530    29A    -10.183161    30A    -10.182659  
      31A    -10.182657    32A    -10.182134    33A    -10.181603  
      34A    -10.181317    35A    -10.181182    36A    -10.180376  
      37A    -10.179653    38A    -10.179603    39A    -10.179127  
      40A    -10.176947    41A    -10.175736    42A    -10.175453  
      43A    -10.175221    44A    -10.174789    45A    -10.174603  
      46A    -10.174155    47A    -10.170752    48A    -10.170711  
      49A     -0.887469    50A     -0.883425    51A     -0.855625  
      52A     -0.854180    53A     -0.846598    54A     -0.843895  
      55A     -0.815383    56A     -0.814059    57A     -0.799674  
      58A     -0.797847    59A     -0.778736    60A     -0.777082  
      61A     -0.760634    62A     -0.758889    63A     -0.756144  
      64A     -0.755027    65A     -0.742063    66A     -0.740683  
      67A     -0.716190    68A     -0.714487    69A     -0.711075  
      70A     -0.708897    71A     -0.683824    72A     -0.682501  
      73A     -0.680961    74A     -0.679080    75A     -0.638762  
      76A     -0.636006    77A     -0.628248    78A     -0.626434  
      79A     -0.611489    80A     -0.610644    81A     -0.606260  
      82A     -0.605535    83A     -0.596415    84A     -0.594184  
      85A     -0.574707    86A     -0.573667    87A     -0.540113  
      88A     -0.538310    89A     -0.528035    90A     -0.527090  
      91A     -0.517740    92A     -0.515406    93A     -0.498150  
      94A     -0.497143    95A     -0.489290    96A     -0.487830  
      97A     -0.466677    98A     -0.465825    99A     -0.463564  
     100A     -0.462150   101A     -0.457205   102A     -0.455483  
     103A     -0.446427   104A     -0.444827   105A     -0.443245  
     106A     -0.441159   107A     -0.434977   108A     -0.430762  
     109A     -0.427632   110A     -0.422788   111A     -0.422388  
     112A     -0.420253   113A     -0.419594   114A     -0.416263  
     115A     -0.414755   116A     -0.414326   117A     -0.413870  
     118A     -0.412341   119A     -0.404221   120A     -0.403876  
     121A     -0.401728   122A     -0.400000   123A     -0.394962  
     124A     -0.393854   125A     -0.385429   126A     -0.384841  
     127A     -0.383409   128A     -0.381924   129A     -0.380525  
     130A     -0.377171   131A     -0.373195   132A     -0.371962  
     133A     -0.367375   134A     -0.364726   135A     -0.364335  
     136A     -0.361215   137A     -0.360559   138A     -0.358951  
     139A     -0.350588   140A     -0.349280   141A     -0.347677  
     142A     -0.346691   143A     -0.345088   144A     -0.343068  
     145A     -0.341743   146A     -0.337734   147A     -0.317485  
     148A     -0.316196   149A     -0.315485   150A     -0.315175  
     151A     -0.308669   152A     -0.304278   153A     -0.291956  
     154A     -0.283555   155A     -0.282187   156A     -0.276159  
     157A     -0.249658   158A     -0.247017   159A     -0.241369  
     160A     -0.237796   161A     -0.217408   162A     -0.215176  
     163A     -0.200402   164A     -0.198714  

    Virtual:                                                              

     165A     -0.062867   166A     -0.060302   167A     -0.047196  
     168A     -0.043815   169A     -0.030296   170A     -0.027948  
     171A     -0.019428   172A     -0.017553   173A     -0.015147  
     174A     -0.013110   175A     -0.010644   176A     -0.003423  
     177A     -0.002588   178A     -0.000976   179A      0.003824  
     180A      0.008461   181A      0.008824   182A      0.009433  
     183A      0.014645   184A      0.016268   185A      0.017923  
     186A      0.019194   187A      0.022796   188A      0.024226  
     189A      0.024851   190A      0.026283   191A      0.027864  
     192A      0.028212   193A      0.029056   194A      0.031416  
     195A      0.032950   196A      0.034948   197A      0.036579  
     198A      0.038264   199A      0.039879   200A      0.040905  
     201A      0.043001   202A      0.043609   203A      0.046235  
     204A      0.046781   205A      0.048047   206A      0.050263  
     207A      0.052109   208A      0.054687   209A      0.055483  
     210A      0.057136   211A      0.057198   212A      0.058052  
     213A      0.059805   214A      0.061054   215A      0.061986  
     216A      0.062776   217A      0.064293   218A      0.067259  
     219A      0.067779   220A      0.069874   221A      0.070019  
     222A      0.070753   223A      0.071934   224A      0.072929  
     225A      0.075230   226A      0.076811   227A      0.077130  
     228A      0.077975   229A      0.078574   230A      0.081311  
     231A      0.081814   232A      0.084108   233A      0.085722  
     234A      0.086415   235A      0.087832   236A      0.088882  
     237A      0.091231   238A      0.091877   239A      0.092483  
     240A      0.094519   241A      0.095806   242A      0.096193  
     243A      0.096606   244A      0.098405   245A      0.098582  
     246A      0.099996   247A      0.102228   248A      0.102794  
     249A      0.103616   250A      0.104357   251A      0.106107  
     252A      0.107168   253A      0.107640   254A      0.108530  
     255A      0.109572   256A      0.111128   257A      0.112707  
     258A      0.113640   259A      0.114896   260A      0.115538  
     261A      0.117092   262A      0.118433   263A      0.119746  
     264A      0.121610   265A      0.123226   266A      0.123837  
     267A      0.124897   268A      0.126154   269A      0.127390  
     270A      0.128075   271A      0.128493   272A      0.128973  
     273A      0.131181   274A      0.132461   275A      0.133523  
     276A      0.133981   277A      0.135475   278A      0.136871  
     279A      0.138356   280A      0.139241   281A      0.140429  
     282A      0.141805   283A      0.142581   284A      0.144328  
     285A      0.145223   286A      0.146406   287A      0.147481  
     288A      0.148310   289A      0.149743   290A      0.151201  
     291A      0.152263   292A      0.153642   293A      0.154078  
     294A      0.155639   295A      0.157608   296A      0.159617  
     297A      0.160439   298A      0.161543   299A      0.164689  
     300A      0.164945   301A      0.166856   302A      0.166932  
     303A      0.169104   304A      0.169272   305A      0.170497  
     306A      0.171788   307A      0.172353   308A      0.174987  
     309A      0.176386   310A      0.177764   311A      0.178559  
     312A      0.179338   313A      0.181044   314A      0.181610  
     315A      0.182886   316A      0.184024   317A      0.185558  
     318A      0.186501   319A      0.186561   320A      0.187412  
     321A      0.188583   322A      0.192370   323A      0.192814  
     324A      0.193769   325A      0.194795   326A      0.196102  
     327A      0.196767   328A      0.196958   329A      0.198660  
     330A      0.199277   331A      0.199627   332A      0.200531  
     333A      0.202140   334A      0.202605   335A      0.203369  
     336A      0.204678   337A      0.205152   338A      0.205990  
     339A      0.206508   340A      0.206996   341A      0.207694  
     342A      0.209067   343A      0.209319   344A      0.212278  
     345A      0.212507   346A      0.214206   347A      0.215084  
     348A      0.215315   349A      0.216049   350A      0.217135  
     351A      0.218576   352A      0.220799   353A      0.221032  
     354A      0.222883   355A      0.223333   356A      0.225046  
     357A      0.225855   358A      0.227277   359A      0.227717  
     360A      0.228675   361A      0.228973   362A      0.230340  
     363A      0.231130   364A      0.232012   365A      0.232267  
     366A      0.233848   367A      0.234096   368A      0.235362  
     369A      0.236530   370A      0.237582   371A      0.238536  
     372A      0.239644   373A      0.240274   374A      0.241397  
     375A      0.242599   376A      0.243433   377A      0.244063  
     378A      0.244866   379A      0.245461   380A      0.246347  
     381A      0.247343   382A      0.248437   383A      0.249580  
     384A      0.250942   385A      0.252076   386A      0.253033  
     387A      0.254726   388A      0.255744   389A      0.255900  
     390A      0.256985   391A      0.258509   392A      0.258975  
     393A      0.259992   394A      0.261226   395A      0.261321  
     396A      0.262700   397A      0.263976   398A      0.264634  
     399A      0.264981   400A      0.266222   401A      0.267708  
     402A      0.267857   403A      0.269496   404A      0.271090  
     405A      0.271543   406A      0.273221   407A      0.273856  
     408A      0.274652   409A      0.275347   410A      0.278399  
     411A      0.278723   412A      0.279562   413A      0.281038  
     414A      0.281656   415A      0.283033   416A      0.284104  
     417A      0.285301   418A      0.286037   419A      0.286646  
     420A      0.288162   421A      0.288311   422A      0.288639  
     423A      0.290035   424A      0.290736   425A      0.291969  
     426A      0.293275   427A      0.295265   428A      0.296343  
     429A      0.297787   430A      0.298849   431A      0.300513  
     432A      0.301867   433A      0.302798   434A      0.304174  
     435A      0.304665   436A      0.305629   437A      0.306393  
     438A      0.307597   439A      0.309497   440A      0.309595  
     441A      0.310977   442A      0.312239   443A      0.313346  
     444A      0.314910   445A      0.315357   446A      0.315708  
     447A      0.316849   448A      0.317538   449A      0.320535  
     450A      0.321684   451A      0.322545   452A      0.324507  
     453A      0.325742   454A      0.325910   455A      0.326417  
     456A      0.327670   457A      0.328922   458A      0.329535  
     459A      0.330876   460A      0.331628   461A      0.332928  
     462A      0.333420   463A      0.334545   464A      0.337141  
     465A      0.338543   466A      0.339422   467A      0.341288  
     468A      0.342117   469A      0.344658   470A      0.345040  
     471A      0.346035   472A      0.346255   473A      0.348507  
     474A      0.351406   475A      0.351941   476A      0.353191  
     477A      0.354093   478A      0.354938   479A      0.357034  
     480A      0.358845   481A      0.359038   482A      0.361182  
     483A      0.362427   484A      0.362870   485A      0.365948  
     486A      0.366183   487A      0.368640   488A      0.370930  
     489A      0.371768   490A      0.372839   491A      0.373866  
     492A      0.375830   493A      0.376665   494A      0.377271  
     495A      0.378350   496A      0.378951   497A      0.379872  
     498A      0.381640   499A      0.384719   500A      0.385130  
     501A      0.386659   502A      0.387972   503A      0.389539  
     504A      0.391051   505A      0.391553   506A      0.393383  
     507A      0.394891   508A      0.395764   509A      0.396726  
     510A      0.398776   511A      0.399142   512A      0.401946  
     513A      0.403355   514A      0.403656   515A      0.405729  
     516A      0.406707   517A      0.408028   518A      0.409865  
     519A      0.410588   520A      0.411360   521A      0.412131  
     522A      0.413086   523A      0.413559   524A      0.414998  
     525A      0.417248   526A      0.418092   527A      0.420210  
     528A      0.421108   529A      0.422431   530A      0.423566  
     531A      0.423917   532A      0.424332   533A      0.425560  
     534A      0.426581   535A      0.427112   536A      0.427796  
     537A      0.429596   538A      0.431366   539A      0.432374  
     540A      0.433337   541A      0.434849   542A      0.435263  
     543A      0.436716   544A      0.437662   545A      0.438281  
     546A      0.439124   547A      0.439994   548A      0.441187  
     549A      0.441756   550A      0.443622   551A      0.444793  
     552A      0.446218   553A      0.446695   554A      0.447695  
     555A      0.448587   556A      0.449490   557A      0.449958  
     558A      0.451765   559A      0.452085   560A      0.453544  
     561A      0.454316   562A      0.454833   563A      0.457139  
     564A      0.457823   565A      0.458423   566A      0.459431  
     567A      0.459952   568A      0.461548   569A      0.462233  
     570A      0.463192   571A      0.463644   572A      0.463806  
     573A      0.466116   574A      0.466916   575A      0.468036  
     576A      0.468140   577A      0.469687   578A      0.470876  
     579A      0.472090   580A      0.473734   581A      0.474127  
     582A      0.475622   583A      0.476852   584A      0.477728  
     585A      0.479798   586A      0.480585   587A      0.481143  
     588A      0.482091   589A      0.483537   590A      0.483633  
     591A      0.485792   592A      0.486506   593A      0.487060  
     594A      0.488644   595A      0.489254   596A      0.491764  
     597A      0.492273   598A      0.492394   599A      0.494142  
     600A      0.494839   601A      0.495758   602A      0.497116  
     603A      0.497630   604A      0.499243   605A      0.499812  
     606A      0.500370   607A      0.501782   608A      0.502056  
     609A      0.503482   610A      0.504943   611A      0.505666  
     612A      0.508154   613A      0.508765   614A      0.510069  
     615A      0.510334   616A      0.511826   617A      0.512696  
     618A      0.514457   619A      0.515587   620A      0.516878  
     621A      0.518464   622A      0.520012   623A      0.521421  
     624A      0.522591   625A      0.522954   626A      0.524373  
     627A      0.526146   628A      0.526442   629A      0.528801  
     630A      0.529982   631A      0.530848   632A      0.531352  
     633A      0.532562   634A      0.533136   635A      0.534596  
     636A      0.536491   637A      0.537381   638A      0.540048  
     639A      0.541895   640A      0.543121   641A      0.543298  
     642A      0.544905   643A      0.545922   644A      0.547502  
     645A      0.549290   646A      0.550966   647A      0.551441  
     648A      0.553059   649A      0.555192   650A      0.555900  
     651A      0.557053   652A      0.557563   653A      0.558573  
     654A      0.561213   655A      0.561731   656A      0.564855  
     657A      0.565296   658A      0.566190   659A      0.567733  
     660A      0.567875   661A      0.571213   662A      0.573070  
     663A      0.573512   664A      0.573956   665A      0.575914  
     666A      0.576833   667A      0.578810   668A      0.580792  
     669A      0.581643   670A      0.583105   671A      0.583225  
     672A      0.586826   673A      0.587711   674A      0.589552  
     675A      0.590235   676A      0.591964   677A      0.593138  
     678A      0.594393   679A      0.596187   680A      0.597238  
     681A      0.598696   682A      0.599482   683A      0.602507  
     684A      0.603627   685A      0.606308   686A      0.606614  
     687A      0.607993   688A      0.608842   689A      0.611801  
     690A      0.613088   691A      0.614441   692A      0.614871  
     693A      0.617365   694A      0.617468   695A      0.620271  
     696A      0.621275   697A      0.622605   698A      0.623815  
     699A      0.626305   700A      0.626968   701A      0.629231  
     702A      0.630536   703A      0.631030   704A      0.633137  
     705A      0.633729   706A      0.636739   707A      0.636909  
     708A      0.639560   709A      0.639852   710A      0.640957  
     711A      0.643015   712A      0.644510   713A      0.648008  
     714A      0.649256   715A      0.651113   716A      0.651780  
     717A      0.653248   718A      0.653543   719A      0.654314  
     720A      0.655719   721A      0.657806   722A      0.658148  
     723A      0.660449   724A      0.661944   725A      0.663460  
     726A      0.665131   727A      0.665703   728A      0.667637  
     729A      0.670630   730A      0.672024   731A      0.674068  
     732A      0.675689   733A      0.676042   734A      0.676866  
     735A      0.677112   736A      0.679873   737A      0.680889  
     738A      0.683186   739A      0.684376   740A      0.685993  
     741A      0.687142   742A      0.689370   743A      0.690792  
     744A      0.691895   745A      0.694210   746A      0.695645  
     747A      0.696901   748A      0.698298   749A      0.699149  
     750A      0.701514   751A      0.702617   752A      0.703835  
     753A      0.704995   754A      0.707261   755A      0.708458  
     756A      0.709713   757A      0.710763   758A      0.712576  
     759A      0.714809   760A      0.715933   761A      0.716462  
     762A      0.718597   763A      0.720649   764A      0.721421  
     765A      0.721676   766A      0.723533   767A      0.724779  
     768A      0.725140   769A      0.727368   770A      0.728277  
     771A      0.729183   772A      0.731519   773A      0.732110  
     774A      0.733067   775A      0.735027   776A      0.736764  
     777A      0.737963   778A      0.738170   779A      0.739726  
     780A      0.740554   781A      0.743140   782A      0.744279  
     783A      0.745904   784A      0.748290   785A      0.748702  
     786A      0.749829   787A      0.751663   788A      0.752850  
     789A      0.754141   790A      0.755448   791A      0.756530  
     792A      0.758730   793A      0.759304   794A      0.760831  
     795A      0.762374   796A      0.763500   797A      0.764932  
     798A      0.766676   799A      0.766954   800A      0.769366  
     801A      0.770931   802A      0.771949   803A      0.772898  
     804A      0.774146   805A      0.775272   806A      0.777677  
     807A      0.778384   808A      0.779277   809A      0.780217  
     810A      0.780810   811A      0.782708   812A      0.784541  
     813A      0.786782   814A      0.787392   815A      0.788095  
     816A      0.788869   817A      0.790574   818A      0.792879  
     819A      0.794311   820A      0.794861   821A      0.796254  
     822A      0.797634   823A      0.799140   824A      0.801100  
     825A      0.801921   826A      0.802728   827A      0.804172  
     828A      0.804658   829A      0.806201   830A      0.808097  
     831A      0.809576   832A      0.811129   833A      0.813101  
     834A      0.813229   835A      0.814944   836A      0.817512  
     837A      0.819078   838A      0.820928   839A      0.821820  
     840A      0.822921   841A      0.824459   842A      0.827357  
     843A      0.828198   844A      0.828787   845A      0.829324  
     846A      0.830767   847A      0.832378   848A      0.833497  
     849A      0.833912   850A      0.834675   851A      0.835567  
     852A      0.836591   853A      0.840256   854A      0.841039  
     855A      0.841588   856A      0.844160   857A      0.845290  
     858A      0.845625   859A      0.847215   860A      0.848359  
     861A      0.849917   862A      0.850890   863A      0.851588  
     864A      0.852594   865A      0.853390   866A      0.854541  
     867A      0.855777   868A      0.856941   869A      0.858593  
     870A      0.860455   871A      0.861486   872A      0.863432  
     873A      0.864152   874A      0.865336   875A      0.866457  
     876A      0.867602   877A      0.868527   878A      0.869808  
     879A      0.872091   880A      0.872886   881A      0.874801  
     882A      0.875724   883A      0.876563   884A      0.877660  
     885A      0.878995   886A      0.879307   887A      0.879963  
     888A      0.882682   889A      0.883970   890A      0.885268  
     891A      0.886413   892A      0.887508   893A      0.889086  
     894A      0.890839   895A      0.892393   896A      0.893470  
     897A      0.895827   898A      0.896539   899A      0.896920  
     900A      0.898282   901A      0.899002   902A      0.900388  
     903A      0.902020   904A      0.903314   905A      0.904908  
     906A      0.905592   907A      0.907008   908A      0.908136  
     909A      0.909658   910A      0.911144   911A      0.911634  
     912A      0.912776   913A      0.915275   914A      0.915482  
     915A      0.916590   916A      0.917870   917A      0.921238  
     918A      0.921732   919A      0.923601   920A      0.925543  
     921A      0.926264   922A      0.927795   923A      0.930136  
     924A      0.930851   925A      0.932853   926A      0.933441  
     927A      0.934034   928A      0.935172   929A      0.936945  
     930A      0.938260   931A      0.940898   932A      0.941476  
     933A      0.944552   934A      0.944721   935A      0.946188  
     936A      0.946317   937A      0.948599   938A      0.951199  
     939A      0.951914   940A      0.953295   941A      0.954959  
     942A      0.957311   943A      0.957575   944A      0.958821  
     945A      0.960052   946A      0.960436   947A      0.962258  
     948A      0.965279   949A      0.966933   950A      0.967838  
     951A      0.969198   952A      0.970040   953A      0.971318  
     954A      0.972327   955A      0.974142   956A      0.974448  
     957A      0.975717   958A      0.977044   959A      0.978870  
     960A      0.979005   961A      0.981525   962A      0.983019  
     963A      0.983969   964A      0.985251   965A      0.986928  
     966A      0.988094   967A      0.990841   968A      0.991026  
     969A      0.992167   970A      0.993556   971A      0.996062  
     972A      0.998637   973A      0.999302   974A      1.001076  
     975A      1.001602   976A      1.003072   977A      1.004557  
     978A      1.004892   979A      1.006412   980A      1.008646  
     981A      1.009054   982A      1.011404   983A      1.013493  
     984A      1.014431   985A      1.015793   986A      1.017291  
     987A      1.018330   988A      1.019859   989A      1.020969  
     990A      1.022759   991A      1.023606   992A      1.025562  
     993A      1.026409   994A      1.029149   995A      1.029772  
     996A      1.031147   997A      1.032060   998A      1.033842  
     999A      1.034887  1000A      1.036874  1001A      1.037469  
    1002A      1.039072  1003A      1.041051  1004A      1.042034  
    1005A      1.043469  1006A      1.045376  1007A      1.047348  
    1008A      1.048621  1009A      1.049469  1010A      1.050633  
    1011A      1.051733  1012A      1.053369  1013A      1.054714  
    1014A      1.056309  1015A      1.056853  1016A      1.058691  
    1017A      1.060428  1018A      1.061830  1019A      1.063815  
    1020A      1.066351  1021A      1.066702  1022A      1.069191  
    1023A      1.070620  1024A      1.072128  1025A      1.072796  
    1026A      1.073693  1027A      1.075493  1028A      1.077981  
    1029A      1.078102  1030A      1.079543  1031A      1.082230  
    1032A      1.083293  1033A      1.085323  1034A      1.086540  
    1035A      1.088051  1036A      1.089452  1037A      1.090345  
    1038A      1.091027  1039A      1.092042  1040A      1.093256  
    1041A      1.093775  1042A      1.095412  1043A      1.098579  
    1044A      1.101120  1045A      1.101244  1046A      1.103724  
    1047A      1.105299  1048A      1.106473  1049A      1.108144  
    1050A      1.108965  1051A      1.110040  1052A      1.112119  
    1053A      1.113728  1054A      1.116111  1055A      1.117538  
    1056A      1.118950  1057A      1.119146  1058A      1.120621  
    1059A      1.122140  1060A      1.123852  1061A      1.124851  
    1062A      1.126326  1063A      1.128090  1064A      1.129823  
    1065A      1.132843  1066A      1.134081  1067A      1.135814  
    1068A      1.137248  1069A      1.140004  1070A      1.141283  
    1071A      1.142375  1072A      1.145414  1073A      1.146542  
    1074A      1.148000  1075A      1.149328  1076A      1.150465  
    1077A      1.151225  1078A      1.154265  1079A      1.155127  
    1080A      1.156650  1081A      1.157708  1082A      1.158925  
    1083A      1.160237  1084A      1.163343  1085A      1.164749  
    1086A      1.165430  1087A      1.167413  1088A      1.169237  
    1089A      1.171603  1090A      1.172326  1091A      1.175570  
    1092A      1.176988  1093A      1.177800  1094A      1.180604  
    1095A      1.182630  1096A      1.183655  1097A      1.184729  
    1098A      1.185902  1099A      1.186915  1100A      1.187289  
    1101A      1.189237  1102A      1.191021  1103A      1.193287  
    1104A      1.195964  1105A      1.197034  1106A      1.199455  
    1107A      1.201244  1108A      1.202109  1109A      1.203932  
    1110A      1.204131  1111A      1.206406  1112A      1.208140  
    1113A      1.210523  1114A      1.211272  1115A      1.211939  
    1116A      1.213804  1117A      1.216044  1118A      1.217322  
    1119A      1.218138  1120A      1.218845  1121A      1.221651  
    1122A      1.224670  1123A      1.225735  1124A      1.227415  
    1125A      1.228560  1126A      1.230354  1127A      1.233359  
    1128A      1.234067  1129A      1.236162  1130A      1.238457  
    1131A      1.240343  1132A      1.240737  1133A      1.242604  
    1134A      1.244412  1135A      1.244611  1136A      1.244852  
    1137A      1.246748  1138A      1.251230  1139A      1.252661  
    1140A      1.253755  1141A      1.254220  1142A      1.256581  
    1143A      1.257832  1144A      1.259727  1145A      1.260520  
    1146A      1.262537  1147A      1.265259  1148A      1.266041  
    1149A      1.269836  1150A      1.271197  1151A      1.271767  
    1152A      1.274594  1153A      1.275573  1154A      1.276790  
    1155A      1.278559  1156A      1.279161  1157A      1.281297  
    1158A      1.282455  1159A      1.283250  1160A      1.283889  
    1161A      1.286451  1162A      1.288118  1163A      1.288673  
    1164A      1.290197  1165A      1.291563  1166A      1.292890  
    1167A      1.294570  1168A      1.295746  1169A      1.298739  
    1170A      1.300308  1171A      1.302453  1172A      1.303535  
    1173A      1.306899  1174A      1.307962  1175A      1.309125  
    1176A      1.310513  1177A      1.311841  1178A      1.314536  
    1179A      1.316742  1180A      1.317556  1181A      1.318751  
    1182A      1.319660  1183A      1.322314  1184A      1.323550  
    1185A      1.325793  1186A      1.326504  1187A      1.328756  
    1188A      1.330448  1189A      1.331365  1190A      1.334154  
    1191A      1.334640  1192A      1.337072  1193A      1.338291  
    1194A      1.339463  1195A      1.340176  1196A      1.343014  
    1197A      1.343856  1198A      1.344742  1199A      1.345865  
    1200A      1.347430  1201A      1.348042  1202A      1.350021  
    1203A      1.351141  1204A      1.354808  1205A      1.356058  
    1206A      1.358217  1207A      1.358501  1208A      1.359707  
    1209A      1.361303  1210A      1.363163  1211A      1.363564  
    1212A      1.365087  1213A      1.367552  1214A      1.368478  
    1215A      1.369699  1216A      1.372462  1217A      1.373132  
    1218A      1.374219  1219A      1.376546  1220A      1.378836  
    1221A      1.380786  1222A      1.383353  1223A      1.384355  
    1224A      1.385551  1225A      1.387459  1226A      1.389485  
    1227A      1.390316  1228A      1.391866  1229A      1.392914  
    1230A      1.395975  1231A      1.397532  1232A      1.399737  
    1233A      1.399860  1234A      1.400516  1235A      1.402219  
    1236A      1.403937  1237A      1.404481  1238A      1.406294  
    1239A      1.407803  1240A      1.409097  1241A      1.411054  
    1242A      1.412463  1243A      1.414449  1244A      1.415514  
    1245A      1.418054  1246A      1.420072  1247A      1.421827  
    1248A      1.422015  1249A      1.423910  1250A      1.426319  
    1251A      1.427376  1252A      1.428691  1253A      1.429383  
    1254A      1.432570  1255A      1.433863  1256A      1.434655  
    1257A      1.435767  1258A      1.437113  1259A      1.439625  
    1260A      1.439923  1261A      1.440408  1262A      1.442915  
    1263A      1.445720  1264A      1.447219  1265A      1.449219  
    1266A      1.449401  1267A      1.450249  1268A      1.452592  
    1269A      1.454373  1270A      1.455454  1271A      1.456411  
    1272A      1.458702  1273A      1.459661  1274A      1.462369  
    1275A      1.462796  1276A      1.464332  1277A      1.466171  
    1278A      1.467534  1279A      1.468777  1280A      1.470410  
    1281A      1.471112  1282A      1.472765  1283A      1.472971  
    1284A      1.475309  1285A      1.475503  1286A      1.475798  
    1287A      1.477757  1288A      1.478771  1289A      1.480057  
    1290A      1.480725  1291A      1.483107  1292A      1.483981  
    1293A      1.486130  1294A      1.487913  1295A      1.489890  
    1296A      1.491519  1297A      1.492305  1298A      1.492807  
    1299A      1.493292  1300A      1.495088  1301A      1.497916  
    1302A      1.498775  1303A      1.500801  1304A      1.502602  
    1305A      1.503879  1306A      1.504798  1307A      1.506685  
    1308A      1.507560  1309A      1.509065  1310A      1.510467  
    1311A      1.510573  1312A      1.511932  1313A      1.513797  
    1314A      1.516259  1315A      1.516836  1316A      1.518930  
    1317A      1.521688  1318A      1.521858  1319A      1.525115  
    1320A      1.525520  1321A      1.526606  1322A      1.529116  
    1323A      1.529831  1324A      1.531839  1325A      1.532850  
    1326A      1.533969  1327A      1.536482  1328A      1.537397  
    1329A      1.540392  1330A      1.541901  1331A      1.542324  
    1332A      1.542763  1333A      1.545124  1334A      1.545857  
    1335A      1.545893  1336A      1.547646  1337A      1.550069  
    1338A      1.551000  1339A      1.551767  1340A      1.553950  
    1341A      1.556737  1342A      1.557254  1343A      1.558400  
    1344A      1.562088  1345A      1.563879  1346A      1.564182  
    1347A      1.565488  1348A      1.565770  1349A      1.568134  
    1350A      1.569382  1351A      1.569530  1352A      1.573005  
    1353A      1.573862  1354A      1.575517  1355A      1.576209  
    1356A      1.577014  1357A      1.578929  1358A      1.580661  
    1359A      1.582528  1360A      1.584710  1361A      1.585839  
    1362A      1.586739  1363A      1.588905  1364A      1.590400  
    1365A      1.592045  1366A      1.593163  1367A      1.595661  
    1368A      1.596902  1369A      1.597481  1370A      1.598346  
    1371A      1.600275  1372A      1.602280  1373A      1.604016  
    1374A      1.604704  1375A      1.605555  1376A      1.608410  
    1377A      1.608786  1378A      1.610996  1379A      1.613110  
    1380A      1.613777  1381A      1.614832  1382A      1.616592  
    1383A      1.618269  1384A      1.619403  1385A      1.620645  
    1386A      1.622954  1387A      1.623709  1388A      1.624553  
    1389A      1.628107  1390A      1.628325  1391A      1.630633  
    1392A      1.631267  1393A      1.632328  1394A      1.635439  
    1395A      1.636570  1396A      1.637299  1397A      1.639255  
    1398A      1.640636  1399A      1.641559  1400A      1.643104  
    1401A      1.645686  1402A      1.646791  1403A      1.647002  
    1404A      1.647375  1405A      1.651660  1406A      1.651965  
    1407A      1.653081  1408A      1.656087  1409A      1.657003  
    1410A      1.658501  1411A      1.659390  1412A      1.661494  
    1413A      1.663672  1414A      1.664026  1415A      1.667798  
    1416A      1.668701  1417A      1.669117  1418A      1.670382  
    1419A      1.672889  1420A      1.676358  1421A      1.677491  
    1422A      1.679982  1423A      1.681938  1424A      1.682373  
    1425A      1.684873  1426A      1.685829  1427A      1.686529  
    1428A      1.687895  1429A      1.690531  1430A      1.692292  
    1431A      1.693792  1432A      1.695405  1433A      1.696744  
    1434A      1.699860  1435A      1.701499  1436A      1.703176  
    1437A      1.704261  1438A      1.704852  1439A      1.707799  
    1440A      1.708047  1441A      1.708688  1442A      1.712153  
    1443A      1.714978  1444A      1.716298  1445A      1.718326  
    1446A      1.719068  1447A      1.720218  1448A      1.720785  
    1449A      1.723736  1450A      1.724175  1451A      1.726064  
    1452A      1.727644  1453A      1.729437  1454A      1.729592  
    1455A      1.733541  1456A      1.733737  1457A      1.736337  
    1458A      1.737293  1459A      1.740355  1460A      1.741231  
    1461A      1.743454  1462A      1.745148  1463A      1.745681  
    1464A      1.747339  1465A      1.748667  1466A      1.751821  
    1467A      1.755098  1468A      1.755864  1469A      1.758706  
    1470A      1.759407  1471A      1.761850  1472A      1.763215  
    1473A      1.765012  1474A      1.766320  1475A      1.766927  
    1476A      1.769299  1477A      1.772245  1478A      1.774427  
    1479A      1.777576  1480A      1.778403  1481A      1.780453  
    1482A      1.782598  1483A      1.783100  1484A      1.786961  
    1485A      1.788775  1486A      1.790180  1487A      1.791955  
    1488A      1.793752  1489A      1.794524  1490A      1.796737  
    1491A      1.798005  1492A      1.799580  1493A      1.802563  
    1494A      1.805402  1495A      1.808498  1496A      1.812588  
    1497A      1.814355  1498A      1.814951  1499A      1.816174  
    1500A      1.817546  1501A      1.818562  1502A      1.821517  
    1503A      1.822723  1504A      1.825435  1505A      1.828398  
    1506A      1.829025  1507A      1.830657  1508A      1.832978  
    1509A      1.833424  1510A      1.835999  1511A      1.839109  
    1512A      1.840209  1513A      1.842248  1514A      1.843723  
    1515A      1.846561  1516A      1.848819  1517A      1.850320  
    1518A      1.851902  1519A      1.853867  1520A      1.854169  
    1521A      1.857422  1522A      1.859325  1523A      1.861635  
    1524A      1.863525  1525A      1.864395  1526A      1.866908  
    1527A      1.870422  1528A      1.871952  1529A      1.873413  
    1530A      1.874328  1531A      1.876621  1532A      1.878628  
    1533A      1.881455  1534A      1.882027  1535A      1.885504  
    1536A      1.886736  1537A      1.887790  1538A      1.890811  
    1539A      1.893030  1540A      1.895214  1541A      1.895421  
    1542A      1.897171  1543A      1.898362  1544A      1.901033  
    1545A      1.902356  1546A      1.905646  1547A      1.906366  
    1548A      1.908592  1549A      1.910760  1550A      1.912587  
    1551A      1.915463  1552A      1.916917  1553A      1.917597  
    1554A      1.920068  1555A      1.924117  1556A      1.925486  
    1557A      1.926675  1558A      1.928503  1559A      1.928936  
    1560A      1.932165  1561A      1.933650  1562A      1.936267  
    1563A      1.939211  1564A      1.941190  1565A      1.943653  
    1566A      1.946342  1567A      1.947382  1568A      1.950093  
    1569A      1.951441  1570A      1.953923  1571A      1.955308  
    1572A      1.958276  1573A      1.960084  1574A      1.962498  
    1575A      1.964459  1576A      1.965507  1577A      1.966371  
    1578A      1.969336  1579A      1.970947  1580A      1.971987  
    1581A      1.975342  1582A      1.977422  1583A      1.978391  
    1584A      1.981054  1585A      1.982143  1586A      1.983327  
    1587A      1.985438  1588A      1.987981  1589A      1.988264  
    1590A      1.990059  1591A      1.992746  1592A      1.994256  
    1593A      1.996246  1594A      1.999758  1595A      2.000568  
    1596A      2.002610  1597A      2.005526  1598A      2.006767  
    1599A      2.007542  1600A      2.011606  1601A      2.015690  
    1602A      2.017976  1603A      2.019753  1604A      2.022421  
    1605A      2.024733  1606A      2.025152  1607A      2.027141  
    1608A      2.028431  1609A      2.030309  1610A      2.030853  
    1611A      2.035158  1612A      2.035519  1613A      2.038617  
    1614A      2.040738  1615A      2.041771  1616A      2.042936  
    1617A      2.044594  1618A      2.047226  1619A      2.049911  
    1620A      2.050802  1621A      2.053679  1622A      2.054750  
    1623A      2.055968  1624A      2.056753  1625A      2.057739  
    1626A      2.058665  1627A      2.061144  1628A      2.064255  
    1629A      2.065895  1630A      2.066334  1631A      2.066866  
    1632A      2.070213  1633A      2.072508  1634A      2.074591  
    1635A      2.078186  1636A      2.079106  1637A      2.080239  
    1638A      2.081787  1639A      2.085782  1640A      2.087016  
    1641A      2.087799  1642A      2.089242  1643A      2.090343  
    1644A      2.091934  1645A      2.093744  1646A      2.096652  
    1647A      2.098481  1648A      2.100754  1649A      2.101933  
    1650A      2.105817  1651A      2.107482  1652A      2.109294  
    1653A      2.112295  1654A      2.115367  1655A      2.117293  
    1656A      2.119787  1657A      2.120120  1658A      2.122991  
    1659A      2.124178  1660A      2.126850  1661A      2.129370  
    1662A      2.130715  1663A      2.133769  1664A      2.134771  
    1665A      2.138014  1666A      2.140588  1667A      2.142507  
    1668A      2.144781  1669A      2.146487  1670A      2.147815  
    1671A      2.151065  1672A      2.152617  1673A      2.154307  
    1674A      2.155930  1675A      2.161024  1676A      2.161581  
    1677A      2.162368  1678A      2.164025  1679A      2.165539  
    1680A      2.166893  1681A      2.168790  1682A      2.173310  
    1683A      2.174256  1684A      2.176533  1685A      2.181106  
    1686A      2.181726  1687A      2.182861  1688A      2.185034  
    1689A      2.188044  1690A      2.189093  1691A      2.193027  
    1692A      2.197213  1693A      2.198906  1694A      2.202310  
    1695A      2.204790  1696A      2.206430  1697A      2.208367  
    1698A      2.210483  1699A      2.210910  1700A      2.214177  
    1701A      2.217956  1702A      2.219604  1703A      2.220405  
    1704A      2.220871  1705A      2.223540  1706A      2.225608  
    1707A      2.228021  1708A      2.230947  1709A      2.232045  
    1710A      2.235437  1711A      2.236121  1712A      2.240166  
    1713A      2.242442  1714A      2.245230  1715A      2.247614  
    1716A      2.249629  1717A      2.254102  1718A      2.254661  
    1719A      2.258105  1720A      2.259047  1721A      2.260271  
    1722A      2.262539  1723A      2.266287  1724A      2.267679  
    1725A      2.269199  1726A      2.271549  1727A      2.275868  
    1728A      2.277106  1729A      2.279018  1730A      2.279982  
    1731A      2.280975  1732A      2.284725  1733A      2.287205  
    1734A      2.288342  1735A      2.290689  1736A      2.295227  
    1737A      2.297579  1738A      2.298271  1739A      2.299907  
    1740A      2.302538  1741A      2.304781  1742A      2.308318  
    1743A      2.310344  1744A      2.311907  1745A      2.315893  
    1746A      2.317345  1747A      2.320315  1748A      2.323807  
    1749A      2.326905  1750A      2.327694  1751A      2.327875  
    1752A      2.332101  1753A      2.333995  1754A      2.336127  
    1755A      2.338617  1756A      2.340467  1757A      2.341847  
    1758A      2.343495  1759A      2.347948  1760A      2.348400  
    1761A      2.350626  1762A      2.355645  1763A      2.359677  
    1764A      2.361022  1765A      2.364042  1766A      2.366365  
    1767A      2.369410  1768A      2.370005  1769A      2.371454  
    1770A      2.373761  1771A      2.374513  1772A      2.378273  
    1773A      2.381344  1774A      2.383540  1775A      2.385359  
    1776A      2.387210  1777A      2.390256  1778A      2.392597  
    1779A      2.398001  1780A      2.400636  1781A      2.402236  
    1782A      2.405647  1783A      2.408413  1784A      2.410781  
    1785A      2.412702  1786A      2.415206  1787A      2.417746  
    1788A      2.419227  1789A      2.420840  1790A      2.426239  
    1791A      2.427920  1792A      2.428874  1793A      2.435131  
    1794A      2.435620  1795A      2.436136  1796A      2.438529  
    1797A      2.444935  1798A      2.445981  1799A      2.448663  
    1800A      2.451995  1801A      2.455595  1802A      2.458506  
    1803A      2.460325  1804A      2.462837  1805A      2.466131  
    1806A      2.467626  1807A      2.470040  1808A      2.474182  
    1809A      2.477633  1810A      2.480567  1811A      2.482013  
    1812A      2.485754  1813A      2.487611  1814A      2.488211  
    1815A      2.493739  1816A      2.495877  1817A      2.501594  
    1818A      2.502363  1819A      2.505192  1820A      2.507602  
    1821A      2.509945  1822A      2.512276  1823A      2.516977  
    1824A      2.517840  1825A      2.519547  1826A      2.523284  
    1827A      2.527496  1828A      2.529379  1829A      2.532012  
    1830A      2.533926  1831A      2.541014  1832A      2.544221  
    1833A      2.544838  1834A      2.546387  1835A      2.548792  
    1836A      2.554192  1837A      2.555416  1838A      2.555510  
    1839A      2.562685  1840A      2.564912  1841A      2.568550  
    1842A      2.573050  1843A      2.575139  1844A      2.577554  
    1845A      2.581024  1846A      2.584902  1847A      2.589271  
    1848A      2.591912  1849A      2.593432  1850A      2.598611  
    1851A      2.600799  1852A      2.603509  1853A      2.604418  
    1854A      2.606786  1855A      2.611269  1856A      2.614122  
    1857A      2.620081  1858A      2.622384  1859A      2.625136  
    1860A      2.629860  1861A      2.630947  1862A      2.635403  
    1863A      2.638044  1864A      2.639974  1865A      2.645991  
    1866A      2.648897  1867A      2.650796  1868A      2.652063  
    1869A      2.658308  1870A      2.660129  1871A      2.664360  
    1872A      2.665910  1873A      2.672229  1874A      2.674409  
    1875A      2.677837  1876A      2.681221  1877A      2.684844  
    1878A      2.686219  1879A      2.689625  1880A      2.693572  
    1881A      2.696052  1882A      2.699943  1883A      2.707013  
    1884A      2.713774  1885A      2.719197  1886A      2.720880  
    1887A      2.725433  1888A      2.730618  1889A      2.731708  
    1890A      2.733351  1891A      2.738362  1892A      2.748690  
    1893A      2.750024  1894A      2.757821  1895A      2.759704  
    1896A      2.765328  1897A      2.770553  1898A      2.776936  
    1899A      2.777386  1900A      2.782109  1901A      2.784515  
    1902A      2.790746  1903A      2.794188  1904A      2.805202  
    1905A      2.810816  1906A      2.817140  1907A      2.824020  
    1908A      2.825192  1909A      2.828237  1910A      2.830757  
    1911A      2.836399  1912A      2.839745  1913A      2.841391  
    1914A      2.847890  1915A      2.853911  1916A      2.854542  
    1917A      2.861343  1918A      2.866030  1919A      2.872588  
    1920A      2.876630  1921A      2.880751  1922A      2.886793  
    1923A      2.895167  1924A      2.900433  1925A      2.904978  
    1926A      2.906682  1927A      2.912219  1928A      2.920035  
    1929A      2.921822  1930A      2.931997  1931A      2.932593  
    1932A      2.938354  1933A      2.948765  1934A      2.949195  
    1935A      2.960213  1936A      2.973356  1937A      2.980021  
    1938A      2.981216  1939A      2.987685  1940A      2.994400  
    1941A      3.007785  1942A      3.011478  1943A      3.014496  
    1944A      3.017991  1945A      3.025264  1946A      3.027147  
    1947A      3.032526  1948A      3.039435  1949A      3.043708  
    1950A      3.044950  1951A      3.052768  1952A      3.054174  
    1953A      3.058959  1954A      3.060921  1955A      3.066178  
    1956A      3.070294  1957A      3.076010  1958A      3.082761  
    1959A      3.087223  1960A      3.089136  1961A      3.092699  
    1962A      3.096146  1963A      3.102995  1964A      3.104940  
    1965A      3.110292  1966A      3.111785  1967A      3.119073  
    1968A      3.120612  1969A      3.123800  1970A      3.129548  
    1971A      3.135275  1972A      3.139961  1973A      3.144672  
    1974A      3.146596  1975A      3.151820  1976A      3.154103  
    1977A      3.157057  1978A      3.162086  1979A      3.164246  
    1980A      3.168814  1981A      3.171796  1982A      3.172344  
    1983A      3.174856  1984A      3.178222  1985A      3.181081  
    1986A      3.181995  1987A      3.186988  1988A      3.191214  
    1989A      3.198084  1990A      3.200743  1991A      3.202365  
    1992A      3.203934  1993A      3.208599  1994A      3.212494  
    1995A      3.213842  1996A      3.215112  1997A      3.217299  
    1998A      3.222069  1999A      3.226745  2000A      3.229384  
    2001A      3.232725  2002A      3.236158  2003A      3.237728  
    2004A      3.240506  2005A      3.242655  2006A      3.249859  
    2007A      3.251478  2008A      3.253556  2009A      3.255227  
    2010A      3.258170  2011A      3.259504  2012A      3.264099  
    2013A      3.265779  2014A      3.268690  2015A      3.270634  
    2016A      3.273841  2017A      3.276270  2018A      3.277848  
    2019A      3.282234  2020A      3.283988  2021A      3.286808  
    2022A      3.288229  2023A      3.291420  2024A      3.293213  
    2025A      3.295187  2026A      3.297279  2027A      3.300456  
    2028A      3.301387  2029A      3.306249  2030A      3.307527  
    2031A      3.309535  2032A      3.312224  2033A      3.316490  
    2034A      3.317446  2035A      3.319050  2036A      3.321185  
    2037A      3.322907  2038A      3.326183  2039A      3.328527  
    2040A      3.330985  2041A      3.331594  2042A      3.335025  
    2043A      3.336853  2044A      3.338450  2045A      3.341207  
    2046A      3.345472  2047A      3.346554  2048A      3.351070  
    2049A      3.353389  2050A      3.355554  2051A      3.357966  
    2052A      3.358676  2053A      3.360253  2054A      3.362706  
    2055A      3.366183  2056A      3.368954  2057A      3.369746  
    2058A      3.371339  2059A      3.372912  2060A      3.375751  
    2061A      3.378860  2062A      3.381632  2063A      3.383154  
    2064A      3.384290  2065A      3.387735  2066A      3.389528  
    2067A      3.391944  2068A      3.392940  2069A      3.394235  
    2070A      3.394927  2071A      3.396600  2072A      3.399859  
    2073A      3.403487  2074A      3.404325  2075A      3.406438  
    2076A      3.410149  2077A      3.410892  2078A      3.416646  
    2079A      3.418566  2080A      3.419217  2081A      3.419989  
    2082A      3.423944  2083A      3.424018  2084A      3.427617  
    2085A      3.428855  2086A      3.431995  2087A      3.434160  
    2088A      3.435074  2089A      3.436009  2090A      3.439535  
    2091A      3.440674  2092A      3.441623  2093A      3.443010  
    2094A      3.446887  2095A      3.447595  2096A      3.449526  
    2097A      3.451499  2098A      3.451943  2099A      3.456480  
    2100A      3.457362  2101A      3.459883  2102A      3.461380  
    2103A      3.463994  2104A      3.464236  2105A      3.467551  
    2106A      3.470077  2107A      3.472066  2108A      3.473828  
    2109A      3.475544  2110A      3.476463  2111A      3.481627  
    2112A      3.483325  2113A      3.484012  2114A      3.485362  
    2115A      3.490258  2116A      3.490879  2117A      3.493645  
    2118A      3.494682  2119A      3.495567  2120A      3.499349  
    2121A      3.503915  2122A      3.504489  2123A      3.505172  
    2124A      3.507734  2125A      3.510186  2126A      3.511027  
    2127A      3.513914  2128A      3.517043  2129A      3.518966  
    2130A      3.521862  2131A      3.524840  2132A      3.525146  
    2133A      3.526092  2134A      3.527858  2135A      3.529875  
    2136A      3.531897  2137A      3.535708  2138A      3.536428  
    2139A      3.537201  2140A      3.540652  2141A      3.541899  
    2142A      3.544372  2143A      3.546288  2144A      3.548003  
    2145A      3.550277  2146A      3.552313  2147A      3.555175  
    2148A      3.555714  2149A      3.556375  2150A      3.558555  
    2151A      3.561865  2152A      3.564397  2153A      3.566426  
    2154A      3.566854  2155A      3.570730  2156A      3.572629  
    2157A      3.574934  2158A      3.577706  2159A      3.578367  
    2160A      3.580661  2161A      3.584723  2162A      3.586167  
    2163A      3.588047  2164A      3.590034  2165A      3.591035  
    2166A      3.591939  2167A      3.595022  2168A      3.595941  
    2169A      3.598796  2170A      3.601549  2171A      3.603310  
    2172A      3.606185  2173A      3.608092  2174A      3.609991  
    2175A      3.612083  2176A      3.615526  2177A      3.617574  
    2178A      3.618890  2179A      3.620216  2180A      3.620767  
    2181A      3.623164  2182A      3.625736  2183A      3.628175  
    2184A      3.628798  2185A      3.629393  2186A      3.633194  
    2187A      3.634856  2188A      3.636471  2189A      3.637962  
    2190A      3.640187  2191A      3.642716  2192A      3.645059  
    2193A      3.646169  2194A      3.649531  2195A      3.653367  
    2196A      3.655498  2197A      3.656046  2198A      3.657611  
    2199A      3.659173  2200A      3.661995  2201A      3.662544  
    2202A      3.664023  2203A      3.666690  2204A      3.668413  
    2205A      3.670563  2206A      3.673561  2207A      3.679027  
    2208A      3.680634  2209A      3.681169  2210A      3.684309  
    2211A      3.687250  2212A      3.687999  2213A      3.689448  
    2214A      3.691893  2215A      3.692927  2216A      3.697944  
    2217A      3.698832  2218A      3.702237  2219A      3.704141  
    2220A      3.705395  2221A      3.708939  2222A      3.711161  
    2223A      3.713620  2224A      3.714999  2225A      3.716102  
    2226A      3.717547  2227A      3.721362  2228A      3.722633  
    2229A      3.723726  2230A      3.726324  2231A      3.729692  
    2232A      3.730878  2233A      3.732478  2234A      3.735102  
    2235A      3.736833  2236A      3.739861  2237A      3.740878  
    2238A      3.743355  2239A      3.746538  2240A      3.747950  
    2241A      3.750128  2242A      3.750763  2243A      3.753803  
    2244A      3.756527  2245A      3.758461  2246A      3.759413  
    2247A      3.761544  2248A      3.762751  2249A      3.763604  
    2250A      3.766880  2251A      3.768626  2252A      3.770962  
    2253A      3.772787  2254A      3.774763  2255A      3.776084  
    2256A      3.776734  2257A      3.779626  2258A      3.782153  
    2259A      3.786324  2260A      3.786602  2261A      3.789682  
    2262A      3.790299  2263A      3.794114  2264A      3.794920  
    2265A      3.795685  2266A      3.798444  2267A      3.801122  
    2268A      3.801917  2269A      3.804129  2270A      3.806730  
    2271A      3.807691  2272A      3.809127  2273A      3.811155  
    2274A      3.813670  2275A      3.816991  2276A      3.817379  
    2277A      3.820892  2278A      3.822074  2279A      3.823665  
    2280A      3.826302  2281A      3.827802  2282A      3.831024  
    2283A      3.831824  2284A      3.833216  2285A      3.835089  
    2286A      3.838058  2287A      3.839912  2288A      3.841106  
    2289A      3.842532  2290A      3.847281  2291A      3.851212  
    2292A      3.851469  2293A      3.852214  2294A      3.853312  
    2295A      3.856292  2296A      3.856784  2297A      3.861189  
    2298A      3.861790  2299A      3.865553  2300A      3.868762  
    2301A      3.870481  2302A      3.872184  2303A      3.873232  
    2304A      3.873818  2305A      3.877562  2306A      3.878846  
    2307A      3.879206  2308A      3.882212  2309A      3.884442  
    2310A      3.886111  2311A      3.886793  2312A      3.890272  
    2313A      3.891632  2314A      3.892656  2315A      3.896858  
    2316A      3.900767  2317A      3.903073  2318A      3.903800  
    2319A      3.907143  2320A      3.908321  2321A      3.910991  
    2322A      3.912448  2323A      3.914754  2324A      3.916532  
    2325A      3.919923  2326A      3.922430  2327A      3.922677  
    2328A      3.925431  2329A      3.927639  2330A      3.928436  
    2331A      3.931046  2332A      3.932982  2333A      3.935127  
    2334A      3.936435  2335A      3.940360  2336A      3.941335  
    2337A      3.944513  2338A      3.944986  2339A      3.948225  
    2340A      3.949294  2341A      3.950722  2342A      3.952594  
    2343A      3.957563  2344A      3.958878  2345A      3.961583  
    2346A      3.962931  2347A      3.964592  2348A      3.966539  
    2349A      3.969346  2350A      3.971795  2351A      3.975651  
    2352A      3.977739  2353A      3.978935  2354A      3.980736  
    2355A      3.982098  2356A      3.986181  2357A      3.987132  
    2358A      3.989816  2359A      3.991456  2360A      3.992075  
    2361A      3.995748  2362A      3.997296  2363A      4.000033  
    2364A      4.001935  2365A      4.003527  2366A      4.004837  
    2367A      4.006314  2368A      4.009339  2369A      4.011702  
    2370A      4.012534  2371A      4.014087  2372A      4.016258  
    2373A      4.019120  2374A      4.021495  2375A      4.023767  
    2376A      4.026624  2377A      4.028560  2378A      4.029746  
    2379A      4.032520  2380A      4.034167  2381A      4.034753  
    2382A      4.037910  2383A      4.039525  2384A      4.042305  
    2385A      4.044846  2386A      4.046258  2387A      4.048684  
    2388A      4.051563  2389A      4.053483  2390A      4.054529  
    2391A      4.056819  2392A      4.059179  2393A      4.062659  
    2394A      4.063308  2395A      4.063662  2396A      4.066352  
    2397A      4.071479  2398A      4.073280  2399A      4.074773  
    2400A      4.076171  2401A      4.077428  2402A      4.081527  
    2403A      4.082837  2404A      4.084928  2405A      4.086846  
    2406A      4.089938  2407A      4.091532  2408A      4.096483  
    2409A      4.096935  2410A      4.098021  2411A      4.099803  
    2412A      4.102471  2413A      4.103568  2414A      4.106417  
    2415A      4.111342  2416A      4.112174  2417A      4.113125  
    2418A      4.116890  2419A      4.118437  2420A      4.119110  
    2421A      4.120761  2422A      4.120929  2423A      4.123793  
    2424A      4.127333  2425A      4.129994  2426A      4.131715  
    2427A      4.133433  2428A      4.134886  2429A      4.136702  
    2430A      4.139218  2431A      4.141624  2432A      4.144486  
    2433A      4.147093  2434A      4.148996  2435A      4.149624  
    2436A      4.150480  2437A      4.154705  2438A      4.156687  
    2439A      4.157872  2440A      4.158349  2441A      4.160652  
    2442A      4.162735  2443A      4.165505  2444A      4.167067  
    2445A      4.169263  2446A      4.170683  2447A      4.172114  
    2448A      4.175355  2449A      4.178059  2450A      4.178885  
    2451A      4.183166  2452A      4.183539  2453A      4.187924  
    2454A      4.190823  2455A      4.191747  2456A      4.194591  
    2457A      4.195958  2458A      4.198726  2459A      4.201623  
    2460A      4.202892  2461A      4.204033  2462A      4.206960  
    2463A      4.209805  2464A      4.212249  2465A      4.213496  
    2466A      4.215195  2467A      4.219524  2468A      4.221222  
    2469A      4.222025  2470A      4.223055  2471A      4.227088  
    2472A      4.229317  2473A      4.230425  2474A      4.232094  
    2475A      4.236010  2476A      4.236951  2477A      4.240855  
    2478A      4.241013  2479A      4.243415  2480A      4.247069  
    2481A      4.247296  2482A      4.249434  2483A      4.252342  
    2484A      4.254598  2485A      4.256448  2486A      4.257491  
    2487A      4.264200  2488A      4.265310  2489A      4.265797  
    2490A      4.267793  2491A      4.272033  2492A      4.273969  
    2493A      4.274753  2494A      4.276702  2495A      4.280742  
    2496A      4.283672  2497A      4.285793  2498A      4.287066  
    2499A      4.288751  2500A      4.292470  2501A      4.293291  
    2502A      4.295011  2503A      4.298904  2504A      4.300192  
    2505A      4.304142  2506A      4.305420  2507A      4.306781  
    2508A      4.310105  2509A      4.312117  2510A      4.314510  
    2511A      4.316159  2512A      4.320000  2513A      4.322498  
    2514A      4.322993  2515A      4.325471  2516A      4.329825  
    2517A      4.331676  2518A      4.333775  2519A      4.335497  
    2520A      4.338591  2521A      4.340386  2522A      4.342692  
    2523A      4.343112  2524A      4.346840  2525A      4.350053  
    2526A      4.351470  2527A      4.353866  2528A      4.357389  
    2529A      4.359162  2530A      4.361436  2531A      4.364113  
    2532A      4.364874  2533A      4.368527  2534A      4.369227  
    2535A      4.371783  2536A      4.375549  2537A      4.376422  
    2538A      4.378483  2539A      4.380022  2540A      4.383148  
    2541A      4.387587  2542A      4.389492  2543A      4.390475  
    2544A      4.391751  2545A      4.394215  2546A      4.397693  
    2547A      4.398280  2548A      4.404598  2549A      4.404787  
    2550A      4.405896  2551A      4.409739  2552A      4.412090  
    2553A      4.412902  2554A      4.416654  2555A      4.419825  
    2556A      4.421974  2557A      4.422319  2558A      4.424332  
    2559A      4.427192  2560A      4.430331  2561A      4.432390  
    2562A      4.433296  2563A      4.435394  2564A      4.437709  
    2565A      4.440008  2566A      4.441016  2567A      4.445782  
    2568A      4.448200  2569A      4.448880  2570A      4.449932  
    2571A      4.453426  2572A      4.453949  2573A      4.456241  
    2574A      4.459474  2575A      4.462113  2576A      4.463623  
    2577A      4.467035  2578A      4.468287  2579A      4.471060  
    2580A      4.473272  2581A      4.473717  2582A      4.479893  
    2583A      4.480648  2584A      4.483766  2585A      4.486545  
    2586A      4.488443  2587A      4.491146  2588A      4.492466  
    2589A      4.493339  2590A      4.496036  2591A      4.499140  
    2592A      4.500670  2593A      4.504603  2594A      4.506982  
    2595A      4.509675  2596A      4.512537  2597A      4.514261  
    2598A      4.515207  2599A      4.517465  2600A      4.520913  
    2601A      4.523920  2602A      4.526875  2603A      4.528365  
    2604A      4.532087  2605A      4.533522  2606A      4.537144  
    2607A      4.538898  2608A      4.540388  2609A      4.542709  
    2610A      4.547056  2611A      4.548842  2612A      4.549899  
    2613A      4.550451  2614A      4.553949  2615A      4.555866  
    2616A      4.557325  2617A      4.562904  2618A      4.563395  
    2619A      4.566022  2620A      4.566214  2621A      4.570368  
    2622A      4.572038  2623A      4.573657  2624A      4.575919  
    2625A      4.578149  2626A      4.580792  2627A      4.582694  
    2628A      4.587288  2629A      4.587589  2630A      4.590944  
    2631A      4.592635  2632A      4.597132  2633A      4.601398  
    2634A      4.602692  2635A      4.605361  2636A      4.607286  
    2637A      4.610007  2638A      4.610835  2639A      4.612232  
    2640A      4.613875  2641A      4.614756  2642A      4.618329  
    2643A      4.623562  2644A      4.626701  2645A      4.628854  
    2646A      4.631869  2647A      4.632337  2648A      4.634647  
    2649A      4.638981  2650A      4.640354  2651A      4.645230  
    2652A      4.647172  2653A      4.649132  2654A      4.651671  
    2655A      4.654784  2656A      4.658136  2657A      4.661020  
    2658A      4.665627  2659A      4.666015  2660A      4.668240  
    2661A      4.669736  2662A      4.672711  2663A      4.677064  
    2664A      4.680139  2665A      4.683205  2666A      4.684539  
    2667A      4.689119  2668A      4.693641  2669A      4.696035  
    2670A      4.699370  2671A      4.700415  2672A      4.703559  
    2673A      4.704695  2674A      4.709797  2675A      4.711376  
    2676A      4.714943  2677A      4.716622  2678A      4.721713  
    2679A      4.724343  2680A      4.726436  2681A      4.730446  
    2682A      4.732928  2683A      4.734337  2684A      4.736410  
    2685A      4.743106  2686A      4.743461  2687A      4.746870  
    2688A      4.749689  2689A      4.750219  2690A      4.755775  
    2691A      4.757568  2692A      4.760683  2693A      4.763554  
    2694A      4.764853  2695A      4.766954  2696A      4.769527  
    2697A      4.772851  2698A      4.774117  2699A      4.779598  
    2700A      4.780477  2701A      4.781529  2702A      4.784753  
    2703A      4.791114  2704A      4.791640  2705A      4.794904  
    2706A      4.800304  2707A      4.801184  2708A      4.803763  
    2709A      4.805866  2710A      4.809502  2711A      4.812084  
    2712A      4.812835  2713A      4.818679  2714A      4.820702  
    2715A      4.820825  2716A      4.823585  2717A      4.826490  
    2718A      4.828537  2719A      4.829545  2720A      4.832718  
    2721A      4.835921  2722A      4.838184  2723A      4.842004  
    2724A      4.848108  2725A      4.851432  2726A      4.855040  
    2727A      4.856629  2728A      4.858729  2729A      4.862856  
    2730A      4.865229  2731A      4.869334  2732A      4.871627  
    2733A      4.872430  2734A      4.877934  2735A      4.880627  
    2736A      4.882470  2737A      4.883990  2738A      4.889679  
    2739A      4.892841  2740A      4.893984  2741A      4.898212  
    2742A      4.899084  2743A      4.901898  2744A      4.907312  
    2745A      4.908860  2746A      4.912294  2747A      4.913646  
    2748A      4.919410  2749A      4.921545  2750A      4.925441  
    2751A      4.928876  2752A      4.929702  2753A      4.933229  
    2754A      4.937663  2755A      4.940293  2756A      4.943317  
    2757A      4.945142  2758A      4.946624  2759A      4.950360  
    2760A      4.956862  2761A      4.957934  2762A      4.962030  
    2763A      4.965771  2764A      4.968019  2765A      4.972078  
    2766A      4.975115  2767A      4.981020  2768A      4.981839  
    2769A      4.984557  2770A      4.987305  2771A      4.988902  
    2772A      4.991702  2773A      4.999570  2774A      5.002070  
    2775A      5.004000  2776A      5.005450  2777A      5.008124  
    2778A      5.013692  2779A      5.014611  2780A      5.018453  
    2781A      5.021871  2782A      5.027491  2783A      5.029817  
    2784A      5.033073  2785A      5.036465  2786A      5.042028  
    2787A      5.043831  2788A      5.046037  2789A      5.048719  
    2790A      5.050463  2791A      5.051817  2792A      5.057126  
    2793A      5.060517  2794A      5.062630  2795A      5.071513  
    2796A      5.072222  2797A      5.079700  2798A      5.081633  
    2799A      5.083321  2800A      5.085821  2801A      5.091186  
    2802A      5.095559  2803A      5.098440  2804A      5.103557  
    2805A      5.107005  2806A      5.110955  2807A      5.113358  
    2808A      5.120958  2809A      5.123382  2810A      5.125199  
    2811A      5.131372  2812A      5.132527  2813A      5.136558  
    2814A      5.139965  2815A      5.144833  2816A      5.148117  
    2817A      5.151388  2818A      5.152596  2819A      5.156436  
    2820A      5.162680  2821A      5.168799  2822A      5.169101  
    2823A      5.174583  2824A      5.175003  2825A      5.181910  
    2826A      5.182568  2827A      5.186761  2828A      5.194012  
    2829A      5.195554  2830A      5.199560  2831A      5.202593  
    2832A      5.205680  2833A      5.209906  2834A      5.212093  
    2835A      5.218209  2836A      5.220576  2837A      5.225903  
    2838A      5.228068  2839A      5.231194  2840A      5.235589  
    2841A      5.239404  2842A      5.241226  2843A      5.248958  
    2844A      5.251390  2845A      5.253849  2846A      5.264437  
    2847A      5.266866  2848A      5.271106  2849A      5.273993  
    2850A      5.275857  2851A      5.279986  2852A      5.281771  
    2853A      5.287997  2854A      5.291041  2855A      5.296374  
    2856A      5.304716  2857A      5.307704  2858A      5.310664  
    2859A      5.318800  2860A      5.322432  2861A      5.326936  
    2862A      5.334692  2863A      5.337897  2864A      5.341900  
    2865A      5.342726  2866A      5.347339  2867A      5.350397  
    2868A      5.352493  2869A      5.356424  2870A      5.361627  
    2871A      5.363153  2872A      5.363950  2873A      5.366649  
    2874A      5.370158  2875A      5.375390  2876A      5.376723  
    2877A      5.381129  2878A      5.385888  2879A      5.392937  
    2880A      5.395725  2881A      5.400591  2882A      5.403575  
    2883A      5.417188  2884A      5.422914  2885A      5.429723  
    2886A      5.431484  2887A      5.437077  2888A      5.441117  
    2889A      5.445007  2890A      5.449611  2891A      5.458119  
    2892A      5.459185  2893A      5.470941  2894A      5.476363  
    2895A      5.483218  2896A      5.489941  2897A      5.496121  
    2898A      5.500522  2899A      5.507756  2900A      5.513720  
    2901A      5.519040  2902A      5.521868  2903A      5.530828  
    2904A      5.543165  2905A      5.551721  2906A      5.559588  
    2907A      5.565959  2908A      5.570324  2909A      5.573353  
    2910A      5.588691  2911A      5.593685  2912A      5.601279  
    2913A      5.607939  2914A      5.615433  2915A      5.625082  
    2916A      5.630451  2917A      5.636602  2918A      5.652731  
    2919A      5.659845  2920A      5.670058  2921A      5.676887  
    2922A      5.679700  2923A      5.684839  2924A      5.704202  
    2925A      5.705730  2926A      5.714916  2927A      5.715965  
    2928A      5.721309  2929A      5.727531  2930A      5.733733  
    2931A      5.738516  2932A      5.755312  2933A      5.761332  
    2934A      5.780180  2935A      5.788995  2936A      5.793168  
    2937A      5.797947  2938A      5.808939  2939A      5.813617  
    2940A      5.820741  2941A      5.831559  2942A      5.834180  
    2943A      5.841287  2944A      5.847437  2945A      5.855676  
    2946A      5.861960  2947A      5.868997  2948A      5.873933  
    2949A      5.881241  2950A      5.882481  2951A      5.890194  
    2952A      5.892916  2953A      5.905880  2954A      5.917336  
    2955A      5.926959  2956A      5.929443  2957A      5.946925  
    2958A      5.956701  2959A      5.968288  2960A      5.973107  
    2961A      5.978866  2962A      5.988718  2963A      5.989096  
    2964A      5.995902  2965A      6.012848  2966A      6.025686  
    2967A      6.032854  2968A      6.043333  2969A      6.059107  
    2970A      6.074806  2971A      6.078415  2972A      6.082272  
    2973A      6.091450  2974A      6.108683  2975A      6.125890  
    2976A      6.128264  2977A      6.139441  2978A      6.154959  
    2979A      6.163370  2980A      6.178014  2981A      6.186325  
    2982A      6.190100  2983A      6.197299  2984A      6.205491  
    2985A      6.208947  2986A      6.226424  2987A      6.228934  
    2988A      6.236095  2989A      6.248804  2990A      6.253085  
    2991A      6.259384  2992A      6.264199  2993A      6.287157  
    2994A      6.298078  2995A      6.301050  2996A      6.309952  
    2997A      6.318844  2998A      6.324915  2999A      6.333606  
    3000A      6.343852  3001A      6.361055  3002A      6.375318  
    3003A      6.378887  3004A      6.385323  3005A      6.414046  
    3006A      6.426693  3007A      6.436033  3008A      6.443027  
    3009A      6.458122  3010A      6.464982  3011A      6.472397  
    3012A      6.487315  3013A      6.492079  3014A      6.496231  
    3015A      6.508340  3016A      6.513404  3017A      6.516231  
    3018A      6.519178  3019A      6.522937  3020A      6.526802  
    3021A      6.532054  3022A      6.555562  3023A      6.561816  
    3024A      6.565321  3025A      6.574575  3026A      6.578351  
    3027A      6.590294  3028A      6.594382  3029A      6.597298  
    3030A      6.624924  3031A      6.630844  3032A      6.643054  
    3033A      6.652093  3034A      6.652865  3035A      6.657992  
    3036A      6.662295  3037A      6.670361  3038A      6.685979  
    3039A      6.687571  3040A      6.696879  3041A      6.703507  
    3042A      6.713654  3043A      6.730561  3044A      6.732132  
    3045A      6.765626  3046A      6.774753  3047A      6.793026  
    3048A      6.844481  3049A      6.847413  3050A      6.933957  
    3051A      6.934879  3052A     15.064283  3053A     15.149617  
    3054A     15.471484  3055A     15.539897  3056A     15.869793  
    3057A     15.913430  3058A     16.320651  3059A     16.364209  
    3060A     16.613264  3061A     16.680810  3062A     16.898374  
    3063A     16.944715  3064A     17.050300  3065A     17.199936  
    3066A     17.424926  3067A     17.542150  3068A     17.902262  
    3069A     17.940439  3070A     18.204539  3071A     18.289190  
    3072A     18.646354  3073A     18.742970  3074A     19.012715  
    3075A     19.085497  3076A     19.403739  3077A     19.475021  
    3078A     19.972037  3079A     20.045801  3080A     20.489367  
    3081A     20.581674  3082A     20.849379  3083A     21.088508  
    3084A     21.211348  3085A     21.345055  3086A     21.507485  
    3087A     21.571666  3088A     21.611043  3089A     21.616127  
    3090A     21.849037  3091A     21.927921  3092A     22.005564  
    3093A     22.076186  3094A     22.576599  3095A     22.626321  
    3096A     22.777280  3097A     22.884054  3098A     22.958709  
    3099A     23.008589  

    Final Occupation by Irrep:
              A 
    DOCC [   164 ]
    NA   [   164 ]
    NB   [   164 ]

  @DF-RKS Final Energy: -1854.07648915486016

   => Energetics <=

    Nuclear Repulsion Energy =           6199.6145026765807415
    One-Electron Energy =              -14854.6240876272095193
    Two-Electron Energy =                7023.8084597633751400
    DFT Exchange-Correlation Energy =    -222.7439807140798109
    Empirical Dispersion Energy =          -0.1313832535271966
    VV10 Nonlocal Energy =                  0.0000000000000000
    Total Energy =                      -1854.0764891548606101

Computation Completed


Properties will be evaluated at   0.000000,   0.000000,   0.000000 [a0]

Properties computed using the SCF density matrix


 Multipole Moments:

 ------------------------------------------------------------------------------------
     Multipole            Electronic (a.u.)      Nuclear  (a.u.)        Total (a.u.)
 ------------------------------------------------------------------------------------

 L = 1.  Multiply by 2.5417464519 to convert [e a0] to [Debye]
 Dipole X            :      -9279.8266255         9279.6775776           -0.1490479
 Dipole Y            :      -6403.5891289         6403.4265459           -0.1625829
 Dipole Z            :     -14279.0350916        14279.2482355            0.2131439
 Magnitude           :                                                    0.3067227

 ------------------------------------------------------------------------------------

*** tstop() called on atl1-1-03-004-15-2.pace.gatech.edu at Mon Jun 15 13:42:55 2026
Module time:
	user time   =   41645.41 seconds =     694.09 minutes
	system time =    2087.27 seconds =      34.79 minutes
	total time  =       6057 seconds =     100.95 minutes
Total time:
	user time   =   41645.41 seconds =     694.09 minutes
	system time =    2087.27 seconds =      34.79 minutes
	total time  =       6057 seconds =     100.95 minutes

    Psi4 stopped on: Monday, 15 June 2026 01:43PM
    Psi4 wall time for execution: 1:41:05.53

*** Psi4 exiting successfully. Buy a developer a beer!
