
    -----------------------------------------------------------------------
          Psi4: An Open-Source Ab Initio Electronic Structure Package
                               Psi4 1.9.1 release

                         Git: Rev {} zzzzzzz 


    D. G. A. Smith, L. A. Burns, A. C. Simmonett, R. M. Parrish,
    M. C. Schieber, R. Galvelis, P. Kraus, H. Kruse, R. Di Remigio,
    A. Alenaizan, A. M. James, S. Lehtola, J. P. Misiewicz, M. Scheurer,
    R. A. Shaw, J. B. Schriber, Y. Xie, Z. L. Glick, D. A. Sirianni,
    J. S. O'Brien, J. M. Waldrop, A. Kumar, E. G. Hohenstein,
    B. P. Pritchard, B. R. Brooks, H. F. Schaefer III, A. Yu. Sokolov,
    K. Patkowski, A. E. DePrince III, U. Bozkaya, R. A. King,
    F. A. Evangelista, J. M. Turney, T. D. Crawford, C. D. Sherrill,
    J. Chem. Phys. 152(18) 184108 (2020). https://doi.org/10.1063/5.0006002

                            Additional Code Authors
    E. T. Seidl, C. L. Janssen, E. F. Valeev, M. L. Leininger,
    J. F. Gonthier, R. M. Richard, H. R. McAlexander, M. Saitow, X. Wang,
    P. Verma, M. H. Lechner, A. Jiang, S. Behnle, A. G. Heide,
    M. F. Herbst, and D. L. Poole

             Previous Authors, Complete List of Code Contributors,
                       and Citations for Specific Modules
    https://github.com/psi4/psi4/blob/master/codemeta.json
    https://github.com/psi4/psi4/graphs/contributors
    http://psicode.org/psi4manual/master/introduction.html#citing-psifour

    -----------------------------------------------------------------------


    Psi4 started on: Monday, 15 June 2026 11:21AM

    Process ID: 866198
    Host:       atl1-1-03-004-19-2.pace.gatech.edu
    PSIDATADIR: /storage/home/hcoda1/5/vlita3/.conda/envs/p4_qcml/share/psi4
    Memory:     250.0 GiB
    Threads:    10
    
  ==> Input QCSchema <==

--------------------------------------------------------------------------
{'driver': 'energy',
 'extras': {},
 'id': '342',
 'keywords': {},
 'model': {'basis': 'aug-cc-pvtz', 'method': 'b3lyp-d3'},
 'molecule': {'extras': {},
              'fix_com': True,
              'fix_orientation': True,
              'fragment_charges': [0.0, 0.0],
              'fragment_multiplicities': [1, 1],
              'fragments': [[0, 1, 2, 3, 4, 5, 6, 7, 8, 9, 10, 11, 12, 13, 14, 15, 16, 17, 18, 19, 20, 21, 22, 23, 24,
                             25, 26, 27, 28, 29, 30, 31, 32, 33, 34, 35, 36, 37, 38, 39, 40, 41, 42, 43, 44, 45, 46, 47,
                             48, 49, 50, 51, 52, 53, 54, 55, 56, 57, 58, 59, 60, 61, 62, 63, 64, 65, 66, 67, 68, 69, 70,
                             71],
                            [72, 73, 74, 75, 76, 77, 78, 79, 80, 81, 82, 83, 84, 85, 86, 87, 88, 89, 90, 91]],
              'geometry': [-0.27392714, 6.18819166, -1.19323544, -2.46344698, 5.77825337, -2.60449614, -4.6940608,
                           5.39705781, -1.25234985, -4.71896739, 5.33938337, 1.40379628, -2.51326016, 5.65638493,
                           2.81229042, -0.29786241, 6.1264921, 1.46128175, -7.4236946, 4.94664159, -2.11437677,
                           -8.0102089, 2.21933216, -1.3518118, -8.03725088, 2.16388759, 1.30730308, -7.46490952,
                           4.85601033, 2.19433108, -8.21278754, 0.01810099, -2.78449255, -8.41651891, -2.24308601,
                           -1.44718061, -8.44656555, -2.29788807, 1.20944929, -8.27108559, -0.09424159, 2.64331111,
                           -8.82968863, 6.36030791, 0.05739419, 2.39027678, 6.99321499, -1.97848656, 2.35234998,
                           6.89052727, 2.33048585, 4.24147139, 4.87579576, 1.47132186, 4.26509297, 4.93957402,
                           -1.18371122, 5.91295305, 3.35513315, 2.83024282, 7.66850862, 1.97164575, 1.43096487,
                           7.69269711, 2.03631218, -1.22332744, 5.96134893, 3.48626124, -2.58482409, 2.91214355,
                           8.90127146, 0.22748523, 9.87956377, 0.34201964, -2.07607202, 9.16122218, -2.35520346,
                           -1.32189933, 9.13548411, -2.42066358, 1.33912796, 9.83927481, 0.23553924, 2.23913649,
                           8.55002806, -4.47912335, -2.729596, 7.90073706, -6.7005909, -1.42801501, 7.87418641,
                           -6.76523843, 1.20657123, 8.49702124, -4.61078057, 2.62830668, 11.77284258, 0.92596769,
                           0.1150709, -8.31764844, -5.08264518, 1.9809621, -5.66577687, -5.91321761, 1.16915466,
                           -5.63425624, -5.85826437, -1.48990165, -8.26696598, -4.99384695, -2.32929532, -3.49926256,
                           -6.47956853, 2.52781105, -1.27490751, -7.03089613, 1.18478458, -1.24350593, -6.97650981,
                           -1.44679133, -3.43540871, -6.36901955, -2.81856431, -9.87669139, -6.270716, -0.2182029,
                           -2.4529401, 5.84171037, -4.65828828, -2.54030214, 5.62747212, 4.86674397, -7.86022133,
                           5.46728004, -4.05896164, -7.93792687, 5.29540945, 4.15038659, -8.11773431, 0.05695332,
                           -4.83605482, -8.21892915, -0.14041005, 4.69617729, -8.40519945, 8.38335422, 0.10379812,
                           -10.87140543, 6.03249712, 0.03110168, 2.58575005, 7.68646102, -3.90969218, 2.51428061,
                           7.49055311, 4.29570653, 5.92036077, 3.32542665, 4.88460188, 6.00539845, 3.55672913,
                           -4.63769027, 1.57808761, 10.48166831, 0.25357668, 4.86729199, 9.57563912, 0.26070473,
                           10.52462179, 0.60197793, -4.01470426, 10.44833354, 0.39868497, 4.19987852, 8.5531839,
                           -4.43267388, -4.7823677, 7.42214502, -8.39155563, -2.48982755, 7.37512864, -8.50599744,
                           2.1742055, 8.4600204, -4.66543145, 4.68064374, 12.34503276, 2.91199237, 0.16959272,
                           13.42257349, -0.321261, 0.09956022, -8.86591468, -5.52843157, 3.91606055, -8.76902842,
                           -5.35979242, -4.29349555, -3.50574432, -6.49980749, 4.58215122, 0.4449946, -7.48906022,
                           2.20842844, 0.50076797, -7.39238184, -2.44683628, -3.39254972, -6.30418305, -4.87158167,
                           -11.84561594, -5.6407569, -0.22849246, -9.76051103, -8.33473156, -0.2592572, 0.45225115,
                           -0.84580551, -2.67537976, 2.67838443, -1.53842793, -1.2866805, 2.65068104, -1.59445642,
                           1.27425178, 0.39459182, -0.96458424, 2.64450164, -1.86313012, -0.39368286, 1.25325503,
                           -1.83502422, -0.33633346, -1.30877329, 0.51180775, -0.67721548, -5.30584073, 2.77402347,
                           -1.11680357, -6.67834882, 4.65792923, -1.46517081, -7.76197447, -1.67832057, -0.01779464,
                           -6.70601441, -3.49875233, 0.52904962, -7.81566159, 0.39835616, -0.91584254, 5.28048061,
                           2.63210503, -1.41763286, 6.67793308, 4.4946569, -1.81660506, 7.78079614, -1.82246132,
                           -0.32547131, 6.66298535, -3.66775054, 0.16586372, 7.75745803, 4.38153789, -2.03474371,
                           -2.30489896, 4.33176251, -2.13518265, 2.30622176, -3.59287959, 0.00412869, 2.26776584,
                           -3.54227272, 0.1076148, -2.34208877],
              'id': 11,
              'identifiers': {'molecular_formula': 'C54H34N4',
                              'molecule_hash': '4c8c81f85cb59bc3d701ac2a728348ee32004706'},
              'masses': [12.0, 12.0, 12.0, 12.0, 12.0, 12.0, 12.0, 12.0, 12.0, 12.0, 12.0, 12.0, 12.0, 12.0, 12.0, 12.0,
                         12.0, 12.0, 12.0, 12.0, 12.0, 12.0, 12.0, 12.0, 12.0, 12.0, 12.0, 12.0, 12.0, 12.0, 12.0, 12.0,
                         12.0, 12.0, 12.0, 12.0, 12.0, 12.0, 12.0, 12.0, 12.0, 12.0, 1.00782503223, 1.00782503223,
                         1.00782503223, 1.00782503223, 1.00782503223, 1.00782503223, 1.00782503223, 1.00782503223,
                         1.00782503223, 1.00782503223, 1.00782503223, 1.00782503223, 1.00782503223, 1.00782503223,
                         1.00782503223, 1.00782503223, 1.00782503223, 1.00782503223, 1.00782503223, 1.00782503223,
                         1.00782503223, 1.00782503223, 1.00782503223, 1.00782503223, 1.00782503223, 1.00782503223,
                         1.00782503223, 1.00782503223, 1.00782503223, 1.00782503223, 12.0, 12.0, 12.0, 12.0, 12.0, 12.0,
                         12.0, 12.0, 14.00307400443, 12.0, 14.00307400443, 12.0, 12.0, 14.00307400443, 12.0,
                         14.00307400443, 1.00782503223, 1.00782503223, 1.00782503223, 1.00782503223],
              'molecular_charge': 0.0,
              'molecular_multiplicity': 1,
              'name': 'C54H34N4 ([1],[0])',
              'provenance': {'creator': 'QCElemental',
                             'routine': 'qcelemental.molparse.from_schema',
                             'version': '0.29.0'},
              'real': [False, False, False, False, False, False, False, False, False, False, False, False, False, False,
                       False, False, False, False, False, False, False, False, False, False, False, False, False, False,
                       False, False, False, False, False, False, False, False, False, False, False, False, False, False,
                       False, False, False, False, False, False, False, False, False, False, False, False, False, False,
                       False, False, False, False, False, False, False, False, False, False, False, False, False, False,
                       False, False, True, True, True, True, True, True, True, True, True, True, True, True, True, True,
                       True, True, True, True, True, True],
              'schema_name': 'qcschema_molecule',
              'schema_version': 2,
              'symbols': ['C', 'C', 'C', 'C', 'C', 'C', 'C', 'C', 'C', 'C', 'C', 'C', 'C', 'C', 'C', 'C', 'C', 'C', 'C',
                          'C', 'C', 'C', 'C', 'C', 'C', 'C', 'C', 'C', 'C', 'C', 'C', 'C', 'C', 'C', 'C', 'C', 'C', 'C',
                          'C', 'C', 'C', 'C', 'H', 'H', 'H', 'H', 'H', 'H', 'H', 'H', 'H', 'H', 'H', 'H', 'H', 'H', 'H',
                          'H', 'H', 'H', 'H', 'H', 'H', 'H', 'H', 'H', 'H', 'H', 'H', 'H', 'H', 'H', 'C', 'C', 'C', 'C',
                          'C', 'C', 'C', 'C', 'N', 'C', 'N', 'C', 'C', 'N', 'C', 'N', 'H', 'H', 'H', 'H'],
              'validated': True},
 'protocols': {},
 'provenance': {'creator': 'QCElemental', 'routine': 'qcelemental.models.results', 'version': '0.29.0'},
 'schema_name': 'qcschema_input',
 'schema_version': 1}
--------------------------------------------------------------------------

Scratch directory: /tmp/tmp3a2b04b0_psi_scratch/
   => Libint2 <=

    Primary   basis highest AM E, G, H:  6, 6, 3
    Auxiliary basis highest AM E, G, H:  7, 7, 4
    Onebody   basis highest AM E, G, H:  -, -, -
    Solid Harmonics ordering:            Gaussian

*** tstart() called on atl1-1-03-004-19-2.pace.gatech.edu
*** at Mon Jun 15 11:21:11 2026

   => Loading Basis Set <=

    Name: AUG-CC-PVTZ
    Role: ORBITAL
    Keyword: BASIS
    atoms 1-42, 73-80, 82, 84-85, 87 entry C          line   239 file /storage/home/hcoda1/5/vlita3/.conda/envs/p4_qcml/share/psi4/basis/aug-cc-pvtz.gbs 
    atoms 43-72, 89-92               entry H          line    40 file /storage/home/hcoda1/5/vlita3/.conda/envs/p4_qcml/share/psi4/basis/aug-cc-pvtz.gbs 
    atoms 81, 83, 86, 88             entry N          line   285 file /storage/home/hcoda1/5/vlita3/.conda/envs/p4_qcml/share/psi4/basis/aug-cc-pvtz.gbs 

   => B3LYP-D3: Empirical Dispersion <=

    Grimme's -D3 (zero-damping) Dispersion Correction
    Grimme S.; Antony J.; Ehrlich S.; Krieg H. (2010), J. Chem. Phys., 132: 154104

        s6 =       1.000000
        s8 =       1.703000
       sr6 =       1.261000
    alpha6 =      14.000000
       sr8 =       1.000000


         ---------------------------------------------------------
                                   SCF
               by Justin Turney, Rob Parrish, Andy Simmonett
                          and Daniel G. A. Smith
                              RKS Reference
                       10 Threads, 256000 MiB Core
         ---------------------------------------------------------

  ==> Geometry <==

    Molecular point group: c1
    Full point group: C1

    Geometry (in Bohr), charge = 0, multiplicity = 1:

       Center              X                  Y                   Z               Mass       
    ------------   -----------------  -----------------  -----------------  -----------------
      Gh(C)          -0.273927140000     6.188191660000    -1.193235440000    12.000000000000
      Gh(C)          -2.463446980000     5.778253370000    -2.604496140000    12.000000000000
      Gh(C)          -4.694060800000     5.397057810000    -1.252349850000    12.000000000000
      Gh(C)          -4.718967390000     5.339383370000     1.403796280000    12.000000000000
      Gh(C)          -2.513260160000     5.656384930000     2.812290420000    12.000000000000
      Gh(C)          -0.297862410000     6.126492100000     1.461281750000    12.000000000000
      Gh(C)          -7.423694600000     4.946641590000    -2.114376770000    12.000000000000
      Gh(C)          -8.010208900000     2.219332160000    -1.351811800000    12.000000000000
      Gh(C)          -8.037250880000     2.163887590000     1.307303080000    12.000000000000
      Gh(C)          -7.464909520000     4.856010330000     2.194331080000    12.000000000000
      Gh(C)          -8.212787540000     0.018100990000    -2.784492550000    12.000000000000
      Gh(C)          -8.416518910000    -2.243086010000    -1.447180610000    12.000000000000
      Gh(C)          -8.446565550000    -2.297888070000     1.209449290000    12.000000000000
      Gh(C)          -8.271085590000    -0.094241590000     2.643311110000    12.000000000000
      Gh(C)          -8.829688630000     6.360307910000     0.057394190000    12.000000000000
      Gh(C)           2.390276780000     6.993214990000    -1.978486560000    12.000000000000
      Gh(C)           2.352349980000     6.890527270000     2.330485850000    12.000000000000
      Gh(C)           4.241471390000     4.875795760000     1.471321860000    12.000000000000
      Gh(C)           4.265092970000     4.939574020000    -1.183711220000    12.000000000000
      Gh(C)           5.912953050000     3.355133150000     2.830242820000    12.000000000000
      Gh(C)           7.668508620000     1.971645750000     1.430964870000    12.000000000000
      Gh(C)           7.692697110000     2.036312180000    -1.223327440000    12.000000000000
      Gh(C)           5.961348930000     3.486261240000    -2.584824090000    12.000000000000
      Gh(C)           2.912143550000     8.901271460000     0.227485230000    12.000000000000
      Gh(C)           9.879563770000     0.342019640000    -2.076072020000    12.000000000000
      Gh(C)           9.161222180000    -2.355203460000    -1.321899330000    12.000000000000
      Gh(C)           9.135484110000    -2.420663580000     1.339127960000    12.000000000000
      Gh(C)           9.839274810000     0.235539240000     2.239136490000    12.000000000000
      Gh(C)           8.550028060000    -4.479123350000    -2.729596000000    12.000000000000
      Gh(C)           7.900737060000    -6.700590900000    -1.428015010000    12.000000000000
      Gh(C)           7.874186410000    -6.765238430000     1.206571230000    12.000000000000
      Gh(C)           8.497021240000    -4.610780570000     2.628306680000    12.000000000000
      Gh(C)          11.772842580000     0.925967690000     0.115070900000    12.000000000000
      Gh(C)          -8.317648440000    -5.082645180000     1.980962100000    12.000000000000
      Gh(C)          -5.665776870000    -5.913217610000     1.169154660000    12.000000000000
      Gh(C)          -5.634256240000    -5.858264370000    -1.489901650000    12.000000000000
      Gh(C)          -8.266965980000    -4.993846950000    -2.329295320000    12.000000000000
      Gh(C)          -3.499262560000    -6.479568530000     2.527811050000    12.000000000000
      Gh(C)          -1.274907510000    -7.030896130000     1.184784580000    12.000000000000
      Gh(C)          -1.243505930000    -6.976509810000    -1.446791330000    12.000000000000
      Gh(C)          -3.435408710000    -6.369019550000    -2.818564310000    12.000000000000
      Gh(C)          -9.876691390000    -6.270716000000    -0.218202900000    12.000000000000
      Gh(H)          -2.452940100000     5.841710370000    -4.658288280000     1.007825032230
      Gh(H)          -2.540302140000     5.627472120000     4.866743970000     1.007825032230
      Gh(H)          -7.860221330000     5.467280040000    -4.058961640000     1.007825032230
      Gh(H)          -7.937926870000     5.295409450000     4.150386590000     1.007825032230
      Gh(H)          -8.117734310000     0.056953320000    -4.836054820000     1.007825032230
      Gh(H)          -8.218929150000    -0.140410050000     4.696177290000     1.007825032230
      Gh(H)          -8.405199450000     8.383354220000     0.103798120000     1.007825032230
      Gh(H)         -10.871405430000     6.032497120000     0.031101680000     1.007825032230
      Gh(H)           2.585750050000     7.686461020000    -3.909692180000     1.007825032230
      Gh(H)           2.514280610000     7.490553110000     4.295706530000     1.007825032230
      Gh(H)           5.920360770000     3.325426650000     4.884601880000     1.007825032230
      Gh(H)           6.005398450000     3.556729130000    -4.637690270000     1.007825032230
      Gh(H)           1.578087610000    10.481668310000     0.253576680000     1.007825032230
      Gh(H)           4.867291990000     9.575639120000     0.260704730000     1.007825032230
      Gh(H)          10.524621790000     0.601977930000    -4.014704260000     1.007825032230
      Gh(H)          10.448333540000     0.398684970000     4.199878520000     1.007825032230
      Gh(H)           8.553183900000    -4.432673880000    -4.782367700000     1.007825032230
      Gh(H)           7.422145020000    -8.391555630000    -2.489827550000     1.007825032230
      Gh(H)           7.375128640000    -8.505997440000     2.174205500000     1.007825032230
      Gh(H)           8.460020400000    -4.665431450000     4.680643740000     1.007825032230
      Gh(H)          12.345032760000     2.911992370000     0.169592720000     1.007825032230
      Gh(H)          13.422573490000    -0.321261000000     0.099560220000     1.007825032230
      Gh(H)          -8.865914680000    -5.528431570000     3.916060550000     1.007825032230
      Gh(H)          -8.769028420000    -5.359792420000    -4.293495550000     1.007825032230
      Gh(H)          -3.505744320000    -6.499807490000     4.582151220000     1.007825032230
      Gh(H)           0.444994600000    -7.489060220000     2.208428440000     1.007825032230
      Gh(H)           0.500767970000    -7.392381840000    -2.446836280000     1.007825032230
      Gh(H)          -3.392549720000    -6.304183050000    -4.871581670000     1.007825032230
      Gh(H)         -11.845615940000    -5.640756900000    -0.228492460000     1.007825032230
      Gh(H)          -9.760511030000    -8.334731560000    -0.259257200000     1.007825032230
         C            0.452251150000    -0.845805510000    -2.675379760000    12.000000000000
         C            2.678384430000    -1.538427930000    -1.286680500000    12.000000000000
         C            2.650681040000    -1.594456420000     1.274251780000    12.000000000000
         C            0.394591820000    -0.964584240000     2.644501640000    12.000000000000
         C           -1.863130120000    -0.393682860000     1.253255030000    12.000000000000
         C           -1.835024220000    -0.336333460000    -1.308773290000    12.000000000000
         C            0.511807750000    -0.677215480000    -5.305840730000    12.000000000000
         C            2.774023470000    -1.116803570000    -6.678348820000    12.000000000000
         N            4.657929230000    -1.465170810000    -7.761974470000    14.003074004430
         C           -1.678320570000    -0.017794640000    -6.706014410000    12.000000000000
         N           -3.498752330000     0.529049620000    -7.815661590000    14.003074004430
         C            0.398356160000    -0.915842540000     5.280480610000    12.000000000000
         C            2.632105030000    -1.417632860000     6.677933080000    12.000000000000
         N            4.494656900000    -1.816605060000     7.780796140000    14.003074004430
         C           -1.822461320000    -0.325471310000     6.662985350000    12.000000000000
         N           -3.667750540000     0.165863720000     7.757458030000    14.003074004430
         H            4.381537890000    -2.034743710000    -2.304898960000     1.007825032230
         H            4.331762510000    -2.135182650000     2.306221760000     1.007825032230
         H           -3.592879590000     0.004128690000     2.267765840000     1.007825032230
         H           -3.542272720000     0.107614800000    -2.342088770000     1.007825032230

  Running in c1 symmetry.

  Rotational constants: A =      0.00267  B =      0.00168  C =      0.00146 [cm^-1]
  Rotational constants: A =     80.12542  B =     50.33918  C =     43.84220 [MHz]
  Nuclear repulsion =  836.883087262661093

  Charge       = 0
  Multiplicity = 1
  Electrons    = 104
  Nalpha       = 52
  Nbeta        = 52

  ==> Algorithm <==

  SCF Algorithm Type is DF.
  DIIS enabled.
  MOM disabled.
  Fractional occupation disabled.
  Guess Type is SAD.
  Energy threshold   = 1.00e-06
  Density threshold  = 1.00e-06
  Integral threshold = 1.00e-12

  ==> Primary Basis <==

  Basis Set: AUG-CC-PVTZ
    Blend: AUG-CC-PVTZ
    Number of shells: 1118
    Number of basis functions: 3450
    Number of Cartesian functions: 4040
    Spherical Harmonics?: true
    Max angular momentum: 3

  ==> DFT Potential <==

   => LibXC <=

    Version 7.0.0
    S. Lehtola, C. Steigemann, M. J.T. Oliveira, and M. A.L. Marques.,  SoftwareX 7, 1–5 (2018) (10.1016/j.softx.2017.11.002)

   => Composite Functional: B3LYP-D3ZERO2B <= 

    B3LYP-d3zero2b Hyb-GGA Exchange-Correlation Functional

    P. J. Stephens, F. J. Devlin, C. F. Chabalowski, and M. J. Frisch.,  J. Phys. Chem. 98, 11623 (1994) (10.1021/j100096a001)

    Deriv               =              1
    GGA                 =           TRUE
    Meta                =          FALSE

    Exchange Hybrid     =           TRUE
    MP2 Hybrid          =          FALSE

   => Exchange Functionals <=

    0.0800   Slater exchange
    0.7200         Becke 88

   => Exact (HF) Exchange <=

    0.2000               HF 

   => Correlation Functionals <=

    0.1900   Vosko, Wilk & Nusair (VWN5_RPA)
    0.8100   Lee, Yang & Parr

   => LibXC Density Thresholds  <==

    XC_HYB_GGA_XC_B3LYP:  1.00E-15 

   => Molecular Quadrature <=

    Radial Scheme          =       TREUTLER
    Pruning Scheme         =           NONE
    Nuclear Scheme         =       TREUTLER

    Blocking Scheme        =         OCTREE
    BS radius alpha        =              1
    Pruning alpha          =              1
    Radial Points          =             75
    Spherical Points       =            302
    Total Points           =        1810751
    Total Blocks           =          12182
    Max Points             =            256
    Max Functions          =           2258
    Weights Tolerance      =       1.00E-15

   => Loading Basis Set <=

    Name: (AUG-CC-PVTZ AUX)
    Role: JKFIT
    Keyword: DF_BASIS_SCF
    atoms 1-42, 73-80, 82, 84-85, 87 entry C          line   162 file /storage/home/hcoda1/5/vlita3/.conda/envs/p4_qcml/share/psi4/basis/aug-cc-pvtz-jkfit.gbs 
    atoms 43-72, 89-92               entry H          line    70 file /storage/home/hcoda1/5/vlita3/.conda/envs/p4_qcml/share/psi4/basis/aug-cc-pvtz-jkfit.gbs 
    atoms 81, 83, 86, 88             entry N          line   224 file /storage/home/hcoda1/5/vlita3/.conda/envs/p4_qcml/share/psi4/basis/aug-cc-pvtz-jkfit.gbs 

  ==> Integral Setup <==

  ==> DiskDFJK: Density-Fitted J/K Matrices <==

    J tasked:                  Yes
    K tasked:                  Yes
    wK tasked:                  No
    OpenMP threads:             10
    Integrals threads:          10
    Memory [MiB]:           172800
    Algorithm:                Disk
    Integral Cache:           NONE
    Schwarz Cutoff:          1E-12
    Fitting Condition:       1E-10

   => Auxiliary Basis Set <=

  Basis Set: (AUG-CC-PVTZ AUX)
    Blend: AUG-CC-PVTZ-JKFIT
    Number of shells: 2216
    Number of basis functions: 7596
    Number of Cartesian functions: 9468
    Spherical Harmonics?: true
    Max angular momentum: 4

  Minimum eigenvalue in the overlap matrix is 3.2999283483E-10.
  Reciprocal condition number of the overlap matrix is 8.9829939844E-12.
    Using canonical orthogonalization.
  Overall, 31 of 3450 possible MOs eliminated.


  ==> Pre-Iterations <==

  SCF Guess: Superposition of Atomic Densities via on-the-fly atomic UHF (no occupation information).

   -------------------------
    Irrep   Nso     Nmo    
   -------------------------
     A       3450    3419 
   -------------------------
    Total    3450    3419
   -------------------------

  ==> Iterations <==

                           Total Energy        Delta E     RMS |[F,P]|

   @DF-RKS iter SAD:  -677.32133654950087   -6.77321e+02   0.00000e+00 
   @DF-RKS iter   1:  -678.03463396816881   -7.13297e-01   3.84286e-04 ADIIS/DIIS
   @DF-RKS iter   2:  -677.75185995325683    2.82774e-01   4.44409e-04 ADIIS/DIIS
   @DF-RKS iter   3:  -678.58319502822474   -8.31335e-01   2.15830e-04 ADIIS/DIIS
   @DF-RKS iter   4:  -678.82284561662334   -2.39651e-01   4.49053e-05 DIIS
   @DF-RKS iter   5:  -678.82926671388714   -6.42110e-03   2.98962e-05 DIIS
   @DF-RKS iter   6:  -678.83481666214107   -5.54995e-03   4.22226e-06 DIIS
   @DF-RKS iter   7:  -678.83490551247451   -8.88503e-05   8.83313e-07 DIIS
   @DF-RKS iter   8:  -678.83490940474758   -3.89227e-06   2.08031e-07 DIIS
   @DF-RKS iter   9:  -678.83490954813362   -1.43386e-07   1.43320e-07 DIIS
  Energy and wave function converged.


  ==> Post-Iterations <==

   Electrons on quadrature grid:
      Ntotal   =  103.9998378728 ; deviation = -1.621e-04 

    Orbital Energies [Eh]
    ---------------------

    Doubly Occupied:                                                      

       1A    -14.369456     2A    -14.369450     3A    -14.369411  
       4A    -14.369401     5A    -10.306826     6A    -10.306733  
       7A    -10.285493     8A    -10.285444     9A    -10.264458  
      10A    -10.264411    11A    -10.264373    12A    -10.264332  
      13A    -10.255487    14A    -10.255388    15A    -10.254675  
      16A    -10.254575    17A     -0.971498    18A     -0.965987  
      19A     -0.949858    20A     -0.949821    21A     -0.940896  
      22A     -0.898023    23A     -0.849761    24A     -0.832176  
      25A     -0.775490    26A     -0.703057    27A     -0.689892  
      28A     -0.648623    29A     -0.610472    30A     -0.610068  
      31A     -0.577905    32A     -0.516079    33A     -0.510843  
      34A     -0.502398    35A     -0.482199    36A     -0.461906  
      37A     -0.459890    38A     -0.420640    39A     -0.418793  
      40A     -0.416503    41A     -0.416020    42A     -0.411093  
      43A     -0.409630    44A     -0.393930    45A     -0.389904  
      46A     -0.389520    47A     -0.388971    48A     -0.378906  
      49A     -0.378356    50A     -0.354550    51A     -0.339223  
      52A     -0.279711  

    Virtual:                                                              

      53A     -0.190332    54A     -0.081425    55A     -0.078152  
      56A     -0.048682    57A     -0.043497    58A     -0.030898  
      59A     -0.014184    60A     -0.011757    61A     -0.010382  
      62A     -0.004923    63A     -0.004210    64A      0.001409  
      65A      0.001637    66A      0.009444    67A      0.009925  
      68A      0.012978    69A      0.013125    70A      0.015350  
      71A      0.015865    72A      0.021986    73A      0.025822  
      74A      0.026217    75A      0.027665    76A      0.030907  
      77A      0.030925    78A      0.033448    79A      0.033654  
      80A      0.033982    81A      0.035363    82A      0.035569  
      83A      0.037202    84A      0.039701    85A      0.045197  
      86A      0.046997    87A      0.048403    88A      0.049154  
      89A      0.050019    90A      0.052956    91A      0.053473  
      92A      0.056381    93A      0.056604    94A      0.058646  
      95A      0.059276    96A      0.061492    97A      0.062568  
      98A      0.064020    99A      0.064552   100A      0.065438  
     101A      0.066026   102A      0.069378   103A      0.069484  
     104A      0.070439   105A      0.071906   106A      0.074102  
     107A      0.074726   108A      0.076569   109A      0.077798  
     110A      0.078617   111A      0.082221   112A      0.083629  
     113A      0.085993   114A      0.086822   115A      0.090176  
     116A      0.090681   117A      0.092775   118A      0.093559  
     119A      0.094778   120A      0.095843   121A      0.097504  
     122A      0.099358   123A      0.099537   124A      0.099956  
     125A      0.100980   126A      0.101733   127A      0.104495  
     128A      0.104619   129A      0.106077   130A      0.107236  
     131A      0.107563   132A      0.108887   133A      0.110736  
     134A      0.111418   135A      0.112844   136A      0.115236  
     137A      0.116186   138A      0.117615   139A      0.120987  
     140A      0.121087   141A      0.122286   142A      0.124128  
     143A      0.124341   144A      0.125767   145A      0.127079  
     146A      0.127220   147A      0.128310   148A      0.132974  
     149A      0.133687   150A      0.135045   151A      0.136890  
     152A      0.137410   153A      0.138073   154A      0.139000  
     155A      0.139479   156A      0.140239   157A      0.142371  
     158A      0.142434   159A      0.143319   160A      0.144765  
     161A      0.144905   162A      0.145969   163A      0.147133  
     164A      0.147695   165A      0.149806   166A      0.150131  
     167A      0.151657   168A      0.152873   169A      0.154432  
     170A      0.155311   171A      0.158010   172A      0.158937  
     173A      0.159618   174A      0.159921   175A      0.161119  
     176A      0.163583   177A      0.164060   178A      0.165126  
     179A      0.166677   180A      0.168309   181A      0.169306  
     182A      0.171185   183A      0.172279   184A      0.172463  
     185A      0.174772   186A      0.175582   187A      0.175914  
     188A      0.177148   189A      0.178437   190A      0.179075  
     191A      0.179363   192A      0.180475   193A      0.181628  
     194A      0.182431   195A      0.184840   196A      0.185226  
     197A      0.185327   198A      0.186443   199A      0.187178  
     200A      0.189352   201A      0.189875   202A      0.190343  
     203A      0.191289   204A      0.193830   205A      0.194315  
     206A      0.196439   207A      0.197187   208A      0.199658  
     209A      0.200201   210A      0.201588   211A      0.201892  
     212A      0.202392   213A      0.203982   214A      0.205103  
     215A      0.205480   216A      0.206112   217A      0.209404  
     218A      0.210588   219A      0.211654   220A      0.213127  
     221A      0.213904   222A      0.215736   223A      0.216057  
     224A      0.216985   225A      0.218528   226A      0.219068  
     227A      0.219504   228A      0.220409   229A      0.223114  
     230A      0.224278   231A      0.225199   232A      0.226988  
     233A      0.227180   234A      0.228602   235A      0.228978  
     236A      0.230355   237A      0.231456   238A      0.231503  
     239A      0.233629   240A      0.234919   241A      0.235387  
     242A      0.235629   243A      0.236694   244A      0.240152  
     245A      0.241283   246A      0.242114   247A      0.243043  
     248A      0.243985   249A      0.245519   250A      0.245707  
     251A      0.247936   252A      0.248558   253A      0.249844  
     254A      0.250658   255A      0.252608   256A      0.252954  
     257A      0.253289   258A      0.254276   259A      0.254390  
     260A      0.257038   261A      0.258606   262A      0.258850  
     263A      0.260392   264A      0.260789   265A      0.261598  
     266A      0.262290   267A      0.262897   268A      0.263045  
     269A      0.265984   270A      0.266224   271A      0.266750  
     272A      0.267973   273A      0.269152   274A      0.270458  
     275A      0.270751   276A      0.272201   277A      0.274020  
     278A      0.274966   279A      0.275018   280A      0.275743  
     281A      0.277301   282A      0.279122   283A      0.279555  
     284A      0.279874   285A      0.281766   286A      0.281986  
     287A      0.284070   288A      0.284862   289A      0.286070  
     290A      0.286250   291A      0.288314   292A      0.288840  
     293A      0.290155   294A      0.290640   295A      0.291715  
     296A      0.293232   297A      0.294074   298A      0.295388  
     299A      0.296847   300A      0.299878   301A      0.301669  
     302A      0.301794   303A      0.302220   304A      0.304022  
     305A      0.305539   306A      0.306477   307A      0.307566  
     308A      0.307659   309A      0.308303   310A      0.310794  
     311A      0.311331   312A      0.313836   313A      0.314823  
     314A      0.316000   315A      0.316679   316A      0.318847  
     317A      0.320034   318A      0.320540   319A      0.321322  
     320A      0.323840   321A      0.324027   322A      0.325103  
     323A      0.325903   324A      0.327188   325A      0.327709  
     326A      0.328786   327A      0.329194   328A      0.333329  
     329A      0.333671   330A      0.336301   331A      0.336811  
     332A      0.338228   333A      0.339240   334A      0.340584  
     335A      0.341314   336A      0.341543   337A      0.345297  
     338A      0.346716   339A      0.348542   340A      0.349429  
     341A      0.351743   342A      0.352281   343A      0.352938  
     344A      0.357404   345A      0.359090   346A      0.360369  
     347A      0.360942   348A      0.362179   349A      0.363166  
     350A      0.364528   351A      0.364942   352A      0.367317  
     353A      0.368682   354A      0.370363   355A      0.370493  
     356A      0.371344   357A      0.372150   358A      0.373520  
     359A      0.374021   360A      0.375288   361A      0.377969  
     362A      0.379166   363A      0.380757   364A      0.381339  
     365A      0.384658   366A      0.385373   367A      0.385983  
     368A      0.386895   369A      0.389840   370A      0.390719  
     371A      0.393640   372A      0.393791   373A      0.395657  
     374A      0.398019   375A      0.398643   376A      0.398847  
     377A      0.403163   378A      0.403670   379A      0.403935  
     380A      0.404809   381A      0.407769   382A      0.408192  
     383A      0.411315   384A      0.411981   385A      0.412257  
     386A      0.413082   387A      0.413580   388A      0.416038  
     389A      0.416236   390A      0.417893   391A      0.419702  
     392A      0.420604   393A      0.423370   394A      0.423612  
     395A      0.425042   396A      0.425541   397A      0.427073  
     398A      0.428139   399A      0.430171   400A      0.430398  
     401A      0.432477   402A      0.433140   403A      0.435130  
     404A      0.435800   405A      0.436913   406A      0.439493  
     407A      0.439971   408A      0.441150   409A      0.442764  
     410A      0.445378   411A      0.445818   412A      0.447428  
     413A      0.448556   414A      0.450423   415A      0.451902  
     416A      0.452392   417A      0.453534   418A      0.455632  
     419A      0.455809   420A      0.457820   421A      0.457892  
     422A      0.460405   423A      0.461646   424A      0.461792  
     425A      0.463052   426A      0.464344   427A      0.465662  
     428A      0.466433   429A      0.468670   430A      0.470372  
     431A      0.471479   432A      0.473293   433A      0.473429  
     434A      0.474361   435A      0.476676   436A      0.476969  
     437A      0.477636   438A      0.478543   439A      0.482094  
     440A      0.482394   441A      0.482841   442A      0.484298  
     443A      0.485296   444A      0.486319   445A      0.489504  
     446A      0.490590   447A      0.492210   448A      0.493014  
     449A      0.493814   450A      0.495933   451A      0.496859  
     452A      0.497299   453A      0.498255   454A      0.499198  
     455A      0.500230   456A      0.501770   457A      0.504735  
     458A      0.504950   459A      0.505939   460A      0.506432  
     461A      0.508140   462A      0.508873   463A      0.509596  
     464A      0.511396   465A      0.512239   466A      0.512456  
     467A      0.514686   468A      0.515639   469A      0.517705  
     470A      0.519213   471A      0.520503   472A      0.520689  
     473A      0.522359   474A      0.522553   475A      0.524073  
     476A      0.526446   477A      0.527571   478A      0.528397  
     479A      0.529146   480A      0.529473   481A      0.531982  
     482A      0.532511   483A      0.533446   484A      0.536304  
     485A      0.537061   486A      0.537507   487A      0.537558  
     488A      0.538819   489A      0.540272   490A      0.541294  
     491A      0.542055   492A      0.545434   493A      0.547526  
     494A      0.549468   495A      0.550659   496A      0.550711  
     497A      0.552948   498A      0.554924   499A      0.555365  
     500A      0.556939   501A      0.557572   502A      0.558348  
     503A      0.558460   504A      0.561234   505A      0.561593  
     506A      0.561906   507A      0.565283   508A      0.566464  
     509A      0.566909   510A      0.569956   511A      0.570069  
     512A      0.571636   513A      0.572396   514A      0.572926  
     515A      0.574954   516A      0.575178   517A      0.576154  
     518A      0.576781   519A      0.580228   520A      0.580483  
     521A      0.582089   522A      0.582771   523A      0.584797  
     524A      0.585570   525A      0.587686   526A      0.588185  
     527A      0.588470   528A      0.592582   529A      0.593289  
     530A      0.594307   531A      0.594508   532A      0.596229  
     533A      0.597115   534A      0.599805   535A      0.601925  
     536A      0.602521   537A      0.603036   538A      0.605933  
     539A      0.606857   540A      0.607745   541A      0.608854  
     542A      0.609259   543A      0.609974   544A      0.612563  
     545A      0.614686   546A      0.615639   547A      0.617807  
     548A      0.618339   549A      0.620497   550A      0.621704  
     551A      0.622092   552A      0.623364   553A      0.624343  
     554A      0.626397   555A      0.627729   556A      0.629070  
     557A      0.631218   558A      0.632344   559A      0.632686  
     560A      0.633588   561A      0.636517   562A      0.637824  
     563A      0.638106   564A      0.641337   565A      0.642515  
     566A      0.642707   567A      0.642967   568A      0.645920  
     569A      0.646552   570A      0.647361   571A      0.649507  
     572A      0.651707   573A      0.653022   574A      0.653539  
     575A      0.653824   576A      0.655233   577A      0.655936  
     578A      0.656890   579A      0.657330   580A      0.660233  
     581A      0.661244   582A      0.662747   583A      0.665007  
     584A      0.665835   585A      0.665963   586A      0.667441  
     587A      0.667642   588A      0.670230   589A      0.670440  
     590A      0.670834   591A      0.672394   592A      0.673524  
     593A      0.675414   594A      0.678709   595A      0.679828  
     596A      0.680297   597A      0.682991   598A      0.683523  
     599A      0.683980   600A      0.685162   601A      0.685837  
     602A      0.689381   603A      0.691039   604A      0.691257  
     605A      0.691706   606A      0.692442   607A      0.695844  
     608A      0.695996   609A      0.697587   610A      0.699471  
     611A      0.700837   612A      0.701250   613A      0.701645  
     614A      0.703933   615A      0.704246   616A      0.706071  
     617A      0.708613   618A      0.708932   619A      0.711965  
     620A      0.713173   621A      0.713419   622A      0.714158  
     623A      0.715831   624A      0.716386   625A      0.718490  
     626A      0.719519   627A      0.721191   628A      0.722538  
     629A      0.722880   630A      0.724129   631A      0.724328  
     632A      0.725003   633A      0.726919   634A      0.727225  
     635A      0.728505   636A      0.729419   637A      0.732487  
     638A      0.737273   639A      0.737396   640A      0.737981  
     641A      0.738502   642A      0.738897   643A      0.740606  
     644A      0.742130   645A      0.744113   646A      0.745016  
     647A      0.745493   648A      0.748060   649A      0.748486  
     650A      0.748930   651A      0.750792   652A      0.751983  
     653A      0.757644   654A      0.757915   655A      0.758326  
     656A      0.759042   657A      0.759401   658A      0.762466  
     659A      0.763081   660A      0.764633   661A      0.765389  
     662A      0.769586   663A      0.770350   664A      0.770734  
     665A      0.772657   666A      0.772900   667A      0.775837  
     668A      0.777190   669A      0.777642   670A      0.779538  
     671A      0.780054   672A      0.780845   673A      0.782439  
     674A      0.784577   675A      0.784792   676A      0.787680  
     677A      0.788915   678A      0.789094   679A      0.790463  
     680A      0.791444   681A      0.793577   682A      0.795391  
     683A      0.795819   684A      0.796395   685A      0.798187  
     686A      0.799572   687A      0.801815   688A      0.804313  
     689A      0.805984   690A      0.806447   691A      0.808166  
     692A      0.810366   693A      0.811520   694A      0.812171  
     695A      0.813508   696A      0.816266   697A      0.816857  
     698A      0.817129   699A      0.818326   700A      0.820198  
     701A      0.821609   702A      0.823553   703A      0.826432  
     704A      0.827087   705A      0.828269   706A      0.828952  
     707A      0.831162   708A      0.833012   709A      0.833592  
     710A      0.835549   711A      0.836028   712A      0.837326  
     713A      0.838668   714A      0.839780   715A      0.840576  
     716A      0.842665   717A      0.844937   718A      0.846590  
     719A      0.846851   720A      0.848831   721A      0.850765  
     722A      0.851071   723A      0.853207   724A      0.853597  
     725A      0.854897   726A      0.855329   727A      0.856104  
     728A      0.859630   729A      0.861500   730A      0.862281  
     731A      0.863719   732A      0.864008   733A      0.865705  
     734A      0.866455   735A      0.867283   736A      0.868563  
     737A      0.870296   738A      0.870737   739A      0.875327  
     740A      0.875483   741A      0.876815   742A      0.878888  
     743A      0.880001   744A      0.880262   745A      0.881448  
     746A      0.884456   747A      0.886405   748A      0.888708  
     749A      0.889056   750A      0.891179   751A      0.892388  
     752A      0.893614   753A      0.894977   754A      0.897025  
     755A      0.898677   756A      0.898814   757A      0.900305  
     758A      0.903168   759A      0.903234   760A      0.906059  
     761A      0.906402   762A      0.907581   763A      0.908515  
     764A      0.908691   765A      0.910965   766A      0.911505  
     767A      0.914375   768A      0.914833   769A      0.917070  
     770A      0.917771   771A      0.918203   772A      0.918882  
     773A      0.922287   774A      0.922872   775A      0.925775  
     776A      0.926249   777A      0.926448   778A      0.929840  
     779A      0.931248   780A      0.932569   781A      0.933519  
     782A      0.934279   783A      0.935162   784A      0.936505  
     785A      0.937955   786A      0.938555   787A      0.940543  
     788A      0.941999   789A      0.942777   790A      0.945119  
     791A      0.945577   792A      0.947401   793A      0.947863  
     794A      0.948585   795A      0.949437   796A      0.950697  
     797A      0.951156   798A      0.954180   799A      0.956353  
     800A      0.956544   801A      0.958948   802A      0.959256  
     803A      0.961012   804A      0.961747   805A      0.966620  
     806A      0.968777   807A      0.969367   808A      0.970507  
     809A      0.971648   810A      0.971902   811A      0.974403  
     812A      0.975783   813A      0.978157   814A      0.978529  
     815A      0.980816   816A      0.981709   817A      0.983285  
     818A      0.985219   819A      0.986771   820A      0.988420  
     821A      0.990037   822A      0.992368   823A      0.992820  
     824A      0.993423   825A      0.996252   826A      0.996771  
     827A      0.997431   828A      1.001059   829A      1.001766  
     830A      1.002104   831A      1.005178   832A      1.005835  
     833A      1.006529   834A      1.009005   835A      1.009614  
     836A      1.011498   837A      1.012666   838A      1.013543  
     839A      1.014756   840A      1.017641   841A      1.018757  
     842A      1.020784   843A      1.022050   844A      1.024255  
     845A      1.025622   846A      1.026882   847A      1.028158  
     848A      1.029385   849A      1.030983   850A      1.033400  
     851A      1.034953   852A      1.036277   853A      1.038460  
     854A      1.038785   855A      1.041620   856A      1.042061  
     857A      1.043588   858A      1.043720   859A      1.044472  
     860A      1.046553   861A      1.046775   862A      1.048749  
     863A      1.050432   864A      1.050711   865A      1.052349  
     866A      1.055540   867A      1.056827   868A      1.058188  
     869A      1.058669   870A      1.059157   871A      1.061758  
     872A      1.064643   873A      1.065090   874A      1.066505  
     875A      1.069564   876A      1.071264   877A      1.071761  
     878A      1.072238   879A      1.073678   880A      1.074587  
     881A      1.075687   882A      1.078009   883A      1.081121  
     884A      1.082029   885A      1.082489   886A      1.082827  
     887A      1.086103   888A      1.088267   889A      1.089103  
     890A      1.090641   891A      1.094275   892A      1.095060  
     893A      1.096240   894A      1.096701   895A      1.096921  
     896A      1.101372   897A      1.102836   898A      1.104406  
     899A      1.108360   900A      1.109711   901A      1.110749  
     902A      1.111531   903A      1.113262   904A      1.113700  
     905A      1.114642   906A      1.115577   907A      1.115792  
     908A      1.119584   909A      1.122055   910A      1.123091  
     911A      1.124744   912A      1.125767   913A      1.126243  
     914A      1.128549   915A      1.128780   916A      1.131601  
     917A      1.132016   918A      1.134316   919A      1.134499  
     920A      1.136141   921A      1.137045   922A      1.138218  
     923A      1.141090   924A      1.144145   925A      1.144963  
     926A      1.146970   927A      1.148038   928A      1.149446  
     929A      1.150387   930A      1.154485   931A      1.157376  
     932A      1.158833   933A      1.160137   934A      1.160898  
     935A      1.162219   936A      1.163615   937A      1.164878  
     938A      1.166296   939A      1.166858   940A      1.172192  
     941A      1.173379   942A      1.175474   943A      1.176776  
     944A      1.177503   945A      1.178376   946A      1.179133  
     947A      1.180461   948A      1.182769   949A      1.184652  
     950A      1.185261   951A      1.186414   952A      1.186805  
     953A      1.191766   954A      1.193503   955A      1.193805  
     956A      1.194612   957A      1.197450   958A      1.198981  
     959A      1.201094   960A      1.202473   961A      1.203349  
     962A      1.206012   963A      1.206374   964A      1.206597  
     965A      1.207131   966A      1.207819   967A      1.211673  
     968A      1.214254   969A      1.214787   970A      1.216212  
     971A      1.217736   972A      1.217988   973A      1.220689  
     974A      1.222823   975A      1.224315   976A      1.226591  
     977A      1.228255   978A      1.231928   979A      1.232162  
     980A      1.233922   981A      1.234889   982A      1.235399  
     983A      1.235786   984A      1.239407   985A      1.239945  
     986A      1.242101   987A      1.243991   988A      1.245946  
     989A      1.246795   990A      1.248073   991A      1.248929  
     992A      1.251801   993A      1.254257   994A      1.255330  
     995A      1.256866   996A      1.259324   997A      1.259513  
     998A      1.261566   999A      1.262599  1000A      1.263733  
    1001A      1.265717  1002A      1.267523  1003A      1.269522  
    1004A      1.270988  1005A      1.271828  1006A      1.273845  
    1007A      1.274555  1008A      1.275018  1009A      1.276553  
    1010A      1.277572  1011A      1.278310  1012A      1.283992  
    1013A      1.284578  1014A      1.285084  1015A      1.289185  
    1016A      1.289351  1017A      1.289997  1018A      1.291723  
    1019A      1.291826  1020A      1.293149  1021A      1.296873  
    1022A      1.297582  1023A      1.299228  1024A      1.299513  
    1025A      1.300575  1026A      1.301877  1027A      1.302405  
    1028A      1.307353  1029A      1.307564  1030A      1.312978  
    1031A      1.313362  1032A      1.315597  1033A      1.316655  
    1034A      1.317171  1035A      1.318866  1036A      1.319051  
    1037A      1.320555  1038A      1.321331  1039A      1.324409  
    1040A      1.327083  1041A      1.328233  1042A      1.331332  
    1043A      1.331583  1044A      1.332843  1045A      1.336219  
    1046A      1.336856  1047A      1.337470  1048A      1.337993  
    1049A      1.338565  1050A      1.344119  1051A      1.344481  
    1052A      1.345513  1053A      1.347416  1054A      1.348669  
    1055A      1.350016  1056A      1.350540  1057A      1.354271  
    1058A      1.356290  1059A      1.358487  1060A      1.359190  
    1061A      1.363231  1062A      1.363534  1063A      1.363947  
    1064A      1.365273  1065A      1.367180  1066A      1.368531  
    1067A      1.370900  1068A      1.371716  1069A      1.372080  
    1070A      1.373401  1071A      1.375005  1072A      1.380279  
    1073A      1.380740  1074A      1.381963  1075A      1.382709  
    1076A      1.384634  1077A      1.385732  1078A      1.389082  
    1079A      1.389149  1080A      1.390169  1081A      1.393088  
    1082A      1.393730  1083A      1.394777  1084A      1.397059  
    1085A      1.399500  1086A      1.400161  1087A      1.400536  
    1088A      1.404968  1089A      1.407371  1090A      1.407689  
    1091A      1.409257  1092A      1.410336  1093A      1.412884  
    1094A      1.413051  1095A      1.414580  1096A      1.416185  
    1097A      1.416741  1098A      1.418343  1099A      1.419885  
    1100A      1.422140  1101A      1.422743  1102A      1.423406  
    1103A      1.425283  1104A      1.427802  1105A      1.428646  
    1106A      1.430937  1107A      1.432105  1108A      1.433279  
    1109A      1.434648  1110A      1.435719  1111A      1.437275  
    1112A      1.440908  1113A      1.444310  1114A      1.445173  
    1115A      1.446092  1116A      1.446816  1117A      1.448833  
    1118A      1.450255  1119A      1.452375  1120A      1.452681  
    1121A      1.453489  1122A      1.456586  1123A      1.457390  
    1124A      1.461247  1125A      1.462083  1126A      1.463459  
    1127A      1.464399  1128A      1.464702  1129A      1.465245  
    1130A      1.469530  1131A      1.469909  1132A      1.470663  
    1133A      1.472653  1134A      1.474430  1135A      1.475974  
    1136A      1.477056  1137A      1.477527  1138A      1.478027  
    1139A      1.481860  1140A      1.481950  1141A      1.482903  
    1142A      1.484016  1143A      1.487359  1144A      1.488080  
    1145A      1.489847  1146A      1.490782  1147A      1.492226  
    1148A      1.494284  1149A      1.495522  1150A      1.498894  
    1151A      1.499100  1152A      1.502562  1153A      1.503311  
    1154A      1.503585  1155A      1.505247  1156A      1.505569  
    1157A      1.508534  1158A      1.509397  1159A      1.511509  
    1160A      1.513854  1161A      1.514756  1162A      1.514919  
    1163A      1.515483  1164A      1.517558  1165A      1.518451  
    1166A      1.519326  1167A      1.520708  1168A      1.522360  
    1169A      1.524891  1170A      1.526122  1171A      1.527717  
    1172A      1.528940  1173A      1.529332  1174A      1.529887  
    1175A      1.533400  1176A      1.534407  1177A      1.535470  
    1178A      1.535804  1179A      1.538225  1180A      1.538719  
    1181A      1.541116  1182A      1.542015  1183A      1.542864  
    1184A      1.543276  1185A      1.545400  1186A      1.548995  
    1187A      1.550153  1188A      1.550671  1189A      1.551272  
    1190A      1.552488  1191A      1.553106  1192A      1.556954  
    1193A      1.557297  1194A      1.558572  1195A      1.561471  
    1196A      1.561735  1197A      1.563607  1198A      1.564409  
    1199A      1.564999  1200A      1.566790  1201A      1.568753  
    1202A      1.571374  1203A      1.571642  1204A      1.572508  
    1205A      1.573786  1206A      1.574100  1207A      1.577544  
    1208A      1.578405  1209A      1.579982  1210A      1.582725  
    1211A      1.584008  1212A      1.584610  1213A      1.586097  
    1214A      1.586773  1215A      1.587191  1216A      1.588942  
    1217A      1.591093  1218A      1.591790  1219A      1.593495  
    1220A      1.594574  1221A      1.599365  1222A      1.599692  
    1223A      1.602286  1224A      1.603102  1225A      1.604460  
    1226A      1.606676  1227A      1.607932  1228A      1.608910  
    1229A      1.610668  1230A      1.611704  1231A      1.612184  
    1232A      1.615837  1233A      1.616017  1234A      1.616834  
    1235A      1.618063  1236A      1.618579  1237A      1.620032  
    1238A      1.621130  1239A      1.623287  1240A      1.625306  
    1241A      1.626477  1242A      1.628075  1243A      1.628885  
    1244A      1.630993  1245A      1.633114  1246A      1.634937  
    1247A      1.636483  1248A      1.637777  1249A      1.638897  
    1250A      1.639793  1251A      1.641597  1252A      1.643232  
    1253A      1.643860  1254A      1.644438  1255A      1.645981  
    1256A      1.646861  1257A      1.647607  1258A      1.649984  
    1259A      1.650716  1260A      1.651500  1261A      1.653701  
    1262A      1.655057  1263A      1.656535  1264A      1.658126  
    1265A      1.660251  1266A      1.660468  1267A      1.663092  
    1268A      1.666461  1269A      1.666759  1270A      1.667297  
    1271A      1.667700  1272A      1.670000  1273A      1.670751  
    1274A      1.674420  1275A      1.675386  1276A      1.675434  
    1277A      1.677287  1278A      1.677357  1279A      1.680418  
    1280A      1.681400  1281A      1.683522  1282A      1.684480  
    1283A      1.686344  1284A      1.687649  1285A      1.689343  
    1286A      1.691349  1287A      1.693430  1288A      1.696696  
    1289A      1.696919  1290A      1.699307  1291A      1.699994  
    1292A      1.702154  1293A      1.704934  1294A      1.705946  
    1295A      1.707082  1296A      1.710387  1297A      1.711244  
    1298A      1.712725  1299A      1.713654  1300A      1.715277  
    1301A      1.715967  1302A      1.717455  1303A      1.718890  
    1304A      1.719151  1305A      1.720361  1306A      1.723047  
    1307A      1.724077  1308A      1.725728  1309A      1.728043  
    1310A      1.729598  1311A      1.731379  1312A      1.731622  
    1313A      1.733085  1314A      1.736083  1315A      1.736767  
    1316A      1.737406  1317A      1.740055  1318A      1.743129  
    1319A      1.743863  1320A      1.744770  1321A      1.746405  
    1322A      1.747058  1323A      1.749233  1324A      1.750698  
    1325A      1.751540  1326A      1.751965  1327A      1.753941  
    1328A      1.754821  1329A      1.757459  1330A      1.759435  
    1331A      1.759882  1332A      1.760970  1333A      1.761730  
    1334A      1.763773  1335A      1.765392  1336A      1.766386  
    1337A      1.766876  1338A      1.768373  1339A      1.769516  
    1340A      1.772542  1341A      1.773877  1342A      1.775539  
    1343A      1.775738  1344A      1.778593  1345A      1.779777  
    1346A      1.782423  1347A      1.784813  1348A      1.785405  
    1349A      1.787269  1350A      1.788343  1351A      1.790017  
    1352A      1.791843  1353A      1.794232  1354A      1.795471  
    1355A      1.797556  1356A      1.798587  1357A      1.799335  
    1358A      1.800422  1359A      1.801660  1360A      1.802757  
    1361A      1.803752  1362A      1.804016  1363A      1.807984  
    1364A      1.808530  1365A      1.809081  1366A      1.813042  
    1367A      1.817354  1368A      1.818608  1369A      1.820463  
    1370A      1.821142  1371A      1.823561  1372A      1.824482  
    1373A      1.826971  1374A      1.827328  1375A      1.829240  
    1376A      1.829686  1377A      1.831805  1378A      1.834348  
    1379A      1.835358  1380A      1.836163  1381A      1.838803  
    1382A      1.840530  1383A      1.841976  1384A      1.842704  
    1385A      1.845090  1386A      1.845596  1387A      1.849751  
    1388A      1.851507  1389A      1.853555  1390A      1.853810  
    1391A      1.854379  1392A      1.857400  1393A      1.858028  
    1394A      1.859405  1395A      1.861258  1396A      1.862395  
    1397A      1.864013  1398A      1.865317  1399A      1.870042  
    1400A      1.870890  1401A      1.871078  1402A      1.872020  
    1403A      1.874476  1404A      1.876449  1405A      1.877288  
    1406A      1.878031  1407A      1.882575  1408A      1.884579  
    1409A      1.885964  1410A      1.886377  1411A      1.887996  
    1412A      1.890676  1413A      1.893325  1414A      1.893563  
    1415A      1.894085  1416A      1.896999  1417A      1.899581  
    1418A      1.900439  1419A      1.901896  1420A      1.903266  
    1421A      1.903291  1422A      1.905426  1423A      1.906179  
    1424A      1.909527  1425A      1.910316  1426A      1.911451  
    1427A      1.912250  1428A      1.914846  1429A      1.917751  
    1430A      1.919261  1431A      1.919976  1432A      1.921869  
    1433A      1.925546  1434A      1.926902  1435A      1.928221  
    1436A      1.928595  1437A      1.930888  1438A      1.933123  
    1439A      1.934580  1440A      1.935507  1441A      1.936434  
    1442A      1.936520  1443A      1.940016  1444A      1.941649  
    1445A      1.942809  1446A      1.943004  1447A      1.944673  
    1448A      1.946527  1449A      1.947956  1450A      1.951358  
    1451A      1.951922  1452A      1.952592  1453A      1.953584  
    1454A      1.954564  1455A      1.957526  1456A      1.958155  
    1457A      1.959978  1458A      1.961008  1459A      1.963259  
    1460A      1.964268  1461A      1.966281  1462A      1.967120  
    1463A      1.969298  1464A      1.971500  1465A      1.971942  
    1466A      1.972934  1467A      1.976171  1468A      1.978977  
    1469A      1.980911  1470A      1.983251  1471A      1.983581  
    1472A      1.984889  1473A      1.987146  1474A      1.989055  
    1475A      1.990847  1476A      1.994822  1477A      1.997890  
    1478A      1.998770  1479A      1.999048  1480A      2.001777  
    1481A      2.002394  1482A      2.004806  1483A      2.005314  
    1484A      2.007747  1485A      2.008182  1486A      2.009046  
    1487A      2.012965  1488A      2.014642  1489A      2.015426  
    1490A      2.018338  1491A      2.019594  1492A      2.021167  
    1493A      2.022306  1494A      2.023385  1495A      2.026628  
    1496A      2.030598  1497A      2.030799  1498A      2.032857  
    1499A      2.033111  1500A      2.034466  1501A      2.037497  
    1502A      2.037939  1503A      2.038329  1504A      2.043300  
    1505A      2.045020  1506A      2.045645  1507A      2.047814  
    1508A      2.048537  1509A      2.048711  1510A      2.051724  
    1511A      2.053337  1512A      2.055436  1513A      2.056382  
    1514A      2.061014  1515A      2.064582  1516A      2.065530  
    1517A      2.067152  1518A      2.069440  1519A      2.070272  
    1520A      2.075386  1521A      2.075943  1522A      2.078319  
    1523A      2.079574  1524A      2.081293  1525A      2.083307  
    1526A      2.084145  1527A      2.086087  1528A      2.088245  
    1529A      2.088989  1530A      2.092226  1531A      2.092712  
    1532A      2.093336  1533A      2.094836  1534A      2.096534  
    1535A      2.101577  1536A      2.102583  1537A      2.103075  
    1538A      2.105167  1539A      2.109534  1540A      2.110591  
    1541A      2.114005  1542A      2.114956  1543A      2.117455  
    1544A      2.118019  1545A      2.118595  1546A      2.120394  
    1547A      2.121979  1548A      2.125851  1549A      2.126124  
    1550A      2.127056  1551A      2.128496  1552A      2.129979  
    1553A      2.133631  1554A      2.133814  1555A      2.135855  
    1556A      2.136767  1557A      2.138297  1558A      2.139825  
    1559A      2.143668  1560A      2.144260  1561A      2.146676  
    1562A      2.149049  1563A      2.151966  1564A      2.154240  
    1565A      2.154890  1566A      2.158249  1567A      2.161436  
    1568A      2.162090  1569A      2.163044  1570A      2.166417  
    1571A      2.169266  1572A      2.171107  1573A      2.172841  
    1574A      2.173815  1575A      2.175941  1576A      2.178463  
    1577A      2.179362  1578A      2.181432  1579A      2.183579  
    1580A      2.186902  1581A      2.189303  1582A      2.189795  
    1583A      2.191552  1584A      2.193059  1585A      2.193594  
    1586A      2.196540  1587A      2.197670  1588A      2.198832  
    1589A      2.201805  1590A      2.203393  1591A      2.205018  
    1592A      2.208888  1593A      2.211271  1594A      2.215175  
    1595A      2.215819  1596A      2.216141  1597A      2.219434  
    1598A      2.219592  1599A      2.220576  1600A      2.222174  
    1601A      2.225651  1602A      2.229006  1603A      2.230103  
    1604A      2.231900  1605A      2.232974  1606A      2.235935  
    1607A      2.238655  1608A      2.240242  1609A      2.241731  
    1610A      2.244348  1611A      2.244916  1612A      2.251506  
    1613A      2.253086  1614A      2.253884  1615A      2.256303  
    1616A      2.260343  1617A      2.263675  1618A      2.266073  
    1619A      2.266416  1620A      2.268824  1621A      2.269022  
    1622A      2.270567  1623A      2.274013  1624A      2.274924  
    1625A      2.277578  1626A      2.280735  1627A      2.282070  
    1628A      2.285087  1629A      2.285900  1630A      2.290110  
    1631A      2.293143  1632A      2.294520  1633A      2.296521  
    1634A      2.299186  1635A      2.299667  1636A      2.300781  
    1637A      2.302638  1638A      2.304244  1639A      2.304286  
    1640A      2.309187  1641A      2.309417  1642A      2.312087  
    1643A      2.314232  1644A      2.316992  1645A      2.318398  
    1646A      2.321203  1647A      2.323893  1648A      2.328276  
    1649A      2.330179  1650A      2.331110  1651A      2.335501  
    1652A      2.335964  1653A      2.338935  1654A      2.339738  
    1655A      2.340665  1656A      2.341525  1657A      2.342726  
    1658A      2.342900  1659A      2.347211  1660A      2.349067  
    1661A      2.351470  1662A      2.351833  1663A      2.354971  
    1664A      2.357256  1665A      2.358267  1666A      2.360393  
    1667A      2.361655  1668A      2.365997  1669A      2.369004  
    1670A      2.370099  1671A      2.373071  1672A      2.374029  
    1673A      2.376380  1674A      2.379311  1675A      2.379847  
    1676A      2.381335  1677A      2.383602  1678A      2.387688  
    1679A      2.390517  1680A      2.391909  1681A      2.395169  
    1682A      2.395631  1683A      2.396079  1684A      2.398953  
    1685A      2.400225  1686A      2.403847  1687A      2.407000  
    1688A      2.407512  1689A      2.408789  1690A      2.412167  
    1691A      2.414551  1692A      2.414818  1693A      2.417973  
    1694A      2.418864  1695A      2.421414  1696A      2.422121  
    1697A      2.422952  1698A      2.426063  1699A      2.428539  
    1700A      2.431027  1701A      2.434118  1702A      2.436499  
    1703A      2.437648  1704A      2.438155  1705A      2.440971  
    1706A      2.443667  1707A      2.444098  1708A      2.444445  
    1709A      2.445738  1710A      2.450135  1711A      2.451799  
    1712A      2.452721  1713A      2.455112  1714A      2.456563  
    1715A      2.457476  1716A      2.461181  1717A      2.464066  
    1718A      2.467711  1719A      2.468387  1720A      2.469094  
    1721A      2.469532  1722A      2.474730  1723A      2.475801  
    1724A      2.478472  1725A      2.479518  1726A      2.481293  
    1727A      2.483507  1728A      2.487029  1729A      2.489994  
    1730A      2.490539  1731A      2.495022  1732A      2.496685  
    1733A      2.498515  1734A      2.501918  1735A      2.503251  
    1736A      2.504349  1737A      2.505854  1738A      2.509103  
    1739A      2.512270  1740A      2.513322  1741A      2.513558  
    1742A      2.514555  1743A      2.517855  1744A      2.519322  
    1745A      2.521091  1746A      2.522094  1747A      2.525588  
    1748A      2.527309  1749A      2.528560  1750A      2.531221  
    1751A      2.531820  1752A      2.534484  1753A      2.536561  
    1754A      2.539416  1755A      2.541561  1756A      2.543551  
    1757A      2.544714  1758A      2.548219  1759A      2.550038  
    1760A      2.550965  1761A      2.553912  1762A      2.555509  
    1763A      2.557166  1764A      2.557666  1765A      2.558550  
    1766A      2.562173  1767A      2.562603  1768A      2.567580  
    1769A      2.568802  1770A      2.569872  1771A      2.570588  
    1772A      2.571117  1773A      2.572959  1774A      2.577871  
    1775A      2.579456  1776A      2.580092  1777A      2.580448  
    1778A      2.582918  1779A      2.587688  1780A      2.588463  
    1781A      2.589877  1782A      2.592383  1783A      2.592754  
    1784A      2.595516  1785A      2.598571  1786A      2.598939  
    1787A      2.600751  1788A      2.601419  1789A      2.603240  
    1790A      2.603640  1791A      2.604903  1792A      2.610239  
    1793A      2.612266  1794A      2.614936  1795A      2.617603  
    1796A      2.619729  1797A      2.620682  1798A      2.621393  
    1799A      2.622701  1800A      2.627700  1801A      2.628446  
    1802A      2.630285  1803A      2.630720  1804A      2.632782  
    1805A      2.634834  1806A      2.637241  1807A      2.638419  
    1808A      2.640532  1809A      2.641270  1810A      2.645356  
    1811A      2.648088  1812A      2.648467  1813A      2.653719  
    1814A      2.654594  1815A      2.657645  1816A      2.658769  
    1817A      2.662463  1818A      2.663112  1819A      2.667656  
    1820A      2.668664  1821A      2.673812  1822A      2.675843  
    1823A      2.677135  1824A      2.678155  1825A      2.679232  
    1826A      2.682985  1827A      2.684085  1828A      2.688162  
    1829A      2.689201  1830A      2.690092  1831A      2.694720  
    1832A      2.695001  1833A      2.696627  1834A      2.700129  
    1835A      2.701769  1836A      2.707353  1837A      2.709977  
    1838A      2.710433  1839A      2.712081  1840A      2.712497  
    1841A      2.715875  1842A      2.719236  1843A      2.720819  
    1844A      2.722492  1845A      2.726272  1846A      2.728513  
    1847A      2.731651  1848A      2.732964  1849A      2.735603  
    1850A      2.736015  1851A      2.737703  1852A      2.740116  
    1853A      2.741708  1854A      2.745041  1855A      2.746400  
    1856A      2.749875  1857A      2.752559  1858A      2.755321  
    1859A      2.756889  1860A      2.757673  1861A      2.758137  
    1862A      2.760642  1863A      2.764621  1864A      2.766500  
    1865A      2.771212  1866A      2.772034  1867A      2.774730  
    1868A      2.775534  1869A      2.777476  1870A      2.778508  
    1871A      2.779475  1872A      2.783852  1873A      2.789666  
    1874A      2.791108  1875A      2.794652  1876A      2.795533  
    1877A      2.798076  1878A      2.801512  1879A      2.803916  
    1880A      2.807369  1881A      2.809803  1882A      2.811700  
    1883A      2.813486  1884A      2.815808  1885A      2.817797  
    1886A      2.823612  1887A      2.824348  1888A      2.827120  
    1889A      2.827897  1890A      2.829799  1891A      2.829880  
    1892A      2.832857  1893A      2.835341  1894A      2.838078  
    1895A      2.841071  1896A      2.842447  1897A      2.843882  
    1898A      2.844890  1899A      2.845611  1900A      2.851081  
    1901A      2.852122  1902A      2.855161  1903A      2.859250  
    1904A      2.862803  1905A      2.863698  1906A      2.867419  
    1907A      2.873381  1908A      2.874121  1909A      2.874383  
    1910A      2.875225  1911A      2.879944  1912A      2.880682  
    1913A      2.888545  1914A      2.889791  1915A      2.890446  
    1916A      2.891010  1917A      2.896273  1918A      2.898579  
    1919A      2.900876  1920A      2.903578  1921A      2.904130  
    1922A      2.906751  1923A      2.909174  1924A      2.912707  
    1925A      2.913266  1926A      2.916554  1927A      2.921977  
    1928A      2.922368  1929A      2.926394  1930A      2.928622  
    1931A      2.933513  1932A      2.935907  1933A      2.938190  
    1934A      2.939661  1935A      2.944197  1936A      2.944492  
    1937A      2.948739  1938A      2.949318  1939A      2.950389  
    1940A      2.954857  1941A      2.958239  1942A      2.958931  
    1943A      2.959986  1944A      2.966720  1945A      2.970210  
    1946A      2.973093  1947A      2.974753  1948A      2.976087  
    1949A      2.977977  1950A      2.979815  1951A      2.982152  
    1952A      2.985863  1953A      2.988316  1954A      2.988782  
    1955A      2.993567  1956A      2.996111  1957A      2.997292  
    1958A      3.001084  1959A      3.002435  1960A      3.005126  
    1961A      3.009162  1962A      3.014745  1963A      3.016225  
    1964A      3.016757  1965A      3.020043  1966A      3.026584  
    1967A      3.029308  1968A      3.036000  1969A      3.037702  
    1970A      3.038078  1971A      3.042184  1972A      3.043285  
    1973A      3.044513  1974A      3.049027  1975A      3.055608  
    1976A      3.056410  1977A      3.063405  1978A      3.066403  
    1979A      3.071633  1980A      3.072762  1981A      3.074665  
    1982A      3.076268  1983A      3.079571  1984A      3.084595  
    1985A      3.089702  1986A      3.092416  1987A      3.092986  
    1988A      3.093840  1989A      3.099561  1990A      3.102673  
    1991A      3.103325  1992A      3.109661  1993A      3.109966  
    1994A      3.114711  1995A      3.118781  1996A      3.126024  
    1997A      3.128646  1998A      3.131450  1999A      3.136857  
    2000A      3.138792  2001A      3.139400  2002A      3.144289  
    2003A      3.146219  2004A      3.149606  2005A      3.151026  
    2006A      3.153997  2007A      3.155721  2008A      3.164244  
    2009A      3.164525  2010A      3.167785  2011A      3.168812  
    2012A      3.173684  2013A      3.174708  2014A      3.177308  
    2015A      3.178524  2016A      3.179356  2017A      3.187197  
    2018A      3.190683  2019A      3.191460  2020A      3.196920  
    2021A      3.199018  2022A      3.203245  2023A      3.204327  
    2024A      3.205687  2025A      3.212141  2026A      3.212738  
    2027A      3.215478  2028A      3.219538  2029A      3.219866  
    2030A      3.221981  2031A      3.226812  2032A      3.228866  
    2033A      3.231997  2034A      3.232422  2035A      3.236189  
    2036A      3.244233  2037A      3.248324  2038A      3.256873  
    2039A      3.259060  2040A      3.260968  2041A      3.265418  
    2042A      3.266778  2043A      3.269602  2044A      3.277159  
    2045A      3.280526  2046A      3.284425  2047A      3.285214  
    2048A      3.289607  2049A      3.290358  2050A      3.295737  
    2051A      3.308197  2052A      3.308862  2053A      3.312221  
    2054A      3.313212  2055A      3.316382  2056A      3.317248  
    2057A      3.327740  2058A      3.328436  2059A      3.330905  
    2060A      3.334170  2061A      3.337285  2062A      3.345025  
    2063A      3.348960  2064A      3.352242  2065A      3.354017  
    2066A      3.356994  2067A      3.359004  2068A      3.365993  
    2069A      3.366912  2070A      3.375411  2071A      3.379463  
    2072A      3.380244  2073A      3.382566  2074A      3.385606  
    2075A      3.388239  2076A      3.389401  2077A      3.393708  
    2078A      3.394110  2079A      3.401367  2080A      3.402415  
    2081A      3.406440  2082A      3.412216  2083A      3.415886  
    2084A      3.417256  2085A      3.422702  2086A      3.423832  
    2087A      3.427507  2088A      3.429151  2089A      3.430513  
    2090A      3.437331  2091A      3.438464  2092A      3.442586  
    2093A      3.443194  2094A      3.449872  2095A      3.454608  
    2096A      3.455907  2097A      3.458560  2098A      3.463420  
    2099A      3.468069  2100A      3.469605  2101A      3.472100  
    2102A      3.473488  2103A      3.477034  2104A      3.479922  
    2105A      3.485520  2106A      3.486004  2107A      3.491300  
    2108A      3.491553  2109A      3.498105  2110A      3.503536  
    2111A      3.505362  2112A      3.509104  2113A      3.511493  
    2114A      3.511833  2115A      3.513737  2116A      3.520653  
    2117A      3.522928  2118A      3.532127  2119A      3.532537  
    2120A      3.536375  2121A      3.539288  2122A      3.540138  
    2123A      3.543694  2124A      3.545213  2125A      3.549338  
    2126A      3.553506  2127A      3.556282  2128A      3.557278  
    2129A      3.566825  2130A      3.569318  2131A      3.573015  
    2132A      3.573524  2133A      3.581107  2134A      3.584448  
    2135A      3.586778  2136A      3.592070  2137A      3.592903  
    2138A      3.601636  2139A      3.602113  2140A      3.609549  
    2141A      3.613107  2142A      3.616892  2143A      3.618394  
    2144A      3.624681  2145A      3.626626  2146A      3.628179  
    2147A      3.632556  2148A      3.637347  2149A      3.639424  
    2150A      3.640027  2151A      3.644571  2152A      3.645929  
    2153A      3.651329  2154A      3.654500  2155A      3.660069  
    2156A      3.664675  2157A      3.665872  2158A      3.671569  
    2159A      3.675596  2160A      3.679318  2161A      3.682937  
    2162A      3.687066  2163A      3.688570  2164A      3.690631  
    2165A      3.693969  2166A      3.701026  2167A      3.702195  
    2168A      3.708875  2169A      3.716866  2170A      3.717856  
    2171A      3.724971  2172A      3.727398  2173A      3.730527  
    2174A      3.742101  2175A      3.744157  2176A      3.746007  
    2177A      3.747199  2178A      3.750586  2179A      3.753817  
    2180A      3.758941  2181A      3.771715  2182A      3.776478  
    2183A      3.777959  2184A      3.778838  2185A      3.788424  
    2186A      3.789816  2187A      3.790562  2188A      3.798045  
    2189A      3.798664  2190A      3.803841  2191A      3.807796  
    2192A      3.811430  2193A      3.823104  2194A      3.825465  
    2195A      3.829414  2196A      3.831456  2197A      3.835511  
    2198A      3.845402  2199A      3.849712  2200A      3.851657  
    2201A      3.856421  2202A      3.859333  2203A      3.863449  
    2204A      3.869975  2205A      3.872689  2206A      3.877927  
    2207A      3.884678  2208A      3.887587  2209A      3.889851  
    2210A      3.893153  2211A      3.902109  2212A      3.904105  
    2213A      3.904723  2214A      3.917390  2215A      3.918408  
    2216A      3.923889  2217A      3.935555  2218A      3.941996  
    2219A      3.943131  2220A      3.951703  2221A      3.952290  
    2222A      3.958870  2223A      3.962845  2224A      3.970424  
    2225A      3.972508  2226A      3.972788  2227A      3.975507  
    2228A      3.979487  2229A      3.980983  2230A      3.987976  
    2231A      3.989545  2232A      4.001585  2233A      4.002338  
    2234A      4.006507  2235A      4.012789  2236A      4.017158  
    2237A      4.024372  2238A      4.030153  2239A      4.036021  
    2240A      4.037723  2241A      4.046777  2242A      4.053199  
    2243A      4.057483  2244A      4.058362  2245A      4.065172  
    2246A      4.069709  2247A      4.071833  2248A      4.074003  
    2249A      4.080285  2250A      4.080662  2251A      4.085665  
    2252A      4.089202  2253A      4.092976  2254A      4.101482  
    2255A      4.102549  2256A      4.104179  2257A      4.109845  
    2258A      4.115129  2259A      4.120351  2260A      4.121782  
    2261A      4.127380  2262A      4.129506  2263A      4.136249  
    2264A      4.140890  2265A      4.142083  2266A      4.146461  
    2267A      4.151152  2268A      4.152553  2269A      4.153013  
    2270A      4.158803  2271A      4.166026  2272A      4.169537  
    2273A      4.175543  2274A      4.177747  2275A      4.179788  
    2276A      4.181926  2277A      4.190352  2278A      4.193931  
    2279A      4.198905  2280A      4.203246  2281A      4.206042  
    2282A      4.206894  2283A      4.209324  2284A      4.213445  
    2285A      4.217849  2286A      4.218963  2287A      4.225066  
    2288A      4.225923  2289A      4.228126  2290A      4.233743  
    2291A      4.234201  2292A      4.240238  2293A      4.244397  
    2294A      4.246055  2295A      4.248742  2296A      4.252799  
    2297A      4.258459  2298A      4.261421  2299A      4.262720  
    2300A      4.266100  2301A      4.267182  2302A      4.269061  
    2303A      4.273052  2304A      4.273868  2305A      4.275310  
    2306A      4.281384  2307A      4.286873  2308A      4.287775  
    2309A      4.288803  2310A      4.293830  2311A      4.295230  
    2312A      4.300910  2313A      4.301342  2314A      4.301974  
    2315A      4.303794  2316A      4.308214  2317A      4.310404  
    2318A      4.313073  2319A      4.315227  2320A      4.316473  
    2321A      4.321797  2322A      4.322267  2323A      4.324034  
    2324A      4.331300  2325A      4.333019  2326A      4.336405  
    2327A      4.339035  2328A      4.343321  2329A      4.345029  
    2330A      4.346261  2331A      4.352411  2332A      4.355090  
    2333A      4.358209  2334A      4.359504  2335A      4.368473  
    2336A      4.369622  2337A      4.370926  2338A      4.371791  
    2339A      4.380984  2340A      4.382255  2341A      4.384861  
    2342A      4.385194  2343A      4.386993  2344A      4.389215  
    2345A      4.391288  2346A      4.391356  2347A      4.396400  
    2348A      4.397381  2349A      4.401357  2350A      4.403038  
    2351A      4.405020  2352A      4.408067  2353A      4.409487  
    2354A      4.418954  2355A      4.423449  2356A      4.424717  
    2357A      4.431247  2358A      4.432828  2359A      4.435474  
    2360A      4.436933  2361A      4.437474  2362A      4.441687  
    2363A      4.442524  2364A      4.447709  2365A      4.450579  
    2366A      4.452195  2367A      4.453468  2368A      4.453968  
    2369A      4.456693  2370A      4.458266  2371A      4.462483  
    2372A      4.464949  2373A      4.465305  2374A      4.469721  
    2375A      4.470620  2376A      4.475532  2377A      4.477360  
    2378A      4.478421  2379A      4.481961  2380A      4.485387  
    2381A      4.486085  2382A      4.488789  2383A      4.491606  
    2384A      4.492293  2385A      4.494562  2386A      4.494827  
    2387A      4.495373  2388A      4.496703  2389A      4.498958  
    2390A      4.504881  2391A      4.505295  2392A      4.507884  
    2393A      4.508880  2394A      4.510343  2395A      4.519106  
    2396A      4.519870  2397A      4.521236  2398A      4.521752  
    2399A      4.526073  2400A      4.527824  2401A      4.531390  
    2402A      4.532521  2403A      4.532924  2404A      4.536386  
    2405A      4.538917  2406A      4.541603  2407A      4.544232  
    2408A      4.547047  2409A      4.553718  2410A      4.556714  
    2411A      4.559196  2412A      4.561835  2413A      4.562943  
    2414A      4.565316  2415A      4.570945  2416A      4.571812  
    2417A      4.573367  2418A      4.574074  2419A      4.579059  
    2420A      4.579831  2421A      4.584260  2422A      4.585931  
    2423A      4.587273  2424A      4.593549  2425A      4.596536  
    2426A      4.596664  2427A      4.599206  2428A      4.599632  
    2429A      4.604816  2430A      4.609394  2431A      4.610444  
    2432A      4.616232  2433A      4.617420  2434A      4.623965  
    2435A      4.624264  2436A      4.625327  2437A      4.627739  
    2438A      4.628911  2439A      4.629868  2440A      4.632284  
    2441A      4.632424  2442A      4.639678  2443A      4.640612  
    2444A      4.643634  2445A      4.645972  2446A      4.647899  
    2447A      4.650531  2448A      4.651633  2449A      4.654150  
    2450A      4.654700  2451A      4.659419  2452A      4.664121  
    2453A      4.668069  2454A      4.669617  2455A      4.670963  
    2456A      4.671842  2457A      4.675678  2458A      4.678867  
    2459A      4.679649  2460A      4.682153  2461A      4.683089  
    2462A      4.684475  2463A      4.689316  2464A      4.690202  
    2465A      4.694806  2466A      4.695908  2467A      4.698014  
    2468A      4.699855  2469A      4.701725  2470A      4.704068  
    2471A      4.706737  2472A      4.708133  2473A      4.709656  
    2474A      4.713861  2475A      4.716964  2476A      4.721838  
    2477A      4.722766  2478A      4.723193  2479A      4.725029  
    2480A      4.729190  2481A      4.729983  2482A      4.731509  
    2483A      4.736729  2484A      4.737003  2485A      4.740492  
    2486A      4.744020  2487A      4.747348  2488A      4.749877  
    2489A      4.751848  2490A      4.753180  2491A      4.755523  
    2492A      4.756464  2493A      4.762974  2494A      4.763323  
    2495A      4.764866  2496A      4.767671  2497A      4.769000  
    2498A      4.772125  2499A      4.773143  2500A      4.773948  
    2501A      4.774665  2502A      4.780378  2503A      4.780755  
    2504A      4.784915  2505A      4.785663  2506A      4.790052  
    2507A      4.791156  2508A      4.792160  2509A      4.793693  
    2510A      4.795751  2511A      4.802814  2512A      4.803206  
    2513A      4.805325  2514A      4.806436  2515A      4.809379  
    2516A      4.810329  2517A      4.810664  2518A      4.815677  
    2519A      4.816302  2520A      4.817847  2521A      4.821136  
    2522A      4.822948  2523A      4.824245  2524A      4.826474  
    2525A      4.828274  2526A      4.832051  2527A      4.835424  
    2528A      4.837678  2529A      4.839084  2530A      4.839742  
    2531A      4.842557  2532A      4.847464  2533A      4.847818  
    2534A      4.851252  2535A      4.853575  2536A      4.854213  
    2537A      4.859902  2538A      4.863315  2539A      4.867065  
    2540A      4.869644  2541A      4.873096  2542A      4.877114  
    2543A      4.877571  2544A      4.878464  2545A      4.880343  
    2546A      4.883605  2547A      4.884077  2548A      4.888658  
    2549A      4.894082  2550A      4.894604  2551A      4.897219  
    2552A      4.898251  2553A      4.900721  2554A      4.903664  
    2555A      4.906939  2556A      4.915929  2557A      4.917376  
    2558A      4.920421  2559A      4.924718  2560A      4.926190  
    2561A      4.928378  2562A      4.928650  2563A      4.930408  
    2564A      4.933967  2565A      4.936583  2566A      4.938262  
    2567A      4.941001  2568A      4.944930  2569A      4.947598  
    2570A      4.948910  2571A      4.951032  2572A      4.954604  
    2573A      4.959300  2574A      4.959971  2575A      4.960999  
    2576A      4.963775  2577A      4.964434  2578A      4.968474  
    2579A      4.969740  2580A      4.972341  2581A      4.974425  
    2582A      4.979513  2583A      4.980294  2584A      4.985322  
    2585A      4.986258  2586A      4.987490  2587A      4.992826  
    2588A      4.993341  2589A      4.996620  2590A      4.998828  
    2591A      5.002347  2592A      5.006713  2593A      5.008557  
    2594A      5.010439  2595A      5.013042  2596A      5.014541  
    2597A      5.019077  2598A      5.019872  2599A      5.027374  
    2600A      5.027478  2601A      5.028680  2602A      5.030149  
    2603A      5.034418  2604A      5.035909  2605A      5.036935  
    2606A      5.038442  2607A      5.042356  2608A      5.043636  
    2609A      5.045280  2610A      5.051738  2611A      5.054187  
    2612A      5.059218  2613A      5.059486  2614A      5.067631  
    2615A      5.071890  2616A      5.072869  2617A      5.076837  
    2618A      5.077475  2619A      5.080575  2620A      5.081792  
    2621A      5.086332  2622A      5.087445  2623A      5.090198  
    2624A      5.090782  2625A      5.091227  2626A      5.096038  
    2627A      5.097523  2628A      5.098872  2629A      5.101725  
    2630A      5.102190  2631A      5.102608  2632A      5.106261  
    2633A      5.110106  2634A      5.113206  2635A      5.115008  
    2636A      5.116332  2637A      5.117169  2638A      5.120380  
    2639A      5.121343  2640A      5.124742  2641A      5.127911  
    2642A      5.128992  2643A      5.132321  2644A      5.133637  
    2645A      5.134748  2646A      5.137591  2647A      5.139703  
    2648A      5.140905  2649A      5.147610  2650A      5.150158  
    2651A      5.151476  2652A      5.152039  2653A      5.155265  
    2654A      5.156039  2655A      5.160895  2656A      5.161209  
    2657A      5.163791  2658A      5.164671  2659A      5.166403  
    2660A      5.167247  2661A      5.176103  2662A      5.177411  
    2663A      5.180252  2664A      5.182869  2665A      5.183109  
    2666A      5.185534  2667A      5.187853  2668A      5.188179  
    2669A      5.197347  2670A      5.202775  2671A      5.205584  
    2672A      5.206702  2673A      5.206952  2674A      5.211146  
    2675A      5.214427  2676A      5.215741  2677A      5.217106  
    2678A      5.218073  2679A      5.218934  2680A      5.222916  
    2681A      5.230656  2682A      5.232650  2683A      5.235140  
    2684A      5.236168  2685A      5.237378  2686A      5.238965  
    2687A      5.239965  2688A      5.242422  2689A      5.244333  
    2690A      5.250481  2691A      5.254801  2692A      5.255039  
    2693A      5.258200  2694A      5.262403  2695A      5.264257  
    2696A      5.267354  2697A      5.267905  2698A      5.271125  
    2699A      5.273894  2700A      5.276064  2701A      5.278994  
    2702A      5.280636  2703A      5.282668  2704A      5.286400  
    2705A      5.290925  2706A      5.294648  2707A      5.300530  
    2708A      5.303656  2709A      5.304126  2710A      5.310501  
    2711A      5.311647  2712A      5.312578  2713A      5.313277  
    2714A      5.315480  2715A      5.318155  2716A      5.319682  
    2717A      5.321472  2718A      5.324078  2719A      5.327377  
    2720A      5.335231  2721A      5.338096  2722A      5.338770  
    2723A      5.343403  2724A      5.344832  2725A      5.349430  
    2726A      5.352720  2727A      5.356651  2728A      5.359063  
    2729A      5.367266  2730A      5.368299  2731A      5.374490  
    2732A      5.376081  2733A      5.376522  2734A      5.381356  
    2735A      5.381511  2736A      5.386489  2737A      5.389513  
    2738A      5.393068  2739A      5.398922  2740A      5.401020  
    2741A      5.403582  2742A      5.406947  2743A      5.410832  
    2744A      5.414623  2745A      5.419214  2746A      5.422793  
    2747A      5.423962  2748A      5.426982  2749A      5.431948  
    2750A      5.435650  2751A      5.436367  2752A      5.444508  
    2753A      5.446294  2754A      5.447215  2755A      5.448951  
    2756A      5.451363  2757A      5.453322  2758A      5.455299  
    2759A      5.459702  2760A      5.466233  2761A      5.467085  
    2762A      5.472032  2763A      5.472365  2764A      5.473142  
    2765A      5.473357  2766A      5.477955  2767A      5.478388  
    2768A      5.479984  2769A      5.486429  2770A      5.490826  
    2771A      5.491395  2772A      5.493516  2773A      5.494634  
    2774A      5.498532  2775A      5.499409  2776A      5.502168  
    2777A      5.503487  2778A      5.504321  2779A      5.506345  
    2780A      5.510558  2781A      5.512090  2782A      5.517509  
    2783A      5.520864  2784A      5.521571  2785A      5.522981  
    2786A      5.524626  2787A      5.527952  2788A      5.528434  
    2789A      5.532570  2790A      5.533365  2791A      5.537445  
    2792A      5.544103  2793A      5.545647  2794A      5.546161  
    2795A      5.546787  2796A      5.550663  2797A      5.554070  
    2798A      5.557691  2799A      5.560262  2800A      5.566949  
    2801A      5.569925  2802A      5.576052  2803A      5.576855  
    2804A      5.580030  2805A      5.582709  2806A      5.585057  
    2807A      5.588687  2808A      5.592713  2809A      5.595551  
    2810A      5.599467  2811A      5.601569  2812A      5.604008  
    2813A      5.605340  2814A      5.607419  2815A      5.608666  
    2816A      5.614993  2817A      5.615632  2818A      5.617774  
    2819A      5.623490  2820A      5.627771  2821A      5.628267  
    2822A      5.630229  2823A      5.634425  2824A      5.638870  
    2825A      5.640299  2826A      5.644311  2827A      5.646590  
    2828A      5.648318  2829A      5.648768  2830A      5.653030  
    2831A      5.653625  2832A      5.658332  2833A      5.660545  
    2834A      5.664086  2835A      5.668489  2836A      5.669635  
    2837A      5.674409  2838A      5.678315  2839A      5.678986  
    2840A      5.680895  2841A      5.681156  2842A      5.682024  
    2843A      5.686093  2844A      5.687067  2845A      5.689663  
    2846A      5.693450  2847A      5.697529  2848A      5.703263  
    2849A      5.703764  2850A      5.707831  2851A      5.708911  
    2852A      5.713700  2853A      5.714350  2854A      5.724108  
    2855A      5.729397  2856A      5.729486  2857A      5.731886  
    2858A      5.741234  2859A      5.742247  2860A      5.745380  
    2861A      5.748344  2862A      5.752087  2863A      5.756373  
    2864A      5.758348  2865A      5.762864  2866A      5.768845  
    2867A      5.769030  2868A      5.770308  2869A      5.773433  
    2870A      5.775278  2871A      5.780429  2872A      5.781121  
    2873A      5.784751  2874A      5.787977  2875A      5.797059  
    2876A      5.803584  2877A      5.803857  2878A      5.807279  
    2879A      5.808734  2880A      5.809455  2881A      5.815151  
    2882A      5.817059  2883A      5.821743  2884A      5.825200  
    2885A      5.827320  2886A      5.831857  2887A      5.833981  
    2888A      5.836385  2889A      5.837517  2890A      5.845637  
    2891A      5.852406  2892A      5.853713  2893A      5.857076  
    2894A      5.858322  2895A      5.861570  2896A      5.862244  
    2897A      5.868022  2898A      5.873522  2899A      5.874704  
    2900A      5.877360  2901A      5.881123  2902A      5.881905  
    2903A      5.886861  2904A      5.890579  2905A      5.891387  
    2906A      5.894153  2907A      5.898995  2908A      5.899843  
    2909A      5.906238  2910A      5.908534  2911A      5.911472  
    2912A      5.913874  2913A      5.914853  2914A      5.918743  
    2915A      5.920456  2916A      5.928246  2917A      5.929803  
    2918A      5.931500  2919A      5.940489  2920A      5.944424  
    2921A      5.945896  2922A      5.948260  2923A      5.952381  
    2924A      5.960483  2925A      5.962484  2926A      5.964165  
    2927A      5.968335  2928A      5.970868  2929A      5.974310  
    2930A      5.975031  2931A      5.981785  2932A      5.985342  
    2933A      5.986741  2934A      5.992541  2935A      5.994211  
    2936A      6.004046  2937A      6.005528  2938A      6.010701  
    2939A      6.013842  2940A      6.015201  2941A      6.020226  
    2942A      6.023405  2943A      6.025346  2944A      6.031527  
    2945A      6.034976  2946A      6.035941  2947A      6.039708  
    2948A      6.043085  2949A      6.048636  2950A      6.049731  
    2951A      6.050234  2952A      6.055633  2953A      6.056805  
    2954A      6.057889  2955A      6.058536  2956A      6.064514  
    2957A      6.068148  2958A      6.068764  2959A      6.073791  
    2960A      6.078791  2961A      6.086125  2962A      6.086637  
    2963A      6.091369  2964A      6.092893  2965A      6.097701  
    2966A      6.100557  2967A      6.104102  2968A      6.108686  
    2969A      6.114935  2970A      6.116197  2971A      6.119871  
    2972A      6.120447  2973A      6.121872  2974A      6.125968  
    2975A      6.132393  2976A      6.138140  2977A      6.139130  
    2978A      6.143318  2979A      6.147808  2980A      6.152795  
    2981A      6.157940  2982A      6.159603  2983A      6.171315  
    2984A      6.176038  2985A      6.176710  2986A      6.178670  
    2987A      6.185851  2988A      6.186010  2989A      6.192240  
    2990A      6.193831  2991A      6.196470  2992A      6.203021  
    2993A      6.206243  2994A      6.206941  2995A      6.209210  
    2996A      6.211327  2997A      6.213665  2998A      6.216982  
    2999A      6.218720  3000A      6.222950  3001A      6.223076  
    3002A      6.224960  3003A      6.227743  3004A      6.235231  
    3005A      6.236345  3006A      6.238382  3007A      6.240512  
    3008A      6.244734  3009A      6.247406  3010A      6.250341  
    3011A      6.250736  3012A      6.254878  3013A      6.258340  
    3014A      6.262572  3015A      6.263383  3016A      6.267406  
    3017A      6.267797  3018A      6.271752  3019A      6.276405  
    3020A      6.280383  3021A      6.285564  3022A      6.288592  
    3023A      6.298500  3024A      6.299665  3025A      6.305624  
    3026A      6.306355  3027A      6.315626  3028A      6.321077  
    3029A      6.324636  3030A      6.327860  3031A      6.332011  
    3032A      6.332736  3033A      6.342895  3034A      6.347711  
    3035A      6.348185  3036A      6.356948  3037A      6.360462  
    3038A      6.361156  3039A      6.370812  3040A      6.372186  
    3041A      6.376828  3042A      6.382955  3043A      6.383880  
    3044A      6.389728  3045A      6.397575  3046A      6.402110  
    3047A      6.410113  3048A      6.413041  3049A      6.415328  
    3050A      6.421959  3051A      6.424403  3052A      6.425340  
    3053A      6.429166  3054A      6.434588  3055A      6.437410  
    3056A      6.441008  3057A      6.447633  3058A      6.451301  
    3059A      6.456604  3060A      6.467178  3061A      6.468053  
    3062A      6.472542  3063A      6.481672  3064A      6.488995  
    3065A      6.494845  3066A      6.507495  3067A      6.518634  
    3068A      6.519295  3069A      6.522181  3070A      6.536181  
    3071A      6.543087  3072A      6.545886  3073A      6.558076  
    3074A      6.581926  3075A      6.614668  3076A      6.616518  
    3077A      6.620758  3078A      6.645006  3079A      6.656544  
    3080A      6.659557  3081A      6.675778  3082A      6.677709  
    3083A      6.684652  3084A      6.696546  3085A      6.701788  
    3086A      6.711950  3087A      6.716845  3088A      6.719714  
    3089A      6.720374  3090A      6.723679  3091A      6.739259  
    3092A      6.741781  3093A      6.749570  3094A      6.751566  
    3095A      6.762070  3096A      6.775416  3097A      6.779957  
    3098A      6.782199  3099A      6.799114  3100A      6.804091  
    3101A      6.809141  3102A      6.819512  3103A      6.825474  
    3104A      6.828213  3105A      6.846969  3106A      6.847607  
    3107A      6.867551  3108A      6.884637  3109A      6.909588  
    3110A      6.910834  3111A      6.915325  3112A      6.918319  
    3113A      6.927906  3114A      6.936638  3115A      6.946510  
    3116A      6.954664  3117A      6.955033  3118A      6.968229  
    3119A      6.969673  3120A      6.987941  3121A      6.998938  
    3122A      7.006295  3123A      7.016082  3124A      7.023698  
    3125A      7.025320  3126A      7.053641  3127A      7.062684  
    3128A      7.069824  3129A      7.089091  3130A      7.094980  
    3131A      7.097798  3132A      7.136958  3133A      7.153342  
    3134A      7.159270  3135A      7.176301  3136A      7.178821  
    3137A      7.186338  3138A      7.192610  3139A      7.207330  
    3140A      7.216033  3141A      7.220940  3142A      7.240337  
    3143A      7.240395  3144A      7.248748  3145A      7.255747  
    3146A      7.266979  3147A      7.283258  3148A      7.294087  
    3149A      7.305157  3150A      7.332145  3151A      7.350278  
    3152A      7.358403  3153A      7.359814  3154A      7.367153  
    3155A      7.368490  3156A      7.389325  3157A      7.392754  
    3158A      7.401010  3159A      7.409325  3160A      7.409645  
    3161A      7.432603  3162A      7.454590  3163A      7.455015  
    3164A      7.466278  3165A      7.484292  3166A      7.519671  
    3167A      7.527192  3168A      7.541283  3169A      7.546058  
    3170A      7.549706  3171A      7.562856  3172A      7.566952  
    3173A      7.581856  3174A      7.587478  3175A      7.589501  
    3176A      7.597435  3177A      7.614868  3178A      7.615936  
    3179A      7.634867  3180A      7.648915  3181A      7.651065  
    3182A      7.663898  3183A      7.671234  3184A      7.689813  
    3185A      7.690292  3186A      7.703136  3187A      7.707833  
    3188A      7.718442  3189A      7.720700  3190A      7.732096  
    3191A      7.740937  3192A      7.747467  3193A      7.754952  
    3194A      7.759351  3195A      7.775965  3196A      7.788556  
    3197A      7.789966  3198A      7.805059  3199A      7.821015  
    3200A      7.834278  3201A      7.844909  3202A      7.846255  
    3203A      7.863425  3204A      7.865177  3205A      7.875370  
    3206A      7.897880  3207A      7.901738  3208A      7.914283  
    3209A      7.918075  3210A      7.929662  3211A      7.936086  
    3212A      7.942425  3213A      7.944571  3214A      7.954349  
    3215A      7.960906  3216A      7.965193  3217A      7.983831  
    3218A      7.988872  3219A      7.995042  3220A      7.997609  
    3221A      8.017090  3222A      8.023715  3223A      8.041643  
    3224A      8.055519  3225A      8.063690  3226A      8.080136  
    3227A      8.089439  3228A      8.105271  3229A      8.122492  
    3230A      8.129993  3231A      8.164384  3232A      8.170200  
    3233A      8.176855  3234A      8.186799  3235A      8.206407  
    3236A      8.207788  3237A      8.235501  3238A      8.266412  
    3239A      8.281536  3240A      8.304856  3241A      8.307945  
    3242A      8.329254  3243A      8.339922  3244A      8.358072  
    3245A      8.373561  3246A      8.374562  3247A      8.402917  
    3248A      8.412993  3249A      8.426940  3250A      8.434849  
    3251A      8.448813  3252A      8.479055  3253A      8.492148  
    3254A      8.508880  3255A      8.525636  3256A      8.546161  
    3257A      8.565710  3258A      8.721475  3259A      8.742025  
    3260A      8.750956  3261A      8.778103  3262A      8.785670  
    3263A      8.790174  3264A      8.801172  3265A      8.817292  
    3266A      8.836426  3267A      8.837430  3268A      8.853559  
    3269A      8.872249  3270A      8.898487  3271A      8.919533  
    3272A      8.943788  3273A      9.047510  3274A      9.060690  
    3275A      9.078235  3276A      9.124168  3277A      9.127475  
    3278A      9.177298  3279A      9.235161  3280A      9.262082  
    3281A      9.268722  3282A      9.295095  3283A      9.299456  
    3284A      9.339101  3285A      9.381551  3286A      9.414931  
    3287A      9.419510  3288A      9.426531  3289A      9.433949  
    3290A      9.449909  3291A      9.465277  3292A      9.544228  
    3293A      9.594262  3294A      9.674672  3295A      9.789173  
    3296A      9.836732  3297A      9.862669  3298A      9.882053  
    3299A      9.912324  3300A      9.917979  3301A      9.978028  
    3302A     10.003907  3303A     10.034361  3304A     10.048231  
    3305A     10.066004  3306A     10.096167  3307A     10.124946  
    3308A     10.161344  3309A     10.164618  3310A     10.170760  
    3311A     10.178737  3312A     10.216238  3313A     10.251044  
    3314A     10.254734  3315A     10.324178  3316A     10.327793  
    3317A     10.363860  3318A     10.438263  3319A     10.446019  
    3320A     10.455442  3321A     10.466451  3322A     10.754831  
    3323A     10.805911  3324A     10.815849  3325A     10.822087  
    3326A     10.823786  3327A     10.858792  3328A     10.875678  
    3329A     10.918806  3330A     10.991989  3331A     11.106968  
    3332A     11.132413  3333A     11.196885  3334A     11.213293  
    3335A     11.214823  3336A     11.280973  3337A     11.296177  
    3338A     11.312577  3339A     11.350046  3340A     11.407720  
    3341A     11.475750  3342A     11.496332  3343A     11.680480  
    3344A     11.683875  3345A     11.716497  3346A     11.746251  
    3347A     11.764578  3348A     11.812133  3349A     11.917821  
    3350A     11.938284  3351A     11.962341  3352A     12.003190  
    3353A     12.031798  3354A     12.047334  3355A     12.063620  
    3356A     12.097053  3357A     12.114044  3358A     12.190732  
    3359A     12.213223  3360A     12.272624  3361A     12.361086  
    3362A     15.908820  3363A     16.351555  3364A     16.563480  
    3365A     16.992286  3366A     18.003817  3367A     18.201460  
    3368A     18.363160  3369A     19.916059  3370A     20.096966  
    3371A     20.204962  3372A     20.492498  3373A     21.479286  
    3374A     21.864714  3375A     21.896577  3376A     22.753912  
    3377A     22.912259  3378A     50.756512  3379A     50.854847  
    3380A     51.444321  3381A     51.584950  3382A     51.902254  
    3383A     52.390422  3384A     52.506627  3385A     54.265595  
    3386A     54.515626  3387A     54.802126  3388A     54.969108  
    3389A     55.279613  3390A     55.354237  3391A     55.501209  
    3392A     55.609241  3393A     55.849026  3394A     56.096531  
    3395A     56.189645  3396A     56.662614  3397A     57.243011  
    3398A     58.022399  3399A     58.084363  3400A     58.782762  
    3401A     58.985757  3402A     59.618437  3403A     60.023557  
    3404A     60.374490  3405A     60.522177  3406A     60.645890  
    3407A     60.724377  3408A     60.843490  3409A     60.878497  
    3410A     61.057915  3411A     61.119823  3412A     61.260780  
    3413A     61.289244  3414A     61.437096  3415A     61.582769  
    3416A     61.710388  3417A     62.461186  3418A     62.646896  
    3419A     63.059543  

    Final Occupation by Irrep:
              A 
    DOCC [    52 ]
    NA   [    52 ]
    NB   [    52 ]

  @DF-RKS Final Energy:  -678.83490954813362

   => Energetics <=

    Nuclear Repulsion Energy =            836.8830872626610926
    One-Electron Energy =               -2573.8378070150965868
    Two-Electron Energy =                1134.1766750808526467
    DFT Exchange-Correlation Energy =     -76.0397699931589415
    Empirical Dispersion Energy =          -0.0170948833918356
    VV10 Nonlocal Energy =                  0.0000000000000000
    Total Energy =                       -678.8349095481336235

Computation Completed


Properties will be evaluated at   0.000000,   0.000000,   0.000000 [a0]

Properties computed using the SCF density matrix


 Multipole Moments:

 ------------------------------------------------------------------------------------
     Multipole            Electronic (a.u.)      Nuclear  (a.u.)        Total (a.u.)
 ------------------------------------------------------------------------------------

 L = 1.  Multiply by 2.5417464519 to convert [e a0] to [Debye]
 Dipole X            :        -47.2936451           47.2403186           -0.0533264
 Dipole Y            :         82.8373729          -83.0305255           -0.1931526
 Dipole Z            :          1.3523043           -1.3544535           -0.0021492
 Magnitude           :                                                    0.2003903

 ------------------------------------------------------------------------------------

*** tstop() called on atl1-1-03-004-19-2.pace.gatech.edu at Mon Jun 15 14:47:43 2026
Module time:
	user time   =   40757.58 seconds =     679.29 minutes
	system time =    2128.54 seconds =      35.48 minutes
	total time  =      12392 seconds =     206.53 minutes
Total time:
	user time   =   40757.58 seconds =     679.29 minutes
	system time =    2128.54 seconds =      35.48 minutes
	total time  =      12392 seconds =     206.53 minutes

    Psi4 stopped on: Monday, 15 June 2026 02:47PM
    Psi4 wall time for execution: 3:26:42.42

*** Psi4 exiting successfully. Buy a developer a beer!
