
    -----------------------------------------------------------------------
          Psi4: An Open-Source Ab Initio Electronic Structure Package
                               Psi4 1.9.1 release

                         Git: Rev {} zzzzzzz 


    D. G. A. Smith, L. A. Burns, A. C. Simmonett, R. M. Parrish,
    M. C. Schieber, R. Galvelis, P. Kraus, H. Kruse, R. Di Remigio,
    A. Alenaizan, A. M. James, S. Lehtola, J. P. Misiewicz, M. Scheurer,
    R. A. Shaw, J. B. Schriber, Y. Xie, Z. L. Glick, D. A. Sirianni,
    J. S. O'Brien, J. M. Waldrop, A. Kumar, E. G. Hohenstein,
    B. P. Pritchard, B. R. Brooks, H. F. Schaefer III, A. Yu. Sokolov,
    K. Patkowski, A. E. DePrince III, U. Bozkaya, R. A. King,
    F. A. Evangelista, J. M. Turney, T. D. Crawford, C. D. Sherrill,
    J. Chem. Phys. 152(18) 184108 (2020). https://doi.org/10.1063/5.0006002

                            Additional Code Authors
    E. T. Seidl, C. L. Janssen, E. F. Valeev, M. L. Leininger,
    J. F. Gonthier, R. M. Richard, H. R. McAlexander, M. Saitow, X. Wang,
    P. Verma, M. H. Lechner, A. Jiang, S. Behnle, A. G. Heide,
    M. F. Herbst, and D. L. Poole

             Previous Authors, Complete List of Code Contributors,
                       and Citations for Specific Modules
    https://github.com/psi4/psi4/blob/master/codemeta.json
    https://github.com/psi4/psi4/graphs/contributors
    http://psicode.org/psi4manual/master/introduction.html#citing-psifour

    -----------------------------------------------------------------------


    Psi4 started on: Saturday, 13 June 2026 06:49PM

    Process ID: 1401559
    Host:       atl1-1-03-004-6-2.pace.gatech.edu
    PSIDATADIR: /storage/home/hcoda1/5/vlita3/.conda/envs/p4_qcml/share/psi4
    Memory:     250.0 GiB
    Threads:    10
    
  ==> Input QCSchema <==

--------------------------------------------------------------------------
{'driver': 'energy',
 'extras': {},
 'id': '284',
 'keywords': {},
 'model': {'basis': 'aug-cc-pvtz', 'method': 'b3lyp-d3'},
 'molecule': {'extras': {},
              'fix_com': True,
              'fix_orientation': True,
              'fragment_charges': [0.0, 0.0],
              'fragment_multiplicities': [1, 1],
              'fragments': [[0, 1, 2, 3, 4, 5, 6, 7, 8, 9, 10, 11, 12, 13, 14, 15, 16, 17, 18, 19, 20, 21, 22, 23, 24,
                             25, 26, 27, 28, 29, 30, 31, 32, 33, 34, 35],
                            [36, 37, 38, 39, 40, 41, 42, 43, 44, 45, 46, 47, 48, 49, 50, 51, 52, 53, 54, 55, 56, 57, 58,
                             59, 60, 61, 62, 63, 64, 65, 66, 67, 68, 69, 70, 71]],
              'geometry': [-2.81102804, -2.32727976, -3.26733672, -0.12371685, -2.32727976, -3.26733672, 1.21993874,
                           0.0, -3.26733672, -0.12371685, 2.32727976, -3.26733672, -2.81102804, 2.32727976, -3.26733672,
                           -4.15468364, 0.0, -3.26733672, 1.21375609, -4.64385085, -3.26733672, -0.17645855,
                           -6.93684965, -3.26733672, -2.75828635, -6.93684965, -3.26733672, -4.14850099, -4.64385085,
                           -3.26733672, -6.82962953, 0.0, -3.26733672, -8.12031742, -2.3504606, -3.26733672,
                           -6.82940352, -4.58638906, -3.26733672, -8.12031742, 2.3504606, -3.26733672, -6.82940352,
                           4.58638906, -3.26733672, -4.14850099, 4.64385085, -3.26733672, -2.75828635, 6.93684965,
                           -3.26733672, -0.17645855, 6.93684965, -3.26733672, 1.21375609, 4.64385085, -3.26733672,
                           3.89465863, 4.58638906, -3.26733672, 5.18557252, 2.3504606, -3.26733672, 3.89488463, 0.0,
                           -3.26733672, 5.18557252, -2.3504606, -3.26733672, 3.89465863, -4.58638906, -3.26733672,
                           0.84958395, -8.70675598, -3.26733672, -3.78432885, -8.70675598, -3.26733672, -7.84916611,
                           -6.35992109, -3.26733672, -10.16612251, -2.34683489, -3.26733672, -10.16612251, 2.34683489,
                           -3.26733672, -7.84916611, 6.35992109, -3.26733672, -3.78432885, 8.70675598, -3.26733672,
                           0.84958395, 8.70675598, -3.26733672, 4.91442121, 6.35992109, -3.26733672, 7.23137761,
                           2.34683489, -3.26733672, 7.23137761, -2.34683489, -3.26733672, 4.91442121, -6.35992109,
                           -3.26733672, 0.12371685, -2.32727976, 3.26733672, 2.81102804, -2.32727976, 3.26733672,
                           4.15468364, 0.0, 3.26733672, 2.81102804, 2.32727976, 3.26733672, 0.12371685, 2.32727976,
                           3.26733672, -1.21993874, 0.0, 3.26733672, 4.14850099, -4.64385085, 3.26733672, 2.75828635,
                           -6.93684965, 3.26733672, 0.17645855, -6.93684965, 3.26733672, -1.21375609, -4.64385085,
                           3.26733672, -3.89488463, 0.0, 3.26733672, -5.18557252, -2.3504606, 3.26733672, -3.89465863,
                           -4.58638906, 3.26733672, -5.18557252, 2.3504606, 3.26733672, -3.89465863, 4.58638906,
                           3.26733672, -1.21375609, 4.64385085, 3.26733672, 0.17645855, 6.93684965, 3.26733672,
                           2.75828635, 6.93684965, 3.26733672, 4.14850099, 4.64385085, 3.26733672, 6.82940352,
                           4.58638906, 3.26733672, 8.12031742, 2.3504606, 3.26733672, 6.82962953, 0.0, 3.26733672,
                           8.12031742, -2.3504606, 3.26733672, 6.82940352, -4.58638906, 3.26733672, 3.78432885,
                           -8.70675598, 3.26733672, -0.84958395, -8.70675598, 3.26733672, -4.91442121, -6.35992109,
                           3.26733672, -7.23137761, -2.34683489, 3.26733672, -7.23137761, 2.34683489, 3.26733672,
                           -4.91442121, 6.35992109, 3.26733672, -0.84958395, 8.70675598, 3.26733672, 3.78432885,
                           8.70675598, 3.26733672, 7.84916611, 6.35992109, 3.26733672, 10.16612251, 2.34683489,
                           3.26733672, 10.16612251, -2.34683489, 3.26733672, 7.84916611, -6.35992109, 3.26733672],
              'id': 9,
              'identifiers': {'molecular_formula': 'C48H24',
                              'molecule_hash': '5967c9235c357c1990f0309ff9af9a534593830c'},
              'masses': [12.0, 12.0, 12.0, 12.0, 12.0, 12.0, 12.0, 12.0, 12.0, 12.0, 12.0, 12.0, 12.0, 12.0, 12.0, 12.0,
                         12.0, 12.0, 12.0, 12.0, 12.0, 12.0, 12.0, 12.0, 1.00782503223, 1.00782503223, 1.00782503223,
                         1.00782503223, 1.00782503223, 1.00782503223, 1.00782503223, 1.00782503223, 1.00782503223,
                         1.00782503223, 1.00782503223, 1.00782503223, 12.0, 12.0, 12.0, 12.0, 12.0, 12.0, 12.0, 12.0,
                         12.0, 12.0, 12.0, 12.0, 12.0, 12.0, 12.0, 12.0, 12.0, 12.0, 12.0, 12.0, 12.0, 12.0, 12.0, 12.0,
                         1.00782503223, 1.00782503223, 1.00782503223, 1.00782503223, 1.00782503223, 1.00782503223,
                         1.00782503223, 1.00782503223, 1.00782503223, 1.00782503223, 1.00782503223, 1.00782503223],
              'molecular_charge': 0.0,
              'molecular_multiplicity': 1,
              'name': 'C48H24 ([0],[1])',
              'provenance': {'creator': 'QCElemental',
                             'routine': 'qcelemental.molparse.from_schema',
                             'version': '0.29.0'},
              'real': [True, True, True, True, True, True, True, True, True, True, True, True, True, True, True, True,
                       True, True, True, True, True, True, True, True, True, True, True, True, True, True, True, True,
                       True, True, True, True, False, False, False, False, False, False, False, False, False, False,
                       False, False, False, False, False, False, False, False, False, False, False, False, False, False,
                       False, False, False, False, False, False, False, False, False, False, False, False],
              'schema_name': 'qcschema_molecule',
              'schema_version': 2,
              'symbols': ['C', 'C', 'C', 'C', 'C', 'C', 'C', 'C', 'C', 'C', 'C', 'C', 'C', 'C', 'C', 'C', 'C', 'C', 'C',
                          'C', 'C', 'C', 'C', 'C', 'H', 'H', 'H', 'H', 'H', 'H', 'H', 'H', 'H', 'H', 'H', 'H', 'C', 'C',
                          'C', 'C', 'C', 'C', 'C', 'C', 'C', 'C', 'C', 'C', 'C', 'C', 'C', 'C', 'C', 'C', 'C', 'C', 'C',
                          'C', 'C', 'C', 'H', 'H', 'H', 'H', 'H', 'H', 'H', 'H', 'H', 'H', 'H', 'H'],
              'validated': True},
 'protocols': {},
 'provenance': {'creator': 'QCElemental', 'routine': 'qcelemental.models.results', 'version': '0.29.0'},
 'schema_name': 'qcschema_input',
 'schema_version': 1}
--------------------------------------------------------------------------

Scratch directory: /tmp/tmplkn6jk0j_psi_scratch/
   => Libint2 <=

    Primary   basis highest AM E, G, H:  6, 6, 3
    Auxiliary basis highest AM E, G, H:  7, 7, 4
    Onebody   basis highest AM E, G, H:  -, -, -
    Solid Harmonics ordering:            Gaussian

*** tstart() called on atl1-1-03-004-6-2.pace.gatech.edu
*** at Sat Jun 13 18:49:53 2026

   => Loading Basis Set <=

    Name: AUG-CC-PVTZ
    Role: ORBITAL
    Keyword: BASIS
    atoms 1-24, 37-60  entry C          line   239 file /storage/home/hcoda1/5/vlita3/.conda/envs/p4_qcml/share/psi4/basis/aug-cc-pvtz.gbs 
    atoms 25-36, 61-72 entry H          line    40 file /storage/home/hcoda1/5/vlita3/.conda/envs/p4_qcml/share/psi4/basis/aug-cc-pvtz.gbs 

   => B3LYP-D3: Empirical Dispersion <=

    Grimme's -D3 (zero-damping) Dispersion Correction
    Grimme S.; Antony J.; Ehrlich S.; Krieg H. (2010), J. Chem. Phys., 132: 154104

        s6 =       1.000000
        s8 =       1.703000
       sr6 =       1.261000
    alpha6 =      14.000000
       sr8 =       1.000000


         ---------------------------------------------------------
                                   SCF
               by Justin Turney, Rob Parrish, Andy Simmonett
                          and Daniel G. A. Smith
                              RKS Reference
                       10 Threads, 256000 MiB Core
         ---------------------------------------------------------

  ==> Geometry <==

    Molecular point group: cs
    Full point group: Cs

    Geometry (in Bohr), charge = 0, multiplicity = 1:

       Center              X                  Y                   Z               Mass       
    ------------   -----------------  -----------------  -----------------  -----------------
         C           -2.811028040000    -2.327279760000    -3.267336720000    12.000000000000
         C           -0.123716850000    -2.327279760000    -3.267336720000    12.000000000000
         C            1.219938740000     0.000000000000    -3.267336720000    12.000000000000
         C           -0.123716850000     2.327279760000    -3.267336720000    12.000000000000
         C           -2.811028040000     2.327279760000    -3.267336720000    12.000000000000
         C           -4.154683640000     0.000000000000    -3.267336720000    12.000000000000
         C            1.213756090000    -4.643850850000    -3.267336720000    12.000000000000
         C           -0.176458550000    -6.936849650000    -3.267336720000    12.000000000000
         C           -2.758286350000    -6.936849650000    -3.267336720000    12.000000000000
         C           -4.148500990000    -4.643850850000    -3.267336720000    12.000000000000
         C           -6.829629530000     0.000000000000    -3.267336720000    12.000000000000
         C           -8.120317420000    -2.350460600000    -3.267336720000    12.000000000000
         C           -6.829403520000    -4.586389060000    -3.267336720000    12.000000000000
         C           -8.120317420000     2.350460600000    -3.267336720000    12.000000000000
         C           -6.829403520000     4.586389060000    -3.267336720000    12.000000000000
         C           -4.148500990000     4.643850850000    -3.267336720000    12.000000000000
         C           -2.758286350000     6.936849650000    -3.267336720000    12.000000000000
         C           -0.176458550000     6.936849650000    -3.267336720000    12.000000000000
         C            1.213756090000     4.643850850000    -3.267336720000    12.000000000000
         C            3.894658630000     4.586389060000    -3.267336720000    12.000000000000
         C            5.185572520000     2.350460600000    -3.267336720000    12.000000000000
         C            3.894884630000     0.000000000000    -3.267336720000    12.000000000000
         C            5.185572520000    -2.350460600000    -3.267336720000    12.000000000000
         C            3.894658630000    -4.586389060000    -3.267336720000    12.000000000000
         H            0.849583950000    -8.706755980000    -3.267336720000     1.007825032230
         H           -3.784328850000    -8.706755980000    -3.267336720000     1.007825032230
         H           -7.849166110000    -6.359921090000    -3.267336720000     1.007825032230
         H          -10.166122510000    -2.346834890000    -3.267336720000     1.007825032230
         H          -10.166122510000     2.346834890000    -3.267336720000     1.007825032230
         H           -7.849166110000     6.359921090000    -3.267336720000     1.007825032230
         H           -3.784328850000     8.706755980000    -3.267336720000     1.007825032230
         H            0.849583950000     8.706755980000    -3.267336720000     1.007825032230
         H            4.914421210000     6.359921090000    -3.267336720000     1.007825032230
         H            7.231377610000     2.346834890000    -3.267336720000     1.007825032230
         H            7.231377610000    -2.346834890000    -3.267336720000     1.007825032230
         H            4.914421210000    -6.359921090000    -3.267336720000     1.007825032230
      Gh(C)           0.123716850000    -2.327279760000     3.267336720000    12.000000000000
      Gh(C)           2.811028040000    -2.327279760000     3.267336720000    12.000000000000
      Gh(C)           4.154683640000     0.000000000000     3.267336720000    12.000000000000
      Gh(C)           2.811028040000     2.327279760000     3.267336720000    12.000000000000
      Gh(C)           0.123716850000     2.327279760000     3.267336720000    12.000000000000
      Gh(C)          -1.219938740000     0.000000000000     3.267336720000    12.000000000000
      Gh(C)           4.148500990000    -4.643850850000     3.267336720000    12.000000000000
      Gh(C)           2.758286350000    -6.936849650000     3.267336720000    12.000000000000
      Gh(C)           0.176458550000    -6.936849650000     3.267336720000    12.000000000000
      Gh(C)          -1.213756090000    -4.643850850000     3.267336720000    12.000000000000
      Gh(C)          -3.894884630000     0.000000000000     3.267336720000    12.000000000000
      Gh(C)          -5.185572520000    -2.350460600000     3.267336720000    12.000000000000
      Gh(C)          -3.894658630000    -4.586389060000     3.267336720000    12.000000000000
      Gh(C)          -5.185572520000     2.350460600000     3.267336720000    12.000000000000
      Gh(C)          -3.894658630000     4.586389060000     3.267336720000    12.000000000000
      Gh(C)          -1.213756090000     4.643850850000     3.267336720000    12.000000000000
      Gh(C)           0.176458550000     6.936849650000     3.267336720000    12.000000000000
      Gh(C)           2.758286350000     6.936849650000     3.267336720000    12.000000000000
      Gh(C)           4.148500990000     4.643850850000     3.267336720000    12.000000000000
      Gh(C)           6.829403520000     4.586389060000     3.267336720000    12.000000000000
      Gh(C)           8.120317420000     2.350460600000     3.267336720000    12.000000000000
      Gh(C)           6.829629530000     0.000000000000     3.267336720000    12.000000000000
      Gh(C)           8.120317420000    -2.350460600000     3.267336720000    12.000000000000
      Gh(C)           6.829403520000    -4.586389060000     3.267336720000    12.000000000000
      Gh(H)           3.784328850000    -8.706755980000     3.267336720000     1.007825032230
      Gh(H)          -0.849583950000    -8.706755980000     3.267336720000     1.007825032230
      Gh(H)          -4.914421210000    -6.359921090000     3.267336720000     1.007825032230
      Gh(H)          -7.231377610000    -2.346834890000     3.267336720000     1.007825032230
      Gh(H)          -7.231377610000     2.346834890000     3.267336720000     1.007825032230
      Gh(H)          -4.914421210000     6.359921090000     3.267336720000     1.007825032230
      Gh(H)          -0.849583950000     8.706755980000     3.267336720000     1.007825032230
      Gh(H)           3.784328850000     8.706755980000     3.267336720000     1.007825032230
      Gh(H)           7.849166110000     6.359921090000     3.267336720000     1.007825032230
      Gh(H)          10.166122510000     2.346834890000     3.267336720000     1.007825032230
      Gh(H)          10.166122510000    -2.346834890000     3.267336720000     1.007825032230
      Gh(H)           7.849166110000    -6.359921090000     3.267336720000     1.007825032230

  Running in cs symmetry.

  Rotational constants: A =      0.00378  B =      0.00326  C =      0.00251 [cm^-1]
  Rotational constants: A =    113.23902  B =     97.86670  C =     75.24221 [MHz]
  Nuclear repulsion = 1837.330664984317991

  Charge       = 0
  Multiplicity = 1
  Electrons    = 156
  Nalpha       = 78
  Nbeta        = 78

  ==> Algorithm <==

  SCF Algorithm Type is DF.
  DIIS enabled.
  MOM disabled.
  Fractional occupation disabled.
  Guess Type is SAD.
  Energy threshold   = 1.00e-06
  Density threshold  = 1.00e-06
  Integral threshold = 1.00e-12

  ==> Primary Basis <==

  Basis Set: AUG-CC-PVTZ
    Blend: AUG-CC-PVTZ
    Number of shells: 888
    Number of basis functions: 2760
    Number of Cartesian functions: 3240
    Spherical Harmonics?: true
    Max angular momentum: 3

  ==> DFT Potential <==

   => LibXC <=

    Version 7.0.0
    S. Lehtola, C. Steigemann, M. J.T. Oliveira, and M. A.L. Marques.,  SoftwareX 7, 1–5 (2018) (10.1016/j.softx.2017.11.002)

   => Composite Functional: B3LYP-D3ZERO2B <= 

    B3LYP-d3zero2b Hyb-GGA Exchange-Correlation Functional

    P. J. Stephens, F. J. Devlin, C. F. Chabalowski, and M. J. Frisch.,  J. Phys. Chem. 98, 11623 (1994) (10.1021/j100096a001)

    Deriv               =              1
    GGA                 =           TRUE
    Meta                =          FALSE

    Exchange Hybrid     =           TRUE
    MP2 Hybrid          =          FALSE

   => Exchange Functionals <=

    0.0800   Slater exchange
    0.7200         Becke 88

   => Exact (HF) Exchange <=

    0.2000               HF 

   => Correlation Functionals <=

    0.1900   Vosko, Wilk & Nusair (VWN5_RPA)
    0.8100   Lee, Yang & Parr

   => LibXC Density Thresholds  <==

    XC_HYB_GGA_XC_B3LYP:  1.00E-15 

   => Molecular Quadrature <=

    Radial Scheme          =       TREUTLER
    Pruning Scheme         =           NONE
    Nuclear Scheme         =       TREUTLER

    Blocking Scheme        =         OCTREE
    BS radius alpha        =              1
    Pruning alpha          =              1
    Radial Points          =             75
    Spherical Points       =            302
    Total Points           =        1423706
    Total Blocks           =           9482
    Max Points             =            256
    Max Functions          =           2109
    Weights Tolerance      =       1.00E-15

   => Loading Basis Set <=

    Name: (AUG-CC-PVTZ AUX)
    Role: JKFIT
    Keyword: DF_BASIS_SCF
    atoms 1-24, 37-60  entry C          line   162 file /storage/home/hcoda1/5/vlita3/.conda/envs/p4_qcml/share/psi4/basis/aug-cc-pvtz-jkfit.gbs 
    atoms 25-36, 61-72 entry H          line    70 file /storage/home/hcoda1/5/vlita3/.conda/envs/p4_qcml/share/psi4/basis/aug-cc-pvtz-jkfit.gbs 

  ==> Integral Setup <==

  ==> DiskDFJK: Density-Fitted J/K Matrices <==

    J tasked:                  Yes
    K tasked:                  Yes
    wK tasked:                  No
    OpenMP threads:             10
    Integrals threads:          10
    Memory [MiB]:           147036
    Algorithm:                Disk
    Integral Cache:           NONE
    Schwarz Cutoff:          1E-12
    Fitting Condition:       1E-10

   => Auxiliary Basis Set <=

  Basis Set: (AUG-CC-PVTZ AUX)
    Blend: AUG-CC-PVTZ-JKFIT
    Number of shells: 1776
    Number of basis functions: 6096
    Number of Cartesian functions: 7608
    Spherical Harmonics?: true
    Max angular momentum: 4

  Cached 50.0% of DFT collocation blocks in 28.297 [GiB].

  Minimum eigenvalue in the overlap matrix is 1.2243416004E-10.
  Reciprocal condition number of the overlap matrix is 3.5504774292E-12.
    Using canonical orthogonalization.
  Overall, 29 of 2760 possible MOs eliminated.


  ==> Pre-Iterations <==

  SCF Guess: Superposition of Atomic Densities via on-the-fly atomic UHF (no occupation information).

   -------------------------
    Irrep   Nso     Nmo    
   -------------------------
     A'      1436    1421 
     A"      1324    1310 
   -------------------------
    Total    2760    2731
   -------------------------

  ==> Iterations <==

                           Total Energy        Delta E     RMS |[F,P]|

   @DF-RKS iter SAD:  -922.63432025804866   -9.22634e+02   0.00000e+00 
   @DF-RKS iter   1:  -920.76753356112681    1.86679e+00   8.45028e-04 ADIIS/DIIS
   @DF-RKS iter   2:  -920.06203343355287    7.05500e-01   1.00295e-03 ADIIS/DIIS
   @DF-RKS iter   3:  -922.09860736428402   -2.03657e+00   2.45538e-04 ADIIS/DIIS
   @DF-RKS iter   4:  -922.18021904670695   -8.16117e-02   1.58691e-04 ADIIS/DIIS
   @DF-RKS iter   5:  -922.23000209543159   -4.97830e-02   3.41542e-05 DIIS
   @DF-RKS iter   6:  -922.23173828765346   -1.73619e-03   1.29402e-05 DIIS
   @DF-RKS iter   7:  -922.23201337163005   -2.75084e-04   1.15125e-06 DIIS
   @DF-RKS iter   8:  -922.23201568334866   -2.31172e-06   2.36228e-07 DIIS
   @DF-RKS iter   9:  -922.23201578437306   -1.01024e-07   3.12018e-08 DIIS
  Energy and wave function converged.


  ==> Post-Iterations <==

   Electrons on quadrature grid:
      Ntotal   =  156.0002953375 ; deviation = 2.953e-04 

    Orbital Energies [Eh]
    ---------------------

    Doubly Occupied:                                                      

       1Ap   -10.193051     1App  -10.192864     2Ap   -10.192862  
       2App  -10.192530     3Ap   -10.192529     4Ap   -10.192447  
       5Ap   -10.192154     3App  -10.192148     6Ap   -10.192146  
       4App  -10.191987     7Ap   -10.191986     8Ap   -10.191864  
       5App  -10.184098     9Ap   -10.184095     6App  -10.184092  
       7App  -10.184075    10Ap   -10.184072    11Ap   -10.184060  
      12Ap   -10.183346    13Ap   -10.183343     8App  -10.183343  
       9App  -10.183337    14Ap   -10.183334    10App  -10.183331  
      15Ap    -0.913554    11App   -0.876852    16Ap    -0.876849  
      17Ap    -0.829705    12App   -0.829703    18Ap    -0.812977  
      13App   -0.782232    19Ap    -0.767199    20Ap    -0.750068  
      14App   -0.750068    15App   -0.718217    21Ap    -0.718217  
      16App   -0.641688    22Ap    -0.641687    17App   -0.638113  
      23Ap    -0.638113    24Ap    -0.631031    18App   -0.568304  
      25Ap    -0.561242    26Ap    -0.544894    19App   -0.544893  
      20App   -0.543206    27Ap    -0.522687    28Ap    -0.481449  
      21App   -0.481448    22App   -0.464987    29Ap    -0.464983  
      23App   -0.461114    30Ap    -0.461114    31Ap    -0.435431  
      32Ap    -0.433626    24App   -0.427337    33Ap    -0.427335  
      25App   -0.423931    34Ap    -0.408455    26App   -0.408451  
      27App   -0.392892    35Ap    -0.392889    28App   -0.380380  
      36Ap    -0.379808    29App   -0.366649    37Ap    -0.365903  
      30App   -0.365902    38Ap    -0.338676    31App   -0.338673  
      39Ap    -0.323334    32App   -0.322917    40Ap    -0.322916  
      33App   -0.278440    41Ap    -0.275321    34App   -0.259032  
      42Ap    -0.259027    43Ap    -0.211786    35App   -0.211783  

    Virtual:                                                              

      36App   -0.064230    44Ap    -0.064227    45Ap    -0.028976  
      37App   -0.028972    46Ap    -0.012850    47Ap    -0.011692  
      48Ap    -0.005684    38App   -0.005669    39App    0.005256  
      49Ap     0.005296    40App    0.010557    50Ap     0.012478  
      51Ap     0.016995    41App    0.018834    42App    0.019765  
      52Ap     0.020255    53Ap     0.021172    54Ap     0.032557  
      43App    0.032785    55Ap     0.035865    56Ap     0.038078  
      44App    0.038128    57Ap     0.038209    45App    0.039452  
      58Ap     0.040609    46App    0.045715    59Ap     0.047901  
      47App    0.048590    60Ap     0.050805    61Ap     0.052118  
      48App    0.059096    62Ap     0.059494    49App    0.059922  
      63Ap     0.061449    64Ap     0.065729    50App    0.065876  
      51App    0.066292    65Ap     0.066491    52App    0.067381  
      66Ap     0.067458    67Ap     0.068338    53App    0.070311  
      68Ap     0.072706    54App    0.076280    69Ap     0.076560  
      70Ap     0.077847    55App    0.080057    71Ap     0.081912  
      56App    0.081969    72Ap     0.083112    73Ap     0.085408  
      57App    0.085477    58App    0.088059    74Ap     0.088892  
      75Ap     0.092245    59App    0.092631    76Ap     0.094668  
      60App    0.094766    61App    0.097225    77Ap     0.099351  
      78Ap     0.101517    62App    0.103120    63App    0.104131  
      79Ap     0.104996    80Ap     0.107848    64App    0.108177  
      81Ap     0.109591    65App    0.112177    82Ap     0.112840  
      83Ap     0.114295    66App    0.114747    84Ap     0.121109  
      67App    0.123589    68App    0.125359    85Ap     0.125596  
      86Ap     0.126827    69App    0.130607    87Ap     0.130993  
      88Ap     0.132713    70App    0.134044    89Ap     0.136093  
      71App    0.136271    90Ap     0.138515    72App    0.138698  
      91Ap     0.139532    92Ap     0.141914    73App    0.142428  
      74App    0.144021    93Ap     0.145655    75App    0.147429  
      94Ap     0.148581    95Ap     0.151011    96Ap     0.154891  
      76App    0.154904    77App    0.158081    97Ap     0.158308  
      98Ap     0.159473    78App    0.159868    79App    0.161606  
      99Ap     0.162609   100Ap     0.163875    80App    0.165093  
      81App    0.167174   101Ap     0.168790   102Ap     0.169084  
      82App    0.171557   103Ap     0.171637   104Ap     0.173453  
      83App    0.175083   105Ap     0.176278   106Ap     0.177205  
      84App    0.177698    85App    0.179062   107Ap     0.180689  
     108Ap     0.182514    86App    0.184402   109Ap     0.185100  
     110Ap     0.185660    87App    0.185694    88App    0.188079  
     111Ap     0.188499    89App    0.189522   112Ap     0.191962  
      90App    0.192151   113Ap     0.192588   114Ap     0.194043  
      91App    0.194246    92App    0.198382   115Ap     0.198855  
      93App    0.199874   116Ap     0.200294   117Ap     0.202824  
      94App    0.204297   118Ap     0.205199   119Ap     0.205792  
      95App    0.206679   120Ap     0.209165    96App    0.209597  
      97App    0.209857   121Ap     0.211270   122Ap     0.212337  
      98App    0.213257    99App    0.215305   123Ap     0.216483  
     124Ap     0.216798   125Ap     0.217986   100App    0.218339  
     101App    0.221350   126Ap     0.222145   127Ap     0.223498  
     102App    0.224104   128Ap     0.225492   103App    0.225804  
     104App    0.227391   129Ap     0.228275   105App    0.229478  
     106App    0.230854   130Ap     0.230936   107App    0.234010  
     131Ap     0.236793   132Ap     0.238863   108App    0.239227  
     133Ap     0.240354   109App    0.240846   110App    0.244898  
     134Ap     0.245297   135Ap     0.247190   136Ap     0.249125  
     111App    0.249665   137Ap     0.250324   138Ap     0.252300  
     112App    0.254076   139Ap     0.256187   113App    0.258651  
     140Ap     0.258808   114App    0.259752   115App    0.260809  
     141Ap     0.260893   142Ap     0.263302   116App    0.264446  
     143Ap     0.264798   117App    0.265979   144Ap     0.267431  
     118App    0.268401   119App    0.268749   145Ap     0.269524  
     146Ap     0.270431   120App    0.271368   147Ap     0.271375  
     121App    0.273363   148Ap     0.274609   122App    0.275247  
     149Ap     0.275584   123App    0.277399   150Ap     0.277445  
     151Ap     0.278684   124App    0.280216   152Ap     0.281931  
     153Ap     0.282957   125App    0.283618   154Ap     0.286163  
     126App    0.287248   155Ap     0.287294   127App    0.290401  
     156Ap     0.291851   128App    0.292471   157Ap     0.293064  
     129App    0.295173   130App    0.298074   158Ap     0.298378  
     131App    0.298982   159Ap     0.299112   160Ap     0.301088  
     132App    0.302041   161Ap     0.303905   162Ap     0.306447  
     133App    0.306636   163Ap     0.307213   134App    0.308435  
     164Ap     0.310411   165Ap     0.313345   135App    0.313438  
     136App    0.314776   166Ap     0.318281   137App    0.319594  
     167Ap     0.319663   138App    0.321009   168Ap     0.322003  
     139App    0.323583   169Ap     0.323682   140App    0.325664  
     170Ap     0.328666   141App    0.330677   171Ap     0.332482  
     172Ap     0.334652   142App    0.335064   143App    0.337833  
     173Ap     0.338580   144App    0.340975   174Ap     0.341391  
     175Ap     0.343665   145App    0.344614   146App    0.345857  
     176Ap     0.347935   177Ap     0.351061   147App    0.352359  
     148App    0.353779   178Ap     0.354723   149App    0.358296  
     179Ap     0.358938   180Ap     0.360136   150App    0.360322  
     181Ap     0.360506   182Ap     0.363587   151App    0.365183  
     183Ap     0.366294   184Ap     0.367877   152App    0.370159  
     153App    0.372831   185Ap     0.374599   186Ap     0.377190  
     154App    0.378570   187Ap     0.381517   155App    0.384173  
     188Ap     0.385190   156App    0.385978   189Ap     0.387731  
     157App    0.388818   190Ap     0.389311   191Ap     0.390705  
     158App    0.392800   192Ap     0.393161   159App    0.395137  
     193Ap     0.396367   160App    0.397783   194Ap     0.399701  
     161App    0.401968   195Ap     0.403269   162App    0.406063  
     196Ap     0.408605   197Ap     0.409588   163App    0.410579  
     198Ap     0.413897   164App    0.415031   199Ap     0.417163  
     200Ap     0.417444   165App    0.417860   201Ap     0.418506  
     166App    0.418719   167App    0.422059   202Ap     0.424245  
     203Ap     0.424867   204Ap     0.426770   168App    0.427397  
     205Ap     0.428329   169App    0.429176   170App    0.430116  
     206Ap     0.431839   171App    0.433086   207Ap     0.433854  
     172App    0.434283   208Ap     0.435968   173App    0.437028  
     209Ap     0.438516   174App    0.441118   210Ap     0.443152  
     175App    0.443469   211Ap     0.446465   212Ap     0.447416  
     176App    0.448083   213Ap     0.450444   177App    0.450559  
     178App    0.452792   214Ap     0.453085   179App    0.454763  
     180App    0.455307   215Ap     0.456065   216Ap     0.457861  
     181App    0.458789   217Ap     0.460230   218Ap     0.461415  
     182App    0.461632   219Ap     0.463266   220Ap     0.468002  
     183App    0.468066   221Ap     0.468171   184App    0.469054  
     185App    0.472662   222Ap     0.472811   186App    0.473669  
     223Ap     0.474826   187App    0.475553   224Ap     0.475655  
     225Ap     0.479083   226Ap     0.479917   188App    0.480836  
     227Ap     0.481313   228Ap     0.482927   189App    0.483434  
     229Ap     0.484211   190App    0.484937   191App    0.486962  
     192App    0.489824   230Ap     0.491346   193App    0.493897  
     231Ap     0.494059   232Ap     0.496901   233Ap     0.497839  
     194App    0.498792   234Ap     0.500040   195App    0.500943  
     196App    0.504147   235Ap     0.504859   197App    0.507454  
     198App    0.508215   236Ap     0.509059   199App    0.509853  
     237Ap     0.511923   200App    0.512690   238Ap     0.515305  
     239Ap     0.517327   201App    0.519056   240Ap     0.519601  
     202App    0.521923   241Ap     0.522293   242Ap     0.525134  
     203App    0.525168   243Ap     0.527150   204App    0.528127  
     244Ap     0.530558   205App    0.533262   206App    0.534745  
     207App    0.536359   245Ap     0.537888   246Ap     0.539949  
     208App    0.540989   247Ap     0.541268   248Ap     0.544597  
     209App    0.545500   210App    0.548979   249Ap     0.550554  
     250Ap     0.551415   211App    0.551429   212App    0.553810  
     251Ap     0.555766   213App    0.558610   252Ap     0.559886  
     253Ap     0.560385   254Ap     0.563495   214App    0.564244  
     215App    0.565476   255Ap     0.565622   216App    0.566326  
     217App    0.569494   256Ap     0.569853   257Ap     0.571653  
     218App    0.571988   258Ap     0.576658   259Ap     0.578938  
     219App    0.579025   220App    0.580904   260Ap     0.583216  
     221App    0.584775   261Ap     0.586120   262Ap     0.587213  
     222App    0.588734   263Ap     0.592177   223App    0.593666  
     264Ap     0.593824   265Ap     0.595980   224App    0.597925  
     225App    0.599917   266Ap     0.600132   267Ap     0.601764  
     226App    0.602381   227App    0.606269   228App    0.607282  
     268Ap     0.609891   269Ap     0.611312   229App    0.613915  
     270Ap     0.616770   271Ap     0.617662   230App    0.617865  
     272Ap     0.620337   231App    0.620865   232App    0.623778  
     273Ap     0.625320   233App    0.625773   274Ap     0.627200  
     234App    0.629972   275Ap     0.631292   235App    0.631449  
     236App    0.635774   276Ap     0.637586   277Ap     0.639490  
     237App    0.641572   278Ap     0.641617   238App    0.642408  
     279Ap     0.644369   280Ap     0.649031   239App    0.650020  
     240App    0.652321   281Ap     0.653559   282Ap     0.654519  
     241App    0.657940   283Ap     0.659747   242App    0.660977  
     284Ap     0.661080   285Ap     0.662734   286Ap     0.663989  
     243App    0.664578   244App    0.666761   287Ap     0.669136  
     245App    0.670268   246App    0.672825   288Ap     0.673756  
     289Ap     0.675012   247App    0.676791   290Ap     0.677292  
     248App    0.677841   291Ap     0.680700   249App    0.681908  
     292Ap     0.683757   293Ap     0.685684   294Ap     0.687920  
     250App    0.690518   295Ap     0.691215   251App    0.692987  
     296Ap     0.693293   252App    0.693815   297Ap     0.695956  
     253App    0.697519   298Ap     0.699189   254App    0.702373  
     299Ap     0.705099   255App    0.705946   256App    0.707409  
     300Ap     0.710049   301Ap     0.710378   257App    0.713442  
     258App    0.714375   259App    0.716335   302Ap     0.716786  
     303Ap     0.719982   260App    0.721107   261App    0.721706  
     304Ap     0.722738   305Ap     0.724145   306Ap     0.727364  
     307Ap     0.729119   262App    0.729528   263App    0.730185  
     308Ap     0.734562   264App    0.735338   309Ap     0.735383  
     265App    0.737606   310Ap     0.740333   311Ap     0.741715  
     266App    0.742792   312Ap     0.743746   267App    0.746098  
     313Ap     0.748565   268App    0.748646   269App    0.751678  
     314Ap     0.752576   270App    0.755898   315Ap     0.756342  
     271App    0.756823   316Ap     0.758471   272App    0.760558  
     317Ap     0.760945   318Ap     0.764300   273App    0.764725  
     319Ap     0.765633   320Ap     0.769086   274App    0.769255  
     321Ap     0.772642   322Ap     0.774455   323Ap     0.775285  
     275App    0.775327   324Ap     0.780001   276App    0.780370  
     277App    0.781573   325Ap     0.782900   278App    0.783085  
     279App    0.784967   326Ap     0.786195   280App    0.788189  
     327Ap     0.789100   281App    0.793087   328Ap     0.794164  
     329Ap     0.796567   330Ap     0.800050   331Ap     0.800970  
     282App    0.801696   332Ap     0.803702   283App    0.804291  
     333Ap     0.806655   284App    0.807115   285App    0.811713  
     334Ap     0.813282   335Ap     0.815523   286App    0.818027  
     336Ap     0.818315   287App    0.818483   288App    0.820875  
     337Ap     0.820877   338Ap     0.824853   339Ap     0.826469  
     289App    0.826472   340Ap     0.827716   290App    0.828304  
     291App    0.829563   341Ap     0.830357   292App    0.833929  
     293App    0.835783   342Ap     0.836457   294App    0.837591  
     343Ap     0.838478   344Ap     0.839352   295App    0.844124  
     345Ap     0.844794   296App    0.845597   297App    0.846631  
     346Ap     0.847373   298App    0.848434   347Ap     0.849137  
     299App    0.850085   300App    0.852708   348Ap     0.853960  
     301App    0.854264   349Ap     0.854359   302App    0.858208  
     350Ap     0.858526   351Ap     0.861287   303App    0.862599  
     352Ap     0.863059   304App    0.864166   305App    0.866012  
     353Ap     0.866685   354Ap     0.870341   306App    0.872599  
     355Ap     0.872958   307App    0.875869   356Ap     0.877625  
     357Ap     0.880467   308App    0.882235   358Ap     0.882321  
     309App    0.885681   359Ap     0.887815   310App    0.888635  
     311App    0.889600   360Ap     0.889811   361Ap     0.892634  
     312App    0.893892   362Ap     0.895349   313App    0.895809  
     363Ap     0.898112   364Ap     0.900315   314App    0.900610  
     365Ap     0.902168   366Ap     0.902457   315App    0.902665  
     316App    0.904547   317App    0.910719   367Ap     0.911143  
     368Ap     0.911801   369Ap     0.915547   370Ap     0.917303  
     318App    0.919217   319App    0.920698   371Ap     0.923187  
     320App    0.924322   372Ap     0.928892   321App    0.930037  
     322App    0.931429   323App    0.933876   373Ap     0.934347  
     374Ap     0.936766   324App    0.936969   375Ap     0.942019  
     325App    0.945162   376Ap     0.945471   326App    0.946918  
     377Ap     0.947994   327App    0.949043   378Ap     0.951483  
     328App    0.953354   329App    0.956666   330App    0.958841  
     379Ap     0.959521   380Ap     0.960232   381Ap     0.962629  
     331App    0.963644   382Ap     0.967816   332App    0.968451  
     383Ap     0.970038   333App    0.971528   384Ap     0.972671  
     334App    0.975434   385Ap     0.976561   335App    0.977179  
     386Ap     0.981132   336App    0.981571   337App    0.984060  
     338App    0.984912   387Ap     0.986356   388Ap     0.989030  
     389Ap     0.990130   339App    0.991134   340App    0.992260  
     390Ap     0.993221   391Ap     0.994757   392Ap     0.997368  
     341App    0.997751   342App    0.999290   393Ap     1.003491  
     343App    1.004510   344App    1.006328   394Ap     1.007492  
     345App    1.009712   395Ap     1.009963   346App    1.011858  
     396Ap     1.013713   347App    1.015697   348App    1.018245  
     397Ap     1.018809   349App    1.021481   398Ap     1.023956  
     399Ap     1.026230   350App    1.026982   400Ap     1.026983  
     401Ap     1.031552   351App    1.031917   402Ap     1.032240  
     403Ap     1.034633   352App    1.036115   404Ap     1.037507  
     353App    1.040427   354App    1.042484   405Ap     1.042729  
     406Ap     1.045291   355App    1.046102   356App    1.048631  
     407Ap     1.048656   357App    1.049496   408Ap     1.054329  
     358App    1.056930   409Ap     1.056986   410Ap     1.059458  
     359App    1.059975   411Ap     1.060886   412Ap     1.062346  
     360App    1.063665   413Ap     1.064776   361App    1.070144  
     414Ap     1.070657   362App    1.073851   415Ap     1.074045  
     416Ap     1.076410   363App    1.078345   417Ap     1.080528  
     364App    1.082609   418Ap     1.082950   419Ap     1.084028  
     365App    1.086033   420Ap     1.087529   366App    1.092862  
     421Ap     1.093475   367App    1.094628   422Ap     1.096011  
     368App    1.096326   423Ap     1.098582   424Ap     1.100468  
     369App    1.100866   425Ap     1.104224   370App    1.104632  
     426Ap     1.107817   371App    1.109793   427Ap     1.113596  
     372App    1.116513   428Ap     1.118051   373App    1.118689  
     429Ap     1.121513   374App    1.121838   375App    1.126869  
     430Ap     1.128944   431Ap     1.130160   376App    1.130709  
     432Ap     1.133710   433Ap     1.135117   377App    1.135428  
     434Ap     1.140091   378App    1.140417   379App    1.142131  
     435Ap     1.143241   380App    1.144120   436Ap     1.148089  
     381App    1.150875   437Ap     1.153047   382App    1.154838  
     438Ap     1.155385   383App    1.155485   439Ap     1.158865  
     384App    1.158889   440Ap     1.160941   441Ap     1.162344  
     385App    1.162727   386App    1.165334   442Ap     1.166062  
     443Ap     1.171430   387App    1.173208   444Ap     1.174043  
     388App    1.176832   445Ap     1.177708   389App    1.180180  
     446Ap     1.182640   447Ap     1.185453   448Ap     1.190349  
     390App    1.192601   391App    1.194004   449Ap     1.194576  
     450Ap     1.197330   392App    1.197389   393App    1.197812  
     451Ap     1.200089   394App    1.201802   452Ap     1.206325  
     395App    1.207049   453Ap     1.207756   396App    1.211788  
     454Ap     1.213982   397App    1.214478   455Ap     1.215770  
     456Ap     1.218746   398App    1.219402   399App    1.220658  
     457Ap     1.223877   400App    1.223949   458Ap     1.224675  
     459Ap     1.230932   460Ap     1.231406   401App    1.232770  
     461Ap     1.238496   402App    1.239580   462Ap     1.240835  
     403App    1.241882   404App    1.243562   463Ap     1.245347  
     405App    1.250540   464Ap     1.250856   465Ap     1.252377  
     466Ap     1.255459   406App    1.255714   467Ap     1.256205  
     407App    1.261797   468Ap     1.262059   469Ap     1.264816  
     408App    1.265634   470Ap     1.266985   409App    1.267666  
     410App    1.270619   471Ap     1.272196   411App    1.272994  
     412App    1.274934   413App    1.275870   472Ap     1.276090  
     414App    1.279742   473Ap     1.280603   474Ap     1.281332  
     475Ap     1.284224   415App    1.285961   476Ap     1.288558  
     416App    1.288907   477Ap     1.293980   417App    1.294676  
     418App    1.295406   478Ap     1.296901   419App    1.297887  
     420App    1.300288   479Ap     1.300700   480Ap     1.303560  
     421App    1.305128   481Ap     1.305879   482Ap     1.308366  
     422App    1.310058   423App    1.313559   483Ap     1.314983  
     424App    1.315348   484Ap     1.321108   485Ap     1.323843  
     425App    1.324157   426App    1.326035   486Ap     1.330716  
     487Ap     1.331183   427App    1.332369   488Ap     1.334603  
     428App    1.336891   429App    1.338056   489Ap     1.342646  
     490Ap     1.343105   430App    1.343706   491Ap     1.345350  
     431App    1.346271   432App    1.349262   433App    1.352530  
     492Ap     1.352889   493Ap     1.353340   494Ap     1.356323  
     434App    1.357229   435App    1.360334   495Ap     1.360995  
     436App    1.363467   496Ap     1.365333   437App    1.366275  
     497Ap     1.369333   438App    1.370339   439App    1.372888  
     498Ap     1.374326   499Ap     1.375262   440App    1.379563  
     500Ap     1.380090   501Ap     1.382382   441App    1.384986  
     502Ap     1.386535   442App    1.387973   503Ap     1.389067  
     504Ap     1.390751   443App    1.393332   444App    1.394673  
     505Ap     1.397240   506Ap     1.399195   445App    1.401168  
     446App    1.401764   507Ap     1.402810   508Ap     1.404990  
     447App    1.406221   448App    1.408663   449App    1.410651  
     509Ap     1.410904   510Ap     1.414610   450App    1.416571  
     511Ap     1.418271   451App    1.419177   512Ap     1.420390  
     452App    1.421054   453App    1.421939   513Ap     1.423054  
     514Ap     1.427651   454App    1.431051   515Ap     1.433142  
     455App    1.434691   456App    1.435718   516Ap     1.435866  
     457App    1.437335   517Ap     1.439732   518Ap     1.440615  
     458App    1.445533   519Ap     1.446871   459App    1.448687  
     460App    1.450915   520Ap     1.452735   521Ap     1.454100  
     461App    1.456878   462App    1.457571   522Ap     1.458159  
     523Ap     1.460290   524Ap     1.462265   463App    1.462606  
     525Ap     1.464260   464App    1.465468   465App    1.467024  
     526Ap     1.467597   527Ap     1.468416   466App    1.470576  
     528Ap     1.474206   529Ap     1.477061   467App    1.478016  
     468App    1.478485   469App    1.481025   530Ap     1.484637  
     470App    1.486539   531Ap     1.486763   471App    1.488815  
     532Ap     1.490761   533Ap     1.492073   534Ap     1.496290  
     472App    1.496366   473App    1.497211   535Ap     1.500261  
     474App    1.503057   536Ap     1.504133   537Ap     1.507101  
     475App    1.511147   538Ap     1.511188   539Ap     1.514828  
     476App    1.515427   477App    1.516292   540Ap     1.518193  
     541Ap     1.519117   478App    1.522260   542Ap     1.523099  
     479App    1.524074   543Ap     1.524322   480App    1.524944  
     481App    1.529313   544Ap     1.530799   482App    1.534621  
     545Ap     1.534797   483App    1.535293   484App    1.538846  
     485App    1.539619   546Ap     1.540091   547Ap     1.543159  
     486App    1.544805   548Ap     1.547029   549Ap     1.550028  
     550Ap     1.551720   487App    1.552013   488App    1.553122  
     489App    1.560100   551Ap     1.560919   490App    1.561900  
     552Ap     1.563657   491App    1.566286   553Ap     1.566363  
     554Ap     1.570087   555Ap     1.575119   492App    1.575434  
     556Ap     1.579200   493App    1.580814   494App    1.581676  
     557Ap     1.584804   495App    1.585576   558Ap     1.586223  
     559Ap     1.587091   496App    1.588475   560Ap     1.591999  
     497App    1.594515   498App    1.596003   561Ap     1.597217  
     562Ap     1.598372   499App    1.600023   563Ap     1.600911  
     564Ap     1.603588   500App    1.603944   501App    1.608882  
     565Ap     1.610898   502App    1.613776   503App    1.617697  
     566Ap     1.618009   567Ap     1.619594   504App    1.622051  
     568Ap     1.622351   569Ap     1.625715   505App    1.627001  
     570Ap     1.627098   506App    1.630672   571Ap     1.631365  
     572Ap     1.633699   507App    1.634659   508App    1.636946  
     573Ap     1.638243   509App    1.641353   574Ap     1.642198  
     510App    1.642771   575Ap     1.646671   511App    1.649711  
     576Ap     1.651209   512App    1.653009   513App    1.655035  
     514App    1.656921   577Ap     1.657258   515App    1.660451  
     578Ap     1.662514   579Ap     1.664354   580Ap     1.665894  
     581Ap     1.668685   582Ap     1.669583   516App    1.669685  
     583Ap     1.672160   517App    1.673016   584Ap     1.676501  
     518App    1.677252   519App    1.680087   585Ap     1.681230  
     520App    1.681985   586Ap     1.687460   521App    1.687488  
     587Ap     1.690406   522App    1.691289   523App    1.693033  
     588Ap     1.694684   589Ap     1.697331   524App    1.701595  
     590Ap     1.703322   591Ap     1.703968   525App    1.704639  
     592Ap     1.706458   526App    1.707694   593Ap     1.708149  
     594Ap     1.712203   527App    1.712429   595Ap     1.713715  
     528App    1.715989   596Ap     1.716534   529App    1.716735  
     597Ap     1.718022   530App    1.720334   598Ap     1.721845  
     531App    1.723406   532App    1.727948   599Ap     1.728132  
     600Ap     1.733041   533App    1.734112   601Ap     1.735190  
     534App    1.736710   602Ap     1.740373   535App    1.741511  
     603Ap     1.743659   536App    1.744518   604Ap     1.745708  
     605Ap     1.746865   537App    1.749327   538App    1.754388  
     539App    1.755869   606Ap     1.757767   607Ap     1.762145  
     608Ap     1.764081   540App    1.767899   609Ap     1.768409  
     541App    1.770058   610Ap     1.772271   542App    1.772685  
     611Ap     1.774855   543App    1.776679   612Ap     1.776774  
     613Ap     1.781103   544App    1.781658   614Ap     1.784323  
     545App    1.785941   615Ap     1.786735   616Ap     1.790129  
     546App    1.790209   547App    1.796997   617Ap     1.799049  
     618Ap     1.802063   548App    1.802767   619Ap     1.803423  
     549App    1.807473   550App    1.808404   620Ap     1.808920  
     551App    1.811572   621Ap     1.813738   622Ap     1.820420  
     552App    1.821561   623Ap     1.823187   553App    1.826865  
     624Ap     1.827175   554App    1.830604   625Ap     1.830856  
     555App    1.834511   556App    1.834729   626Ap     1.837550  
     557App    1.838133   558App    1.840471   627Ap     1.842232  
     559App    1.842822   628Ap     1.845229   560App    1.847233  
     629Ap     1.848447   630Ap     1.849365   561App    1.852331  
     631Ap     1.854170   562App    1.858851   632Ap     1.863144  
     563App    1.864401   633Ap     1.866190   564App    1.868061  
     634Ap     1.871256   565App    1.875548   635Ap     1.876146  
     566App    1.877868   567App    1.878537   636Ap     1.882853  
     637Ap     1.884951   568App    1.885891   569App    1.890023  
     638Ap     1.891619   570App    1.894767   571App    1.900021  
     639Ap     1.901148   572App    1.901510   640Ap     1.902355  
     573App    1.905477   641Ap     1.906009   642Ap     1.908272  
     574App    1.910023   575App    1.914325   643Ap     1.915458  
     576App    1.915794   644Ap     1.916286   645Ap     1.921839  
     577App    1.923333   646Ap     1.925920   578App    1.927816  
     647Ap     1.930960   579App    1.932906   580App    1.933798  
     648Ap     1.934718   581App    1.938187   649Ap     1.938251  
     582App    1.938856   650Ap     1.941485   583App    1.944048  
     651Ap     1.944726   584App    1.946543   652Ap     1.948663  
     585App    1.951487   653Ap     1.954236   654Ap     1.956848  
     586App    1.959247   655Ap     1.961387   587App    1.962044  
     656Ap     1.963549   588App    1.964623   589App    1.968112  
     657Ap     1.968248   658Ap     1.973475   590App    1.974962  
     659Ap     1.978461   660Ap     1.982240   591App    1.983122  
     592App    1.983994   661Ap     1.985555   593App    1.985660  
     662Ap     1.992580   594App    1.997104   663Ap     1.999197  
     664Ap     2.000181   595App    2.001166   665Ap     2.004105  
     596App    2.005867   666Ap     2.007809   597App    2.009382  
     598App    2.011802   667Ap     2.012462   599App    2.016777  
     668Ap     2.019166   600App    2.021714   669Ap     2.023283  
     601App    2.024507   670Ap     2.024547   671Ap     2.028672  
     672Ap     2.032074   673Ap     2.035781   602App    2.036066  
     674Ap     2.039343   603App    2.039761   675Ap     2.041491  
     604App    2.042460   676Ap     2.044375   605App    2.045229  
     606App    2.045698   677Ap     2.047848   678Ap     2.052286  
     679Ap     2.055063   680Ap     2.061993   607App    2.064234  
     608App    2.065509   681Ap     2.066902   609App    2.067088  
     682Ap     2.070825   610App    2.072710   683Ap     2.076355  
     611App    2.076369   612App    2.083383   684Ap     2.084122  
     613App    2.086662   685Ap     2.087417   614App    2.089399  
     686Ap     2.090458   615App    2.091606   616App    2.095683  
     687Ap     2.097933   688Ap     2.100304   617App    2.103511  
     618App    2.106948   689Ap     2.109716   619App    2.111412  
     620App    2.114320   690Ap     2.116232   621App    2.121987  
     691Ap     2.122218   692Ap     2.124506   622App    2.125962  
     623App    2.127169   624App    2.128206   693Ap     2.131429  
     694Ap     2.137074   625App    2.142004   695Ap     2.142755  
     626App    2.146117   696Ap     2.146810   627App    2.149791  
     697Ap     2.155670   628App    2.157709   698Ap     2.159192  
     629App    2.159427   699Ap     2.161192   700Ap     2.165090  
     630App    2.171217   631App    2.171489   632App    2.173829  
     701Ap     2.174679   702Ap     2.179883   633App    2.185141  
     703Ap     2.186004   634App    2.189681   704Ap     2.190276  
     705Ap     2.190932   706Ap     2.195474   635App    2.195669  
     636App    2.197934   637App    2.202686   707Ap     2.209762  
     708Ap     2.212587   638App    2.214464   709Ap     2.219339  
     639App    2.223115   710Ap     2.223875   640App    2.229119  
     711Ap     2.230019   641App    2.232674   712Ap     2.234938  
     713Ap     2.238679   642App    2.239084   714Ap     2.247135  
     643App    2.249439   644App    2.251729   715Ap     2.258087  
     645App    2.258671   646App    2.259932   716Ap     2.262438  
     717Ap     2.264130   718Ap     2.268244   647App    2.271012  
     648App    2.273015   719Ap     2.275476   649App    2.278273  
     720Ap     2.282977   650App    2.284023   721Ap     2.288194  
     722Ap     2.288934   651App    2.289073   652App    2.291455  
     723Ap     2.296743   653App    2.297539   724Ap     2.301359  
     654App    2.302064   725Ap     2.306940   726Ap     2.308951  
     655App    2.310438   656App    2.316065   657App    2.321782  
     727Ap     2.322085   728Ap     2.323030   658App    2.326749  
     659App    2.328329   729Ap     2.329875   730Ap     2.334528  
     731Ap     2.337186   660App    2.337228   732Ap     2.339288  
     661App    2.341082   662App    2.344107   733Ap     2.344892  
     663App    2.350254   734Ap     2.351186   735Ap     2.353907  
     664App    2.358681   736Ap     2.362099   665App    2.362975  
     666App    2.364371   737Ap     2.366264   667App    2.370424  
     738Ap     2.375941   739Ap     2.378234   668App    2.379198  
     740Ap     2.387093   741Ap     2.391398   742Ap     2.394832  
     669App    2.397532   670App    2.400085   743Ap     2.401397  
     671App    2.403042   672App    2.404602   744Ap     2.406010  
     745Ap     2.411972   746Ap     2.414689   673App    2.415879  
     674App    2.419794   675App    2.420625   747Ap     2.422654  
     676App    2.430686   748Ap     2.431960   677App    2.433212  
     749Ap     2.435183   750Ap     2.437493   751Ap     2.441170  
     678App    2.444197   752Ap     2.449387   679App    2.451628  
     753Ap     2.456545   754Ap     2.457954   680App    2.461156  
     681App    2.463230   682App    2.465096   755Ap     2.469342  
     756Ap     2.471125   683App    2.472830   757Ap     2.475613  
     684App    2.476247   685App    2.480111   758Ap     2.482059  
     759Ap     2.484501   760Ap     2.486884   761Ap     2.489789  
     686App    2.493458   687App    2.496718   762Ap     2.500657  
     763Ap     2.501445   688App    2.503352   764Ap     2.504384  
     689App    2.505532   690App    2.509316   691App    2.514778  
     765Ap     2.516590   766Ap     2.522771   767Ap     2.525596  
     692App    2.526334   693App    2.528246   768Ap     2.529409  
     769Ap     2.535298   694App    2.536323   770Ap     2.537541  
     771Ap     2.542127   695App    2.542500   772Ap     2.543459  
     696App    2.548476   697App    2.549112   773Ap     2.552499  
     698App    2.556154   699App    2.556859   774Ap     2.558701  
     775Ap     2.562096   700App    2.566726   776Ap     2.570427  
     777Ap     2.573475   701App    2.574418   702App    2.575732  
     703App    2.581865   778Ap     2.584134   704App    2.584704  
     779Ap     2.591826   705App    2.594982   706App    2.598528  
     780Ap     2.598614   707App    2.603290   781Ap     2.603775  
     708App    2.609839   782Ap     2.610121   709App    2.616077  
     783Ap     2.616571   784Ap     2.622111   785Ap     2.623268  
     710App    2.627008   711App    2.630586   786Ap     2.632409  
     712App    2.633021   787Ap     2.637224   713App    2.646408  
     788Ap     2.647436   789Ap     2.648862   714App    2.649433  
     790Ap     2.652552   715App    2.652897   791Ap     2.657635  
     716App    2.660456   717App    2.663651   792Ap     2.663859  
     718App    2.665156   793Ap     2.665228   794Ap     2.674696  
     719App    2.677846   720App    2.680518   795Ap     2.680746  
     721App    2.685441   796Ap     2.688457   722App    2.689524  
     797Ap     2.692376   798Ap     2.694160   723App    2.699698  
     799Ap     2.701072   800Ap     2.707397   724App    2.707565  
     725App    2.712187   801Ap     2.715686   726App    2.715732  
     727App    2.719289   802Ap     2.720132   803Ap     2.723242  
     728App    2.727776   804Ap     2.729627   729App    2.733386  
     730App    2.734207   805Ap     2.734455   806Ap     2.737052  
     731App    2.743221   807Ap     2.744917   808Ap     2.749951  
     732App    2.751299   733App    2.754604   809Ap     2.757638  
     734App    2.757822   735App    2.764631   810Ap     2.766184  
     811Ap     2.769462   736App    2.771950   812Ap     2.774128  
     737App    2.774949   813Ap     2.780011   738App    2.782592  
     739App    2.786769   814Ap     2.790293   815Ap     2.797542  
     740App    2.797683   816Ap     2.799063   741App    2.803598  
     742App    2.805195   817Ap     2.808967   818Ap     2.810961  
     743App    2.815180   819Ap     2.818293   744App    2.822714  
     820Ap     2.823512   745App    2.833630   746App    2.836455  
     821Ap     2.837917   747App    2.840551   748App    2.848106  
     749App    2.851347   822Ap     2.852382   823Ap     2.860396  
     750App    2.861393   824Ap     2.865763   825Ap     2.872760  
     751App    2.879288   826Ap     2.886202   752App    2.886818  
     827Ap     2.896639   753App    2.902873   828Ap     2.904475  
     754App    2.904913   829Ap     2.906839   830Ap     2.916327  
     755App    2.919277   831Ap     2.920315   756App    2.922395  
     757App    2.928370   832Ap     2.929614   833Ap     2.933485  
     758App    2.935749   759App    2.939211   834Ap     2.947930  
     835Ap     2.959169   760App    2.966078   836Ap     2.968421  
     837Ap     2.974484   761App    2.976370   762App    2.982270  
     763App    2.983369   838Ap     2.983960   764App    2.987286  
     839Ap     2.998550   765App    2.999329   840Ap     3.006400  
     766App    3.012054   841Ap     3.012431   842Ap     3.017346  
     767App    3.017401   768App    3.019558   843Ap     3.024187  
     844Ap     3.035620   769App    3.035804   770App    3.043096  
     771App    3.046987   845Ap     3.048286   846Ap     3.051162  
     847Ap     3.055258   772App    3.058495   773App    3.061540  
     848Ap     3.063125   849Ap     3.064577   774App    3.073189  
     850Ap     3.075002   851Ap     3.078201   775App    3.083326  
     776App    3.090649   777App    3.090864   852Ap     3.092598  
     853Ap     3.094910   778App    3.107657   854Ap     3.107754  
     855Ap     3.116850   779App    3.118995   856Ap     3.121490  
     780App    3.124096   857Ap     3.125560   781App    3.125932  
     858Ap     3.131796   782App    3.132453   859Ap     3.137876  
     783App    3.140173   784App    3.150879   860Ap     3.153442  
     861Ap     3.157758   785App    3.168761   786App    3.171649  
     862Ap     3.172656   863Ap     3.174998   864Ap     3.176916  
     865Ap     3.181127   787App    3.183847   788App    3.190068  
     789App    3.196186   866Ap     3.197936   790App    3.207828  
     867Ap     3.208531   791App    3.212549   868Ap     3.213892  
     869Ap     3.220603   792App    3.222709   870Ap     3.226692  
     793App    3.228645   871Ap     3.230083   794App    3.236622  
     872Ap     3.241065   795App    3.247424   873Ap     3.250838  
     796App    3.251954   874Ap     3.254436   797App    3.257333  
     875Ap     3.260850   876Ap     3.264364   798App    3.269229  
     877Ap     3.269656   799App    3.273929   878Ap     3.278546  
     879Ap     3.280652   800App    3.285317   801App    3.292140  
     880Ap     3.292336   802App    3.294745   881Ap     3.300786  
     803App    3.301349   882Ap     3.303553   883Ap     3.309007  
     804App    3.310489   805App    3.312892   884Ap     3.315113  
     885Ap     3.323282   886Ap     3.329410   887Ap     3.338757  
     806App    3.338895   888Ap     3.339700   807App    3.341629  
     889Ap     3.343805   890Ap     3.349105   808App    3.349444  
     809App    3.350596   891Ap     3.357212   892Ap     3.360929  
     810App    3.364938   893Ap     3.365515   811App    3.367714  
     894Ap     3.379531   812App    3.381197   895Ap     3.383852  
     813App    3.385755   896Ap     3.386849   814App    3.392190  
     897Ap     3.392195   898Ap     3.395711   815App    3.401150  
     899Ap     3.402256   900Ap     3.405150   816App    3.408950  
     817App    3.414998   818App    3.415654   901Ap     3.416085  
     819App    3.419583   902Ap     3.422109   820App    3.423946  
     903Ap     3.427841   821App    3.430871   904Ap     3.433317  
     905Ap     3.435646   822App    3.438002   906Ap     3.439823  
     823App    3.446738   824App    3.449721   907Ap     3.450817  
     825App    3.452419   908Ap     3.457475   826App    3.457593  
     909Ap     3.464054   827App    3.465996   910Ap     3.472257  
     828App    3.472440   829App    3.479736   911Ap     3.482924  
     912Ap     3.489820   830App    3.490379   913Ap     3.496065  
     914Ap     3.499431   831App    3.504686   832App    3.507928  
     833App    3.508897   915Ap     3.511758   834App    3.516929  
     916Ap     3.521161   835App    3.521436   917Ap     3.525551  
     918Ap     3.527694   836App    3.531197   919Ap     3.531325  
     837App    3.533303   920Ap     3.548452   838App    3.550811  
     921Ap     3.553812   839App    3.554915   922Ap     3.557647  
     840App    3.562774   841App    3.564295   923Ap     3.564970  
     842App    3.570391   924Ap     3.571962   843App    3.576970  
     925Ap     3.578007   926Ap     3.583570   927Ap     3.586241  
     928Ap     3.594388   929Ap     3.596353   844App    3.596529  
     845App    3.601670   846App    3.605420   930Ap     3.609241  
     847App    3.613314   931Ap     3.615067   848App    3.618125  
     849App    3.623835   932Ap     3.624340   933Ap     3.628239  
     934Ap     3.633134   850App    3.634241   851App    3.637257  
     935Ap     3.640659   852App    3.650969   936Ap     3.651028  
     853App    3.652553   937Ap     3.657782   854App    3.659354  
     855App    3.660576   938Ap     3.662641   856App    3.668703  
     939Ap     3.670833   857App    3.672774   940Ap     3.677433  
     858App    3.679776   941Ap     3.691360   859App    3.692992  
     942Ap     3.700690   943Ap     3.707961   860App    3.710853  
     944Ap     3.713185   945Ap     3.718346   861App    3.725606  
     946Ap     3.728795   862App    3.733088   863App    3.734418  
     947Ap     3.740400   948Ap     3.744377   864App    3.750679  
     949Ap     3.755580   950Ap     3.757455   865App    3.758020  
     951Ap     3.762878   952Ap     3.766372   866App    3.766739  
     953Ap     3.768246   867App    3.769822   868App    3.776649  
     954Ap     3.778505   869App    3.782999   870App    3.786047  
     955Ap     3.786340   956Ap     3.790559   871App    3.793194  
     957Ap     3.800455   872App    3.802263   958Ap     3.803207  
     873App    3.809536   959Ap     3.814067   960Ap     3.817080  
     874App    3.817268   961Ap     3.820760   875App    3.821339  
     962Ap     3.824540   876App    3.824860   877App    3.827590  
     878App    3.829414   963Ap     3.831922   879App    3.833896  
     880App    3.840615   964Ap     3.842376   965Ap     3.846861  
     881App    3.848667   966Ap     3.857075   967Ap     3.864598  
     968Ap     3.867631   882App    3.869060   969Ap     3.871300  
     883App    3.873466   884App    3.874605   970Ap     3.875642  
     885App    3.876029   971Ap     3.881706   972Ap     3.888603  
     886App    3.892288   973Ap     3.893400   887App    3.897871  
     974Ap     3.899978   975Ap     3.907861   888App    3.910069  
     889App    3.915104   890App    3.916897   976Ap     3.917020  
     977Ap     3.921172   891App    3.924180   892App    3.926399  
     893App    3.937132   978Ap     3.941364   894App    3.950907  
     979Ap     3.951217   980Ap     3.962161   895App    3.966396  
     981Ap     3.970621   896App    3.975077   982Ap     3.980483  
     983Ap     3.984801   897App    3.985195   898App    3.992010  
     984Ap     3.996141   985Ap     3.998980   899App    4.001721  
     986Ap     4.007385   900App    4.011959   901App    4.013542  
     987Ap     4.021585   902App    4.023334   903App    4.030656  
     988Ap     4.031796   989Ap     4.036191   990Ap     4.042778  
     904App    4.043529   905App    4.048294   991Ap     4.050529  
     992Ap     4.053704   993Ap     4.055770   906App    4.058323  
     907App    4.065301   994Ap     4.065916   908App    4.066995  
     995Ap     4.069292   996Ap     4.073589   909App    4.081695  
     910App    4.082332   997Ap     4.083379   911App    4.090528  
     998Ap     4.092569   999Ap     4.095764   912App    4.096957  
    1000Ap     4.097023   913App    4.100586   914App    4.110661  
    1001Ap     4.113203   915App    4.114007   916App    4.114909  
    1002Ap     4.117034   917App    4.119210  1003Ap     4.124878  
    1004Ap     4.129133   918App    4.134403  1005Ap     4.138001  
     919App    4.138027   920App    4.142928  1006Ap     4.143387  
     921App    4.145910  1007Ap     4.150697   922App    4.151174  
    1008Ap     4.153375  1009Ap     4.157939   923App    4.158302  
     924App    4.162350   925App    4.163977  1010Ap     4.164655  
    1011Ap     4.168884  1012Ap     4.170300   926App    4.171539  
    1013Ap     4.172218   927App    4.177398  1014Ap     4.180755  
     928App    4.182248  1015Ap     4.186033   929App    4.189588  
     930App    4.191873  1016Ap     4.193609   931App    4.194456  
    1017Ap     4.198535  1018Ap     4.202238   932App    4.203044  
     933App    4.203889  1019Ap     4.207705   934App    4.208008  
    1020Ap     4.210128   935App    4.219108  1021Ap     4.219901  
     936App    4.222404  1022Ap     4.223835  1023Ap     4.232336  
     937App    4.233837   938App    4.237907  1024Ap     4.239096  
    1025Ap     4.240989  1026Ap     4.242352   939App    4.247518  
    1027Ap     4.248984  1028Ap     4.251899   940App    4.253817  
     941App    4.257362  1029Ap     4.261654  1030Ap     4.264445  
     942App    4.266047   943App    4.267694  1031Ap     4.268251  
     944App    4.274734  1032Ap     4.275976  1033Ap     4.277235  
     945App    4.281511  1034Ap     4.282095   946App    4.285295  
     947App    4.287929  1035Ap     4.289399   948App    4.289775  
    1036Ap     4.295981   949App    4.298917  1037Ap     4.300779  
     950App    4.302615  1038Ap     4.306013   951App    4.308359  
     952App    4.313525  1039Ap     4.315570  1040Ap     4.317048  
     953App    4.317652   954App    4.323226  1041Ap     4.324372  
     955App    4.326131  1042Ap     4.328989  1043Ap     4.334767  
     956App    4.335538   957App    4.342609  1044Ap     4.344153  
     958App    4.348771  1045Ap     4.350778   959App    4.357305  
    1046Ap     4.358221  1047Ap     4.361589  1048Ap     4.364086  
     960App    4.369599   961App    4.372888  1049Ap     4.373607  
    1050Ap     4.378038  1051Ap     4.378765   962App    4.381038  
     963App    4.383744  1052Ap     4.386832  1053Ap     4.390501  
     964App    4.390657   965App    4.394732  1054Ap     4.395217  
     966App    4.399072  1055Ap     4.402532  1056Ap     4.409636  
     967App    4.410086  1057Ap     4.413362  1058Ap     4.418852  
     968App    4.419100  1059Ap     4.421448   969App    4.424183  
     970App    4.427206  1060Ap     4.427930   971App    4.432874  
     972App    4.437408  1061Ap     4.438337  1062Ap     4.440164  
    1063Ap     4.444071   973App    4.446193  1064Ap     4.448027  
    1065Ap     4.449756   974App    4.451918   975App    4.454518  
    1066Ap     4.455250   976App    4.457837  1067Ap     4.459864  
    1068Ap     4.463032   977App    4.466275  1069Ap     4.468300  
     978App    4.472403  1070Ap     4.474502   979App    4.479565  
    1071Ap     4.480826   980App    4.481977  1072Ap     4.484594  
    1073Ap     4.485850   981App    4.486866   982App    4.488288  
    1074Ap     4.491847   983App    4.496613  1075Ap     4.499975  
     984App    4.501574  1076Ap     4.506671   985App    4.510938  
    1077Ap     4.512363   986App    4.520474   987App    4.521255  
    1078Ap     4.522570   988App    4.528486  1079Ap     4.530726  
    1080Ap     4.538167   989App    4.538972  1081Ap     4.542008  
     990App    4.542618  1082Ap     4.549654  1083Ap     4.551134  
     991App    4.551422  1084Ap     4.553651   992App    4.557726  
     993App    4.558671  1085Ap     4.560119   994App    4.563339  
    1086Ap     4.566595  1087Ap     4.569428   995App    4.574296  
    1088Ap     4.575705   996App    4.581584   997App    4.584487  
    1089Ap     4.584502  1090Ap     4.586705  1091Ap     4.589519  
    1092Ap     4.594649   998App    4.595450   999App    4.600526  
    1000App    4.601940  1093Ap     4.604562  1094Ap     4.606406  
    1095Ap     4.611301  1001App    4.611899  1002App    4.615030  
    1096Ap     4.619941  1003App    4.622384  1097Ap     4.624841  
    1004App    4.627531  1098Ap     4.629706  1099Ap     4.633574  
    1005App    4.634712  1100Ap     4.639651  1006App    4.641227  
    1007App    4.642292  1101Ap     4.648449  1008App    4.653035  
    1102Ap     4.654875  1103Ap     4.664123  1009App    4.664145  
    1010App    4.666403  1011App    4.669412  1104Ap     4.669419  
    1105Ap     4.674812  1012App    4.678143  1106Ap     4.685332  
    1013App    4.687123  1107Ap     4.687150  1108Ap     4.693361  
    1014App    4.693539  1109Ap     4.697824  1015App    4.699640  
    1016App    4.701600  1017App    4.706892  1110Ap     4.706945  
    1018App    4.711209  1111Ap     4.711305  1019App    4.714955  
    1112Ap     4.717335  1020App    4.720401  1021App    4.726033  
    1113Ap     4.726674  1022App    4.732311  1114Ap     4.734344  
    1023App    4.744451  1115Ap     4.745269  1024App    4.745960  
    1116Ap     4.751282  1117Ap     4.757151  1025App    4.759225  
    1026App    4.761750  1118Ap     4.765414  1027App    4.769184  
    1119Ap     4.771346  1028App    4.775070  1029App    4.778279  
    1120Ap     4.779330  1121Ap     4.780766  1122Ap     4.783108  
    1030App    4.784081  1123Ap     4.786995  1031App    4.787785  
    1124Ap     4.793631  1032App    4.795759  1033App    4.801496  
    1125Ap     4.804248  1034App    4.804621  1126Ap     4.805970  
    1035App    4.808394  1127Ap     4.810937  1128Ap     4.819518  
    1036App    4.821061  1129Ap     4.823467  1037App    4.829169  
    1130Ap     4.830746  1038App    4.832883  1131Ap     4.833028  
    1039App    4.836552  1132Ap     4.843232  1040App    4.846297  
    1041App    4.849428  1133Ap     4.851808  1134Ap     4.853844  
    1042App    4.856157  1043App    4.858377  1135Ap     4.866048  
    1044App    4.866949  1136Ap     4.873667  1045App    4.877389  
    1137Ap     4.878601  1046App    4.881468  1138Ap     4.885679  
    1047App    4.889400  1139Ap     4.890936  1140Ap     4.893398  
    1048App    4.894514  1141Ap     4.898349  1142Ap     4.899215  
    1049App    4.905004  1050App    4.908252  1143Ap     4.911631  
    1144Ap     4.914129  1051App    4.917304  1145Ap     4.917772  
    1052App    4.919716  1146Ap     4.919826  1053App    4.928611  
    1147Ap     4.929599  1148Ap     4.931678  1054App    4.936551  
    1149Ap     4.936754  1055App    4.944370  1150Ap     4.946521  
    1151Ap     4.947879  1056App    4.953437  1057App    4.956108  
    1058App    4.958941  1152Ap     4.964593  1153Ap     4.966073  
    1059App    4.973524  1060App    4.976416  1154Ap     4.980612  
    1155Ap     4.982847  1061App    4.985915  1156Ap     4.987549  
    1062App    4.990563  1157Ap     4.992214  1158Ap     5.000443  
    1063App    5.003315  1064App    5.008858  1159Ap     5.009440  
    1065App    5.009973  1066App    5.018591  1067App    5.021615  
    1160Ap     5.023301  1068App    5.026576  1161Ap     5.027162  
    1069App    5.037298  1162Ap     5.040637  1163Ap     5.042406  
    1070App    5.050109  1071App    5.058727  1164Ap     5.059613  
    1165Ap     5.063241  1072App    5.065324  1166Ap     5.069213  
    1073App    5.071330  1167Ap     5.072760  1074App    5.074637  
    1168Ap     5.078363  1169Ap     5.082322  1075App    5.090733  
    1170Ap     5.093064  1076App    5.095740  1171Ap     5.098106  
    1077App    5.100745  1172Ap     5.106831  1078App    5.108234  
    1079App    5.109948  1080App    5.117562  1173Ap     5.119191  
    1174Ap     5.122975  1081App    5.123884  1175Ap     5.124426  
    1082App    5.129694  1176Ap     5.132638  1177Ap     5.139250  
    1083App    5.144428  1178Ap     5.145586  1084App    5.153219  
    1085App    5.157454  1179Ap     5.158684  1086App    5.158805  
    1180Ap     5.164508  1181Ap     5.172606  1087App    5.173155  
    1182Ap     5.179981  1088App    5.182058  1183Ap     5.190710  
    1089App    5.190872  1184Ap     5.197834  1090App    5.209576  
    1091App    5.211804  1185Ap     5.211930  1186Ap     5.215922  
    1092App    5.219298  1187Ap     5.220496  1188Ap     5.227125  
    1093App    5.227136  1189Ap     5.232403  1094App    5.232916  
    1095App    5.241016  1190Ap     5.246332  1191Ap     5.251259  
    1096App    5.254334  1192Ap     5.259097  1097App    5.263340  
    1193Ap     5.267057  1098App    5.270300  1194Ap     5.278560  
    1099App    5.279403  1195Ap     5.282482  1196Ap     5.288251  
    1100App    5.290606  1101App    5.293757  1197Ap     5.296181  
    1102App    5.300932  1198Ap     5.303756  1103App    5.304149  
    1199Ap     5.308229  1104App    5.317316  1200Ap     5.321640  
    1201Ap     5.327013  1105App    5.334662  1202Ap     5.335188  
    1106App    5.337071  1203Ap     5.355398  1204Ap     5.363847  
    1107App    5.364103  1205Ap     5.367790  1108App    5.369733  
    1206Ap     5.381390  1109App    5.383832  1110App    5.392444  
    1207Ap     5.397702  1111App    5.398764  1208Ap     5.404842  
    1112App    5.414302  1209Ap     5.417388  1210Ap     5.429082  
    1113App    5.429155  1114App    5.432123  1211Ap     5.435103  
    1115App    5.437509  1212Ap     5.443551  1116App    5.446481  
    1213Ap     5.448755  1214Ap     5.451791  1117App    5.455307  
    1118App    5.465858  1215Ap     5.466426  1119App    5.470336  
    1120App    5.477366  1216Ap     5.479382  1121App    5.482805  
    1122App    5.487020  1217Ap     5.490754  1218Ap     5.494743  
    1123App    5.502444  1219Ap     5.507888  1124App    5.510116  
    1220Ap     5.518398  1221Ap     5.519630  1222Ap     5.527217  
    1125App    5.527352  1223Ap     5.528668  1126App    5.529075  
    1224Ap     5.540489  1127App    5.541108  1225Ap     5.541512  
    1128App    5.548507  1129App    5.551533  1226Ap     5.551682  
    1130App    5.558331  1227Ap     5.559173  1228Ap     5.566541  
    1131App    5.569298  1132App    5.569451  1229Ap     5.573357  
    1133App    5.576718  1134App    5.583197  1230Ap     5.583337  
    1231Ap     5.594406  1135App    5.597302  1136App    5.601694  
    1232Ap     5.617146  1233Ap     5.625127  1137App    5.625398  
    1138App    5.626465  1234Ap     5.629154  1139App    5.640693  
    1235Ap     5.641147  1140App    5.641918  1236Ap     5.643854  
    1237Ap     5.650481  1141App    5.656980  1238Ap     5.658376  
    1142App    5.665970  1239Ap     5.669797  1143App    5.673413  
    1240Ap     5.673756  1241Ap     5.678158  1144App    5.686008  
    1242Ap     5.688976  1145App    5.691107  1243Ap     5.695090  
    1146App    5.701586  1244Ap     5.702351  1245Ap     5.709203  
    1147App    5.714831  1246Ap     5.715283  1148App    5.727025  
    1149App    5.749179  1247Ap     5.749182  1150App    5.755147  
    1248Ap     5.759119  1151App    5.764357  1249Ap     5.764968  
    1152App    5.773277  1250Ap     5.778656  1251Ap     5.784352  
    1153App    5.789625  1252Ap     5.790388  1154App    5.801318  
    1253Ap     5.806242  1155App    5.806397  1156App    5.818379  
    1254Ap     5.822209  1157App    5.828742  1255Ap     5.835464  
    1158App    5.836489  1256Ap     5.837429  1159App    5.842903  
    1160App    5.851981  1161App    5.855720  1257Ap     5.856708  
    1162App    5.867176  1258Ap     5.868875  1259Ap     5.883099  
    1163App    5.901727  1260Ap     5.905076  1261Ap     5.914380  
    1164App    5.919091  1262Ap     5.922281  1165App    5.923054  
    1263Ap     5.938393  1166App    5.939335  1264Ap     5.945833  
    1265Ap     5.952043  1167App    5.954505  1168App    5.967069  
    1266Ap     5.976143  1169App    5.978678  1267Ap     5.984791  
    1170App    5.987305  1268Ap     5.990035  1269Ap     5.995728  
    1171App    6.002744  1270Ap     6.014592  1172App    6.030117  
    1271Ap     6.035215  1173App    6.035583  1174App    6.036772  
    1272Ap     6.042147  1175App    6.053662  1273Ap     6.057661  
    1176App    6.064999  1274Ap     6.074415  1177App    6.076820  
    1275Ap     6.079976  1178App    6.083359  1276Ap     6.103432  
    1277Ap     6.110348  1179App    6.110396  1278Ap     6.116544  
    1180App    6.120304  1181App    6.128632  1279Ap     6.129729  
    1280Ap     6.140382  1182App    6.145996  1183App    6.158502  
    1281Ap     6.161546  1184App    6.171306  1282Ap     6.180604  
    1185App    6.185085  1186App    6.186615  1283Ap     6.188708  
    1187App    6.191627  1284Ap     6.197211  1188App    6.204462  
    1285Ap     6.212345  1189App    6.212931  1286Ap     6.217942  
    1190App    6.220900  1287Ap     6.224889  1288Ap     6.230093  
    1289Ap     6.234816  1191App    6.250582  1192App    6.258370  
    1290Ap     6.260094  1193App    6.266999  1291Ap     6.288165  
    1292Ap     6.295863  1194App    6.296272  1195App    6.300312  
    1196App    6.303366  1293Ap     6.314601  1197App    6.318338  
    1198App    6.337882  1294Ap     6.341566  1199App    6.343358  
    1295Ap     6.346719  1200App    6.364947  1296Ap     6.365610  
    1201App    6.373894  1297Ap     6.409645  1202App    6.421864  
    1298Ap     6.422256  1203App    6.428598  1299Ap     6.429765  
    1300Ap     6.439648  1204App    6.444249  1301Ap     6.447141  
    1302Ap     6.459893  1205App    6.460891  1303Ap     6.461634  
    1206App    6.466710  1304Ap     6.468411  1305Ap     6.506942  
    1207App    6.514662  1306Ap     6.517209  1208App    6.522404  
    1209App    6.527254  1210App    6.536375  1211App    6.574236  
    1307Ap     6.574729  1308Ap     6.596702  1212App    6.604990  
    1309Ap     6.622549  1310Ap     6.629952  1213App    6.634831  
    1311Ap     6.646299  1214App    6.653332  1312Ap     6.654332  
    1215App    6.674901  1313Ap     6.686206  1314Ap     6.688558  
    1216App    6.690065  1315Ap     6.696986  1217App    6.705738  
    1218App    6.710709  1316Ap     6.738902  1219App    6.743205  
    1317Ap     6.755778  1318Ap     6.781510  1220App    6.781886  
    1221App    6.786730  1319Ap     6.811765  1320Ap     6.856894  
    1222App    6.859664  1321Ap     6.864224  1223App    6.864459  
    1224App    6.871608  1322Ap     6.877473  1225App    6.883473  
    1323Ap     6.899440  1324Ap     6.948921  1226App    6.954922  
    1325Ap     7.048582  1227App    7.051256  1326Ap     7.054126  
    1327Ap     7.083268  1228App    7.083276  1229App    7.131923  
    1328Ap     7.181594  1230App    7.205221  1231App    7.206815  
    1232App    7.220007  1329Ap     7.222770  1330Ap     7.238175  
    1233App    7.250895  1234App    7.253888  1331Ap     7.258293  
    1235App    7.273598  1332Ap     7.274836  1333Ap     7.292027  
    1236App    7.338124  1334Ap     7.429950  1335Ap     7.434076  
    1237App    7.447588  1238App    7.450505  1336Ap     7.461290  
    1239App    7.464308  1240App    7.484381  1337Ap     7.485482  
    1241App    7.491277  1338Ap     7.494003  1339Ap     7.500088  
    1340Ap     7.515454  1341Ap     7.536136  1242App    7.541920  
    1342Ap     7.560648  1243App    7.562540  1343Ap     7.568277  
    1244App    7.576315  1344Ap     7.633230  1245App    7.635826  
    1246App    7.647320  1345Ap     7.733071  1247App    7.737406  
    1248App    7.748540  1346Ap     7.761103  1249App    7.770377  
    1347Ap     7.800733  1250App    7.815669  1348Ap     7.832533  
    1251App    7.834435  1349Ap     7.854920  1252App    7.855717  
    1253App    7.882115  1350Ap     7.908390  1254App    7.919813  
    1351Ap     7.923500  1352Ap     7.994256  1353Ap     8.011343  
    1354Ap     8.016258  1255App    8.017401  1355Ap     8.033598  
    1256App    8.038494  1356Ap     8.182809  1257App    8.187764  
    1357Ap     8.234419  1358Ap     8.238041  1258App    8.241507  
    1259App    8.247168  1359Ap     8.256120  1360Ap     8.302186  
    1260App    8.312670  1361Ap     8.384149  1261App    8.397118  
    1362Ap     8.488243  1363Ap     8.497719  1262App    8.500553  
    1263App    8.502174  1364Ap     8.505728  1365Ap     8.538592  
    1264App    8.549899  1265App    8.605413  1266App    8.894951  
    1366Ap     8.895072  1267App    8.937333  1367Ap     9.074990  
    1268App    9.089409  1368Ap     9.097115  1269App    9.106750  
    1369Ap     9.194425  1370Ap     9.466258  1270App    9.482918  
    1371Ap     9.695229  1372Ap     9.697261  1271App    9.699368  
    1272App    9.716201  1373Ap     9.885420  1374Ap     9.917242  
    1273App    9.921843  1274App    9.938171  1375Ap     9.974752  
    1275App   10.011373  1376Ap    10.012299  1377Ap    10.233573  
    1276App   10.240275  1378Ap    10.303435  1277App   10.322460  
    1379Ap    10.392275  1278App   10.398934  1380Ap    10.512677  
    1279App   10.536153  1381Ap    10.986133  1280App   11.001969  
    1281App   11.131355  1382Ap    11.132716  1282App   11.344480  
    1383Ap    11.358493  1283App   11.369860  1384Ap    11.401149  
    1385Ap    11.430409  1284App   11.431135  1386Ap    11.808901  
    1285App   11.831937  1387Ap    11.932970  1286App   12.004124  
    1388Ap    12.063412  1389Ap    12.078050  1287App   12.080946  
    1288App   12.122413  1390Ap    12.346920  1391Ap    12.464598  
    1289App   12.475960  1392Ap    12.689101  1393Ap    12.718440  
    1290App   12.723659  1394Ap    15.072754  1395Ap    15.884185  
    1291App   15.889713  1396Ap    17.080630  1292App   17.148775  
    1397Ap    17.496445  1293App   17.549772  1398Ap    18.214448  
    1294App   18.222100  1399Ap    19.812844  1295App   19.821516  
    1400Ap    20.359451  1296App   20.675013  1401Ap    20.969786  
    1297App   21.061296  1402Ap    21.195066  1298App   21.295745  
    1403Ap    21.784959  1404Ap    21.888597  1405Ap    22.671681  
    1299App   22.705205  1406Ap    23.135486  1407Ap    23.308308  
    1300App   23.407895  1408Ap    49.912102  1409Ap    51.272588  
    1301App   51.282524  1410Ap    53.701032  1302App   53.848058  
    1411Ap    54.557653  1303App   54.593343  1412Ap    55.746761  
    1304App   55.754199  1413Ap    58.825745  1414Ap    58.960285  
    1305App   58.974626  1306App   59.761730  1415Ap    60.494852  
    1307App   60.634890  1416Ap    60.818337  1308App   61.013338  
    1417Ap    61.961200  1418Ap    62.596869  1419Ap    63.708262  
    1309App   63.773565  1420Ap    64.563618  1421Ap    64.900837  
    1310App   65.095330  

    Final Occupation by Irrep:
             Ap   App 
    DOCC [    43,   35 ]
    NA   [    43,   35 ]
    NB   [    43,   35 ]

  @DF-RKS Final Energy:  -922.23201578437306

   => Energetics <=

    Nuclear Repulsion Energy =           1837.3306649843179912
    One-Electron Energy =               -4896.1100470939136358
    Two-Electron Energy =                2245.8746325313413763
    DFT Exchange-Correlation Energy =    -109.2924129587167812
    Empirical Dispersion Energy =          -0.0348532474019458
    VV10 Nonlocal Energy =                  0.0000000000000000
    Total Energy =                       -922.2320157843730613

Computation Completed


Properties will be evaluated at   0.000000,   0.000000,   0.000000 [a0]

Properties computed using the SCF density matrix


 Multipole Moments:

 ------------------------------------------------------------------------------------
     Multipole            Electronic (a.u.)      Nuclear  (a.u.)        Total (a.u.)
 ------------------------------------------------------------------------------------

 L = 1.  Multiply by 2.5417464519 to convert [e a0] to [Debye]
 Dipole X            :        228.9103073         -228.9101020            0.0002053
 Dipole Y            :          0.0000000           -0.0000000           -0.0000000
 Dipole Z            :        509.7039894         -509.7045283           -0.0005389
 Magnitude           :                                                    0.0005767

 ------------------------------------------------------------------------------------

*** tstop() called on atl1-1-03-004-6-2.pace.gatech.edu at Sat Jun 13 19:43:57 2026
Module time:
	user time   =   22242.39 seconds =     370.71 minutes
	system time =    1190.38 seconds =      19.84 minutes
	total time  =       3244 seconds =      54.07 minutes
Total time:
	user time   =   22242.39 seconds =     370.71 minutes
	system time =    1190.38 seconds =      19.84 minutes
	total time  =       3244 seconds =      54.07 minutes

    Psi4 stopped on: Saturday, 13 June 2026 07:44PM
    Psi4 wall time for execution: 0:54:11.04

*** Psi4 exiting successfully. Buy a developer a beer!
