
    -----------------------------------------------------------------------
          Psi4: An Open-Source Ab Initio Electronic Structure Package
                               Psi4 1.9.1 release

                         Git: Rev {} zzzzzzz 


    D. G. A. Smith, L. A. Burns, A. C. Simmonett, R. M. Parrish,
    M. C. Schieber, R. Galvelis, P. Kraus, H. Kruse, R. Di Remigio,
    A. Alenaizan, A. M. James, S. Lehtola, J. P. Misiewicz, M. Scheurer,
    R. A. Shaw, J. B. Schriber, Y. Xie, Z. L. Glick, D. A. Sirianni,
    J. S. O'Brien, J. M. Waldrop, A. Kumar, E. G. Hohenstein,
    B. P. Pritchard, B. R. Brooks, H. F. Schaefer III, A. Yu. Sokolov,
    K. Patkowski, A. E. DePrince III, U. Bozkaya, R. A. King,
    F. A. Evangelista, J. M. Turney, T. D. Crawford, C. D. Sherrill,
    J. Chem. Phys. 152(18) 184108 (2020). https://doi.org/10.1063/5.0006002

                            Additional Code Authors
    E. T. Seidl, C. L. Janssen, E. F. Valeev, M. L. Leininger,
    J. F. Gonthier, R. M. Richard, H. R. McAlexander, M. Saitow, X. Wang,
    P. Verma, M. H. Lechner, A. Jiang, S. Behnle, A. G. Heide,
    M. F. Herbst, and D. L. Poole

             Previous Authors, Complete List of Code Contributors,
                       and Citations for Specific Modules
    https://github.com/psi4/psi4/blob/master/codemeta.json
    https://github.com/psi4/psi4/graphs/contributors
    http://psicode.org/psi4manual/master/introduction.html#citing-psifour

    -----------------------------------------------------------------------


    Psi4 started on: Saturday, 13 June 2026 07:24PM

    Process ID: 2083553
    Host:       atl1-1-02-003-24-1.pace.gatech.edu
    PSIDATADIR: /storage/home/hcoda1/5/vlita3/.conda/envs/p4_qcml/share/psi4
    Memory:     250.0 GiB
    Threads:    10
    
  ==> Input QCSchema <==

--------------------------------------------------------------------------
{'driver': 'energy',
 'extras': {},
 'id': '291',
 'keywords': {},
 'model': {'basis': 'aug-cc-pvtz', 'method': 'b3lyp-d3'},
 'molecule': {'extras': {},
              'fix_com': True,
              'fix_orientation': True,
              'fragment_charges': [0.0, 0.0],
              'fragment_multiplicities': [1, 1],
              'fragments': [[0, 1, 2, 3, 4, 5, 6, 7, 8, 9, 10, 11, 12, 13, 14, 15, 16, 17, 18, 19, 20, 21, 22, 23, 24,
                             25, 26, 27, 28, 29, 30, 31, 32, 33, 34, 35, 36, 37, 38, 39, 40, 41, 42, 43, 44, 45, 46, 47,
                             48, 49, 50, 51, 52, 53, 54, 55],
                            [56, 57, 58, 59, 60, 61, 62, 63, 64, 65, 66, 67, 68, 69, 70, 71, 72, 73, 74, 75, 76, 77, 78,
                             79, 80, 81, 82, 83, 84, 85, 86, 87, 88, 89, 90, 91, 92, 93, 94, 95, 96, 97, 98, 99, 100,
                             101, 102, 103, 104, 105, 106, 107, 108, 109, 110, 111]],
              'geometry': [39.18725066, 24.74029443, 4.00810911, 37.91546498, 22.14947992, 3.77378307, 35.03363264,
                           22.26853266, 4.05535227, 33.7429497, 19.68527705, 3.82102623, 30.85922763, 19.81566815,
                           4.07613925, 29.56287551, 17.23808172, 3.82858513, 26.67726371, 17.37792145, 4.05535227,
                           25.37335269, 14.80600419, 3.78890088, 22.48774089, 14.95907201, 3.99866048, 21.17249151,
                           12.3909342, 3.72653992, 18.28876944, 12.55534038, 3.93818925, 16.9621817, 9.99287175,
                           3.67551731, 14.08034936, 10.16483683, 3.9060639, 12.74809244, 7.60425793, 3.66417896,
                           9.86814983, 7.77811273, 3.92685089, 8.53400318, 5.21564411, 3.71142211, 5.65595029,
                           5.38571946, 4.00621939, 4.34070091, 2.8138022, 3.80590842, 2.28845834, 3.00088509,
                           4.00432966, 38.81875407, 25.57933283, 5.86570989, 41.23760351, 24.59667525, 3.76811389,
                           38.46915474, 26.04798491, 2.57191726, 38.38222733, 21.31233124, 1.93318983, 38.68647324,
                           20.86635588, 5.21186465, 34.56120111, 23.10568134, 5.89594551, 34.26073465, 23.5516567,
                           2.61538096, 34.22860931, 18.8424592, 1.98610216, 34.50072987, 18.40782219, 5.27044616,
                           30.37356801, 20.65281683, 5.91484277, 30.10333718, 21.10257164, 2.63238849, 30.06365293,
                           16.39337414, 1.99744051, 30.30175842, 15.95495768, 5.28556397, 26.17648629, 18.2131804,
                           5.89027633, 25.94216025, 18.67049412, 2.60593233, 25.88168901, 13.96507607, 1.95964599,
                           26.09711779, 13.51532125, 5.24776945, 21.97940457, 15.79433096, 5.83169482, 21.76586551,
                           16.25353441, 2.54546109, 21.67893811, 11.5518958, 1.89728503, 21.89247716, 11.09647181,
                           5.18351876, 17.78610229, 13.3962685, 5.76933386, 17.56878379, 13.8516925, 2.48310013,
                           17.45540022, 9.14816417, 1.84248297, 17.68594681, 8.69651963, 5.1287167, 13.59468975,
                           11.01521359, 5.73909824, 13.3528048, 11.4574095, 2.45286451, 13.21863425, 6.7557709,
                           1.82925489, 13.48697536, 6.31168526, 5.1135989, 9.4032772, 8.63604839, 5.76177496,
                           9.12359773, 9.0631265, 2.47743095, 8.983758, 4.35959817, 1.87271859, 9.29178336, 3.92874061,
                           5.15517287, 5.21186465, 6.2493243, 5.84114345, 4.90005984, 6.66506404, 2.55868917,
                           4.72431531, 1.92563092, 1.9747638, 5.00966396, 1.52500898, 5.28367425, 9.39004912,
                           8.90249978, -3.87960774, 8.09936617, 6.31924416, -4.11393378, 5.21753383, 6.43829691,
                           -3.83236458, 3.94574815, 3.84748239, -4.06669062, 12.27188146, 8.77210867, -4.13661049,
                           13.57012331, 11.35158484, -3.88716664, 16.45384537, 11.20985538, -4.11393378, 17.75964613,
                           13.78177263, -3.84748239, 20.64525792, 13.62870482, -4.05724199, 21.95861758, 16.19684262,
                           -3.78512143, 24.84422937, 16.03243645, -3.99677076, 26.16892739, 18.5967948, -3.73409882,
                           29.05075973, 18.42294, -3.96464541, 30.38301665, 20.98540862, -3.72276047, 33.26295926,
                           20.80966409, -3.98732212, 34.5971059, 23.37213272, -3.77000362, 37.47515879, 23.20205737,
                           -4.0648009, 38.79040818, 25.77397463, -3.86637965, 40.84265075, 25.58878146, -4.0648009,
                           38.12144513, 27.06276784, -5.34414548, 37.91924443, 22.33845253, -5.89972496, 38.23104924,
                           21.92271278, -2.61727068, 34.14735109, 24.23006838, -1.93318983, 33.83932573, 24.65903621,
                           -5.21564411, 33.72783189, 19.95172843, -5.82035647, 34.00751135, 19.52465033, -2.53601246,
                           29.91247484, 21.83389565, -1.8878364, 29.64413373, 22.27609157, -5.17218041, 29.53641934,
                           17.57256324, -5.79767975, 29.78019401, 17.13225705, -2.51144602, 25.67759859, 19.43961265,
                           -1.90106448, 25.44516228, 19.8912572, -5.18729821, 25.34500679, 15.19150832, -5.82791537,
                           25.5623253, 14.73797405, -2.54168164, 21.45217098, 17.03777075, -1.95586654, 21.24052165,
                           17.49130502, -5.24210027, 21.15359425, 12.79344587, -5.89027633, 21.3671333, 12.33424242,
                           -2.6040426, 17.24942007, 14.62270076, -2.02011723, 17.03588102, 15.07245558, -5.30635096,
                           16.9546228, 10.37459643, -5.95074757, 17.18894884, 9.91728271, -2.66451384, 13.06934588,
                           12.19440269, -2.05791175, 12.82935067, 12.63281915, -5.34414548, 12.75754107, 7.93684973,
                           -5.97531401, 13.02777191, 7.48520518, -2.69285973, 8.9043895, 9.74531763, -2.04468367,
                           8.57179771, 5.48209549, -5.95641675, 8.87037443, 5.03612012, -2.67585219, 4.75077148,
                           7.27544558, -1.99177134, 4.44652557, 7.72142095, -5.27044616, 1.8953953, 3.99110158,
                           -3.82858513, 4.31424474, 3.00844399, -5.92618113, 4.66384408, 2.53979191, -2.63238849,
                           8.63037921, 10.17995464, -5.3309174, 38.40679377, 26.6621459, -2.03334531],
              'id': 4,
              'identifiers': {'molecular_formula': 'C36H76',
                              'molecule_hash': 'a26322121004cb994cc742c1069ba4ca192992d1'},
              'molecular_charge': 0.0,
              'molecular_multiplicity': 1,
              'name': 'C36H76',
              'provenance': {'creator': 'QCElemental',
                             'routine': 'qcelemental.molparse.from_string',
                             'version': '0.29.0'},
              'schema_name': 'qcschema_molecule',
              'schema_version': 2,
              'symbols': ['C', 'C', 'C', 'C', 'C', 'C', 'C', 'C', 'C', 'C', 'C', 'C', 'C', 'C', 'C', 'C', 'C', 'C', 'H',
                          'H', 'H', 'H', 'H', 'H', 'H', 'H', 'H', 'H', 'H', 'H', 'H', 'H', 'H', 'H', 'H', 'H', 'H', 'H',
                          'H', 'H', 'H', 'H', 'H', 'H', 'H', 'H', 'H', 'H', 'H', 'H', 'H', 'H', 'H', 'H', 'H', 'H', 'C',
                          'C', 'C', 'C', 'C', 'C', 'C', 'C', 'C', 'C', 'C', 'C', 'C', 'C', 'C', 'C', 'C', 'C', 'H', 'H',
                          'H', 'H', 'H', 'H', 'H', 'H', 'H', 'H', 'H', 'H', 'H', 'H', 'H', 'H', 'H', 'H', 'H', 'H', 'H',
                          'H', 'H', 'H', 'H', 'H', 'H', 'H', 'H', 'H', 'H', 'H', 'H', 'H', 'H', 'H', 'H', 'H'],
              'validated': True},
 'protocols': {},
 'provenance': {'creator': 'QCElemental', 'routine': 'qcelemental.models.results', 'version': '0.29.0'},
 'schema_name': 'qcschema_input',
 'schema_version': 1}
--------------------------------------------------------------------------

Scratch directory: /tmp/tmp5cnv0vlp_psi_scratch/
   => Libint2 <=

    Primary   basis highest AM E, G, H:  6, 6, 3
    Auxiliary basis highest AM E, G, H:  7, 7, 4
    Onebody   basis highest AM E, G, H:  -, -, -
    Solid Harmonics ordering:            Gaussian

*** tstart() called on atl1-1-02-003-24-1.pace.gatech.edu
*** at Sat Jun 13 19:24:21 2026

   => Loading Basis Set <=

    Name: AUG-CC-PVTZ
    Role: ORBITAL
    Keyword: BASIS
    atoms 1-18, 57-74   entry C          line   239 file /storage/home/hcoda1/5/vlita3/.conda/envs/p4_qcml/share/psi4/basis/aug-cc-pvtz.gbs 
    atoms 19-56, 75-112 entry H          line    40 file /storage/home/hcoda1/5/vlita3/.conda/envs/p4_qcml/share/psi4/basis/aug-cc-pvtz.gbs 

   => B3LYP-D3: Empirical Dispersion <=

    Grimme's -D3 (zero-damping) Dispersion Correction
    Grimme S.; Antony J.; Ehrlich S.; Krieg H. (2010), J. Chem. Phys., 132: 154104

        s6 =       1.000000
        s8 =       1.703000
       sr6 =       1.261000
    alpha6 =      14.000000
       sr8 =       1.000000


         ---------------------------------------------------------
                                   SCF
               by Justin Turney, Rob Parrish, Andy Simmonett
                          and Daniel G. A. Smith
                              RKS Reference
                       10 Threads, 256000 MiB Core
         ---------------------------------------------------------

  ==> Geometry <==

    Molecular point group: c1
    Full point group: C1

    Geometry (in Bohr), charge = 0, multiplicity = 1:

       Center              X                  Y                   Z               Mass       
    ------------   -----------------  -----------------  -----------------  -----------------
         C           39.187250660000    24.740294430000     4.008109110000    12.000000000000
         C           37.915464980000    22.149479920000     3.773783070000    12.000000000000
         C           35.033632640000    22.268532660000     4.055352270000    12.000000000000
         C           33.742949700000    19.685277050000     3.821026230000    12.000000000000
         C           30.859227630000    19.815668150000     4.076139250000    12.000000000000
         C           29.562875510000    17.238081720000     3.828585130000    12.000000000000
         C           26.677263710000    17.377921450000     4.055352270000    12.000000000000
         C           25.373352690000    14.806004190000     3.788900880000    12.000000000000
         C           22.487740890000    14.959072010000     3.998660480000    12.000000000000
         C           21.172491510000    12.390934200000     3.726539920000    12.000000000000
         C           18.288769440000    12.555340380000     3.938189250000    12.000000000000
         C           16.962181700000     9.992871750000     3.675517310000    12.000000000000
         C           14.080349360000    10.164836830000     3.906063900000    12.000000000000
         C           12.748092440000     7.604257930000     3.664178960000    12.000000000000
         C            9.868149830000     7.778112730000     3.926850890000    12.000000000000
         C            8.534003180000     5.215644110000     3.711422110000    12.000000000000
         C            5.655950290000     5.385719460000     4.006219390000    12.000000000000
         C            4.340700910000     2.813802200000     3.805908420000    12.000000000000
         H            2.288458340000     3.000885090000     4.004329660000     1.007825032230
         H           38.818754070000    25.579332830000     5.865709890000     1.007825032230
         H           41.237603510000    24.596675250000     3.768113890000     1.007825032230
         H           38.469154740000    26.047984910000     2.571917260000     1.007825032230
         H           38.382227330000    21.312331240000     1.933189830000     1.007825032230
         H           38.686473240000    20.866355880000     5.211864650000     1.007825032230
         H           34.561201110000    23.105681340000     5.895945510000     1.007825032230
         H           34.260734650000    23.551656700000     2.615380960000     1.007825032230
         H           34.228609310000    18.842459200000     1.986102160000     1.007825032230
         H           34.500729870000    18.407822190000     5.270446160000     1.007825032230
         H           30.373568010000    20.652816830000     5.914842770000     1.007825032230
         H           30.103337180000    21.102571640000     2.632388490000     1.007825032230
         H           30.063652930000    16.393374140000     1.997440510000     1.007825032230
         H           30.301758420000    15.954957680000     5.285563970000     1.007825032230
         H           26.176486290000    18.213180400000     5.890276330000     1.007825032230
         H           25.942160250000    18.670494120000     2.605932330000     1.007825032230
         H           25.881689010000    13.965076070000     1.959645990000     1.007825032230
         H           26.097117790000    13.515321250000     5.247769450000     1.007825032230
         H           21.979404570000    15.794330960000     5.831694820000     1.007825032230
         H           21.765865510000    16.253534410000     2.545461090000     1.007825032230
         H           21.678938110000    11.551895800000     1.897285030000     1.007825032230
         H           21.892477160000    11.096471810000     5.183518760000     1.007825032230
         H           17.786102290000    13.396268500000     5.769333860000     1.007825032230
         H           17.568783790000    13.851692500000     2.483100130000     1.007825032230
         H           17.455400220000     9.148164170000     1.842482970000     1.007825032230
         H           17.685946810000     8.696519630000     5.128716700000     1.007825032230
         H           13.594689750000    11.015213590000     5.739098240000     1.007825032230
         H           13.352804800000    11.457409500000     2.452864510000     1.007825032230
         H           13.218634250000     6.755770900000     1.829254890000     1.007825032230
         H           13.486975360000     6.311685260000     5.113598900000     1.007825032230
         H            9.403277200000     8.636048390000     5.761774960000     1.007825032230
         H            9.123597730000     9.063126500000     2.477430950000     1.007825032230
         H            8.983758000000     4.359598170000     1.872718590000     1.007825032230
         H            9.291783360000     3.928740610000     5.155172870000     1.007825032230
         H            5.211864650000     6.249324300000     5.841143450000     1.007825032230
         H            4.900059840000     6.665064040000     2.558689170000     1.007825032230
         H            4.724315310000     1.925630920000     1.974763800000     1.007825032230
         H            5.009663960000     1.525008980000     5.283674250000     1.007825032230
         C            9.390049120000     8.902499780000    -3.879607740000    12.000000000000
         C            8.099366170000     6.319244160000    -4.113933780000    12.000000000000
         C            5.217533830000     6.438296910000    -3.832364580000    12.000000000000
         C            3.945748150000     3.847482390000    -4.066690620000    12.000000000000
         C           12.271881460000     8.772108670000    -4.136610490000    12.000000000000
         C           13.570123310000    11.351584840000    -3.887166640000    12.000000000000
         C           16.453845370000    11.209855380000    -4.113933780000    12.000000000000
         C           17.759646130000    13.781772630000    -3.847482390000    12.000000000000
         C           20.645257920000    13.628704820000    -4.057241990000    12.000000000000
         C           21.958617580000    16.196842620000    -3.785121430000    12.000000000000
         C           24.844229370000    16.032436450000    -3.996770760000    12.000000000000
         C           26.168927390000    18.596794800000    -3.734098820000    12.000000000000
         C           29.050759730000    18.422940000000    -3.964645410000    12.000000000000
         C           30.383016650000    20.985408620000    -3.722760470000    12.000000000000
         C           33.262959260000    20.809664090000    -3.987322120000    12.000000000000
         C           34.597105900000    23.372132720000    -3.770003620000    12.000000000000
         C           37.475158790000    23.202057370000    -4.064800900000    12.000000000000
         C           38.790408180000    25.773974630000    -3.866379650000    12.000000000000
         H           40.842650750000    25.588781460000    -4.064800900000     1.007825032230
         H           38.121445130000    27.062767840000    -5.344145480000     1.007825032230
         H           37.919244430000    22.338452530000    -5.899724960000     1.007825032230
         H           38.231049240000    21.922712780000    -2.617270680000     1.007825032230
         H           34.147351090000    24.230068380000    -1.933189830000     1.007825032230
         H           33.839325730000    24.659036210000    -5.215644110000     1.007825032230
         H           33.727831890000    19.951728430000    -5.820356470000     1.007825032230
         H           34.007511350000    19.524650330000    -2.536012460000     1.007825032230
         H           29.912474840000    21.833895650000    -1.887836400000     1.007825032230
         H           29.644133730000    22.276091570000    -5.172180410000     1.007825032230
         H           29.536419340000    17.572563240000    -5.797679750000     1.007825032230
         H           29.780194010000    17.132257050000    -2.511446020000     1.007825032230
         H           25.677598590000    19.439612650000    -1.901064480000     1.007825032230
         H           25.445162280000    19.891257200000    -5.187298210000     1.007825032230
         H           25.345006790000    15.191508320000    -5.827915370000     1.007825032230
         H           25.562325300000    14.737974050000    -2.541681640000     1.007825032230
         H           21.452170980000    17.037770750000    -1.955866540000     1.007825032230
         H           21.240521650000    17.491305020000    -5.242100270000     1.007825032230
         H           21.153594250000    12.793445870000    -5.890276330000     1.007825032230
         H           21.367133300000    12.334242420000    -2.604042600000     1.007825032230
         H           17.249420070000    14.622700760000    -2.020117230000     1.007825032230
         H           17.035881020000    15.072455580000    -5.306350960000     1.007825032230
         H           16.954622800000    10.374596430000    -5.950747570000     1.007825032230
         H           17.188948840000     9.917282710000    -2.664513840000     1.007825032230
         H           13.069345880000    12.194402690000    -2.057911750000     1.007825032230
         H           12.829350670000    12.632819150000    -5.344145480000     1.007825032230
         H           12.757541070000     7.936849730000    -5.975314010000     1.007825032230
         H           13.027771910000     7.485205180000    -2.692859730000     1.007825032230
         H            8.904389500000     9.745317630000    -2.044683670000     1.007825032230
         H            8.571797710000     5.482095490000    -5.956416750000     1.007825032230
         H            8.870374430000     5.036120120000    -2.675852190000     1.007825032230
         H            4.750771480000     7.275445580000    -1.991771340000     1.007825032230
         H            4.446525570000     7.721420950000    -5.270446160000     1.007825032230
         H            1.895395300000     3.991101580000    -3.828585130000     1.007825032230
         H            4.314244740000     3.008443990000    -5.926181130000     1.007825032230
         H            4.663844080000     2.539791910000    -2.632388490000     1.007825032230
         H            8.630379210000    10.179954640000    -5.330917400000     1.007825032230
         H           38.406793770000    26.662145900000    -2.033345310000     1.007825032230

  Running in c1 symmetry.

  Rotational constants: A =      0.00674  B =      0.00014  C =      0.00014 [cm^-1]
  Rotational constants: A =    202.03768  B =      4.27015  C =      4.19674 [MHz]
  Nuclear repulsion = 3874.313543520549956

  Charge       = 0
  Multiplicity = 1
  Electrons    = 292
  Nalpha       = 146
  Nbeta        = 146

  ==> Algorithm <==

  SCF Algorithm Type is DF.
  DIIS enabled.
  MOM disabled.
  Fractional occupation disabled.
  Guess Type is SAD.
  Energy threshold   = 1.00e-06
  Density threshold  = 1.00e-06
  Integral threshold = 1.00e-12

  ==> Primary Basis <==

  Basis Set: AUG-CC-PVTZ
    Blend: AUG-CC-PVTZ
    Number of shells: 1188
    Number of basis functions: 3404
    Number of Cartesian functions: 3880
    Spherical Harmonics?: true
    Max angular momentum: 3

  ==> DFT Potential <==

   => LibXC <=

    Version 7.0.0
    S. Lehtola, C. Steigemann, M. J.T. Oliveira, and M. A.L. Marques.,  SoftwareX 7, 1–5 (2018) (10.1016/j.softx.2017.11.002)

   => Composite Functional: B3LYP-D3ZERO2B <= 

    B3LYP-d3zero2b Hyb-GGA Exchange-Correlation Functional

    P. J. Stephens, F. J. Devlin, C. F. Chabalowski, and M. J. Frisch.,  J. Phys. Chem. 98, 11623 (1994) (10.1021/j100096a001)

    Deriv               =              1
    GGA                 =           TRUE
    Meta                =          FALSE

    Exchange Hybrid     =           TRUE
    MP2 Hybrid          =          FALSE

   => Exchange Functionals <=

    0.0800   Slater exchange
    0.7200         Becke 88

   => Exact (HF) Exchange <=

    0.2000               HF 

   => Correlation Functionals <=

    0.1900   Vosko, Wilk & Nusair (VWN5_RPA)
    0.8100   Lee, Yang & Parr

   => LibXC Density Thresholds  <==

    XC_HYB_GGA_XC_B3LYP:  1.00E-15 

   => Molecular Quadrature <=

    Radial Scheme          =       TREUTLER
    Pruning Scheme         =           NONE
    Nuclear Scheme         =       TREUTLER

    Blocking Scheme        =         OCTREE
    BS radius alpha        =              1
    Pruning alpha          =              1
    Radial Points          =             75
    Spherical Points       =            302
    Total Points           =        2287807
    Total Blocks           =          15476
    Max Points             =            256
    Max Functions          =           1540
    Weights Tolerance      =       1.00E-15

   => Loading Basis Set <=

    Name: (AUG-CC-PVTZ AUX)
    Role: JKFIT
    Keyword: DF_BASIS_SCF
    atoms 1-18, 57-74   entry C          line   162 file /storage/home/hcoda1/5/vlita3/.conda/envs/p4_qcml/share/psi4/basis/aug-cc-pvtz-jkfit.gbs 
    atoms 19-56, 75-112 entry H          line    70 file /storage/home/hcoda1/5/vlita3/.conda/envs/p4_qcml/share/psi4/basis/aug-cc-pvtz-jkfit.gbs 

  ==> Integral Setup <==

  ==> DiskDFJK: Density-Fitted J/K Matrices <==

    J tasked:                  Yes
    K tasked:                  Yes
    wK tasked:                  No
    OpenMP threads:             10
    Integrals threads:          10
    Memory [MiB]:           172368
    Algorithm:                Disk
    Integral Cache:           NONE
    Schwarz Cutoff:          1E-12
    Fitting Condition:       1E-10

   => Auxiliary Basis Set <=

  Basis Set: (AUG-CC-PVTZ AUX)
    Blend: AUG-CC-PVTZ-JKFIT
    Number of shells: 2144
    Number of basis functions: 7240
    Number of Cartesian functions: 8896
    Spherical Harmonics?: true
    Max angular momentum: 4

  Minimum eigenvalue in the overlap matrix is 2.2061596341E-08.
  Reciprocal condition number of the overlap matrix is 6.8411741151E-10.
    Using canonical orthogonalization.
  Overall, 1 of 3404 possible MOs eliminated.


  ==> Pre-Iterations <==

  SCF Guess: Superposition of Atomic Densities via on-the-fly atomic UHF (no occupation information).

   -------------------------
    Irrep   Nso     Nmo    
   -------------------------
     A       3404    3403 
   -------------------------
    Total    3404    3403
   -------------------------

  ==> Iterations <==

                           Total Energy        Delta E     RMS |[F,P]|

   @DF-RKS iter SAD: -1414.76085622906180   -1.41476e+03   0.00000e+00 
   @DF-RKS iter   1: -1413.04247286468330    1.71838e+00   9.29836e-04 ADIIS/DIIS
   @DF-RKS iter   2: -1400.35798234101253    1.26845e+01   1.48365e-03 ADIIS/DIIS
   @DF-RKS iter   3: -1418.07990148756130   -1.77219e+01   1.84953e-04 ADIIS/DIIS
   @DF-RKS iter   4: -1418.28439082186583   -2.04489e-01   9.64344e-05 DIIS
   @DF-RKS iter   5: -1418.33848182867473   -5.40910e-02   2.01780e-05 DIIS
   @DF-RKS iter   6: -1418.34049505367466   -2.01322e-03   6.70279e-06 DIIS
   @DF-RKS iter   7: -1418.34074038141080   -2.45328e-04   1.93122e-06 DIIS
   @DF-RKS iter   8: -1418.34076158070638   -2.11993e-05   3.48962e-07 DIIS
   @DF-RKS iter   9: -1418.34076218003565   -5.99329e-07   1.44662e-07 DIIS
  Energy and wave function converged.


  ==> Post-Iterations <==

   Electrons on quadrature grid:
      Ntotal   =  292.0023165953 ; deviation = 2.317e-03 

    Orbital Energies [Eh]
    ---------------------

    Doubly Occupied:                                                      

       1A    -10.167244     2A    -10.167232     3A    -10.167202  
       4A    -10.167180     5A    -10.165284     6A    -10.165280  
       7A    -10.165275     8A    -10.165250     9A    -10.165177  
      10A    -10.165175    11A    -10.165121    12A    -10.165120  
      13A    -10.165104    14A    -10.165084    15A    -10.165063  
      16A    -10.165034    17A    -10.165026    18A    -10.164993  
      19A    -10.164989    20A    -10.164956    21A    -10.164946  
      22A    -10.164914    23A    -10.164911    24A    -10.164860  
      25A    -10.164854    26A    -10.164812    27A    -10.164797  
      28A    -10.164762    29A    -10.164753    30A    -10.164695  
      31A    -10.164685    32A    -10.164638    33A    -10.160392  
      34A    -10.160383    35A    -10.160369    36A    -10.160310  
      37A     -0.818027    38A     -0.815931    39A     -0.812708  
      40A     -0.810633    41A     -0.803725    42A     -0.801678  
      43A     -0.791272    44A     -0.789258    45A     -0.775432  
      46A     -0.773451    47A     -0.756406    48A     -0.754459  
      49A     -0.734426    50A     -0.732510    51A     -0.709794  
      52A     -0.707893    53A     -0.683045    54A     -0.681136  
      55A     -0.655095    56A     -0.653131    57A     -0.627146  
      58A     -0.625032    59A     -0.601846    60A     -0.599439  
      61A     -0.583324    62A     -0.582040    63A     -0.580384  
      64A     -0.578849    65A     -0.578023    66A     -0.575958  
      67A     -0.574977    68A     -0.572260    69A     -0.572165  
      70A     -0.571582    71A     -0.568710    72A     -0.567952  
      73A     -0.497810    74A     -0.492793    75A     -0.484457  
      76A     -0.483631    77A     -0.478780    78A     -0.473086  
      79A     -0.470694    80A     -0.459683    81A     -0.459027  
      82A     -0.446027    83A     -0.442826    84A     -0.436897  
      85A     -0.435795    86A     -0.434848    87A     -0.434172  
      88A     -0.430248    89A     -0.428168    90A     -0.425835  
      91A     -0.425017    92A     -0.421821    93A     -0.420644  
      94A     -0.413905    95A     -0.412925    96A     -0.411364  
      97A     -0.406456    98A     -0.398953    99A     -0.397059  
     100A     -0.395568   101A     -0.394889   102A     -0.393543  
     103A     -0.387109   104A     -0.380184   105A     -0.377215  
     106A     -0.376302   107A     -0.370320   108A     -0.365895  
     109A     -0.365099   110A     -0.364274   111A     -0.360836  
     112A     -0.359469   113A     -0.355444   114A     -0.350708  
     115A     -0.346633   116A     -0.344497   117A     -0.343772  
     118A     -0.341507   119A     -0.337184   120A     -0.335752  
     121A     -0.334284   122A     -0.334197   123A     -0.332904  
     124A     -0.332423   125A     -0.331866   126A     -0.331065  
     127A     -0.330811   128A     -0.329936   129A     -0.329381  
     130A     -0.329156   131A     -0.328305   132A     -0.328232  
     133A     -0.327431   134A     -0.323637   135A     -0.323223  
     136A     -0.320634   137A     -0.319257   138A     -0.318108  
     139A     -0.315373   140A     -0.314878   141A     -0.314259  
     142A     -0.314205   143A     -0.307645   144A     -0.307239  
     145A     -0.289208   146A     -0.288901  

    Virtual:                                                              

     147A     -0.010869   148A     -0.010082   149A     -0.009498  
     150A     -0.006513   151A     -0.006510   152A     -0.004565  
     153A     -0.002920   154A     -0.000617   155A      0.003026  
     156A      0.003551   157A      0.007266   158A      0.010028  
     159A      0.010553   160A      0.010770   161A      0.013954  
     162A      0.014076   163A      0.014673   164A      0.017610  
     165A      0.019926   166A      0.021749   167A      0.022182  
     168A      0.025707   169A      0.027960   170A      0.030973  
     171A      0.031485   172A      0.032130   173A      0.034386  
     174A      0.034737   175A      0.037246   176A      0.038484  
     177A      0.038834   178A      0.041320   179A      0.042503  
     180A      0.043598   181A      0.043783   182A      0.045088  
     183A      0.048014   184A      0.048287   185A      0.049190  
     186A      0.051439   187A      0.051904   188A      0.055258  
     189A      0.055929   190A      0.056939   191A      0.057145  
     192A      0.057317   193A      0.058254   194A      0.060899  
     195A      0.063471   196A      0.063678   197A      0.064683  
     198A      0.065784   199A      0.066813   200A      0.066882  
     201A      0.067559   202A      0.068029   203A      0.068559  
     204A      0.070817   205A      0.070826   206A      0.071694  
     207A      0.072214   208A      0.073872   209A      0.074057  
     210A      0.074838   211A      0.074919   212A      0.077237  
     213A      0.078549   214A      0.078865   215A      0.079015  
     216A      0.081879   217A      0.082308   218A      0.082926  
     219A      0.083406   220A      0.083629   221A      0.086285  
     222A      0.088717   223A      0.089260   224A      0.089928  
     225A      0.090594   226A      0.091291   227A      0.092060  
     228A      0.092513   229A      0.094030   230A      0.094306  
     231A      0.096512   232A      0.096706   233A      0.098332  
     234A      0.100473   235A      0.101350   236A      0.101934  
     237A      0.102117   238A      0.102369   239A      0.104476  
     240A      0.104548   241A      0.104871   242A      0.106885  
     243A      0.108406   244A      0.108805   245A      0.110166  
     246A      0.110681   247A      0.111598   248A      0.112268  
     249A      0.113139   250A      0.114713   251A      0.115132  
     252A      0.116457   253A      0.116549   254A      0.118171  
     255A      0.119122   256A      0.119129   257A      0.119780  
     258A      0.120120   259A      0.120411   260A      0.121245  
     261A      0.122019   262A      0.124410   263A      0.125449  
     264A      0.126523   265A      0.126884   266A      0.127070  
     267A      0.128463   268A      0.129066   269A      0.130055  
     270A      0.131758   271A      0.132373   272A      0.133098  
     273A      0.135520   274A      0.136426   275A      0.138061  
     276A      0.138121   277A      0.138410   278A      0.139638  
     279A      0.140336   280A      0.140680   281A      0.141929  
     282A      0.142735   283A      0.142982   284A      0.143028  
     285A      0.144087   286A      0.145553   287A      0.146797  
     288A      0.146826   289A      0.147742   290A      0.147851  
     291A      0.148309   292A      0.148623   293A      0.149552  
     294A      0.151472   295A      0.153510   296A      0.155485  
     297A      0.155741   298A      0.157253   299A      0.157412  
     300A      0.158349   301A      0.159304   302A      0.160748  
     303A      0.161551   304A      0.162089   305A      0.163840  
     306A      0.164791   307A      0.166324   308A      0.166504  
     309A      0.169300   310A      0.169929   311A      0.171335  
     312A      0.171380   313A      0.173227   314A      0.174186  
     315A      0.175171   316A      0.176954   317A      0.177827  
     318A      0.178587   319A      0.180868   320A      0.182195  
     321A      0.182614   322A      0.183764   323A      0.184296  
     324A      0.184836   325A      0.185329   326A      0.186312  
     327A      0.187284   328A      0.188240   329A      0.191388  
     330A      0.191469   331A      0.192478   332A      0.193749  
     333A      0.194238   334A      0.194411   335A      0.195235  
     336A      0.197140   337A      0.197495   338A      0.199009  
     339A      0.199397   340A      0.199863   341A      0.201038  
     342A      0.201615   343A      0.202797   344A      0.202807  
     345A      0.203263   346A      0.204109   347A      0.205853  
     348A      0.206547   349A      0.206965   350A      0.208032  
     351A      0.209032   352A      0.209593   353A      0.209739  
     354A      0.209957   355A      0.210666   356A      0.211776  
     357A      0.211920   358A      0.212438   359A      0.212673  
     360A      0.213958   361A      0.215248   362A      0.216888  
     363A      0.217219   364A      0.218362   365A      0.219667  
     366A      0.220490   367A      0.220873   368A      0.222284  
     369A      0.222646   370A      0.224501   371A      0.225532  
     372A      0.225761   373A      0.225926   374A      0.228148  
     375A      0.228357   376A      0.228867   377A      0.229300  
     378A      0.231372   379A      0.231983   380A      0.234768  
     381A      0.235552   382A      0.236275   383A      0.237517  
     384A      0.237631   385A      0.237719   386A      0.238871  
     387A      0.241703   388A      0.241972   389A      0.242572  
     390A      0.242979   391A      0.243202   392A      0.244012  
     393A      0.245171   394A      0.248479   395A      0.248534  
     396A      0.249477   397A      0.250528   398A      0.251270  
     399A      0.252089   400A      0.252854   401A      0.252941  
     402A      0.253336   403A      0.253898   404A      0.254808  
     405A      0.255952   406A      0.256943   407A      0.257703  
     408A      0.258226   409A      0.261708   410A      0.261728  
     411A      0.262032   412A      0.262786   413A      0.263375  
     414A      0.264518   415A      0.265283   416A      0.268486  
     417A      0.269781   418A      0.270417   419A      0.271346  
     420A      0.271572   421A      0.272253   422A      0.273854  
     423A      0.275103   424A      0.275329   425A      0.276121  
     426A      0.276535   427A      0.277110   428A      0.278279  
     429A      0.279528   430A      0.279834   431A      0.281955  
     432A      0.282278   433A      0.283724   434A      0.285164  
     435A      0.285181   436A      0.286834   437A      0.289213  
     438A      0.291648   439A      0.291801   440A      0.293963  
     441A      0.294463   442A      0.294945   443A      0.297620  
     444A      0.298337   445A      0.298547   446A      0.300017  
     447A      0.300765   448A      0.302379   449A      0.302630  
     450A      0.303470   451A      0.303502   452A      0.304182  
     453A      0.304860   454A      0.305710   455A      0.307948  
     456A      0.308865   457A      0.309709   458A      0.311409  
     459A      0.312328   460A      0.312714   461A      0.314041  
     462A      0.315374   463A      0.316714   464A      0.317298  
     465A      0.318844   466A      0.320011   467A      0.320337  
     468A      0.321060   469A      0.322515   470A      0.322943  
     471A      0.323455   472A      0.325496   473A      0.326234  
     474A      0.326604   475A      0.327677   476A      0.329081  
     477A      0.330219   478A      0.330414   479A      0.332322  
     480A      0.333280   481A      0.334210   482A      0.334907  
     483A      0.335611   484A      0.336596   485A      0.337014  
     486A      0.337896   487A      0.339654   488A      0.339823  
     489A      0.341757   490A      0.342045   491A      0.343912  
     492A      0.344089   493A      0.344256   494A      0.345040  
     495A      0.347835   496A      0.348976   497A      0.349349  
     498A      0.349675   499A      0.350694   500A      0.351822  
     501A      0.353272   502A      0.353302   503A      0.354192  
     504A      0.354539   505A      0.355979   506A      0.358328  
     507A      0.359609   508A      0.360402   509A      0.361610  
     510A      0.361808   511A      0.364700   512A      0.364962  
     513A      0.365450   514A      0.366651   515A      0.367326  
     516A      0.368265   517A      0.368385   518A      0.370261  
     519A      0.371775   520A      0.372600   521A      0.372712  
     522A      0.373810   523A      0.373841   524A      0.376704  
     525A      0.377846   526A      0.378864   527A      0.379522  
     528A      0.380404   529A      0.381287   530A      0.382436  
     531A      0.383184   532A      0.385158   533A      0.385985  
     534A      0.386554   535A      0.386600   536A      0.387451  
     537A      0.387856   538A      0.388054   539A      0.389981  
     540A      0.390374   541A      0.392486   542A      0.394531  
     543A      0.396576   544A      0.397017   545A      0.398471  
     546A      0.399656   547A      0.399774   548A      0.400976  
     549A      0.401559   550A      0.403919   551A      0.404966  
     552A      0.405317   553A      0.405547   554A      0.411750  
     555A      0.412210   556A      0.412629   557A      0.413101  
     558A      0.413494   559A      0.414713   560A      0.414724  
     561A      0.417929   562A      0.418247   563A      0.418591  
     564A      0.419284   565A      0.419982   566A      0.420584  
     567A      0.421729   568A      0.424442   569A      0.424778  
     570A      0.425026   571A      0.425802   572A      0.426187  
     573A      0.427236   574A      0.428647   575A      0.428754  
     576A      0.430380   577A      0.431457   578A      0.432486  
     579A      0.433560   580A      0.434374   581A      0.435253  
     582A      0.436125   583A      0.436267   584A      0.436774  
     585A      0.437725   586A      0.437895   587A      0.439028  
     588A      0.440163   589A      0.440922   590A      0.441056  
     591A      0.442230   592A      0.442337   593A      0.445446  
     594A      0.445875   595A      0.446080   596A      0.446217  
     597A      0.447549   598A      0.448570   599A      0.448622  
     600A      0.449867   601A      0.453467   602A      0.454252  
     603A      0.454761   604A      0.455353   605A      0.457664  
     606A      0.458578   607A      0.459420   608A      0.460921  
     609A      0.461025   610A      0.462453   611A      0.464140  
     612A      0.465520   613A      0.467631   614A      0.468502  
     615A      0.468757   616A      0.470143   617A      0.472268  
     618A      0.472652   619A      0.474118   620A      0.474667  
     621A      0.476677   622A      0.476806   623A      0.478454  
     624A      0.479030   625A      0.479840   626A      0.481336  
     627A      0.484008   628A      0.484137   629A      0.484938  
     630A      0.485748   631A      0.486367   632A      0.487024  
     633A      0.487185   634A      0.487432   635A      0.488434  
     636A      0.488503   637A      0.489594   638A      0.491169  
     639A      0.492269   640A      0.492694   641A      0.493338  
     642A      0.494121   643A      0.495617   644A      0.496411  
     645A      0.497952   646A      0.498476   647A      0.499228  
     648A      0.501650   649A      0.502314   650A      0.504302  
     651A      0.504371   652A      0.506112   653A      0.508224  
     654A      0.508816   655A      0.509884   656A      0.510347  
     657A      0.512553   658A      0.513318   659A      0.516227  
     660A      0.517232   661A      0.518394   662A      0.521712  
     663A      0.522263   664A      0.522387   665A      0.524472  
     666A      0.524913   667A      0.525806   668A      0.527097  
     669A      0.528034   670A      0.529501   671A      0.530458  
     672A      0.530602   673A      0.531697   674A      0.532405  
     675A      0.538109   676A      0.539501   677A      0.540136  
     678A      0.540391   679A      0.541073   680A      0.541212  
     681A      0.543079   682A      0.543199   683A      0.543406  
     684A      0.543799   685A      0.545509   686A      0.546529  
     687A      0.547554   688A      0.549218   689A      0.550942  
     690A      0.553405   691A      0.555544   692A      0.555912  
     693A      0.558318   694A      0.559600   695A      0.560243  
     696A      0.561462   697A      0.561656   698A      0.561710  
     699A      0.561879   700A      0.564035   701A      0.565120  
     702A      0.565769   703A      0.566471   704A      0.566975  
     705A      0.568288   706A      0.570054   707A      0.570181  
     708A      0.571227   709A      0.571600   710A      0.572978  
     711A      0.573473   712A      0.574103   713A      0.577063  
     714A      0.577080   715A      0.577743   716A      0.579746  
     717A      0.581146   718A      0.582293   719A      0.582990  
     720A      0.584105   721A      0.584271   722A      0.585134  
     723A      0.585590   724A      0.586978   725A      0.587904  
     726A      0.590443   727A      0.591176   728A      0.591923  
     729A      0.594330   730A      0.594902   731A      0.596313  
     732A      0.597104   733A      0.598858   734A      0.599130  
     735A      0.600840   736A      0.601314   737A      0.601781  
     738A      0.602212   739A      0.602358   740A      0.603825  
     741A      0.604720   742A      0.605505   743A      0.607039  
     744A      0.609227   745A      0.609400   746A      0.610403  
     747A      0.612234   748A      0.613643   749A      0.614309  
     750A      0.616863   751A      0.617302   752A      0.617988  
     753A      0.620248   754A      0.621220   755A      0.621897  
     756A      0.622227   757A      0.622821   758A      0.624311  
     759A      0.626092   760A      0.626813   761A      0.629333  
     762A      0.630351   763A      0.630946   764A      0.632285  
     765A      0.633622   766A      0.635730   767A      0.636125  
     768A      0.639786   769A      0.639802   770A      0.643756  
     771A      0.644348   772A      0.646865   773A      0.647783  
     774A      0.649211   775A      0.649340   776A      0.652533  
     777A      0.653418   778A      0.654883   779A      0.655453  
     780A      0.655480   781A      0.657261   782A      0.658286  
     783A      0.658788   784A      0.658841   785A      0.661873  
     786A      0.663044   787A      0.664557   788A      0.664569  
     789A      0.665933   790A      0.667682   791A      0.670901  
     792A      0.671070   793A      0.673984   794A      0.674183  
     795A      0.675340   796A      0.675718   797A      0.679603  
     798A      0.679665   799A      0.683307   800A      0.683926  
     801A      0.686850   802A      0.688702   803A      0.689054  
     804A      0.691937   805A      0.693027   806A      0.693780  
     807A      0.694020   808A      0.697464   809A      0.697823  
     810A      0.698559   811A      0.698771   812A      0.699346  
     813A      0.701077   814A      0.701111   815A      0.703309  
     816A      0.705336   817A      0.705592   818A      0.707985  
     819A      0.709415   820A      0.711163   821A      0.711417  
     822A      0.712233   823A      0.714168   824A      0.715159  
     825A      0.715358   826A      0.716631   827A      0.716747  
     828A      0.720543   829A      0.720946   830A      0.721341  
     831A      0.723514   832A      0.725519   833A      0.725754  
     834A      0.727329   835A      0.728224   836A      0.728721  
     837A      0.728813   838A      0.729452   839A      0.730672  
     840A      0.731415   841A      0.733337   842A      0.735359  
     843A      0.735826   844A      0.740577   845A      0.740685  
     846A      0.741849   847A      0.743775   848A      0.744055  
     849A      0.745827   850A      0.746247   851A      0.747036  
     852A      0.748030   853A      0.749945   854A      0.750387  
     855A      0.752003   856A      0.752772   857A      0.754298  
     858A      0.755309   859A      0.756629   860A      0.757198  
     861A      0.763221   862A      0.763792   863A      0.764543  
     864A      0.765366   865A      0.765879   866A      0.766221  
     867A      0.767204   868A      0.768460   869A      0.770672  
     870A      0.771039   871A      0.775043   872A      0.775863  
     873A      0.779539   874A      0.780269   875A      0.782944  
     876A      0.783325   877A      0.785825   878A      0.786846  
     879A      0.787421   880A      0.787839   881A      0.788850  
     882A      0.788984   883A      0.792078   884A      0.792249  
     885A      0.793825   886A      0.794466   887A      0.794864  
     888A      0.797738   889A      0.797782   890A      0.799735  
     891A      0.800073   892A      0.801077   893A      0.801330  
     894A      0.801858   895A      0.802445   896A      0.803124  
     897A      0.805488   898A      0.805672   899A      0.807685  
     900A      0.808018   901A      0.809606   902A      0.809763  
     903A      0.810068   904A      0.811496   905A      0.811687  
     906A      0.812322   907A      0.813279   908A      0.816857  
     909A      0.817936   910A      0.818218   911A      0.818499  
     912A      0.819152   913A      0.819790   914A      0.821328  
     915A      0.821903   916A      0.823272   917A      0.823572  
     918A      0.824732   919A      0.825190   920A      0.826956  
     921A      0.827560   922A      0.828393   923A      0.829599  
     924A      0.829667   925A      0.831440   926A      0.832067  
     927A      0.833232   928A      0.834090   929A      0.836928  
     930A      0.839088   931A      0.839675   932A      0.841233  
     933A      0.844097   934A      0.844269   935A      0.846290  
     936A      0.846558   937A      0.847032   938A      0.847935  
     939A      0.849299   940A      0.850733   941A      0.852524  
     942A      0.854028   943A      0.854620   944A      0.855980  
     945A      0.857397   946A      0.858649   947A      0.859153  
     948A      0.861001   949A      0.861493   950A      0.864295  
     951A      0.865659   952A      0.866598   953A      0.866727  
     954A      0.869424   955A      0.869862   956A      0.870855  
     957A      0.872128   958A      0.872626   959A      0.875128  
     960A      0.876270   961A      0.876770   962A      0.878463  
     963A      0.879739   964A      0.882619   965A      0.883031  
     966A      0.884835   967A      0.886129   968A      0.887461  
     969A      0.888091   970A      0.888584   971A      0.888863  
     972A      0.890334   973A      0.892865   974A      0.895342  
     975A      0.896148   976A      0.896737   977A      0.897330  
     978A      0.897677   979A      0.899026   980A      0.901590  
     981A      0.902638   982A      0.905537   983A      0.908581  
     984A      0.908648   985A      0.910236   986A      0.912743  
     987A      0.914174   988A      0.915713   989A      0.917370  
     990A      0.919565   991A      0.922461   992A      0.922946  
     993A      0.923260   994A      0.925136   995A      0.927664  
     996A      0.928342   997A      0.929667   998A      0.930671  
     999A      0.932301  1000A      0.932874  1001A      0.933483  
    1002A      0.935471  1003A      0.936433  1004A      0.937783  
    1005A      0.938040  1006A      0.938188  1007A      0.940007  
    1008A      0.941380  1009A      0.942562  1010A      0.946037  
    1011A      0.947338  1012A      0.947783  1013A      0.949311  
    1014A      0.949887  1015A      0.950687  1016A      0.952525  
    1017A      0.954086  1018A      0.955130  1019A      0.957473  
    1020A      0.959492  1021A      0.960328  1022A      0.960902  
    1023A      0.963510  1024A      0.963990  1025A      0.965357  
    1026A      0.965962  1027A      0.966348  1028A      0.968080  
    1029A      0.969505  1030A      0.970145  1031A      0.970950  
    1032A      0.971032  1033A      0.972176  1034A      0.972532  
    1035A      0.976930  1036A      0.977680  1037A      0.978352  
    1038A      0.979473  1039A      0.980982  1040A      0.981665  
    1041A      0.983085  1042A      0.984237  1043A      0.985400  
    1044A      0.985875  1045A      0.986273  1046A      0.989120  
    1047A      0.990106  1048A      0.990839  1049A      0.991516  
    1050A      0.992400  1051A      0.993880  1052A      0.995211  
    1053A      0.995770  1054A      0.996573  1055A      0.996635  
    1056A      0.999180  1057A      1.000858  1058A      1.001353  
    1059A      1.001935  1060A      1.002654  1061A      1.004328  
    1062A      1.004573  1063A      1.005825  1064A      1.005928  
    1065A      1.008935  1066A      1.011434  1067A      1.013259  
    1068A      1.014438  1069A      1.016596  1070A      1.017474  
    1071A      1.017871  1072A      1.019994  1073A      1.020592  
    1074A      1.021450  1075A      1.022437  1076A      1.023575  
    1077A      1.025360  1078A      1.026391  1079A      1.026537  
    1080A      1.027387  1081A      1.029226  1082A      1.030206  
    1083A      1.030802  1084A      1.033158  1085A      1.033391  
    1086A      1.035000  1087A      1.035653  1088A      1.036749  
    1089A      1.037515  1090A      1.037976  1091A      1.039100  
    1092A      1.039890  1093A      1.040856  1094A      1.044598  
    1095A      1.044987  1096A      1.045866  1097A      1.047084  
    1098A      1.048355  1099A      1.048718  1100A      1.049651  
    1101A      1.049940  1102A      1.051974  1103A      1.052837  
    1104A      1.052876  1105A      1.055158  1106A      1.056929  
    1107A      1.057388  1108A      1.059013  1109A      1.059538  
    1110A      1.059614  1111A      1.060706  1112A      1.061652  
    1113A      1.062755  1114A      1.064827  1115A      1.065271  
    1116A      1.066932  1117A      1.067213  1118A      1.070282  
    1119A      1.070395  1120A      1.071134  1121A      1.073084  
    1122A      1.074067  1123A      1.074437  1124A      1.075255  
    1125A      1.075331  1126A      1.076241  1127A      1.078409  
    1128A      1.079978  1129A      1.080870  1130A      1.081749  
    1131A      1.083142  1132A      1.083620  1133A      1.084943  
    1134A      1.087003  1135A      1.088016  1136A      1.089481  
    1137A      1.091542  1138A      1.092244  1139A      1.092390  
    1140A      1.093554  1141A      1.094839  1142A      1.096826  
    1143A      1.100755  1144A      1.101760  1145A      1.102084  
    1146A      1.102568  1147A      1.106293  1148A      1.107212  
    1149A      1.108658  1150A      1.109631  1151A      1.110357  
    1152A      1.110367  1153A      1.112215  1154A      1.114369  
    1155A      1.114432  1156A      1.115657  1157A      1.115853  
    1158A      1.116868  1159A      1.119847  1160A      1.120360  
    1161A      1.123596  1162A      1.124376  1163A      1.124493  
    1164A      1.125006  1165A      1.127280  1166A      1.129075  
    1167A      1.129433  1168A      1.131453  1169A      1.132541  
    1170A      1.134613  1171A      1.134700  1172A      1.135455  
    1173A      1.135862  1174A      1.136798  1175A      1.137123  
    1176A      1.138501  1177A      1.139998  1178A      1.140397  
    1179A      1.141943  1180A      1.144114  1181A      1.145783  
    1182A      1.146701  1183A      1.149237  1184A      1.153369  
    1185A      1.155725  1186A      1.156263  1187A      1.157377  
    1188A      1.158226  1189A      1.161977  1190A      1.162516  
    1191A      1.163180  1192A      1.164013  1193A      1.164813  
    1194A      1.165141  1195A      1.168319  1196A      1.169413  
    1197A      1.170639  1198A      1.172507  1199A      1.172913  
    1200A      1.173406  1201A      1.174490  1202A      1.175751  
    1203A      1.175845  1204A      1.177557  1205A      1.177672  
    1206A      1.178758  1207A      1.181493  1208A      1.183270  
    1209A      1.184939  1210A      1.186808  1211A      1.187605  
    1212A      1.187789  1213A      1.188773  1214A      1.189835  
    1215A      1.191449  1216A      1.191522  1217A      1.192587  
    1218A      1.195890  1219A      1.196042  1220A      1.201787  
    1221A      1.201865  1222A      1.203642  1223A      1.203868  
    1224A      1.204154  1225A      1.205467  1226A      1.206252  
    1227A      1.208749  1228A      1.208829  1229A      1.210035  
    1230A      1.210716  1231A      1.214081  1232A      1.214629  
    1233A      1.215022  1234A      1.216841  1235A      1.216886  
    1236A      1.217083  1237A      1.218057  1238A      1.220045  
    1239A      1.222576  1240A      1.222671  1241A      1.224485  
    1242A      1.226797  1243A      1.229510  1244A      1.230976  
    1245A      1.235146  1246A      1.235547  1247A      1.235685  
    1248A      1.237785  1249A      1.238972  1250A      1.239074  
    1251A      1.239541  1252A      1.241550  1253A      1.242108  
    1254A      1.243503  1255A      1.244851  1256A      1.245346  
    1257A      1.245983  1258A      1.250152  1259A      1.250247  
    1260A      1.253253  1261A      1.254304  1262A      1.254613  
    1263A      1.255610  1264A      1.256219  1265A      1.258753  
    1266A      1.258886  1267A      1.259200  1268A      1.259958  
    1269A      1.262638  1270A      1.262971  1271A      1.263204  
    1272A      1.265981  1273A      1.268620  1274A      1.270692  
    1275A      1.272593  1276A      1.274844  1277A      1.276192  
    1278A      1.276897  1279A      1.278024  1280A      1.278835  
    1281A      1.281337  1282A      1.282104  1283A      1.282933  
    1284A      1.283252  1285A      1.285015  1286A      1.286876  
    1287A      1.287069  1288A      1.287103  1289A      1.291913  
    1290A      1.292426  1291A      1.293957  1292A      1.295098  
    1293A      1.298847  1294A      1.300034  1295A      1.300256  
    1296A      1.302148  1297A      1.304588  1298A      1.305508  
    1299A      1.309018  1300A      1.311953  1301A      1.312402  
    1302A      1.313045  1303A      1.315243  1304A      1.316090  
    1305A      1.319391  1306A      1.323365  1307A      1.323757  
    1308A      1.325169  1309A      1.327354  1310A      1.327683  
    1311A      1.330078  1312A      1.332564  1313A      1.333032  
    1314A      1.335261  1315A      1.336217  1316A      1.336758  
    1317A      1.340166  1318A      1.340699  1319A      1.341602  
    1320A      1.341677  1321A      1.342936  1322A      1.343323  
    1323A      1.345434  1324A      1.348597  1325A      1.350965  
    1326A      1.351842  1327A      1.352104  1328A      1.353893  
    1329A      1.355232  1330A      1.356470  1331A      1.358826  
    1332A      1.360166  1333A      1.362769  1334A      1.362848  
    1335A      1.364742  1336A      1.366332  1337A      1.366763  
    1338A      1.368649  1339A      1.369216  1340A      1.371489  
    1341A      1.372203  1342A      1.373725  1343A      1.374354  
    1344A      1.375472  1345A      1.376891  1346A      1.377143  
    1347A      1.379118  1348A      1.380813  1349A      1.382351  
    1350A      1.383123  1351A      1.386526  1352A      1.386688  
    1353A      1.387560  1354A      1.387963  1355A      1.391210  
    1356A      1.392130  1357A      1.395749  1358A      1.396227  
    1359A      1.396342  1360A      1.396517  1361A      1.398397  
    1362A      1.399815  1363A      1.400029  1364A      1.404020  
    1365A      1.405057  1366A      1.405392  1367A      1.407186  
    1368A      1.408077  1369A      1.408286  1370A      1.409273  
    1371A      1.411459  1372A      1.412233  1373A      1.413434  
    1374A      1.414689  1375A      1.417178  1376A      1.418172  
    1377A      1.419978  1378A      1.421950  1379A      1.423559  
    1380A      1.425197  1381A      1.427569  1382A      1.428192  
    1383A      1.428743  1384A      1.431859  1385A      1.433559  
    1386A      1.436563  1387A      1.440906  1388A      1.441727  
    1389A      1.443336  1390A      1.444516  1391A      1.445373  
    1392A      1.447631  1393A      1.448953  1394A      1.449925  
    1395A      1.450753  1396A      1.451858  1397A      1.453635  
    1398A      1.456117  1399A      1.456339  1400A      1.457902  
    1401A      1.459022  1402A      1.462704  1403A      1.463479  
    1404A      1.466015  1405A      1.468107  1406A      1.469617  
    1407A      1.471094  1408A      1.473182  1409A      1.473637  
    1410A      1.477250  1411A      1.477440  1412A      1.479688  
    1413A      1.480484  1414A      1.482824  1415A      1.484429  
    1416A      1.484983  1417A      1.486840  1418A      1.488212  
    1419A      1.488235  1420A      1.491873  1421A      1.491889  
    1422A      1.494450  1423A      1.494615  1424A      1.496840  
    1425A      1.498067  1426A      1.498947  1427A      1.502508  
    1428A      1.502685  1429A      1.503570  1430A      1.505600  
    1431A      1.507190  1432A      1.507247  1433A      1.508098  
    1434A      1.508460  1435A      1.511384  1436A      1.512374  
    1437A      1.513202  1438A      1.516398  1439A      1.517039  
    1440A      1.518671  1441A      1.519290  1442A      1.519865  
    1443A      1.519994  1444A      1.520779  1445A      1.523115  
    1446A      1.523493  1447A      1.525272  1448A      1.525439  
    1449A      1.526378  1450A      1.528454  1451A      1.530086  
    1452A      1.532509  1453A      1.533123  1454A      1.533293  
    1455A      1.536222  1456A      1.536967  1457A      1.537638  
    1458A      1.539909  1459A      1.542622  1460A      1.543460  
    1461A      1.544520  1462A      1.547952  1463A      1.548198  
    1464A      1.549514  1465A      1.551578  1466A      1.552103  
    1467A      1.553169  1468A      1.556976  1469A      1.557173  
    1470A      1.558437  1471A      1.560323  1472A      1.561469  
    1473A      1.563282  1474A      1.566608  1475A      1.566829  
    1476A      1.568922  1477A      1.569490  1478A      1.570159  
    1479A      1.570338  1480A      1.571548  1481A      1.572436  
    1482A      1.572996  1483A      1.574798  1484A      1.575033  
    1485A      1.577636  1486A      1.578882  1487A      1.579970  
    1488A      1.580989  1489A      1.581848  1490A      1.583758  
    1491A      1.585665  1492A      1.587199  1493A      1.587342  
    1494A      1.590427  1495A      1.590845  1496A      1.592190  
    1497A      1.594513  1498A      1.595590  1499A      1.595723  
    1500A      1.597191  1501A      1.598375  1502A      1.602177  
    1503A      1.603823  1504A      1.603993  1505A      1.605923  
    1506A      1.606889  1507A      1.609313  1508A      1.612162  
    1509A      1.613816  1510A      1.614144  1511A      1.616024  
    1512A      1.617028  1513A      1.617524  1514A      1.620193  
    1515A      1.620837  1516A      1.624945  1517A      1.625620  
    1518A      1.627276  1519A      1.628982  1520A      1.629135  
    1521A      1.631345  1522A      1.631666  1523A      1.632435  
    1524A      1.633872  1525A      1.634971  1526A      1.636197  
    1527A      1.638419  1528A      1.640604  1529A      1.641363  
    1530A      1.644146  1531A      1.644246  1532A      1.647898  
    1533A      1.648664  1534A      1.650343  1535A      1.653487  
    1536A      1.654489  1537A      1.654570  1538A      1.656840  
    1539A      1.657874  1540A      1.659820  1541A      1.661076  
    1542A      1.662249  1543A      1.663458  1544A      1.666707  
    1545A      1.667932  1546A      1.668370  1547A      1.670299  
    1548A      1.672265  1549A      1.672929  1550A      1.674675  
    1551A      1.676224  1552A      1.676533  1553A      1.677628  
    1554A      1.678315  1555A      1.678659  1556A      1.680662  
    1557A      1.682135  1558A      1.683911  1559A      1.684830  
    1560A      1.685761  1561A      1.686860  1562A      1.687199  
    1563A      1.688311  1564A      1.692107  1565A      1.692494  
    1566A      1.693837  1567A      1.695626  1568A      1.695877  
    1569A      1.696867  1570A      1.697881  1571A      1.700277  
    1572A      1.703608  1573A      1.704775  1574A      1.704803  
    1575A      1.705955  1576A      1.706972  1577A      1.707563  
    1578A      1.708125  1579A      1.710035  1580A      1.711267  
    1581A      1.712515  1582A      1.713335  1583A      1.715284  
    1584A      1.716383  1585A      1.716747  1586A      1.717574  
    1587A      1.719492  1588A      1.721210  1589A      1.721475  
    1590A      1.722418  1591A      1.723206  1592A      1.724648  
    1593A      1.724734  1594A      1.725378  1595A      1.726597  
    1596A      1.727439  1597A      1.730051  1598A      1.731585  
    1599A      1.732044  1600A      1.733417  1601A      1.733909  
    1602A      1.734060  1603A      1.737421  1604A      1.737888  
    1605A      1.739492  1606A      1.739537  1607A      1.741248  
    1608A      1.742488  1609A      1.743113  1610A      1.744499  
    1611A      1.745605  1612A      1.746044  1613A      1.746673  
    1614A      1.748757  1615A      1.749339  1616A      1.751636  
    1617A      1.752103  1618A      1.756130  1619A      1.756921  
    1620A      1.758793  1621A      1.759558  1622A      1.760709  
    1623A      1.761032  1624A      1.763501  1625A      1.764319  
    1626A      1.766015  1627A      1.769496  1628A      1.770051  
    1629A      1.771032  1630A      1.771224  1631A      1.772635  
    1632A      1.774228  1633A      1.774896  1634A      1.777896  
    1635A      1.778040  1636A      1.779366  1637A      1.779596  
    1638A      1.781390  1639A      1.784163  1640A      1.785043  
    1641A      1.785988  1642A      1.786078  1643A      1.787278  
    1644A      1.787584  1645A      1.789966  1646A      1.790028  
    1647A      1.792136  1648A      1.792515  1649A      1.793827  
    1650A      1.794786  1651A      1.795480  1652A      1.797130  
    1653A      1.797626  1654A      1.800269  1655A      1.800425  
    1656A      1.802529  1657A      1.802600  1658A      1.803988  
    1659A      1.805285  1660A      1.806696  1661A      1.809021  
    1662A      1.809251  1663A      1.810380  1664A      1.810722  
    1665A      1.812695  1666A      1.815034  1667A      1.815630  
    1668A      1.817167  1669A      1.818518  1670A      1.820457  
    1671A      1.820733  1672A      1.821676  1673A      1.825725  
    1674A      1.826699  1675A      1.828178  1676A      1.828643  
    1677A      1.829528  1678A      1.831899  1679A      1.835187  
    1680A      1.835419  1681A      1.835708  1682A      1.836660  
    1683A      1.837814  1684A      1.840187  1685A      1.840797  
    1686A      1.841444  1687A      1.843250  1688A      1.844857  
    1689A      1.846278  1690A      1.847739  1691A      1.849377  
    1692A      1.849689  1693A      1.852762  1694A      1.853506  
    1695A      1.854243  1696A      1.856373  1697A      1.856653  
    1698A      1.858047  1699A      1.860242  1700A      1.860722  
    1701A      1.861332  1702A      1.864336  1703A      1.864434  
    1704A      1.865888  1705A      1.867967  1706A      1.869648  
    1707A      1.870207  1708A      1.871861  1709A      1.872878  
    1710A      1.874586  1711A      1.875861  1712A      1.877770  
    1713A      1.878047  1714A      1.880347  1715A      1.881094  
    1716A      1.881230  1717A      1.884944  1718A      1.888004  
    1719A      1.889980  1720A      1.891204  1721A      1.891999  
    1722A      1.893570  1723A      1.895553  1724A      1.896590  
    1725A      1.896984  1726A      1.899749  1727A      1.899795  
    1728A      1.900532  1729A      1.902602  1730A      1.903880  
    1731A      1.905423  1732A      1.907394  1733A      1.910872  
    1734A      1.912269  1735A      1.913844  1736A      1.914425  
    1737A      1.915695  1738A      1.918617  1739A      1.919457  
    1740A      1.921189  1741A      1.923768  1742A      1.924560  
    1743A      1.927682  1744A      1.928651  1745A      1.929292  
    1746A      1.930042  1747A      1.935944  1748A      1.937566  
    1749A      1.938033  1750A      1.939698  1751A      1.941472  
    1752A      1.942539  1753A      1.944232  1754A      1.949593  
    1755A      1.953155  1756A      1.956617  1757A      1.958222  
    1758A      1.959639  1759A      1.960468  1760A      1.961126  
    1761A      1.963655  1762A      1.965079  1763A      1.967197  
    1764A      1.968017  1765A      1.970098  1766A      1.972439  
    1767A      1.973068  1768A      1.973919  1769A      1.978224  
    1770A      1.978653  1771A      1.980406  1772A      1.982313  
    1773A      1.985026  1774A      1.987112  1775A      1.988489  
    1776A      1.989115  1777A      1.995185  1778A      1.995302  
    1779A      1.996905  1780A      1.999411  1781A      1.999476  
    1782A      2.001002  1783A      2.002300  1784A      2.005225  
    1785A      2.005568  1786A      2.007800  1787A      2.009734  
    1788A      2.010335  1789A      2.014202  1790A      2.015007  
    1791A      2.017978  1792A      2.018864  1793A      2.019289  
    1794A      2.022553  1795A      2.024733  1796A      2.026016  
    1797A      2.027958  1798A      2.031396  1799A      2.034023  
    1800A      2.034446  1801A      2.035339  1802A      2.037658  
    1803A      2.037794  1804A      2.040883  1805A      2.042059  
    1806A      2.044682  1807A      2.046324  1808A      2.047935  
    1809A      2.048079  1810A      2.048421  1811A      2.051608  
    1812A      2.053684  1813A      2.054697  1814A      2.058709  
    1815A      2.058923  1816A      2.062016  1817A      2.065250  
    1818A      2.066960  1819A      2.069173  1820A      2.070746  
    1821A      2.071389  1822A      2.073028  1823A      2.073284  
    1824A      2.075505  1825A      2.078310  1826A      2.079890  
    1827A      2.079947  1828A      2.082916  1829A      2.083691  
    1830A      2.088002  1831A      2.088101  1832A      2.090982  
    1833A      2.092199  1834A      2.093525  1835A      2.094310  
    1836A      2.095061  1837A      2.096013  1838A      2.096857  
    1839A      2.100794  1840A      2.102232  1841A      2.102321  
    1842A      2.104755  1843A      2.108150  1844A      2.111509  
    1845A      2.114594  1846A      2.114934  1847A      2.115517  
    1848A      2.116997  1849A      2.117498  1850A      2.118844  
    1851A      2.119582  1852A      2.124603  1853A      2.126500  
    1854A      2.126873  1855A      2.131852  1856A      2.132143  
    1857A      2.133557  1858A      2.134287  1859A      2.135570  
    1860A      2.137872  1861A      2.139108  1862A      2.141751  
    1863A      2.143342  1864A      2.146461  1865A      2.148872  
    1866A      2.149363  1867A      2.153854  1868A      2.156301  
    1869A      2.156407  1870A      2.162379  1871A      2.163808  
    1872A      2.164808  1873A      2.165807  1874A      2.167028  
    1875A      2.168705  1876A      2.170053  1877A      2.172869  
    1878A      2.173083  1879A      2.174093  1880A      2.174390  
    1881A      2.180684  1882A      2.183168  1883A      2.185147  
    1884A      2.186497  1885A      2.187853  1886A      2.188496  
    1887A      2.189041  1888A      2.191346  1889A      2.192527  
    1890A      2.195113  1891A      2.195495  1892A      2.196925  
    1893A      2.202896  1894A      2.203801  1895A      2.204492  
    1896A      2.205838  1897A      2.209572  1898A      2.211562  
    1899A      2.211960  1900A      2.212046  1901A      2.214428  
    1902A      2.216304  1903A      2.217174  1904A      2.220623  
    1905A      2.223261  1906A      2.224327  1907A      2.227163  
    1908A      2.232075  1909A      2.233812  1910A      2.235499  
    1911A      2.236514  1912A      2.239915  1913A      2.240578  
    1914A      2.245051  1915A      2.249995  1916A      2.252589  
    1917A      2.253082  1918A      2.254066  1919A      2.256106  
    1920A      2.257132  1921A      2.260198  1922A      2.261323  
    1923A      2.265303  1924A      2.269474  1925A      2.269773  
    1926A      2.272146  1927A      2.272813  1928A      2.273997  
    1929A      2.276759  1930A      2.278854  1931A      2.282151  
    1932A      2.284344  1933A      2.284778  1934A      2.289554  
    1935A      2.293418  1936A      2.294662  1937A      2.296618  
    1938A      2.296670  1939A      2.300897  1940A      2.303002  
    1941A      2.303609  1942A      2.305903  1943A      2.307071  
    1944A      2.307592  1945A      2.311681  1946A      2.312874  
    1947A      2.315766  1948A      2.316053  1949A      2.321018  
    1950A      2.321115  1951A      2.321541  1952A      2.323182  
    1953A      2.323439  1954A      2.326070  1955A      2.327401  
    1956A      2.328886  1957A      2.329061  1958A      2.332064  
    1959A      2.336664  1960A      2.339358  1961A      2.341607  
    1962A      2.343459  1963A      2.345652  1964A      2.346022  
    1965A      2.347277  1966A      2.349910  1967A      2.351499  
    1968A      2.352909  1969A      2.356590  1970A      2.357081  
    1971A      2.358737  1972A      2.361406  1973A      2.366283  
    1974A      2.368797  1975A      2.369580  1976A      2.374495  
    1977A      2.377263  1978A      2.377367  1979A      2.382982  
    1980A      2.386151  1981A      2.386960  1982A      2.388154  
    1983A      2.391159  1984A      2.392216  1985A      2.394507  
    1986A      2.400391  1987A      2.402383  1988A      2.403501  
    1989A      2.404980  1990A      2.407039  1991A      2.409486  
    1992A      2.411075  1993A      2.412023  1994A      2.415082  
    1995A      2.415395  1996A      2.417138  1997A      2.424023  
    1998A      2.424518  1999A      2.424998  2000A      2.426700  
    2001A      2.427427  2002A      2.429927  2003A      2.431462  
    2004A      2.432855  2005A      2.434894  2006A      2.435119  
    2007A      2.439303  2008A      2.439838  2009A      2.445820  
    2010A      2.447873  2011A      2.449280  2012A      2.451763  
    2013A      2.453300  2014A      2.456259  2015A      2.457163  
    2016A      2.464292  2017A      2.468465  2018A      2.471165  
    2019A      2.472112  2020A      2.474559  2021A      2.479055  
    2022A      2.483448  2023A      2.486738  2024A      2.491449  
    2025A      2.491830  2026A      2.496344  2027A      2.500016  
    2028A      2.500650  2029A      2.503063  2030A      2.507951  
    2031A      2.518897  2032A      2.520564  2033A      2.521488  
    2034A      2.526379  2035A      2.530338  2036A      2.531106  
    2037A      2.534294  2038A      2.536322  2039A      2.537022  
    2040A      2.547008  2041A      2.551219  2042A      2.553205  
    2043A      2.554812  2044A      2.555583  2045A      2.558560  
    2046A      2.568042  2047A      2.568471  2048A      2.573735  
    2049A      2.578010  2050A      2.589220  2051A      2.596660  
    2052A      2.599620  2053A      2.600282  2054A      2.602373  
    2055A      2.610069  2056A      2.611185  2057A      2.622635  
    2058A      2.622945  2059A      2.623744  2060A      2.625047  
    2061A      2.629831  2062A      2.630913  2063A      2.632388  
    2064A      2.634181  2065A      2.636388  2066A      2.640785  
    2067A      2.644456  2068A      2.648620  2069A      2.653657  
    2070A      2.656992  2071A      2.657259  2072A      2.661970  
    2073A      2.662214  2074A      2.667478  2075A      2.668366  
    2076A      2.673089  2077A      2.674787  2078A      2.682044  
    2079A      2.686609  2080A      2.689567  2081A      2.699169  
    2082A      2.703757  2083A      2.709600  2084A      2.715308  
    2085A      2.715513  2086A      2.720370  2087A      2.726729  
    2088A      2.735867  2089A      2.740531  2090A      2.740719  
    2091A      2.749255  2092A      2.752490  2093A      2.754445  
    2094A      2.759343  2095A      2.760082  2096A      2.766956  
    2097A      2.767176  2098A      2.770503  2099A      2.781705  
    2100A      2.783312  2101A      2.786202  2102A      2.791206  
    2103A      2.794627  2104A      2.797889  2105A      2.798274  
    2106A      2.800433  2107A      2.819471  2108A      2.822101  
    2109A      2.825805  2110A      2.829101  2111A      2.829390  
    2112A      2.832990  2113A      2.846327  2114A      2.849581  
    2115A      2.852446  2116A      2.856527  2117A      2.859527  
    2118A      2.861303  2119A      2.865572  2120A      2.868154  
    2121A      2.873200  2122A      2.877337  2123A      2.877509  
    2124A      2.884484  2125A      2.887989  2126A      2.889504  
    2127A      2.899752  2128A      2.905656  2129A      2.907999  
    2130A      2.908304  2131A      2.910549  2132A      2.917256  
    2133A      2.923702  2134A      2.950839  2135A      2.954350  
    2136A      2.955249  2137A      2.958267  2138A      2.963359  
    2139A      2.972410  2140A      2.984851  2141A      2.999515  
    2142A      2.999940  2143A      3.008057  2144A      3.019451  
    2145A      3.019922  2146A      3.069520  2147A      3.075119  
    2148A      3.079405  2149A      3.081429  2150A      3.099158  
    2151A      3.106831  2152A      3.108197  2153A      3.121682  
    2154A      3.123304  2155A      3.134811  2156A      3.139473  
    2157A      3.142226  2158A      3.159864  2159A      3.164966  
    2160A      3.168174  2161A      3.169378  2162A      3.171664  
    2163A      3.184416  2164A      3.197485  2165A      3.201745  
    2166A      3.204899  2167A      3.208518  2168A      3.210198  
    2169A      3.214583  2170A      3.218269  2171A      3.219124  
    2172A      3.223583  2173A      3.229506  2174A      3.237467  
    2175A      3.240652  2176A      3.242301  2177A      3.244780  
    2178A      3.245114  2179A      3.247225  2180A      3.248292  
    2181A      3.250109  2182A      3.251885  2183A      3.252972  
    2184A      3.253045  2185A      3.258678  2186A      3.268748  
    2187A      3.273296  2188A      3.282113  2189A      3.282210  
    2190A      3.286114  2191A      3.287224  2192A      3.291231  
    2193A      3.294364  2194A      3.298054  2195A      3.300997  
    2196A      3.302941  2197A      3.307488  2198A      3.315905  
    2199A      3.316771  2200A      3.318457  2201A      3.321075  
    2202A      3.321607  2203A      3.322956  2204A      3.326496  
    2205A      3.329043  2206A      3.333609  2207A      3.334012  
    2208A      3.337817  2209A      3.342836  2210A      3.345402  
    2211A      3.348126  2212A      3.352330  2213A      3.352564  
    2214A      3.358070  2215A      3.358285  2216A      3.358406  
    2217A      3.359194  2218A      3.363108  2219A      3.363931  
    2220A      3.374610  2221A      3.378470  2222A      3.378747  
    2223A      3.379946  2224A      3.383483  2225A      3.385737  
    2226A      3.390010  2227A      3.390651  2228A      3.394446  
    2229A      3.397012  2230A      3.397675  2231A      3.403160  
    2232A      3.404152  2233A      3.404343  2234A      3.407901  
    2235A      3.412350  2236A      3.412918  2237A      3.416280  
    2238A      3.417594  2239A      3.417692  2240A      3.424312  
    2241A      3.426251  2242A      3.430616  2243A      3.431410  
    2244A      3.434028  2245A      3.436472  2246A      3.436685  
    2247A      3.438470  2248A      3.440161  2249A      3.442800  
    2250A      3.444805  2251A      3.445064  2252A      3.451042  
    2253A      3.454109  2254A      3.455426  2255A      3.455830  
    2256A      3.457228  2257A      3.459192  2258A      3.461097  
    2259A      3.464127  2260A      3.465477  2261A      3.468625  
    2262A      3.469029  2263A      3.471740  2264A      3.476096  
    2265A      3.481648  2266A      3.481856  2267A      3.482900  
    2268A      3.488667  2269A      3.489405  2270A      3.494559  
    2271A      3.495310  2272A      3.495686  2273A      3.499724  
    2274A      3.501078  2275A      3.504143  2276A      3.506322  
    2277A      3.507044  2278A      3.509668  2279A      3.510460  
    2280A      3.513114  2281A      3.514221  2282A      3.514726  
    2283A      3.521631  2284A      3.521769  2285A      3.524794  
    2286A      3.527576  2287A      3.528840  2288A      3.530318  
    2289A      3.532463  2290A      3.534480  2291A      3.536434  
    2292A      3.536494  2293A      3.542339  2294A      3.544690  
    2295A      3.544834  2296A      3.549448  2297A      3.551554  
    2298A      3.554370  2299A      3.555472  2300A      3.557740  
    2301A      3.558333  2302A      3.558879  2303A      3.562806  
    2304A      3.566478  2305A      3.569018  2306A      3.569770  
    2307A      3.569930  2308A      3.570601  2309A      3.571250  
    2310A      3.572141  2311A      3.573451  2312A      3.574212  
    2313A      3.577318  2314A      3.577511  2315A      3.578043  
    2316A      3.578539  2317A      3.581162  2318A      3.582982  
    2319A      3.585948  2320A      3.587962  2321A      3.588478  
    2322A      3.589948  2323A      3.592250  2324A      3.593228  
    2325A      3.593375  2326A      3.595456  2327A      3.596247  
    2328A      3.598383  2329A      3.603868  2330A      3.604630  
    2331A      3.606969  2332A      3.608711  2333A      3.609271  
    2334A      3.610424  2335A      3.612981  2336A      3.616066  
    2337A      3.616292  2338A      3.621935  2339A      3.622702  
    2340A      3.624797  2341A      3.625680  2342A      3.627248  
    2343A      3.629469  2344A      3.630839  2345A      3.632149  
    2346A      3.632433  2347A      3.635463  2348A      3.639886  
    2349A      3.641856  2350A      3.643784  2351A      3.647583  
    2352A      3.648208  2353A      3.648893  2354A      3.651694  
    2355A      3.652464  2356A      3.653392  2357A      3.655323  
    2358A      3.658221  2359A      3.659048  2360A      3.661409  
    2361A      3.662167  2362A      3.663678  2363A      3.666988  
    2364A      3.668720  2365A      3.669947  2366A      3.672355  
    2367A      3.672585  2368A      3.674536  2369A      3.674963  
    2370A      3.676634  2371A      3.678091  2372A      3.679560  
    2373A      3.679891  2374A      3.684398  2375A      3.685044  
    2376A      3.685143  2377A      3.689051  2378A      3.690968  
    2379A      3.692551  2380A      3.695713  2381A      3.695886  
    2382A      3.696825  2383A      3.699748  2384A      3.700804  
    2385A      3.701946  2386A      3.704386  2387A      3.705142  
    2388A      3.706254  2389A      3.706301  2390A      3.708590  
    2391A      3.711297  2392A      3.717161  2393A      3.721424  
    2394A      3.721709  2395A      3.722270  2396A      3.723795  
    2397A      3.725125  2398A      3.725815  2399A      3.726984  
    2400A      3.727733  2401A      3.731228  2402A      3.739186  
    2403A      3.741404  2404A      3.744870  2405A      3.747549  
    2406A      3.748816  2407A      3.750007  2408A      3.750445  
    2409A      3.752410  2410A      3.755574  2411A      3.756186  
    2412A      3.758744  2413A      3.759200  2414A      3.761334  
    2415A      3.762670  2416A      3.764136  2417A      3.764319  
    2418A      3.766960  2419A      3.767525  2420A      3.768618  
    2421A      3.770044  2422A      3.770293  2423A      3.772478  
    2424A      3.772654  2425A      3.773507  2426A      3.775323  
    2427A      3.775838  2428A      3.777543  2429A      3.779806  
    2430A      3.780751  2431A      3.782346  2432A      3.783499  
    2433A      3.784775  2434A      3.785485  2435A      3.786190  
    2436A      3.789257  2437A      3.790545  2438A      3.793210  
    2439A      3.793297  2440A      3.795146  2441A      3.795296  
    2442A      3.797911  2443A      3.799186  2444A      3.800703  
    2445A      3.801263  2446A      3.804057  2447A      3.804779  
    2448A      3.806285  2449A      3.806669  2450A      3.809130  
    2451A      3.811743  2452A      3.814101  2453A      3.816530  
    2454A      3.818322  2455A      3.826630  2456A      3.828586  
    2457A      3.831146  2458A      3.832591  2459A      3.833925  
    2460A      3.834189  2461A      3.835918  2462A      3.837666  
    2463A      3.839007  2464A      3.843695  2465A      3.846895  
    2466A      3.848051  2467A      3.849561  2468A      3.856099  
    2469A      3.856316  2470A      3.858028  2471A      3.861161  
    2472A      3.869761  2473A      3.870477  2474A      3.873055  
    2475A      3.873716  2476A      3.874528  2477A      3.877413  
    2478A      3.879402  2479A      3.879795  2480A      3.882621  
    2481A      3.883196  2482A      3.888210  2483A      3.889085  
    2484A      3.889779  2485A      3.890759  2486A      3.891635  
    2487A      3.892024  2488A      3.893852  2489A      3.899477  
    2490A      3.900832  2491A      3.903021  2492A      3.905387  
    2493A      3.905761  2494A      3.907803  2495A      3.911799  
    2496A      3.912735  2497A      3.913284  2498A      3.922852  
    2499A      3.923757  2500A      3.928403  2501A      3.932208  
    2502A      3.932263  2503A      3.933493  2504A      3.933898  
    2505A      3.936863  2506A      3.938574  2507A      3.939584  
    2508A      3.941819  2509A      3.944836  2510A      3.946870  
    2511A      3.946994  2512A      3.948961  2513A      3.954755  
    2514A      3.957364  2515A      3.957377  2516A      3.961392  
    2517A      3.963204  2518A      3.965834  2519A      3.968189  
    2520A      3.969618  2521A      3.971866  2522A      3.971912  
    2523A      3.974488  2524A      3.976170  2525A      3.977686  
    2526A      3.980102  2527A      3.980433  2528A      3.982411  
    2529A      3.985665  2530A      3.988088  2531A      3.989518  
    2532A      3.992721  2533A      3.994611  2534A      3.995211  
    2535A      3.995355  2536A      3.998919  2537A      3.999238  
    2538A      4.000413  2539A      4.002554  2540A      4.004545  
    2541A      4.006697  2542A      4.008736  2543A      4.010888  
    2544A      4.012225  2545A      4.013473  2546A      4.015801  
    2547A      4.020773  2548A      4.024059  2549A      4.025209  
    2550A      4.029572  2551A      4.030175  2552A      4.030470  
    2553A      4.036570  2554A      4.037500  2555A      4.040002  
    2556A      4.040881  2557A      4.043022  2558A      4.045318  
    2559A      4.046615  2560A      4.051503  2561A      4.052038  
    2562A      4.056131  2563A      4.058577  2564A      4.061243  
    2565A      4.064049  2566A      4.064804  2567A      4.066359  
    2568A      4.075439  2569A      4.078077  2570A      4.080208  
    2571A      4.083255  2572A      4.085029  2573A      4.088244  
    2574A      4.090701  2575A      4.094212  2576A      4.095373  
    2577A      4.098330  2578A      4.098747  2579A      4.100406  
    2580A      4.103292  2581A      4.106796  2582A      4.107680  
    2583A      4.108900  2584A      4.111185  2585A      4.111459  
    2586A      4.113296  2587A      4.115971  2588A      4.118365  
    2589A      4.120787  2590A      4.122316  2591A      4.122869  
    2592A      4.125071  2593A      4.127079  2594A      4.129343  
    2595A      4.133830  2596A      4.137194  2597A      4.140308  
    2598A      4.141202  2599A      4.143290  2600A      4.144587  
    2601A      4.148101  2602A      4.149302  2603A      4.152916  
    2604A      4.155051  2605A      4.158762  2606A      4.159055  
    2607A      4.161576  2608A      4.163712  2609A      4.167291  
    2610A      4.167495  2611A      4.170283  2612A      4.171533  
    2613A      4.174947  2614A      4.175044  2615A      4.176622  
    2616A      4.178792  2617A      4.179841  2618A      4.180731  
    2619A      4.184368  2620A      4.186837  2621A      4.188087  
    2622A      4.190429  2623A      4.191376  2624A      4.193312  
    2625A      4.195224  2626A      4.200582  2627A      4.201538  
    2628A      4.202315  2629A      4.205627  2630A      4.207125  
    2631A      4.211077  2632A      4.213055  2633A      4.219138  
    2634A      4.219738  2635A      4.224676  2636A      4.224810  
    2637A      4.227868  2638A      4.229945  2639A      4.232147  
    2640A      4.234134  2641A      4.235214  2642A      4.236839  
    2643A      4.239836  2644A      4.244488  2645A      4.244863  
    2646A      4.248088  2647A      4.252416  2648A      4.254602  
    2649A      4.256861  2650A      4.259388  2651A      4.260416  
    2652A      4.263975  2653A      4.265290  2654A      4.267612  
    2655A      4.271347  2656A      4.271464  2657A      4.274476  
    2658A      4.274996  2659A      4.279204  2660A      4.282932  
    2661A      4.283583  2662A      4.285705  2663A      4.288515  
    2664A      4.289588  2665A      4.291243  2666A      4.292392  
    2667A      4.295001  2668A      4.297896  2669A      4.298122  
    2670A      4.298224  2671A      4.299774  2672A      4.300373  
    2673A      4.301248  2674A      4.303793  2675A      4.304132  
    2676A      4.306654  2677A      4.307760  2678A      4.309428  
    2679A      4.312386  2680A      4.313294  2681A      4.315470  
    2682A      4.318136  2683A      4.319923  2684A      4.323445  
    2685A      4.324091  2686A      4.326454  2687A      4.332860  
    2688A      4.335517  2689A      4.335711  2690A      4.341243  
    2691A      4.345282  2692A      4.348086  2693A      4.350795  
    2694A      4.351358  2695A      4.356555  2696A      4.357271  
    2697A      4.359312  2698A      4.360520  2699A      4.361042  
    2700A      4.363201  2701A      4.368184  2702A      4.368808  
    2703A      4.373933  2704A      4.374948  2705A      4.377258  
    2706A      4.379262  2707A      4.379880  2708A      4.385196  
    2709A      4.386732  2710A      4.394879  2711A      4.396327  
    2712A      4.399834  2713A      4.403904  2714A      4.408085  
    2715A      4.409083  2716A      4.411686  2717A      4.412584  
    2718A      4.413578  2719A      4.414942  2720A      4.416696  
    2721A      4.422083  2722A      4.422227  2723A      4.423596  
    2724A      4.427491  2725A      4.428432  2726A      4.428740  
    2727A      4.430205  2728A      4.431744  2729A      4.434498  
    2730A      4.435146  2731A      4.436867  2732A      4.442813  
    2733A      4.447113  2734A      4.447594  2735A      4.451786  
    2736A      4.456448  2737A      4.458760  2738A      4.464232  
    2739A      4.464304  2740A      4.468274  2741A      4.471357  
    2742A      4.475858  2743A      4.477748  2744A      4.480180  
    2745A      4.483703  2746A      4.486052  2747A      4.488363  
    2748A      4.488640  2749A      4.492143  2750A      4.496269  
    2751A      4.503998  2752A      4.506436  2753A      4.510144  
    2754A      4.512053  2755A      4.513603  2756A      4.514965  
    2757A      4.517984  2758A      4.519685  2759A      4.520860  
    2760A      4.521514  2761A      4.523149  2762A      4.524311  
    2763A      4.525605  2764A      4.526642  2765A      4.531201  
    2766A      4.533668  2767A      4.536733  2768A      4.539647  
    2769A      4.543251  2770A      4.548056  2771A      4.549120  
    2772A      4.549652  2773A      4.552236  2774A      4.554668  
    2775A      4.555173  2776A      4.555856  2777A      4.557118  
    2778A      4.558290  2779A      4.562071  2780A      4.563000  
    2781A      4.565441  2782A      4.567824  2783A      4.570305  
    2784A      4.570760  2785A      4.571234  2786A      4.575371  
    2787A      4.581820  2788A      4.585467  2789A      4.589915  
    2790A      4.591021  2791A      4.594886  2792A      4.596948  
    2793A      4.599154  2794A      4.604845  2795A      4.605280  
    2796A      4.607379  2797A      4.609029  2798A      4.612769  
    2799A      4.613850  2800A      4.620121  2801A      4.624311  
    2802A      4.626756  2803A      4.628823  2804A      4.632494  
    2805A      4.634256  2806A      4.635500  2807A      4.637652  
    2808A      4.638267  2809A      4.641018  2810A      4.644938  
    2811A      4.646577  2812A      4.650355  2813A      4.657570  
    2814A      4.662309  2815A      4.669141  2816A      4.670173  
    2817A      4.672480  2818A      4.675891  2819A      4.677188  
    2820A      4.678084  2821A      4.681158  2822A      4.689756  
    2823A      4.693250  2824A      4.697371  2825A      4.699311  
    2826A      4.701758  2827A      4.703788  2828A      4.712026  
    2829A      4.712916  2830A      4.717538  2831A      4.718268  
    2832A      4.718707  2833A      4.720076  2834A      4.722377  
    2835A      4.723473  2836A      4.726337  2837A      4.736497  
    2838A      4.737086  2839A      4.739451  2840A      4.741138  
    2841A      4.743127  2842A      4.746127  2843A      4.748693  
    2844A      4.751305  2845A      4.754052  2846A      4.755675  
    2847A      4.761608  2848A      4.762113  2849A      4.764532  
    2850A      4.768742  2851A      4.769765  2852A      4.771429  
    2853A      4.775464  2854A      4.779572  2855A      4.780575  
    2856A      4.785457  2857A      4.789655  2858A      4.793883  
    2859A      4.796211  2860A      4.798481  2861A      4.799297  
    2862A      4.802309  2863A      4.805050  2864A      4.805847  
    2865A      4.811487  2866A      4.813312  2867A      4.817951  
    2868A      4.818515  2869A      4.819678  2870A      4.824326  
    2871A      4.828398  2872A      4.829032  2873A      4.832558  
    2874A      4.833989  2875A      4.836252  2876A      4.840946  
    2877A      4.841372  2878A      4.842833  2879A      4.851000  
    2880A      4.852320  2881A      4.858306  2882A      4.858659  
    2883A      4.858853  2884A      4.860158  2885A      4.861383  
    2886A      4.869132  2887A      4.870042  2888A      4.876415  
    2889A      4.877410  2890A      4.881443  2891A      4.887264  
    2892A      4.887779  2893A      4.889394  2894A      4.895746  
    2895A      4.899614  2896A      4.902542  2897A      4.904265  
    2898A      4.908031  2899A      4.911792  2900A      4.912286  
    2901A      4.912775  2902A      4.917349  2903A      4.921819  
    2904A      4.922470  2905A      4.932921  2906A      4.934867  
    2907A      4.937007  2908A      4.942898  2909A      4.943492  
    2910A      4.944438  2911A      4.946141  2912A      4.947332  
    2913A      4.949497  2914A      4.951307  2915A      4.953577  
    2916A      4.955769  2917A      4.956510  2918A      4.956857  
    2919A      4.958495  2920A      4.959755  2921A      4.961850  
    2922A      4.962061  2923A      4.963929  2924A      4.967239  
    2925A      4.969654  2926A      4.972630  2927A      4.973260  
    2928A      4.974481  2929A      4.978458  2930A      4.981578  
    2931A      4.986191  2932A      4.989407  2933A      4.990135  
    2934A      4.991854  2935A      4.992447  2936A      4.997349  
    2937A      4.999005  2938A      4.999726  2939A      5.000038  
    2940A      5.004626  2941A      5.006364  2942A      5.010348  
    2943A      5.011708  2944A      5.012915  2945A      5.019160  
    2946A      5.021901  2947A      5.022323  2948A      5.024067  
    2949A      5.025177  2950A      5.025890  2951A      5.030907  
    2952A      5.032164  2953A      5.038942  2954A      5.039888  
    2955A      5.041645  2956A      5.043083  2957A      5.048314  
    2958A      5.050224  2959A      5.051795  2960A      5.052194  
    2961A      5.052771  2962A      5.058711  2963A      5.059655  
    2964A      5.060869  2965A      5.063892  2966A      5.064975  
    2967A      5.067304  2968A      5.067466  2969A      5.069004  
    2970A      5.069831  2971A      5.073778  2972A      5.075045  
    2973A      5.076700  2974A      5.078795  2975A      5.079110  
    2976A      5.085928  2977A      5.086189  2978A      5.088546  
    2979A      5.089172  2980A      5.090678  2981A      5.091267  
    2982A      5.095576  2983A      5.097569  2984A      5.102873  
    2985A      5.105428  2986A      5.106585  2987A      5.106677  
    2988A      5.109432  2989A      5.112648  2990A      5.116992  
    2991A      5.117288  2992A      5.118402  2993A      5.120012  
    2994A      5.125679  2995A      5.130401  2996A      5.131926  
    2997A      5.133343  2998A      5.136509  2999A      5.136812  
    3000A      5.139505  3001A      5.146695  3002A      5.147746  
    3003A      5.150593  3004A      5.152259  3005A      5.160902  
    3006A      5.162229  3007A      5.162872  3008A      5.163591  
    3009A      5.167025  3010A      5.169066  3011A      5.173639  
    3012A      5.176649  3013A      5.180472  3014A      5.183330  
    3015A      5.183663  3016A      5.184329  3017A      5.187988  
    3018A      5.189144  3019A      5.190114  3020A      5.194241  
    3021A      5.196502  3022A      5.199053  3023A      5.203732  
    3024A      5.207011  3025A      5.208371  3026A      5.213586  
    3027A      5.213814  3028A      5.214611  3029A      5.217101  
    3030A      5.219734  3031A      5.220552  3032A      5.224375  
    3033A      5.225284  3034A      5.225768  3035A      5.229914  
    3036A      5.230244  3037A      5.234850  3038A      5.235131  
    3039A      5.238393  3040A      5.241896  3041A      5.245157  
    3042A      5.245372  3043A      5.246781  3044A      5.248188  
    3045A      5.250042  3046A      5.256141  3047A      5.257340  
    3048A      5.257846  3049A      5.260024  3050A      5.261055  
    3051A      5.262840  3052A      5.264816  3053A      5.265207  
    3054A      5.265354  3055A      5.268662  3056A      5.269446  
    3057A      5.270129  3058A      5.274517  3059A      5.275884  
    3060A      5.281370  3061A      5.282514  3062A      5.285097  
    3063A      5.286997  3064A      5.290195  3065A      5.291925  
    3066A      5.292414  3067A      5.295848  3068A      5.296939  
    3069A      5.298617  3070A      5.300841  3071A      5.303587  
    3072A      5.306406  3073A      5.309039  3074A      5.309501  
    3075A      5.311808  3076A      5.313768  3077A      5.315187  
    3078A      5.316541  3079A      5.318081  3080A      5.318147  
    3081A      5.321191  3082A      5.321679  3083A      5.322638  
    3084A      5.324286  3085A      5.324767  3086A      5.325177  
    3087A      5.330845  3088A      5.334397  3089A      5.337054  
    3090A      5.338799  3091A      5.339939  3092A      5.342518  
    3093A      5.343002  3094A      5.344301  3095A      5.345301  
    3096A      5.357816  3097A      5.360431  3098A      5.362206  
    3099A      5.366559  3100A      5.367781  3101A      5.372172  
    3102A      5.374316  3103A      5.375433  3104A      5.378075  
    3105A      5.380921  3106A      5.383355  3107A      5.390989  
    3108A      5.391528  3109A      5.392508  3110A      5.392951  
    3111A      5.395933  3112A      5.404005  3113A      5.404116  
    3114A      5.406049  3115A      5.410561  3116A      5.412468  
    3117A      5.412625  3118A      5.414124  3119A      5.415550  
    3120A      5.418204  3121A      5.421355  3122A      5.425910  
    3123A      5.428488  3124A      5.431786  3125A      5.432457  
    3126A      5.435787  3127A      5.439723  3128A      5.450371  
    3129A      5.451113  3130A      5.453308  3131A      5.459738  
    3132A      5.461325  3133A      5.467416  3134A      5.467890  
    3135A      5.476924  3136A      5.479517  3137A      5.480617  
    3138A      5.482982  3139A      5.483498  3140A      5.486309  
    3141A      5.486874  3142A      5.489756  3143A      5.493959  
    3144A      5.494130  3145A      5.498604  3146A      5.498993  
    3147A      5.506523  3148A      5.513044  3149A      5.513411  
    3150A      5.518311  3151A      5.519783  3152A      5.522859  
    3153A      5.526854  3154A      5.531291  3155A      5.531396  
    3156A      5.532986  3157A      5.534404  3158A      5.535384  
    3159A      5.540364  3160A      5.548971  3161A      5.554201  
    3162A      5.555782  3163A      5.559431  3164A      5.561287  
    3165A      5.565519  3166A      5.578441  3167A      5.580036  
    3168A      5.584117  3169A      5.590271  3170A      5.593440  
    3171A      5.607079  3172A      5.615034  3173A      5.616346  
    3174A      5.618665  3175A      5.623631  3176A      5.626293  
    3177A      5.629575  3178A      5.632577  3179A      5.633515  
    3180A      5.636307  3181A      5.641091  3182A      5.647319  
    3183A      5.647619  3184A      5.649461  3185A      5.649649  
    3186A      5.652829  3187A      5.654922  3188A      5.655966  
    3189A      5.661128  3190A      5.665533  3191A      5.670030  
    3192A      5.676717  3193A      5.678541  3194A      5.679689  
    3195A      5.686774  3196A      5.689572  3197A      5.693606  
    3198A      5.694875  3199A      5.698815  3200A      5.701533  
    3201A      5.703104  3202A      5.715441  3203A      5.717960  
    3204A      5.726514  3205A      5.729791  3206A      5.735907  
    3207A      5.739343  3208A      5.740626  3209A      5.741464  
    3210A      5.743761  3211A      5.749298  3212A      5.752752  
    3213A      5.759198  3214A      5.761576  3215A      5.766051  
    3216A      5.772611  3217A      5.776980  3218A      5.783159  
    3219A      5.785492  3220A      5.796746  3221A      5.797058  
    3222A      5.809331  3223A      5.814918  3224A      5.821334  
    3225A      5.829832  3226A      5.836140  3227A      5.837436  
    3228A      5.837680  3229A      5.839655  3230A      5.845738  
    3231A      5.855987  3232A      5.861192  3233A      5.863920  
    3234A      5.871407  3235A      5.872599  3236A      5.875646  
    3237A      5.878479  3238A      5.883061  3239A      5.886093  
    3240A      5.886327  3241A      5.891429  3242A      5.895533  
    3243A      5.903758  3244A      5.909610  3245A      5.911430  
    3246A      5.915502  3247A      5.919662  3248A      5.921062  
    3249A      5.926005  3250A      5.930823  3251A      5.936335  
    3252A      5.937337  3253A      5.938176  3254A      5.943421  
    3255A      5.943911  3256A      5.944909  3257A      5.945519  
    3258A      5.946524  3259A      5.952790  3260A      5.953691  
    3261A      5.960103  3262A      5.960255  3263A      5.960702  
    3264A      5.962390  3265A      5.963545  3266A      5.971729  
    3267A      5.973310  3268A      5.974246  3269A      5.975578  
    3270A      5.977088  3271A      5.982958  3272A      5.991781  
    3273A      5.992074  3274A      5.999335  3275A      6.005114  
    3276A      6.006277  3277A      6.014379  3278A      6.014880  
    3279A      6.016296  3280A      6.021672  3281A      6.031710  
    3282A      6.032239  3283A      6.035478  3284A      6.042906  
    3285A      6.043805  3286A      6.044687  3287A      6.046112  
    3288A      6.049470  3289A      6.051657  3290A      6.060911  
    3291A      6.076599  3292A      6.081498  3293A      6.084893  
    3294A      6.101136  3295A      6.123786  3296A      6.129855  
    3297A      6.142978  3298A      6.167528  3299A      6.170914  
    3300A      6.186425  3301A      6.217166  3302A      6.218734  
    3303A      6.222060  3304A      6.249650  3305A      6.261379  
    3306A      6.294940  3307A      6.305449  3308A      6.311459  
    3309A      6.352767  3310A      6.360646  3311A      6.362630  
    3312A      6.388130  3313A      6.393500  3314A      6.406698  
    3315A      6.406983  3316A      6.430571  3317A      6.435009  
    3318A      6.437519  3319A      6.440033  3320A      6.440268  
    3321A      6.441808  3322A      6.485296  3323A      6.488925  
    3324A      6.491824  3325A      6.492204  3326A      6.528087  
    3327A      6.529424  3328A      6.529672  3329A      6.544217  
    3330A      6.545544  3331A      6.574107  3332A      6.582725  
    3333A      6.587768  3334A      6.589892  3335A      6.595148  
    3336A      6.597167  3337A      6.599287  3338A      6.608587  
    3339A      6.615830  3340A      6.627362  3341A      6.629964  
    3342A      6.632218  3343A      6.632948  3344A      6.636998  
    3345A      6.637626  3346A      6.643339  3347A      6.667259  
    3348A      6.683817  3349A      6.692075  3350A      6.697387  
    3351A      6.704176  3352A      6.716405  3353A      6.730630  
    3354A      6.747377  3355A      6.748110  3356A      6.765488  
    3357A      6.779891  3358A      6.781460  3359A      6.795853  
    3360A      6.798631  3361A      6.802179  3362A      6.831614  
    3363A      6.894079  3364A      6.953953  3365A      6.984238  
    3366A      7.001117  3367A      7.003176  3368A     16.929844  
    3369A     16.998146  3370A     17.154678  3371A     17.265330  
    3372A     17.275745  3373A     17.379195  3374A     17.418870  
    3375A     17.423095  3376A     17.460752  3377A     17.466987  
    3378A     17.626573  3379A     17.627098  3380A     17.631844  
    3381A     17.647836  3382A     17.688247  3383A     17.744540  
    3384A     17.749292  3385A     17.753209  3386A     17.805265  
    3387A     17.878794  3388A     17.932938  3389A     17.964839  
    3390A     17.981991  3391A     18.020420  3392A     18.207514  
    3393A     18.333644  3394A     18.405482  3395A     18.505155  
    3396A     18.737035  3397A     18.743960  3398A     18.761154  
    3399A     19.009023  3400A     19.039805  3401A     19.050188  
    3402A     19.277014  3403A     19.292001  

    Final Occupation by Irrep:
              A 
    DOCC [   146 ]
    NA   [   146 ]
    NB   [   146 ]

  @DF-RKS Final Energy: -1418.34076218003565

   => Energetics <=

    Nuclear Repulsion Energy =           3874.3135435205499562
    One-Electron Energy =               -9618.0257578634900710
    Two-Electron Energy =                4506.9985677258819123
    DFT Exchange-Correlation Energy =    -181.5066896934052636
    Empirical Dispersion Energy =          -0.1204258695712590
    VV10 Nonlocal Energy =                  0.0000000000000000
    Total Energy =                      -1418.3407621800351990

Computation Completed


Properties will be evaluated at   0.000000,   0.000000,   0.000000 [a0]

Properties computed using the SCF density matrix


 Multipole Moments:

 ------------------------------------------------------------------------------------
     Multipole            Electronic (a.u.)      Nuclear  (a.u.)        Total (a.u.)
 ------------------------------------------------------------------------------------

 L = 1.  Multiply by 2.5417464519 to convert [e a0] to [Debye]
 Dipole X            :      -6297.2590389         6297.2590897            0.0000508
 Dipole Y            :      -4173.8626364         4173.8626598            0.0000234
 Dipole Z            :          8.6162276           -8.6152614            0.0009662
 Magnitude           :                                                    0.0009679

 ------------------------------------------------------------------------------------

*** tstop() called on atl1-1-02-003-24-1.pace.gatech.edu at Sat Jun 13 20:34:39 2026
Module time:
	user time   =   28892.96 seconds =     481.55 minutes
	system time =    1507.62 seconds =      25.13 minutes
	total time  =       4218 seconds =      70.30 minutes
Total time:
	user time   =   28892.96 seconds =     481.55 minutes
	system time =    1507.62 seconds =      25.13 minutes
	total time  =       4218 seconds =      70.30 minutes

    Psi4 stopped on: Saturday, 13 June 2026 08:34PM
    Psi4 wall time for execution: 1:10:27.23

*** Psi4 exiting successfully. Buy a developer a beer!
