
    -----------------------------------------------------------------------
          Psi4: An Open-Source Ab Initio Electronic Structure Package
                               Psi4 1.9.1 release

                         Git: Rev {} zzzzzzz 


    D. G. A. Smith, L. A. Burns, A. C. Simmonett, R. M. Parrish,
    M. C. Schieber, R. Galvelis, P. Kraus, H. Kruse, R. Di Remigio,
    A. Alenaizan, A. M. James, S. Lehtola, J. P. Misiewicz, M. Scheurer,
    R. A. Shaw, J. B. Schriber, Y. Xie, Z. L. Glick, D. A. Sirianni,
    J. S. O'Brien, J. M. Waldrop, A. Kumar, E. G. Hohenstein,
    B. P. Pritchard, B. R. Brooks, H. F. Schaefer III, A. Yu. Sokolov,
    K. Patkowski, A. E. DePrince III, U. Bozkaya, R. A. King,
    F. A. Evangelista, J. M. Turney, T. D. Crawford, C. D. Sherrill,
    J. Chem. Phys. 152(18) 184108 (2020). https://doi.org/10.1063/5.0006002

                            Additional Code Authors
    E. T. Seidl, C. L. Janssen, E. F. Valeev, M. L. Leininger,
    J. F. Gonthier, R. M. Richard, H. R. McAlexander, M. Saitow, X. Wang,
    P. Verma, M. H. Lechner, A. Jiang, S. Behnle, A. G. Heide,
    M. F. Herbst, and D. L. Poole

             Previous Authors, Complete List of Code Contributors,
                       and Citations for Specific Modules
    https://github.com/psi4/psi4/blob/master/codemeta.json
    https://github.com/psi4/psi4/graphs/contributors
    http://psicode.org/psi4manual/master/introduction.html#citing-psifour

    -----------------------------------------------------------------------


    Psi4 started on: Saturday, 13 June 2026 06:56PM

    Process ID: 584963
    Host:       atl1-1-02-003-29-2.pace.gatech.edu
    PSIDATADIR: /storage/home/hcoda1/5/vlita3/.conda/envs/p4_qcml/share/psi4
    Memory:     250.0 GiB
    Threads:    10
    
  ==> Input QCSchema <==

--------------------------------------------------------------------------
{'driver': 'energy',
 'extras': {},
 'id': '286',
 'keywords': {},
 'model': {'basis': 'aug-cc-pvtz', 'method': 'b3lyp-d3'},
 'molecule': {'extras': {},
              'fix_com': True,
              'fix_orientation': True,
              'fragment_charges': [0.0, 0.0],
              'fragment_multiplicities': [1, 1],
              'fragments': [[0, 1, 2, 3, 4, 5, 6, 7, 8, 9, 10, 11, 12, 13, 14, 15, 16, 17, 18, 19, 20, 21, 22, 23, 24,
                             25, 26, 27, 28, 29, 30, 31, 32, 33, 34, 35],
                            [36, 37, 38, 39, 40, 41, 42, 43, 44, 45, 46, 47, 48, 49, 50, 51, 52, 53, 54, 55, 56, 57, 58,
                             59, 60, 61, 62, 63, 64, 65, 66, 67, 68, 69, 70, 71]],
              'geometry': [-2.81102804, -2.32727976, -3.26733672, -0.12371685, -2.32727976, -3.26733672, 1.21993874,
                           0.0, -3.26733672, -0.12371685, 2.32727976, -3.26733672, -2.81102804, 2.32727976, -3.26733672,
                           -4.15468364, 0.0, -3.26733672, 1.21375609, -4.64385085, -3.26733672, -0.17645855,
                           -6.93684965, -3.26733672, -2.75828635, -6.93684965, -3.26733672, -4.14850099, -4.64385085,
                           -3.26733672, -6.82962953, 0.0, -3.26733672, -8.12031742, -2.3504606, -3.26733672,
                           -6.82940352, -4.58638906, -3.26733672, -8.12031742, 2.3504606, -3.26733672, -6.82940352,
                           4.58638906, -3.26733672, -4.14850099, 4.64385085, -3.26733672, -2.75828635, 6.93684965,
                           -3.26733672, -0.17645855, 6.93684965, -3.26733672, 1.21375609, 4.64385085, -3.26733672,
                           3.89465863, 4.58638906, -3.26733672, 5.18557252, 2.3504606, -3.26733672, 3.89488463, 0.0,
                           -3.26733672, 5.18557252, -2.3504606, -3.26733672, 3.89465863, -4.58638906, -3.26733672,
                           0.84958395, -8.70675598, -3.26733672, -3.78432885, -8.70675598, -3.26733672, -7.84916611,
                           -6.35992109, -3.26733672, -10.16612251, -2.34683489, -3.26733672, -10.16612251, 2.34683489,
                           -3.26733672, -7.84916611, 6.35992109, -3.26733672, -3.78432885, 8.70675598, -3.26733672,
                           0.84958395, 8.70675598, -3.26733672, 4.91442121, 6.35992109, -3.26733672, 7.23137761,
                           2.34683489, -3.26733672, 7.23137761, -2.34683489, -3.26733672, 4.91442121, -6.35992109,
                           -3.26733672, 0.12371685, -2.32727976, 3.26733672, 2.81102804, -2.32727976, 3.26733672,
                           4.15468364, 0.0, 3.26733672, 2.81102804, 2.32727976, 3.26733672, 0.12371685, 2.32727976,
                           3.26733672, -1.21993874, 0.0, 3.26733672, 4.14850099, -4.64385085, 3.26733672, 2.75828635,
                           -6.93684965, 3.26733672, 0.17645855, -6.93684965, 3.26733672, -1.21375609, -4.64385085,
                           3.26733672, -3.89488463, 0.0, 3.26733672, -5.18557252, -2.3504606, 3.26733672, -3.89465863,
                           -4.58638906, 3.26733672, -5.18557252, 2.3504606, 3.26733672, -3.89465863, 4.58638906,
                           3.26733672, -1.21375609, 4.64385085, 3.26733672, 0.17645855, 6.93684965, 3.26733672,
                           2.75828635, 6.93684965, 3.26733672, 4.14850099, 4.64385085, 3.26733672, 6.82940352,
                           4.58638906, 3.26733672, 8.12031742, 2.3504606, 3.26733672, 6.82962953, 0.0, 3.26733672,
                           8.12031742, -2.3504606, 3.26733672, 6.82940352, -4.58638906, 3.26733672, 3.78432885,
                           -8.70675598, 3.26733672, -0.84958395, -8.70675598, 3.26733672, -4.91442121, -6.35992109,
                           3.26733672, -7.23137761, -2.34683489, 3.26733672, -7.23137761, 2.34683489, 3.26733672,
                           -4.91442121, 6.35992109, 3.26733672, -0.84958395, 8.70675598, 3.26733672, 3.78432885,
                           8.70675598, 3.26733672, 7.84916611, 6.35992109, 3.26733672, 10.16612251, 2.34683489,
                           3.26733672, 10.16612251, -2.34683489, 3.26733672, 7.84916611, -6.35992109, 3.26733672],
              'id': 10,
              'identifiers': {'molecular_formula': 'C48H24',
                              'molecule_hash': 'c1dab0bff2b2c78f2e4529631a3bee8a50d4ce93'},
              'masses': [12.0, 12.0, 12.0, 12.0, 12.0, 12.0, 12.0, 12.0, 12.0, 12.0, 12.0, 12.0, 12.0, 12.0, 12.0, 12.0,
                         12.0, 12.0, 12.0, 12.0, 12.0, 12.0, 12.0, 12.0, 1.00782503223, 1.00782503223, 1.00782503223,
                         1.00782503223, 1.00782503223, 1.00782503223, 1.00782503223, 1.00782503223, 1.00782503223,
                         1.00782503223, 1.00782503223, 1.00782503223, 12.0, 12.0, 12.0, 12.0, 12.0, 12.0, 12.0, 12.0,
                         12.0, 12.0, 12.0, 12.0, 12.0, 12.0, 12.0, 12.0, 12.0, 12.0, 12.0, 12.0, 12.0, 12.0, 12.0, 12.0,
                         1.00782503223, 1.00782503223, 1.00782503223, 1.00782503223, 1.00782503223, 1.00782503223,
                         1.00782503223, 1.00782503223, 1.00782503223, 1.00782503223, 1.00782503223, 1.00782503223],
              'molecular_charge': 0.0,
              'molecular_multiplicity': 1,
              'name': 'C48H24 ([1],[0])',
              'provenance': {'creator': 'QCElemental',
                             'routine': 'qcelemental.molparse.from_schema',
                             'version': '0.29.0'},
              'real': [False, False, False, False, False, False, False, False, False, False, False, False, False, False,
                       False, False, False, False, False, False, False, False, False, False, False, False, False, False,
                       False, False, False, False, False, False, False, False, True, True, True, True, True, True, True,
                       True, True, True, True, True, True, True, True, True, True, True, True, True, True, True, True,
                       True, True, True, True, True, True, True, True, True, True, True, True, True],
              'schema_name': 'qcschema_molecule',
              'schema_version': 2,
              'symbols': ['C', 'C', 'C', 'C', 'C', 'C', 'C', 'C', 'C', 'C', 'C', 'C', 'C', 'C', 'C', 'C', 'C', 'C', 'C',
                          'C', 'C', 'C', 'C', 'C', 'H', 'H', 'H', 'H', 'H', 'H', 'H', 'H', 'H', 'H', 'H', 'H', 'C', 'C',
                          'C', 'C', 'C', 'C', 'C', 'C', 'C', 'C', 'C', 'C', 'C', 'C', 'C', 'C', 'C', 'C', 'C', 'C', 'C',
                          'C', 'C', 'C', 'H', 'H', 'H', 'H', 'H', 'H', 'H', 'H', 'H', 'H', 'H', 'H'],
              'validated': True},
 'protocols': {},
 'provenance': {'creator': 'QCElemental', 'routine': 'qcelemental.models.results', 'version': '0.29.0'},
 'schema_name': 'qcschema_input',
 'schema_version': 1}
--------------------------------------------------------------------------

Scratch directory: /tmp/tmp7g3ltb4u_psi_scratch/
   => Libint2 <=

    Primary   basis highest AM E, G, H:  6, 6, 3
    Auxiliary basis highest AM E, G, H:  7, 7, 4
    Onebody   basis highest AM E, G, H:  -, -, -
    Solid Harmonics ordering:            Gaussian

*** tstart() called on atl1-1-02-003-29-2.pace.gatech.edu
*** at Sat Jun 13 18:56:32 2026

   => Loading Basis Set <=

    Name: AUG-CC-PVTZ
    Role: ORBITAL
    Keyword: BASIS
    atoms 1-24, 37-60  entry C          line   239 file /storage/home/hcoda1/5/vlita3/.conda/envs/p4_qcml/share/psi4/basis/aug-cc-pvtz.gbs 
    atoms 25-36, 61-72 entry H          line    40 file /storage/home/hcoda1/5/vlita3/.conda/envs/p4_qcml/share/psi4/basis/aug-cc-pvtz.gbs 

   => B3LYP-D3: Empirical Dispersion <=

    Grimme's -D3 (zero-damping) Dispersion Correction
    Grimme S.; Antony J.; Ehrlich S.; Krieg H. (2010), J. Chem. Phys., 132: 154104

        s6 =       1.000000
        s8 =       1.703000
       sr6 =       1.261000
    alpha6 =      14.000000
       sr8 =       1.000000


         ---------------------------------------------------------
                                   SCF
               by Justin Turney, Rob Parrish, Andy Simmonett
                          and Daniel G. A. Smith
                              RKS Reference
                       10 Threads, 256000 MiB Core
         ---------------------------------------------------------

  ==> Geometry <==

    Molecular point group: cs
    Full point group: Cs

    Geometry (in Bohr), charge = 0, multiplicity = 1:

       Center              X                  Y                   Z               Mass       
    ------------   -----------------  -----------------  -----------------  -----------------
      Gh(C)          -2.811028040000    -2.327279760000    -3.267336720000    12.000000000000
      Gh(C)          -0.123716850000    -2.327279760000    -3.267336720000    12.000000000000
      Gh(C)           1.219938740000     0.000000000000    -3.267336720000    12.000000000000
      Gh(C)          -0.123716850000     2.327279760000    -3.267336720000    12.000000000000
      Gh(C)          -2.811028040000     2.327279760000    -3.267336720000    12.000000000000
      Gh(C)          -4.154683640000     0.000000000000    -3.267336720000    12.000000000000
      Gh(C)           1.213756090000    -4.643850850000    -3.267336720000    12.000000000000
      Gh(C)          -0.176458550000    -6.936849650000    -3.267336720000    12.000000000000
      Gh(C)          -2.758286350000    -6.936849650000    -3.267336720000    12.000000000000
      Gh(C)          -4.148500990000    -4.643850850000    -3.267336720000    12.000000000000
      Gh(C)          -6.829629530000     0.000000000000    -3.267336720000    12.000000000000
      Gh(C)          -8.120317420000    -2.350460600000    -3.267336720000    12.000000000000
      Gh(C)          -6.829403520000    -4.586389060000    -3.267336720000    12.000000000000
      Gh(C)          -8.120317420000     2.350460600000    -3.267336720000    12.000000000000
      Gh(C)          -6.829403520000     4.586389060000    -3.267336720000    12.000000000000
      Gh(C)          -4.148500990000     4.643850850000    -3.267336720000    12.000000000000
      Gh(C)          -2.758286350000     6.936849650000    -3.267336720000    12.000000000000
      Gh(C)          -0.176458550000     6.936849650000    -3.267336720000    12.000000000000
      Gh(C)           1.213756090000     4.643850850000    -3.267336720000    12.000000000000
      Gh(C)           3.894658630000     4.586389060000    -3.267336720000    12.000000000000
      Gh(C)           5.185572520000     2.350460600000    -3.267336720000    12.000000000000
      Gh(C)           3.894884630000     0.000000000000    -3.267336720000    12.000000000000
      Gh(C)           5.185572520000    -2.350460600000    -3.267336720000    12.000000000000
      Gh(C)           3.894658630000    -4.586389060000    -3.267336720000    12.000000000000
      Gh(H)           0.849583950000    -8.706755980000    -3.267336720000     1.007825032230
      Gh(H)          -3.784328850000    -8.706755980000    -3.267336720000     1.007825032230
      Gh(H)          -7.849166110000    -6.359921090000    -3.267336720000     1.007825032230
      Gh(H)         -10.166122510000    -2.346834890000    -3.267336720000     1.007825032230
      Gh(H)         -10.166122510000     2.346834890000    -3.267336720000     1.007825032230
      Gh(H)          -7.849166110000     6.359921090000    -3.267336720000     1.007825032230
      Gh(H)          -3.784328850000     8.706755980000    -3.267336720000     1.007825032230
      Gh(H)           0.849583950000     8.706755980000    -3.267336720000     1.007825032230
      Gh(H)           4.914421210000     6.359921090000    -3.267336720000     1.007825032230
      Gh(H)           7.231377610000     2.346834890000    -3.267336720000     1.007825032230
      Gh(H)           7.231377610000    -2.346834890000    -3.267336720000     1.007825032230
      Gh(H)           4.914421210000    -6.359921090000    -3.267336720000     1.007825032230
         C            0.123716850000    -2.327279760000     3.267336720000    12.000000000000
         C            2.811028040000    -2.327279760000     3.267336720000    12.000000000000
         C            4.154683640000     0.000000000000     3.267336720000    12.000000000000
         C            2.811028040000     2.327279760000     3.267336720000    12.000000000000
         C            0.123716850000     2.327279760000     3.267336720000    12.000000000000
         C           -1.219938740000     0.000000000000     3.267336720000    12.000000000000
         C            4.148500990000    -4.643850850000     3.267336720000    12.000000000000
         C            2.758286350000    -6.936849650000     3.267336720000    12.000000000000
         C            0.176458550000    -6.936849650000     3.267336720000    12.000000000000
         C           -1.213756090000    -4.643850850000     3.267336720000    12.000000000000
         C           -3.894884630000     0.000000000000     3.267336720000    12.000000000000
         C           -5.185572520000    -2.350460600000     3.267336720000    12.000000000000
         C           -3.894658630000    -4.586389060000     3.267336720000    12.000000000000
         C           -5.185572520000     2.350460600000     3.267336720000    12.000000000000
         C           -3.894658630000     4.586389060000     3.267336720000    12.000000000000
         C           -1.213756090000     4.643850850000     3.267336720000    12.000000000000
         C            0.176458550000     6.936849650000     3.267336720000    12.000000000000
         C            2.758286350000     6.936849650000     3.267336720000    12.000000000000
         C            4.148500990000     4.643850850000     3.267336720000    12.000000000000
         C            6.829403520000     4.586389060000     3.267336720000    12.000000000000
         C            8.120317420000     2.350460600000     3.267336720000    12.000000000000
         C            6.829629530000     0.000000000000     3.267336720000    12.000000000000
         C            8.120317420000    -2.350460600000     3.267336720000    12.000000000000
         C            6.829403520000    -4.586389060000     3.267336720000    12.000000000000
         H            3.784328850000    -8.706755980000     3.267336720000     1.007825032230
         H           -0.849583950000    -8.706755980000     3.267336720000     1.007825032230
         H           -4.914421210000    -6.359921090000     3.267336720000     1.007825032230
         H           -7.231377610000    -2.346834890000     3.267336720000     1.007825032230
         H           -7.231377610000     2.346834890000     3.267336720000     1.007825032230
         H           -4.914421210000     6.359921090000     3.267336720000     1.007825032230
         H           -0.849583950000     8.706755980000     3.267336720000     1.007825032230
         H            3.784328850000     8.706755980000     3.267336720000     1.007825032230
         H            7.849166110000     6.359921090000     3.267336720000     1.007825032230
         H           10.166122510000     2.346834890000     3.267336720000     1.007825032230
         H           10.166122510000    -2.346834890000     3.267336720000     1.007825032230
         H            7.849166110000    -6.359921090000     3.267336720000     1.007825032230

  Running in cs symmetry.

  Rotational constants: A =      0.00378  B =      0.00326  C =      0.00251 [cm^-1]
  Rotational constants: A =    113.23902  B =     97.86670  C =     75.24221 [MHz]
  Nuclear repulsion = 1837.330664984319583

  Charge       = 0
  Multiplicity = 1
  Electrons    = 156
  Nalpha       = 78
  Nbeta        = 78

  ==> Algorithm <==

  SCF Algorithm Type is DF.
  DIIS enabled.
  MOM disabled.
  Fractional occupation disabled.
  Guess Type is SAD.
  Energy threshold   = 1.00e-06
  Density threshold  = 1.00e-06
  Integral threshold = 1.00e-12

  ==> Primary Basis <==

  Basis Set: AUG-CC-PVTZ
    Blend: AUG-CC-PVTZ
    Number of shells: 888
    Number of basis functions: 2760
    Number of Cartesian functions: 3240
    Spherical Harmonics?: true
    Max angular momentum: 3

  ==> DFT Potential <==

   => LibXC <=

    Version 7.0.0
    S. Lehtola, C. Steigemann, M. J.T. Oliveira, and M. A.L. Marques.,  SoftwareX 7, 1–5 (2018) (10.1016/j.softx.2017.11.002)

   => Composite Functional: B3LYP-D3ZERO2B <= 

    B3LYP-d3zero2b Hyb-GGA Exchange-Correlation Functional

    P. J. Stephens, F. J. Devlin, C. F. Chabalowski, and M. J. Frisch.,  J. Phys. Chem. 98, 11623 (1994) (10.1021/j100096a001)

    Deriv               =              1
    GGA                 =           TRUE
    Meta                =          FALSE

    Exchange Hybrid     =           TRUE
    MP2 Hybrid          =          FALSE

   => Exchange Functionals <=

    0.0800   Slater exchange
    0.7200         Becke 88

   => Exact (HF) Exchange <=

    0.2000               HF 

   => Correlation Functionals <=

    0.1900   Vosko, Wilk & Nusair (VWN5_RPA)
    0.8100   Lee, Yang & Parr

   => LibXC Density Thresholds  <==

    XC_HYB_GGA_XC_B3LYP:  1.00E-15 

   => Molecular Quadrature <=

    Radial Scheme          =       TREUTLER
    Pruning Scheme         =           NONE
    Nuclear Scheme         =       TREUTLER

    Blocking Scheme        =         OCTREE
    BS radius alpha        =              1
    Pruning alpha          =              1
    Radial Points          =             75
    Spherical Points       =            302
    Total Points           =        1423706
    Total Blocks           =           9482
    Max Points             =            256
    Max Functions          =           2109
    Weights Tolerance      =       1.00E-15

   => Loading Basis Set <=

    Name: (AUG-CC-PVTZ AUX)
    Role: JKFIT
    Keyword: DF_BASIS_SCF
    atoms 1-24, 37-60  entry C          line   162 file /storage/home/hcoda1/5/vlita3/.conda/envs/p4_qcml/share/psi4/basis/aug-cc-pvtz-jkfit.gbs 
    atoms 25-36, 61-72 entry H          line    70 file /storage/home/hcoda1/5/vlita3/.conda/envs/p4_qcml/share/psi4/basis/aug-cc-pvtz-jkfit.gbs 

  ==> Integral Setup <==

  ==> DiskDFJK: Density-Fitted J/K Matrices <==

    J tasked:                  Yes
    K tasked:                  Yes
    wK tasked:                  No
    OpenMP threads:             10
    Integrals threads:          10
    Memory [MiB]:           147036
    Algorithm:                Disk
    Integral Cache:           NONE
    Schwarz Cutoff:          1E-12
    Fitting Condition:       1E-10

   => Auxiliary Basis Set <=

  Basis Set: (AUG-CC-PVTZ AUX)
    Blend: AUG-CC-PVTZ-JKFIT
    Number of shells: 1776
    Number of basis functions: 6096
    Number of Cartesian functions: 7608
    Spherical Harmonics?: true
    Max angular momentum: 4

  Cached 50.0% of DFT collocation blocks in 28.297 [GiB].

  Minimum eigenvalue in the overlap matrix is 1.2243416004E-10.
  Reciprocal condition number of the overlap matrix is 3.5504774292E-12.
    Using canonical orthogonalization.
  Overall, 29 of 2760 possible MOs eliminated.


  ==> Pre-Iterations <==

  SCF Guess: Superposition of Atomic Densities via on-the-fly atomic UHF (no occupation information).

   -------------------------
    Irrep   Nso     Nmo    
   -------------------------
     A'      1436    1421 
     A"      1324    1310 
   -------------------------
    Total    2760    2731
   -------------------------

  ==> Iterations <==

                           Total Energy        Delta E     RMS |[F,P]|

   @DF-RKS iter SAD:  -922.63432025272220   -9.22634e+02   0.00000e+00 
   @DF-RKS iter   1:  -920.76753355592268    1.86679e+00   8.45028e-04 ADIIS/DIIS
   @DF-RKS iter   2:  -920.06203341370349    7.05500e-01   1.00295e-03 ADIIS/DIIS
   @DF-RKS iter   3:  -922.09860735808354   -2.03657e+00   2.45538e-04 ADIIS/DIIS
   @DF-RKS iter   4:  -922.18021904080592   -8.16117e-02   1.58691e-04 ADIIS/DIIS
   @DF-RKS iter   5:  -922.23000209029715   -4.97830e-02   3.41542e-05 DIIS
   @DF-RKS iter   6:  -922.23173828253834   -1.73619e-03   1.29402e-05 DIIS
   @DF-RKS iter   7:  -922.23201336651994   -2.75084e-04   1.15125e-06 DIIS
   @DF-RKS iter   8:  -922.23201567823594   -2.31172e-06   2.36228e-07 DIIS
   @DF-RKS iter   9:  -922.23201577924533   -1.01009e-07   3.12018e-08 DIIS
  Energy and wave function converged.


  ==> Post-Iterations <==

   Electrons on quadrature grid:
      Ntotal   =  156.0002953375 ; deviation = 2.953e-04 

    Orbital Energies [Eh]
    ---------------------

    Doubly Occupied:                                                      

       1Ap   -10.193051     1App  -10.192864     2Ap   -10.192862  
       2App  -10.192530     3Ap   -10.192529     4Ap   -10.192447  
       5Ap   -10.192154     3App  -10.192148     6Ap   -10.192146  
       4App  -10.191987     7Ap   -10.191986     8Ap   -10.191864  
       5App  -10.184098     9Ap   -10.184095     6App  -10.184092  
       7App  -10.184075    10Ap   -10.184072    11Ap   -10.184060  
      12Ap   -10.183346    13Ap   -10.183343     8App  -10.183343  
       9App  -10.183337    14Ap   -10.183334    10App  -10.183331  
      15Ap    -0.913554    11App   -0.876852    16Ap    -0.876849  
      17Ap    -0.829705    12App   -0.829703    18Ap    -0.812977  
      13App   -0.782232    19Ap    -0.767199    20Ap    -0.750068  
      14App   -0.750068    15App   -0.718217    21Ap    -0.718217  
      16App   -0.641688    22Ap    -0.641687    17App   -0.638113  
      23Ap    -0.638113    24Ap    -0.631031    18App   -0.568304  
      25Ap    -0.561242    26Ap    -0.544894    19App   -0.544893  
      20App   -0.543206    27Ap    -0.522687    28Ap    -0.481449  
      21App   -0.481448    22App   -0.464987    29Ap    -0.464983  
      23App   -0.461114    30Ap    -0.461114    31Ap    -0.435431  
      32Ap    -0.433626    24App   -0.427337    33Ap    -0.427335  
      25App   -0.423931    34Ap    -0.408455    26App   -0.408451  
      27App   -0.392892    35Ap    -0.392889    28App   -0.380380  
      36Ap    -0.379808    29App   -0.366649    37Ap    -0.365903  
      30App   -0.365902    38Ap    -0.338676    31App   -0.338673  
      39Ap    -0.323334    32App   -0.322917    40Ap    -0.322916  
      33App   -0.278440    41Ap    -0.275321    34App   -0.259032  
      42Ap    -0.259027    43Ap    -0.211786    35App   -0.211783  

    Virtual:                                                              

      36App   -0.064230    44Ap    -0.064227    45Ap    -0.028976  
      37App   -0.028972    46Ap    -0.012850    47Ap    -0.011692  
      48Ap    -0.005684    38App   -0.005669    39App    0.005256  
      49Ap     0.005296    40App    0.010557    50Ap     0.012478  
      51Ap     0.016995    41App    0.018834    42App    0.019765  
      52Ap     0.020255    53Ap     0.021172    54Ap     0.032557  
      43App    0.032785    55Ap     0.035865    56Ap     0.038078  
      44App    0.038128    57Ap     0.038209    45App    0.039452  
      58Ap     0.040609    46App    0.045715    59Ap     0.047901  
      47App    0.048591    60Ap     0.050805    61Ap     0.052118  
      48App    0.059096    62Ap     0.059494    49App    0.059921  
      63Ap     0.061449    64Ap     0.065729    50App    0.065876  
      51App    0.066292    65Ap     0.066491    52App    0.067381  
      66Ap     0.067458    67Ap     0.068338    53App    0.070311  
      68Ap     0.072706    54App    0.076280    69Ap     0.076560  
      70Ap     0.077847    55App    0.080057    71Ap     0.081912  
      56App    0.081969    72Ap     0.083112    73Ap     0.085408  
      57App    0.085477    58App    0.088059    74Ap     0.088892  
      75Ap     0.092245    59App    0.092631    76Ap     0.094668  
      60App    0.094766    61App    0.097225    77Ap     0.099351  
      78Ap     0.101516    62App    0.103120    63App    0.104131  
      79Ap     0.104996    80Ap     0.107848    64App    0.108177  
      81Ap     0.109590    65App    0.112177    82Ap     0.112840  
      83Ap     0.114295    66App    0.114747    84Ap     0.121109  
      67App    0.123588    68App    0.125359    85Ap     0.125596  
      86Ap     0.126827    69App    0.130607    87Ap     0.130993  
      88Ap     0.132714    70App    0.134044    89Ap     0.136093  
      71App    0.136271    90Ap     0.138515    72App    0.138698  
      91Ap     0.139533    92Ap     0.141914    73App    0.142428  
      74App    0.144021    93Ap     0.145655    75App    0.147429  
      94Ap     0.148581    95Ap     0.151012    96Ap     0.154891  
      76App    0.154904    77App    0.158081    97Ap     0.158308  
      98Ap     0.159473    78App    0.159867    79App    0.161606  
      99Ap     0.162609   100Ap     0.163874    80App    0.165092  
      81App    0.167173   101Ap     0.168790   102Ap     0.169083  
      82App    0.171558   103Ap     0.171636   104Ap     0.173454  
      83App    0.175083   105Ap     0.176278   106Ap     0.177204  
      84App    0.177699    85App    0.179063   107Ap     0.180688  
     108Ap     0.182514    86App    0.184403   109Ap     0.185101  
     110Ap     0.185662    87App    0.185695    88App    0.188077  
     111Ap     0.188500    89App    0.189523   112Ap     0.191963  
      90App    0.192150   113Ap     0.192587   114Ap     0.194043  
      91App    0.194247    92App    0.198382   115Ap     0.198854  
      93App    0.199872   116Ap     0.200294   117Ap     0.202824  
      94App    0.204298   118Ap     0.205198   119Ap     0.205793  
      95App    0.206680   120Ap     0.209165    96App    0.209600  
      97App    0.209857   121Ap     0.211270   122Ap     0.212340  
      98App    0.213258    99App    0.215305   123Ap     0.216483  
     124Ap     0.216798   125Ap     0.217986   100App    0.218338  
     101App    0.221349   126Ap     0.222145   127Ap     0.223497  
     102App    0.224103   128Ap     0.225491   103App    0.225806  
     104App    0.227388   129Ap     0.228275   105App    0.229478  
     106App    0.230854   130Ap     0.230937   107App    0.234010  
     131Ap     0.236791   132Ap     0.238862   108App    0.239227  
     133Ap     0.240353   109App    0.240846   110App    0.244899  
     134Ap     0.245299   135Ap     0.247190   136Ap     0.249126  
     111App    0.249667   137Ap     0.250325   138Ap     0.252303  
     112App    0.254074   139Ap     0.256188   113App    0.258653  
     140Ap     0.258809   114App    0.259751   115App    0.260809  
     141Ap     0.260894   142Ap     0.263302   116App    0.264446  
     143Ap     0.264797   117App    0.265980   144Ap     0.267433  
     118App    0.268400   119App    0.268747   145Ap     0.269523  
     146Ap     0.270432   120App    0.271367   147Ap     0.271375  
     121App    0.273364   148Ap     0.274609   122App    0.275247  
     149Ap     0.275583   123App    0.277396   150Ap     0.277446  
     151Ap     0.278684   124App    0.280217   152Ap     0.281931  
     153Ap     0.282953   125App    0.283617   154Ap     0.286164  
     126App    0.287248   155Ap     0.287294   127App    0.290401  
     156Ap     0.291851   128App    0.292473   157Ap     0.293063  
     129App    0.295166   130App    0.298080   158Ap     0.298378  
     131App    0.298978   159Ap     0.299112   160Ap     0.301083  
     132App    0.302041   161Ap     0.303905   162Ap     0.306452  
     133App    0.306636   163Ap     0.307211   134App    0.308435  
     164Ap     0.310413   165Ap     0.313343   135App    0.313440  
     136App    0.314777   166Ap     0.318278   137App    0.319588  
     167Ap     0.319662   138App    0.321008   168Ap     0.322002  
     139App    0.323583   169Ap     0.323681   140App    0.325663  
     170Ap     0.328664   141App    0.330678   171Ap     0.332479  
     172Ap     0.334654   142App    0.335060   143App    0.337832  
     173Ap     0.338580   144App    0.340975   174Ap     0.341392  
     175Ap     0.343665   145App    0.344613   146App    0.345855  
     176Ap     0.347936   177Ap     0.351061   147App    0.352358  
     148App    0.353777   178Ap     0.354723   149App    0.358297  
     179Ap     0.358937   180Ap     0.360133   150App    0.360326  
     181Ap     0.360507   182Ap     0.363588   151App    0.365177  
     183Ap     0.366294   184Ap     0.367886   152App    0.370158  
     153App    0.372827   185Ap     0.374598   186Ap     0.377190  
     154App    0.378571   187Ap     0.381520   155App    0.384174  
     188Ap     0.385191   156App    0.385982   189Ap     0.387732  
     157App    0.388814   190Ap     0.389314   191Ap     0.390703  
     158App    0.392801   192Ap     0.393162   159App    0.395137  
     193Ap     0.396367   160App    0.397781   194Ap     0.399701  
     161App    0.401969   195Ap     0.403266   162App    0.406063  
     196Ap     0.408604   197Ap     0.409588   163App    0.410581  
     198Ap     0.413898   164App    0.415033   199Ap     0.417163  
     200Ap     0.417443   165App    0.417861   201Ap     0.418505  
     166App    0.418718   167App    0.422063   202Ap     0.424245  
     203Ap     0.424868   204Ap     0.426770   168App    0.427397  
     205Ap     0.428328   169App    0.429177   170App    0.430116  
     206Ap     0.431839   171App    0.433089   207Ap     0.433854  
     172App    0.434281   208Ap     0.435969   173App    0.437029  
     209Ap     0.438515   174App    0.441116   210Ap     0.443150  
     175App    0.443470   211Ap     0.446466   212Ap     0.447415  
     176App    0.448081   213Ap     0.450445   177App    0.450563  
     178App    0.452792   214Ap     0.453085   179App    0.454763  
     180App    0.455306   215Ap     0.456066   216Ap     0.457856  
     181App    0.458788   217Ap     0.460232   218Ap     0.461416  
     182App    0.461629   219Ap     0.463265   220Ap     0.468000  
     183App    0.468065   221Ap     0.468172   184App    0.469054  
     185App    0.472662   222Ap     0.472813   186App    0.473668  
     223Ap     0.474823   187App    0.475553   224Ap     0.475652  
     225Ap     0.479082   226Ap     0.479917   188App    0.480836  
     227Ap     0.481314   228Ap     0.482928   189App    0.483437  
     229Ap     0.484212   190App    0.484937   191App    0.486962  
     192App    0.489825   230Ap     0.491349   193App    0.493893  
     231Ap     0.494057   232Ap     0.496901   233Ap     0.497838  
     194App    0.498793   234Ap     0.500039   195App    0.500943  
     196App    0.504150   235Ap     0.504861   197App    0.507452  
     198App    0.508215   236Ap     0.509060   199App    0.509853  
     237Ap     0.511924   200App    0.512689   238Ap     0.515306  
     239Ap     0.517330   201App    0.519058   240Ap     0.519596  
     202App    0.521921   241Ap     0.522291   242Ap     0.525139  
     203App    0.525168   243Ap     0.527152   204App    0.528129  
     244Ap     0.530558   205App    0.533259   206App    0.534746  
     207App    0.536364   245Ap     0.537889   246Ap     0.539947  
     208App    0.540988   247Ap     0.541269   248Ap     0.544597  
     209App    0.545500   210App    0.548980   249Ap     0.550552  
     250Ap     0.551414   211App    0.551431   212App    0.553813  
     251Ap     0.555767   213App    0.558611   252Ap     0.559883  
     253Ap     0.560385   254Ap     0.563496   214App    0.564242  
     215App    0.565478   255Ap     0.565621   216App    0.566326  
     217App    0.569494   256Ap     0.569853   257Ap     0.571651  
     218App    0.571983   258Ap     0.576657   259Ap     0.578938  
     219App    0.579026   220App    0.580903   260Ap     0.583216  
     221App    0.584775   261Ap     0.586120   262Ap     0.587212  
     222App    0.588735   263Ap     0.592176   223App    0.593664  
     264Ap     0.593823   265Ap     0.595984   224App    0.597923  
     225App    0.599916   266Ap     0.600132   267Ap     0.601766  
     226App    0.602378   227App    0.606271   228App    0.607282  
     268Ap     0.609892   269Ap     0.611313   229App    0.613913  
     270Ap     0.616768   271Ap     0.617665   230App    0.617866  
     272Ap     0.620340   231App    0.620865   232App    0.623776  
     273Ap     0.625320   233App    0.625774   274Ap     0.627199  
     234App    0.629972   275Ap     0.631292   235App    0.631450  
     236App    0.635777   276Ap     0.637585   277Ap     0.639490  
     237App    0.641572   278Ap     0.641617   238App    0.642403  
     279Ap     0.644372   280Ap     0.649032   239App    0.650019  
     240App    0.652320   281Ap     0.653558   282Ap     0.654519  
     241App    0.657939   283Ap     0.659746   242App    0.660978  
     284Ap     0.661081   285Ap     0.662734   286Ap     0.663988  
     243App    0.664578   244App    0.666764   287Ap     0.669134  
     245App    0.670269   246App    0.672825   288Ap     0.673756  
     289Ap     0.675011   247App    0.676789   290Ap     0.677293  
     248App    0.677840   291Ap     0.680699   249App    0.681909  
     292Ap     0.683756   293Ap     0.685685   294Ap     0.687922  
     250App    0.690518   295Ap     0.691214   251App    0.692986  
     296Ap     0.693290   252App    0.693815   297Ap     0.695957  
     253App    0.697518   298Ap     0.699190   254App    0.702373  
     299Ap     0.705099   255App    0.705947   256App    0.707409  
     300Ap     0.710050   301Ap     0.710378   257App    0.713447  
     258App    0.714374   259App    0.716335   302Ap     0.716788  
     303Ap     0.719982   260App    0.721107   261App    0.721703  
     304Ap     0.722736   305Ap     0.724144   306Ap     0.727364  
     307Ap     0.729118   262App    0.729527   263App    0.730185  
     308Ap     0.734561   264App    0.735339   309Ap     0.735384  
     265App    0.737608   310Ap     0.740334   311Ap     0.741713  
     266App    0.742793   312Ap     0.743746   267App    0.746103  
     313Ap     0.748564   268App    0.748646   269App    0.751678  
     314Ap     0.752576   270App    0.755899   315Ap     0.756343  
     271App    0.756823   316Ap     0.758471   272App    0.760558  
     317Ap     0.760946   318Ap     0.764301   273App    0.764730  
     319Ap     0.765632   320Ap     0.769085   274App    0.769255  
     321Ap     0.772643   322Ap     0.774455   323Ap     0.775284  
     275App    0.775328   324Ap     0.780002   276App    0.780370  
     277App    0.781575   325Ap     0.782899   278App    0.783085  
     279App    0.784966   326Ap     0.786194   280App    0.788192  
     327Ap     0.789100   281App    0.793089   328Ap     0.794165  
     329Ap     0.796568   330Ap     0.800048   331Ap     0.800969  
     282App    0.801697   332Ap     0.803703   283App    0.804293  
     333Ap     0.806657   284App    0.807115   285App    0.811712  
     334Ap     0.813283   335Ap     0.815523   286App    0.818027  
     336Ap     0.818314   287App    0.818483   288App    0.820876  
     337Ap     0.820876   338Ap     0.824853   339Ap     0.826469  
     289App    0.826472   340Ap     0.827714   290App    0.828301  
     291App    0.829561   341Ap     0.830358   292App    0.833929  
     293App    0.835784   342Ap     0.836457   294App    0.837592  
     343Ap     0.838478   344Ap     0.839352   295App    0.844129  
     345Ap     0.844792   296App    0.845596   297App    0.846629  
     346Ap     0.847373   298App    0.848432   347Ap     0.849136  
     299App    0.850086   300App    0.852709   348Ap     0.853961  
     301App    0.854263   349Ap     0.854360   302App    0.858209  
     350Ap     0.858525   351Ap     0.861288   303App    0.862598  
     352Ap     0.863057   304App    0.864166   305App    0.866012  
     353Ap     0.866685   354Ap     0.870340   306App    0.872600  
     355Ap     0.872958   307App    0.875870   356Ap     0.877625  
     357Ap     0.880468   308App    0.882235   358Ap     0.882318  
     309App    0.885680   359Ap     0.887817   310App    0.888633  
     311App    0.889600   360Ap     0.889812   361Ap     0.892633  
     312App    0.893894   362Ap     0.895348   313App    0.895809  
     363Ap     0.898112   364Ap     0.900319   314App    0.900611  
     365Ap     0.902168   366Ap     0.902457   315App    0.902664  
     316App    0.904547   317App    0.910719   367Ap     0.911144  
     368Ap     0.911801   369Ap     0.915545   370Ap     0.917304  
     318App    0.919217   319App    0.920699   371Ap     0.923188  
     320App    0.924321   372Ap     0.928892   321App    0.930037  
     322App    0.931429   323App    0.933876   373Ap     0.934347  
     374Ap     0.936769   324App    0.936970   375Ap     0.942018  
     325App    0.945164   376Ap     0.945470   326App    0.946920  
     377Ap     0.947994   327App    0.949042   378Ap     0.951482  
     328App    0.953355   329App    0.956667   330App    0.958840  
     379Ap     0.959522   380Ap     0.960232   381Ap     0.962629  
     331App    0.963643   382Ap     0.967818   332App    0.968450  
     383Ap     0.970037   333App    0.971527   384Ap     0.972672  
     334App    0.975436   385Ap     0.976560   335App    0.977182  
     386Ap     0.981132   336App    0.981571   337App    0.984060  
     338App    0.984913   387Ap     0.986355   388Ap     0.989030  
     389Ap     0.990129   339App    0.991133   340App    0.992261  
     390Ap     0.993220   391Ap     0.994757   392Ap     0.997369  
     341App    0.997749   342App    0.999291   393Ap     1.003491  
     343App    1.004508   344App    1.006328   394Ap     1.007492  
     345App    1.009713   395Ap     1.009963   346App    1.011860  
     396Ap     1.013713   347App    1.015699   348App    1.018245  
     397Ap     1.018809   349App    1.021482   398Ap     1.023957  
     399Ap     1.026228   350App    1.026982   400Ap     1.026984  
     401Ap     1.031552   351App    1.031915   402Ap     1.032240  
     403Ap     1.034633   352App    1.036115   404Ap     1.037508  
     353App    1.040427   354App    1.042488   405Ap     1.042729  
     406Ap     1.045291   355App    1.046103   356App    1.048631  
     407Ap     1.048656   357App    1.049497   408Ap     1.054328  
     358App    1.056931   409Ap     1.056986   410Ap     1.059457  
     359App    1.059973   411Ap     1.060887   412Ap     1.062348  
     360App    1.063665   413Ap     1.064777   361App    1.070144  
     414Ap     1.070656   362App    1.073852   415Ap     1.074046  
     416Ap     1.076410   363App    1.078344   417Ap     1.080528  
     364App    1.082611   418Ap     1.082951   419Ap     1.084028  
     365App    1.086034   420Ap     1.087529   366App    1.092863  
     421Ap     1.093475   367App    1.094630   422Ap     1.096010  
     368App    1.096327   423Ap     1.098583   424Ap     1.100468  
     369App    1.100862   425Ap     1.104224   370App    1.104630  
     426Ap     1.107817   371App    1.109791   427Ap     1.113595  
     372App    1.116516   428Ap     1.118051   373App    1.118689  
     429Ap     1.121512   374App    1.121840   375App    1.126869  
     430Ap     1.128944   431Ap     1.130157   376App    1.130710  
     432Ap     1.133710   433Ap     1.135117   377App    1.135428  
     434Ap     1.140091   378App    1.140416   379App    1.142130  
     435Ap     1.143242   380App    1.144120   436Ap     1.148089  
     381App    1.150876   437Ap     1.153048   382App    1.154839  
     438Ap     1.155386   383App    1.155486   439Ap     1.158866  
     384App    1.158887   440Ap     1.160943   441Ap     1.162345  
     385App    1.162729   386App    1.165336   442Ap     1.166061  
     443Ap     1.171429   387App    1.173207   444Ap     1.174043  
     388App    1.176832   445Ap     1.177708   389App    1.180180  
     446Ap     1.182641   447Ap     1.185455   448Ap     1.190350  
     390App    1.192602   391App    1.194004   449Ap     1.194577  
     450Ap     1.197330   392App    1.197388   393App    1.197810  
     451Ap     1.200090   394App    1.201804   452Ap     1.206324  
     395App    1.207048   453Ap     1.207758   396App    1.211786  
     454Ap     1.213983   397App    1.214481   455Ap     1.215769  
     456Ap     1.218747   398App    1.219403   399App    1.220659  
     457Ap     1.223877   400App    1.223950   458Ap     1.224676  
     459Ap     1.230933   460Ap     1.231406   401App    1.232770  
     461Ap     1.238495   402App    1.239580   462Ap     1.240835  
     403App    1.241882   404App    1.243561   463Ap     1.245347  
     405App    1.250541   464Ap     1.250856   465Ap     1.252376  
     466Ap     1.255461   406App    1.255715   467Ap     1.256206  
     407App    1.261796   468Ap     1.262059   469Ap     1.264815  
     408App    1.265632   470Ap     1.266986   409App    1.267668  
     410App    1.270619   471Ap     1.272196   411App    1.272993  
     412App    1.274936   413App    1.275869   472Ap     1.276090  
     414App    1.279743   473Ap     1.280604   474Ap     1.281332  
     475Ap     1.284223   415App    1.285960   476Ap     1.288558  
     416App    1.288906   477Ap     1.293980   417App    1.294675  
     418App    1.295406   478Ap     1.296900   419App    1.297886  
     420App    1.300289   479Ap     1.300699   480Ap     1.303560  
     421App    1.305127   481Ap     1.305878   482Ap     1.308365  
     422App    1.310058   423App    1.313560   483Ap     1.314983  
     424App    1.315349   484Ap     1.321108   485Ap     1.323842  
     425App    1.324158   426App    1.326036   486Ap     1.330716  
     487Ap     1.331184   427App    1.332370   488Ap     1.334603  
     428App    1.336892   429App    1.338056   489Ap     1.342646  
     490Ap     1.343106   430App    1.343707   491Ap     1.345348  
     431App    1.346269   432App    1.349264   433App    1.352532  
     492Ap     1.352888   493Ap     1.353340   494Ap     1.356326  
     434App    1.357230   435App    1.360333   495Ap     1.360994  
     436App    1.363467   496Ap     1.365333   437App    1.366273  
     497Ap     1.369333   438App    1.370339   439App    1.372888  
     498Ap     1.374327   499Ap     1.375262   440App    1.379563  
     500Ap     1.380089   501Ap     1.382382   441App    1.384986  
     502Ap     1.386536   442App    1.387974   503Ap     1.389069  
     504Ap     1.390751   443App    1.393332   444App    1.394673  
     505Ap     1.397240   506Ap     1.399196   445App    1.401171  
     446App    1.401763   507Ap     1.402812   508Ap     1.404990  
     447App    1.406219   448App    1.408664   449App    1.410650  
     509Ap     1.410902   510Ap     1.414611   450App    1.416570  
     511Ap     1.418271   451App    1.419178   512Ap     1.420390  
     452App    1.421055   453App    1.421942   513Ap     1.423057  
     514Ap     1.427652   454App    1.431051   515Ap     1.433143  
     455App    1.434692   456App    1.435717   516Ap     1.435867  
     457App    1.437337   517Ap     1.439733   518Ap     1.440614  
     458App    1.445536   519Ap     1.446869   459App    1.448685  
     460App    1.450914   520Ap     1.452735   521Ap     1.454100  
     461App    1.456880   462App    1.457573   522Ap     1.458157  
     523Ap     1.460291   524Ap     1.462268   463App    1.462606  
     525Ap     1.464260   464App    1.465469   465App    1.467024  
     526Ap     1.467597   527Ap     1.468420   466App    1.470576  
     528Ap     1.474205   529Ap     1.477060   467App    1.478016  
     468App    1.478485   469App    1.481026   530Ap     1.484637  
     470App    1.486541   531Ap     1.486764   471App    1.488813  
     532Ap     1.490761   533Ap     1.492074   534Ap     1.496291  
     472App    1.496366   473App    1.497211   535Ap     1.500262  
     474App    1.503055   536Ap     1.504134   537Ap     1.507100  
     475App    1.511148   538Ap     1.511189   539Ap     1.514826  
     476App    1.515427   477App    1.516292   540Ap     1.518193  
     541Ap     1.519117   478App    1.522260   542Ap     1.523098  
     479App    1.524070   543Ap     1.524322   480App    1.524944  
     481App    1.529314   544Ap     1.530800   482App    1.534621  
     545Ap     1.534796   483App    1.535295   484App    1.538846  
     485App    1.539620   546Ap     1.540089   547Ap     1.543159  
     486App    1.544803   548Ap     1.547029   549Ap     1.550028  
     550Ap     1.551718   487App    1.552012   488App    1.553122  
     489App    1.560100   551Ap     1.560920   490App    1.561899  
     552Ap     1.563657   491App    1.566287   553Ap     1.566363  
     554Ap     1.570087   555Ap     1.575120   492App    1.575433  
     556Ap     1.579200   493App    1.580815   494App    1.581676  
     557Ap     1.584806   495App    1.585576   558Ap     1.586224  
     559Ap     1.587091   496App    1.588475   560Ap     1.592000  
     497App    1.594516   498App    1.596002   561Ap     1.597218  
     562Ap     1.598373   499App    1.600023   563Ap     1.600911  
     564Ap     1.603586   500App    1.603944   501App    1.608881  
     565Ap     1.610898   502App    1.613777   503App    1.617697  
     566Ap     1.618010   567Ap     1.619594   504App    1.622050  
     568Ap     1.622351   569Ap     1.625714   505App    1.626998  
     570Ap     1.627097   506App    1.630670   571Ap     1.631365  
     572Ap     1.633699   507App    1.634660   508App    1.636949  
     573Ap     1.638243   509App    1.641353   574Ap     1.642199  
     510App    1.642771   575Ap     1.646670   511App    1.649711  
     576Ap     1.651210   512App    1.653010   513App    1.655035  
     514App    1.656919   577Ap     1.657261   515App    1.660451  
     578Ap     1.662515   579Ap     1.664355   580Ap     1.665894  
     581Ap     1.668685   582Ap     1.669583   516App    1.669685  
     583Ap     1.672158   517App    1.673012   584Ap     1.676501  
     518App    1.677252   519App    1.680089   585Ap     1.681229  
     520App    1.681984   586Ap     1.687458   521App    1.687490  
     587Ap     1.690407   522App    1.691289   523App    1.693033  
     588Ap     1.694685   589Ap     1.697330   524App    1.701594  
     590Ap     1.703321   591Ap     1.703970   525App    1.704640  
     592Ap     1.706458   526App    1.707694   593Ap     1.708149  
     594Ap     1.712201   527App    1.712428   595Ap     1.713716  
     528App    1.715990   596Ap     1.716535   529App    1.716734  
     597Ap     1.718023   530App    1.720335   598Ap     1.721845  
     531App    1.723406   532App    1.727946   599Ap     1.728133  
     600Ap     1.733041   533App    1.734110   601Ap     1.735191  
     534App    1.736710   602Ap     1.740373   535App    1.741516  
     603Ap     1.743660   536App    1.744519   604Ap     1.745709  
     605Ap     1.746865   537App    1.749329   538App    1.754388  
     539App    1.755868   606Ap     1.757766   607Ap     1.762145  
     608Ap     1.764082   540App    1.767900   609Ap     1.768409  
     541App    1.770061   610Ap     1.772270   542App    1.772688  
     611Ap     1.774854   543App    1.776681   612Ap     1.776773  
     613Ap     1.781104   544App    1.781658   614Ap     1.784324  
     545App    1.785941   615Ap     1.786736   616Ap     1.790129  
     546App    1.790209   547App    1.796997   617Ap     1.799048  
     618Ap     1.802063   548App    1.802769   619Ap     1.803422  
     549App    1.807473   550App    1.808405   620Ap     1.808920  
     551App    1.811571   621Ap     1.813738   622Ap     1.820418  
     552App    1.821561   623Ap     1.823186   553App    1.826865  
     624Ap     1.827174   554App    1.830603   625Ap     1.830857  
     555App    1.834511   556App    1.834731   626Ap     1.837550  
     557App    1.838133   558App    1.840472   627Ap     1.842233  
     559App    1.842822   628Ap     1.845230   560App    1.847234  
     629Ap     1.848447   630Ap     1.849365   561App    1.852329  
     631Ap     1.854171   562App    1.858850   632Ap     1.863145  
     563App    1.864402   633Ap     1.866191   564App    1.868065  
     634Ap     1.871257   565App    1.875550   635Ap     1.876146  
     566App    1.877867   567App    1.878537   636Ap     1.882852  
     637Ap     1.884952   568App    1.885888   569App    1.890022  
     638Ap     1.891618   570App    1.894770   571App    1.900023  
     639Ap     1.901148   572App    1.901510   640Ap     1.902357  
     573App    1.905479   641Ap     1.906008   642Ap     1.908273  
     574App    1.910025   575App    1.914326   643Ap     1.915459  
     576App    1.915793   644Ap     1.916286   645Ap     1.921840  
     577App    1.923333   646Ap     1.925919   578App    1.927816  
     647Ap     1.930960   579App    1.932906   580App    1.933798  
     648Ap     1.934718   581App    1.938190   649Ap     1.938252  
     582App    1.938858   650Ap     1.941485   583App    1.944048  
     651Ap     1.944725   584App    1.946544   652Ap     1.948662  
     585App    1.951489   653Ap     1.954234   654Ap     1.956851  
     586App    1.959246   655Ap     1.961387   587App    1.962043  
     656Ap     1.963548   588App    1.964624   589App    1.968113  
     657Ap     1.968248   658Ap     1.973476   590App    1.974962  
     659Ap     1.978461   660Ap     1.982239   591App    1.983122  
     592App    1.983995   661Ap     1.985556   593App    1.985662  
     662Ap     1.992582   594App    1.997102   663Ap     1.999197  
     664Ap     2.000181   595App    2.001168   665Ap     2.004105  
     596App    2.005867   666Ap     2.007810   597App    2.009381  
     598App    2.011801   667Ap     2.012463   599App    2.016778  
     668Ap     2.019166   600App    2.021714   669Ap     2.023282  
     601App    2.024508   670Ap     2.024548   671Ap     2.028672  
     672Ap     2.032074   673Ap     2.035781   602App    2.036066  
     674Ap     2.039344   603App    2.039763   675Ap     2.041492  
     604App    2.042460   676Ap     2.044375   605App    2.045230  
     606App    2.045697   677Ap     2.047849   678Ap     2.052286  
     679Ap     2.055064   680Ap     2.061995   607App    2.064234  
     608App    2.065509   681Ap     2.066902   609App    2.067085  
     682Ap     2.070824   610App    2.072710   683Ap     2.076355  
     611App    2.076369   612App    2.083380   684Ap     2.084119  
     613App    2.086663   685Ap     2.087418   614App    2.089398  
     686Ap     2.090459   615App    2.091607   616App    2.095683  
     687Ap     2.097935   688Ap     2.100307   617App    2.103510  
     618App    2.106948   689Ap     2.109714   619App    2.111412  
     620App    2.114320   690Ap     2.116233   621App    2.121987  
     691Ap     2.122219   692Ap     2.124507   622App    2.125960  
     623App    2.127169   624App    2.128206   693Ap     2.131429  
     694Ap     2.137073   625App    2.142004   695Ap     2.142757  
     626App    2.146116   696Ap     2.146811   627App    2.149792  
     697Ap     2.155671   628App    2.157712   698Ap     2.159191  
     629App    2.159423   699Ap     2.161191   700Ap     2.165090  
     630App    2.171218   631App    2.171490   632App    2.173830  
     701Ap     2.174679   702Ap     2.179882   633App    2.185142  
     703Ap     2.186005   634App    2.189681   704Ap     2.190275  
     705Ap     2.190932   706Ap     2.195475   635App    2.195668  
     636App    2.197935   637App    2.202686   707Ap     2.209763  
     708Ap     2.212588   638App    2.214464   709Ap     2.219340  
     639App    2.223114   710Ap     2.223874   640App    2.229118  
     711Ap     2.230019   641App    2.232673   712Ap     2.234939  
     713Ap     2.238680   642App    2.239085   714Ap     2.247135  
     643App    2.249439   644App    2.251733   715Ap     2.258087  
     645App    2.258671   646App    2.259931   716Ap     2.262438  
     717Ap     2.264131   718Ap     2.268245   647App    2.271014  
     648App    2.273014   719Ap     2.275474   649App    2.278273  
     720Ap     2.282977   650App    2.284023   721Ap     2.288194  
     722Ap     2.288934   651App    2.289072   652App    2.291454  
     723Ap     2.296741   653App    2.297539   724Ap     2.301360  
     654App    2.302064   725Ap     2.306940   726Ap     2.308951  
     655App    2.310442   656App    2.316065   657App    2.321781  
     727Ap     2.322085   728Ap     2.323030   658App    2.326749  
     659App    2.328329   729Ap     2.329876   730Ap     2.334528  
     731Ap     2.337188   660App    2.337229   732Ap     2.339288  
     661App    2.341081   662App    2.344107   733Ap     2.344892  
     663App    2.350254   734Ap     2.351187   735Ap     2.353908  
     664App    2.358681   736Ap     2.362099   665App    2.362973  
     666App    2.364371   737Ap     2.366264   667App    2.370426  
     738Ap     2.375941   739Ap     2.378234   668App    2.379198  
     740Ap     2.387093   741Ap     2.391398   742Ap     2.394831  
     669App    2.397532   670App    2.400086   743Ap     2.401398  
     671App    2.403044   672App    2.404600   744Ap     2.406010  
     745Ap     2.411971   746Ap     2.414689   673App    2.415880  
     674App    2.419794   675App    2.420624   747Ap     2.422654  
     676App    2.430686   748Ap     2.431960   677App    2.433210  
     749Ap     2.435184   750Ap     2.437494   751Ap     2.441169  
     678App    2.444197   752Ap     2.449387   679App    2.451628  
     753Ap     2.456545   754Ap     2.457954   680App    2.461156  
     681App    2.463229   682App    2.465095   755Ap     2.469342  
     756Ap     2.471125   683App    2.472830   757Ap     2.475613  
     684App    2.476247   685App    2.480111   758Ap     2.482058  
     759Ap     2.484500   760Ap     2.486885   761Ap     2.489790  
     686App    2.493460   687App    2.496718   762Ap     2.500657  
     763Ap     2.501446   688App    2.503351   764Ap     2.504384  
     689App    2.505533   690App    2.509316   691App    2.514778  
     765Ap     2.516590   766Ap     2.522772   767Ap     2.525597  
     692App    2.526336   693App    2.528246   768Ap     2.529409  
     769Ap     2.535297   694App    2.536322   770Ap     2.537540  
     771Ap     2.542128   695App    2.542501   772Ap     2.543459  
     696App    2.548477   697App    2.549111   773Ap     2.552498  
     698App    2.556154   699App    2.556860   774Ap     2.558701  
     775Ap     2.562096   700App    2.566726   776Ap     2.570426  
     777Ap     2.573475   701App    2.574418   702App    2.575732  
     703App    2.581868   778Ap     2.584136   704App    2.584704  
     779Ap     2.591826   705App    2.594982   706App    2.598530  
     780Ap     2.598614   707App    2.603292   781Ap     2.603774  
     708App    2.609839   782Ap     2.610121   709App    2.616081  
     783Ap     2.616572   784Ap     2.622112   785Ap     2.623269  
     710App    2.627008   711App    2.630586   786Ap     2.632408  
     712App    2.633019   787Ap     2.637225   713App    2.646409  
     788Ap     2.647438   789Ap     2.648861   714App    2.649433  
     790Ap     2.652553   715App    2.652897   791Ap     2.657636  
     716App    2.660455   717App    2.663651   792Ap     2.663858  
     718App    2.665156   793Ap     2.665228   794Ap     2.674696  
     719App    2.677846   720App    2.680516   795Ap     2.680746  
     721App    2.685442   796Ap     2.688457   722App    2.689524  
     797Ap     2.692376   798Ap     2.694161   723App    2.699699  
     799Ap     2.701071   800Ap     2.707397   724App    2.707561  
     725App    2.712188   801Ap     2.715687   726App    2.715732  
     727App    2.719290   802Ap     2.720133   803Ap     2.723242  
     728App    2.727777   804Ap     2.729628   729App    2.733387  
     730App    2.734208   805Ap     2.734455   806Ap     2.737053  
     731App    2.743222   807Ap     2.744917   808Ap     2.749952  
     732App    2.751299   733App    2.754604   809Ap     2.757638  
     734App    2.757825   735App    2.764634   810Ap     2.766184  
     811Ap     2.769462   736App    2.771951   812Ap     2.774127  
     737App    2.774950   813Ap     2.780012   738App    2.782590  
     739App    2.786768   814Ap     2.790294   815Ap     2.797542  
     740App    2.797687   816Ap     2.799064   741App    2.803596  
     742App    2.805195   817Ap     2.808967   818Ap     2.810963  
     743App    2.815181   819Ap     2.818292   744App    2.822714  
     820Ap     2.823512   745App    2.833631   746App    2.836456  
     821Ap     2.837918   747App    2.840549   748App    2.848105  
     749App    2.851347   822Ap     2.852383   823Ap     2.860396  
     750App    2.861393   824Ap     2.865764   825Ap     2.872761  
     751App    2.879287   826Ap     2.886201   752App    2.886820  
     827Ap     2.896639   753App    2.902873   828Ap     2.904475  
     754App    2.904912   829Ap     2.906839   830Ap     2.916331  
     755App    2.919277   831Ap     2.920315   756App    2.922397  
     757App    2.928370   832Ap     2.929614   833Ap     2.933484  
     758App    2.935750   759App    2.939212   834Ap     2.947930  
     835Ap     2.959170   760App    2.966079   836Ap     2.968422  
     837Ap     2.974484   761App    2.976368   762App    2.982270  
     763App    2.983368   838Ap     2.983960   764App    2.987287  
     839Ap     2.998551   765App    2.999329   840Ap     3.006400  
     766App    3.012056   841Ap     3.012431   842Ap     3.017347  
     767App    3.017402   768App    3.019558   843Ap     3.024188  
     844Ap     3.035619   769App    3.035802   770App    3.043096  
     771App    3.046987   845Ap     3.048286   846Ap     3.051163  
     847Ap     3.055258   772App    3.058496   773App    3.061538  
     848Ap     3.063126   849Ap     3.064577   774App    3.073189  
     850Ap     3.075003   851Ap     3.078201   775App    3.083326  
     776App    3.090648   777App    3.090865   852Ap     3.092598  
     853Ap     3.094910   778App    3.107658   854Ap     3.107754  
     855Ap     3.116850   779App    3.118995   856Ap     3.121489  
     780App    3.124098   857Ap     3.125560   781App    3.125933  
     858Ap     3.131796   782App    3.132453   859Ap     3.137877  
     783App    3.140174   784App    3.150880   860Ap     3.153441  
     861Ap     3.157758   785App    3.168762   786App    3.171649  
     862Ap     3.172656   863Ap     3.174998   864Ap     3.176915  
     865Ap     3.181128   787App    3.183845   788App    3.190068  
     789App    3.196186   866Ap     3.197936   790App    3.207829  
     867Ap     3.208532   791App    3.212550   868Ap     3.213892  
     869Ap     3.220602   792App    3.222709   870Ap     3.226692  
     793App    3.228647   871Ap     3.230083   794App    3.236622  
     872Ap     3.241066   795App    3.247423   873Ap     3.250837  
     796App    3.251953   874Ap     3.254436   797App    3.257333  
     875Ap     3.260850   876Ap     3.264364   798App    3.269230  
     877Ap     3.269656   799App    3.273929   878Ap     3.278546  
     879Ap     3.280653   800App    3.285318   801App    3.292140  
     880Ap     3.292336   802App    3.294745   881Ap     3.300786  
     803App    3.301348   882Ap     3.303553   883Ap     3.309008  
     804App    3.310489   805App    3.312894   884Ap     3.315113  
     885Ap     3.323281   886Ap     3.329410   887Ap     3.338756  
     806App    3.338894   888Ap     3.339700   807App    3.341629  
     889Ap     3.343805   890Ap     3.349104   808App    3.349444  
     809App    3.350595   891Ap     3.357212   892Ap     3.360930  
     810App    3.364939   893Ap     3.365514   811App    3.367714  
     894Ap     3.379531   812App    3.381198   895Ap     3.383852  
     813App    3.385755   896Ap     3.386848   814App    3.392191  
     897Ap     3.392195   898Ap     3.395711   815App    3.401151  
     899Ap     3.402256   900Ap     3.405151   816App    3.408951  
     817App    3.414998   818App    3.415654   901Ap     3.416085  
     819App    3.419583   902Ap     3.422109   820App    3.423947  
     903Ap     3.427841   821App    3.430870   904Ap     3.433317  
     905Ap     3.435646   822App    3.438002   906Ap     3.439823  
     823App    3.446738   824App    3.449722   907Ap     3.450818  
     825App    3.452419   908Ap     3.457475   826App    3.457592  
     909Ap     3.464055   827App    3.465996   910Ap     3.472258  
     828App    3.472439   829App    3.479736   911Ap     3.482925  
     912Ap     3.489819   830App    3.490379   913Ap     3.496067  
     914Ap     3.499432   831App    3.504686   832App    3.507927  
     833App    3.508899   915Ap     3.511758   834App    3.516929  
     916Ap     3.521161   835App    3.521437   917Ap     3.525552  
     918Ap     3.527694   836App    3.531196   919Ap     3.531325  
     837App    3.533303   920Ap     3.548452   838App    3.550811  
     921Ap     3.553812   839App    3.554915   922Ap     3.557648  
     840App    3.562774   841App    3.564294   923Ap     3.564970  
     842App    3.570391   924Ap     3.571963   843App    3.576970  
     925Ap     3.578008   926Ap     3.583569   927Ap     3.586242  
     928Ap     3.594388   929Ap     3.596353   844App    3.596529  
     845App    3.601670   846App    3.605420   930Ap     3.609242  
     847App    3.613313   931Ap     3.615067   848App    3.618125  
     849App    3.623834   932Ap     3.624340   933Ap     3.628239  
     934Ap     3.633133   850App    3.634240   851App    3.637257  
     935Ap     3.640659   852App    3.650970   936Ap     3.651028  
     853App    3.652552   937Ap     3.657782   854App    3.659353  
     855App    3.660575   938Ap     3.662642   856App    3.668703  
     939Ap     3.670834   857App    3.672774   940Ap     3.677434  
     858App    3.679776   941Ap     3.691361   859App    3.692992  
     942Ap     3.700690   943Ap     3.707961   860App    3.710853  
     944Ap     3.713186   945Ap     3.718347   861App    3.725606  
     946Ap     3.728795   862App    3.733089   863App    3.734418  
     947Ap     3.740400   948Ap     3.744378   864App    3.750679  
     949Ap     3.755580   950Ap     3.757455   865App    3.758020  
     951Ap     3.762878   952Ap     3.766372   866App    3.766739  
     953Ap     3.768247   867App    3.769822   868App    3.776649  
     954Ap     3.778505   869App    3.782998   870App    3.786047  
     955Ap     3.786340   956Ap     3.790559   871App    3.793194  
     957Ap     3.800455   872App    3.802263   958Ap     3.803207  
     873App    3.809536   959Ap     3.814067   960Ap     3.817080  
     874App    3.817269   961Ap     3.820760   875App    3.821340  
     962Ap     3.824540   876App    3.824861   877App    3.827590  
     878App    3.829413   963Ap     3.831922   879App    3.833897  
     880App    3.840614   964Ap     3.842376   965Ap     3.846862  
     881App    3.848667   966Ap     3.857076   967Ap     3.864599  
     968Ap     3.867631   882App    3.869060   969Ap     3.871300  
     883App    3.873466   884App    3.874605   970Ap     3.875643  
     885App    3.876029   971Ap     3.881706   972Ap     3.888604  
     886App    3.892288   973Ap     3.893400   887App    3.897870  
     974Ap     3.899978   975Ap     3.907862   888App    3.910068  
     889App    3.915104   890App    3.916896   976Ap     3.917020  
     977Ap     3.921173   891App    3.924179   892App    3.926399  
     893App    3.937132   978Ap     3.941364   894App    3.950907  
     979Ap     3.951217   980Ap     3.962161   895App    3.966396  
     981Ap     3.970621   896App    3.975077   982Ap     3.980483  
     983Ap     3.984801   897App    3.985195   898App    3.992010  
     984Ap     3.996139   985Ap     3.998980   899App    4.001721  
     986Ap     4.007385   900App    4.011959   901App    4.013542  
     987Ap     4.021584   902App    4.023333   903App    4.030654  
     988Ap     4.031796   989Ap     4.036190   990Ap     4.042779  
     904App    4.043529   905App    4.048294   991Ap     4.050529  
     992Ap     4.053705   993Ap     4.055769   906App    4.058324  
     907App    4.065300   994Ap     4.065916   908App    4.066995  
     995Ap     4.069293   996Ap     4.073589   909App    4.081695  
     910App    4.082332   997Ap     4.083379   911App    4.090527  
     998Ap     4.092569   999Ap     4.095764   912App    4.096955  
    1000Ap     4.097024   913App    4.100585   914App    4.110660  
    1001Ap     4.113203   915App    4.114007   916App    4.114908  
    1002Ap     4.117034   917App    4.119210  1003Ap     4.124878  
    1004Ap     4.129133   918App    4.134403  1005Ap     4.138000  
     919App    4.138027   920App    4.142927  1006Ap     4.143388  
     921App    4.145910  1007Ap     4.150697   922App    4.151173  
    1008Ap     4.153375  1009Ap     4.157938   923App    4.158302  
     924App    4.162351   925App    4.163977  1010Ap     4.164654  
    1011Ap     4.168884  1012Ap     4.170300   926App    4.171539  
    1013Ap     4.172218   927App    4.177398  1014Ap     4.180755  
     928App    4.182248  1015Ap     4.186033   929App    4.189588  
     930App    4.191873  1016Ap     4.193609   931App    4.194456  
    1017Ap     4.198535  1018Ap     4.202239   932App    4.203044  
     933App    4.203889  1019Ap     4.207705   934App    4.208008  
    1020Ap     4.210128   935App    4.219107  1021Ap     4.219901  
     936App    4.222404  1022Ap     4.223835  1023Ap     4.232336  
     937App    4.233837   938App    4.237906  1024Ap     4.239095  
    1025Ap     4.240989  1026Ap     4.242352   939App    4.247518  
    1027Ap     4.248985  1028Ap     4.251899   940App    4.253817  
     941App    4.257361  1029Ap     4.261654  1030Ap     4.264445  
     942App    4.266047   943App    4.267694  1031Ap     4.268251  
     944App    4.274734  1032Ap     4.275976  1033Ap     4.277236  
     945App    4.281510  1034Ap     4.282095   946App    4.285295  
     947App    4.287929  1035Ap     4.289399   948App    4.289775  
    1036Ap     4.295981   949App    4.298917  1037Ap     4.300779  
     950App    4.302615  1038Ap     4.306013   951App    4.308359  
     952App    4.313524  1039Ap     4.315571  1040Ap     4.317048  
     953App    4.317652   954App    4.323227  1041Ap     4.324372  
     955App    4.326130  1042Ap     4.328988  1043Ap     4.334767  
     956App    4.335539   957App    4.342609  1044Ap     4.344153  
     958App    4.348770  1045Ap     4.350778   959App    4.357306  
    1046Ap     4.358221  1047Ap     4.361589  1048Ap     4.364086  
     960App    4.369599   961App    4.372888  1049Ap     4.373607  
    1050Ap     4.378038  1051Ap     4.378765   962App    4.381039  
     963App    4.383744  1052Ap     4.386833  1053Ap     4.390501  
     964App    4.390657   965App    4.394732  1054Ap     4.395217  
     966App    4.399073  1055Ap     4.402532  1056Ap     4.409637  
     967App    4.410086  1057Ap     4.413362  1058Ap     4.418851  
     968App    4.419100  1059Ap     4.421448   969App    4.424183  
     970App    4.427206  1060Ap     4.427930   971App    4.432874  
     972App    4.437408  1061Ap     4.438338  1062Ap     4.440164  
    1063Ap     4.444071   973App    4.446194  1064Ap     4.448027  
    1065Ap     4.449757   974App    4.451918   975App    4.454518  
    1066Ap     4.455251   976App    4.457837  1067Ap     4.459864  
    1068Ap     4.463032   977App    4.466274  1069Ap     4.468300  
     978App    4.472402  1070Ap     4.474502   979App    4.479565  
    1071Ap     4.480827   980App    4.481976  1072Ap     4.484594  
    1073Ap     4.485850   981App    4.486866   982App    4.488288  
    1074Ap     4.491846   983App    4.496613  1075Ap     4.499975  
     984App    4.501574  1076Ap     4.506671   985App    4.510938  
    1077Ap     4.512364   986App    4.520474   987App    4.521255  
    1078Ap     4.522570   988App    4.528486  1079Ap     4.530726  
    1080Ap     4.538167   989App    4.538972  1081Ap     4.542007  
     990App    4.542618  1082Ap     4.549654  1083Ap     4.551134  
     991App    4.551422  1084Ap     4.553651   992App    4.557726  
     993App    4.558672  1085Ap     4.560119   994App    4.563339  
    1086Ap     4.566595  1087Ap     4.569428   995App    4.574296  
    1088Ap     4.575705   996App    4.581584   997App    4.584487  
    1089Ap     4.584502  1090Ap     4.586705  1091Ap     4.589520  
    1092Ap     4.594649   998App    4.595450   999App    4.600525  
    1000App    4.601940  1093Ap     4.604562  1094Ap     4.606406  
    1095Ap     4.611301  1001App    4.611900  1002App    4.615030  
    1096Ap     4.619941  1003App    4.622384  1097Ap     4.624841  
    1004App    4.627531  1098Ap     4.629705  1099Ap     4.633574  
    1005App    4.634712  1100Ap     4.639651  1006App    4.641227  
    1007App    4.642292  1101Ap     4.648449  1008App    4.653035  
    1102Ap     4.654875  1103Ap     4.664123  1009App    4.664145  
    1010App    4.666402  1011App    4.669412  1104Ap     4.669419  
    1105Ap     4.674812  1012App    4.678143  1106Ap     4.685332  
    1013App    4.687124  1107Ap     4.687149  1108Ap     4.693361  
    1014App    4.693539  1109Ap     4.697824  1015App    4.699640  
    1016App    4.701600  1017App    4.706891  1110Ap     4.706945  
    1018App    4.711209  1111Ap     4.711305  1019App    4.714955  
    1112Ap     4.717335  1020App    4.720401  1021App    4.726033  
    1113Ap     4.726674  1022App    4.732311  1114Ap     4.734344  
    1023App    4.744451  1115Ap     4.745270  1024App    4.745961  
    1116Ap     4.751282  1117Ap     4.757151  1025App    4.759225  
    1026App    4.761750  1118Ap     4.765415  1027App    4.769184  
    1119Ap     4.771346  1028App    4.775070  1029App    4.778279  
    1120Ap     4.779330  1121Ap     4.780766  1122Ap     4.783108  
    1030App    4.784080  1123Ap     4.786996  1031App    4.787784  
    1124Ap     4.793632  1032App    4.795760  1033App    4.801497  
    1125Ap     4.804248  1034App    4.804621  1126Ap     4.805971  
    1035App    4.808395  1127Ap     4.810937  1128Ap     4.819518  
    1036App    4.821062  1129Ap     4.823467  1037App    4.829168  
    1130Ap     4.830747  1038App    4.832883  1131Ap     4.833028  
    1039App    4.836552  1132Ap     4.843232  1040App    4.846297  
    1041App    4.849428  1133Ap     4.851808  1134Ap     4.853844  
    1042App    4.856157  1043App    4.858377  1135Ap     4.866048  
    1044App    4.866950  1136Ap     4.873667  1045App    4.877389  
    1137Ap     4.878601  1046App    4.881469  1138Ap     4.885679  
    1047App    4.889400  1139Ap     4.890936  1140Ap     4.893398  
    1048App    4.894514  1141Ap     4.898349  1142Ap     4.899216  
    1049App    4.905004  1050App    4.908253  1143Ap     4.911631  
    1144Ap     4.914129  1051App    4.917304  1145Ap     4.917772  
    1052App    4.919716  1146Ap     4.919826  1053App    4.928611  
    1147Ap     4.929599  1148Ap     4.931678  1054App    4.936551  
    1149Ap     4.936754  1055App    4.944370  1150Ap     4.946521  
    1151Ap     4.947879  1056App    4.953438  1057App    4.956108  
    1058App    4.958941  1152Ap     4.964592  1153Ap     4.966073  
    1059App    4.973524  1060App    4.976416  1154Ap     4.980612  
    1155Ap     4.982847  1061App    4.985915  1156Ap     4.987549  
    1062App    4.990563  1157Ap     4.992214  1158Ap     5.000443  
    1063App    5.003315  1064App    5.008857  1159Ap     5.009440  
    1065App    5.009973  1066App    5.018590  1067App    5.021615  
    1160Ap     5.023302  1068App    5.026575  1161Ap     5.027162  
    1069App    5.037298  1162Ap     5.040637  1163Ap     5.042406  
    1070App    5.050109  1071App    5.058727  1164Ap     5.059612  
    1165Ap     5.063241  1072App    5.065324  1166Ap     5.069213  
    1073App    5.071329  1167Ap     5.072760  1074App    5.074637  
    1168Ap     5.078363  1169Ap     5.082322  1075App    5.090732  
    1170Ap     5.093065  1076App    5.095741  1171Ap     5.098106  
    1077App    5.100746  1172Ap     5.106832  1078App    5.108233  
    1079App    5.109948  1080App    5.117562  1173Ap     5.119191  
    1174Ap     5.122975  1081App    5.123885  1175Ap     5.124425  
    1082App    5.129694  1176Ap     5.132638  1177Ap     5.139250  
    1083App    5.144428  1178Ap     5.145586  1084App    5.153219  
    1085App    5.157455  1179Ap     5.158683  1086App    5.158805  
    1180Ap     5.164509  1181Ap     5.172606  1087App    5.173156  
    1182Ap     5.179982  1088App    5.182059  1183Ap     5.190710  
    1089App    5.190872  1184Ap     5.197835  1090App    5.209577  
    1091App    5.211804  1185Ap     5.211931  1186Ap     5.215923  
    1092App    5.219298  1187Ap     5.220496  1188Ap     5.227126  
    1093App    5.227136  1189Ap     5.232404  1094App    5.232916  
    1095App    5.241016  1190Ap     5.246332  1191Ap     5.251259  
    1096App    5.254334  1192Ap     5.259097  1097App    5.263340  
    1193Ap     5.267057  1098App    5.270299  1194Ap     5.278561  
    1099App    5.279403  1195Ap     5.282482  1196Ap     5.288251  
    1100App    5.290605  1101App    5.293757  1197Ap     5.296181  
    1102App    5.300932  1198Ap     5.303756  1103App    5.304150  
    1199Ap     5.308230  1104App    5.317316  1200Ap     5.321641  
    1201Ap     5.327014  1105App    5.334663  1202Ap     5.335188  
    1106App    5.337071  1203Ap     5.355397  1204Ap     5.363847  
    1107App    5.364103  1205Ap     5.367791  1108App    5.369735  
    1206Ap     5.381390  1109App    5.383833  1110App    5.392444  
    1207Ap     5.397702  1111App    5.398764  1208Ap     5.404842  
    1112App    5.414302  1209Ap     5.417388  1210Ap     5.429082  
    1113App    5.429155  1114App    5.432123  1211Ap     5.435103  
    1115App    5.437509  1212Ap     5.443551  1116App    5.446481  
    1213Ap     5.448755  1214Ap     5.451792  1117App    5.455307  
    1118App    5.465858  1215Ap     5.466426  1119App    5.470336  
    1120App    5.477366  1216Ap     5.479383  1121App    5.482805  
    1122App    5.487020  1217Ap     5.490754  1218Ap     5.494743  
    1123App    5.502444  1219Ap     5.507888  1124App    5.510116  
    1220Ap     5.518399  1221Ap     5.519630  1222Ap     5.527217  
    1125App    5.527352  1223Ap     5.528669  1126App    5.529075  
    1224Ap     5.540489  1127App    5.541108  1225Ap     5.541512  
    1128App    5.548507  1129App    5.551533  1226Ap     5.551682  
    1130App    5.558331  1227Ap     5.559173  1228Ap     5.566540  
    1131App    5.569298  1132App    5.569451  1229Ap     5.573357  
    1133App    5.576719  1134App    5.583197  1230Ap     5.583337  
    1231Ap     5.594406  1135App    5.597302  1136App    5.601694  
    1232Ap     5.617146  1233Ap     5.625126  1137App    5.625398  
    1138App    5.626465  1234Ap     5.629154  1139App    5.640693  
    1235Ap     5.641148  1140App    5.641918  1236Ap     5.643854  
    1237Ap     5.650480  1141App    5.656981  1238Ap     5.658376  
    1142App    5.665970  1239Ap     5.669796  1143App    5.673414  
    1240Ap     5.673755  1241Ap     5.678158  1144App    5.686009  
    1242Ap     5.688976  1145App    5.691108  1243Ap     5.695090  
    1146App    5.701586  1244Ap     5.702351  1245Ap     5.709203  
    1147App    5.714830  1246Ap     5.715283  1148App    5.727024  
    1149App    5.749179  1247Ap     5.749182  1150App    5.755147  
    1248Ap     5.759119  1151App    5.764358  1249Ap     5.764968  
    1152App    5.773277  1250Ap     5.778655  1251Ap     5.784353  
    1153App    5.789625  1252Ap     5.790388  1154App    5.801318  
    1253Ap     5.806243  1155App    5.806397  1156App    5.818379  
    1254Ap     5.822209  1157App    5.828742  1255Ap     5.835465  
    1158App    5.836489  1256Ap     5.837430  1159App    5.842903  
    1160App    5.851981  1161App    5.855720  1257Ap     5.856707  
    1162App    5.867176  1258Ap     5.868876  1259Ap     5.883099  
    1163App    5.901727  1260Ap     5.905076  1261Ap     5.914380  
    1164App    5.919091  1262Ap     5.922281  1165App    5.923054  
    1263Ap     5.938393  1166App    5.939335  1264Ap     5.945834  
    1265Ap     5.952043  1167App    5.954505  1168App    5.967069  
    1266Ap     5.976143  1169App    5.978678  1267Ap     5.984791  
    1170App    5.987305  1268Ap     5.990035  1269Ap     5.995727  
    1171App    6.002744  1270Ap     6.014592  1172App    6.030118  
    1271Ap     6.035215  1173App    6.035583  1174App    6.036772  
    1272Ap     6.042147  1175App    6.053662  1273Ap     6.057661  
    1176App    6.064999  1274Ap     6.074415  1177App    6.076820  
    1275Ap     6.079976  1178App    6.083359  1276Ap     6.103432  
    1277Ap     6.110348  1179App    6.110396  1278Ap     6.116544  
    1180App    6.120304  1181App    6.128632  1279Ap     6.129729  
    1280Ap     6.140382  1182App    6.145996  1183App    6.158502  
    1281Ap     6.161547  1184App    6.171306  1282Ap     6.180603  
    1185App    6.185085  1186App    6.186615  1283Ap     6.188707  
    1187App    6.191627  1284Ap     6.197210  1188App    6.204462  
    1285Ap     6.212345  1189App    6.212931  1286Ap     6.217942  
    1190App    6.220900  1287Ap     6.224889  1288Ap     6.230093  
    1289Ap     6.234816  1191App    6.250582  1192App    6.258370  
    1290Ap     6.260094  1193App    6.266999  1291Ap     6.288166  
    1292Ap     6.295863  1194App    6.296271  1195App    6.300312  
    1196App    6.303366  1293Ap     6.314601  1197App    6.318338  
    1198App    6.337882  1294Ap     6.341566  1199App    6.343358  
    1295Ap     6.346719  1200App    6.364946  1296Ap     6.365610  
    1201App    6.373894  1297Ap     6.409645  1202App    6.421864  
    1298Ap     6.422256  1203App    6.428598  1299Ap     6.429766  
    1300Ap     6.439648  1204App    6.444249  1301Ap     6.447141  
    1302Ap     6.459893  1205App    6.460891  1303Ap     6.461634  
    1206App    6.466710  1304Ap     6.468409  1305Ap     6.506942  
    1207App    6.514662  1306Ap     6.517209  1208App    6.522404  
    1209App    6.527254  1210App    6.536375  1211App    6.574235  
    1307Ap     6.574730  1308Ap     6.596702  1212App    6.604989  
    1309Ap     6.622549  1310Ap     6.629952  1213App    6.634831  
    1311Ap     6.646299  1214App    6.653332  1312Ap     6.654332  
    1215App    6.674901  1313Ap     6.686206  1314Ap     6.688558  
    1216App    6.690065  1315Ap     6.696986  1217App    6.705738  
    1218App    6.710709  1316Ap     6.738902  1219App    6.743205  
    1317Ap     6.755778  1318Ap     6.781510  1220App    6.781886  
    1221App    6.786730  1319Ap     6.811765  1320Ap     6.856894  
    1222App    6.859664  1321Ap     6.864224  1223App    6.864459  
    1224App    6.871608  1322Ap     6.877472  1225App    6.883473  
    1323Ap     6.899440  1324Ap     6.948921  1226App    6.954922  
    1325Ap     7.048582  1227App    7.051256  1326Ap     7.054126  
    1327Ap     7.083268  1228App    7.083276  1229App    7.131923  
    1328Ap     7.181594  1230App    7.205221  1231App    7.206815  
    1232App    7.220007  1329Ap     7.222770  1330Ap     7.238175  
    1233App    7.250895  1234App    7.253888  1331Ap     7.258293  
    1235App    7.273599  1332Ap     7.274836  1333Ap     7.292027  
    1236App    7.338124  1334Ap     7.429951  1335Ap     7.434077  
    1237App    7.447588  1238App    7.450505  1336Ap     7.461289  
    1239App    7.464308  1240App    7.484381  1337Ap     7.485482  
    1241App    7.491277  1338Ap     7.494003  1339Ap     7.500088  
    1340Ap     7.515454  1341Ap     7.536136  1242App    7.541920  
    1342Ap     7.560648  1243App    7.562540  1343Ap     7.568277  
    1244App    7.576315  1344Ap     7.633230  1245App    7.635826  
    1246App    7.647321  1345Ap     7.733071  1247App    7.737406  
    1248App    7.748540  1346Ap     7.761103  1249App    7.770377  
    1347Ap     7.800733  1250App    7.815669  1348Ap     7.832533  
    1251App    7.834435  1349Ap     7.854920  1252App    7.855717  
    1253App    7.882115  1350Ap     7.908391  1254App    7.919813  
    1351Ap     7.923500  1352Ap     7.994256  1353Ap     8.011343  
    1354Ap     8.016258  1255App    8.017401  1355Ap     8.033598  
    1256App    8.038495  1356Ap     8.182809  1257App    8.187764  
    1357Ap     8.234419  1358Ap     8.238041  1258App    8.241507  
    1259App    8.247168  1359Ap     8.256120  1360Ap     8.302186  
    1260App    8.312670  1361Ap     8.384148  1261App    8.397119  
    1362Ap     8.488243  1363Ap     8.497719  1262App    8.500553  
    1263App    8.502174  1364Ap     8.505728  1365Ap     8.538593  
    1264App    8.549899  1265App    8.605413  1266App    8.894952  
    1366Ap     8.895072  1267App    8.937333  1367Ap     9.074990  
    1268App    9.089409  1368Ap     9.097115  1269App    9.106750  
    1369Ap     9.194425  1370Ap     9.466258  1270App    9.482919  
    1371Ap     9.695229  1372Ap     9.697261  1271App    9.699368  
    1272App    9.716201  1373Ap     9.885420  1374Ap     9.917242  
    1273App    9.921843  1274App    9.938171  1375Ap     9.974753  
    1275App   10.011373  1376Ap    10.012299  1377Ap    10.233573  
    1276App   10.240275  1378Ap    10.303435  1277App   10.322460  
    1379Ap    10.392275  1278App   10.398935  1380Ap    10.512677  
    1279App   10.536153  1381Ap    10.986133  1280App   11.001969  
    1281App   11.131355  1382Ap    11.132716  1282App   11.344480  
    1383Ap    11.358492  1283App   11.369860  1384Ap    11.401149  
    1385Ap    11.430409  1284App   11.431135  1386Ap    11.808901  
    1285App   11.831937  1387Ap    11.932971  1286App   12.004124  
    1388Ap    12.063412  1389Ap    12.078050  1287App   12.080947  
    1288App   12.122413  1390Ap    12.346920  1391Ap    12.464598  
    1289App   12.475960  1392Ap    12.689100  1393Ap    12.718441  
    1290App   12.723659  1394Ap    15.072754  1395Ap    15.884185  
    1291App   15.889712  1396Ap    17.080630  1292App   17.148775  
    1397Ap    17.496445  1293App   17.549772  1398Ap    18.214448  
    1294App   18.222100  1399Ap    19.812845  1295App   19.821516  
    1400Ap    20.359451  1296App   20.675013  1401Ap    20.969787  
    1297App   21.061296  1402Ap    21.195066  1298App   21.295745  
    1403Ap    21.784959  1404Ap    21.888597  1405Ap    22.671679  
    1299App   22.705205  1406Ap    23.135484  1407Ap    23.308312  
    1300App   23.407897  1408Ap    49.912102  1409Ap    51.272588  
    1301App   51.282524  1410Ap    53.701032  1302App   53.848058  
    1411Ap    54.557653  1303App   54.593342  1412Ap    55.746760  
    1304App   55.754199  1413Ap    58.825745  1414Ap    58.960285  
    1305App   58.974626  1306App   59.761729  1415Ap    60.494851  
    1307App   60.634890  1416Ap    60.818337  1308App   61.013339  
    1417Ap    61.961200  1418Ap    62.596869  1419Ap    63.708263  
    1309App   63.773565  1420Ap    64.563618  1421Ap    64.900836  
    1310App   65.095330  

    Final Occupation by Irrep:
             Ap   App 
    DOCC [    43,   35 ]
    NA   [    43,   35 ]
    NB   [    43,   35 ]

  @DF-RKS Final Energy:  -922.23201577924533

   => Energetics <=

    Nuclear Repulsion Energy =           1837.3306649843195828
    One-Electron Energy =               -4896.1100470934088662
    Two-Electron Energy =                2245.8746325347015045
    DFT Exchange-Correlation Energy =    -109.2924129574558947
    Empirical Dispersion Energy =          -0.0348532474019458
    VV10 Nonlocal Energy =                  0.0000000000000000
    Total Energy =                       -922.2320157792454438

Computation Completed


Properties will be evaluated at   0.000000,   0.000000,   0.000000 [a0]

Properties computed using the SCF density matrix


 Multipole Moments:

 ------------------------------------------------------------------------------------
     Multipole            Electronic (a.u.)      Nuclear  (a.u.)        Total (a.u.)
 ------------------------------------------------------------------------------------

 L = 1.  Multiply by 2.5417464519 to convert [e a0] to [Debye]
 Dipole X            :       -228.9103073          228.9101020           -0.0002053
 Dipole Y            :          0.0000000           -0.0000000           -0.0000000
 Dipole Z            :       -509.7039894          509.7045283            0.0005389
 Magnitude           :                                                    0.0005767

 ------------------------------------------------------------------------------------

*** tstop() called on atl1-1-02-003-29-2.pace.gatech.edu at Sat Jun 13 19:46:48 2026
Module time:
	user time   =   20459.91 seconds =     341.00 minutes
	system time =    1095.63 seconds =      18.26 minutes
	total time  =       3016 seconds =      50.27 minutes
Total time:
	user time   =   20459.91 seconds =     341.00 minutes
	system time =    1095.63 seconds =      18.26 minutes
	total time  =       3016 seconds =      50.27 minutes

    Psi4 stopped on: Saturday, 13 June 2026 07:46PM
    Psi4 wall time for execution: 0:50:23.39

*** Psi4 exiting successfully. Buy a developer a beer!
