
    -----------------------------------------------------------------------
          Psi4: An Open-Source Ab Initio Electronic Structure Package
                               Psi4 1.9.1 release

                         Git: Rev {} zzzzzzz 


    D. G. A. Smith, L. A. Burns, A. C. Simmonett, R. M. Parrish,
    M. C. Schieber, R. Galvelis, P. Kraus, H. Kruse, R. Di Remigio,
    A. Alenaizan, A. M. James, S. Lehtola, J. P. Misiewicz, M. Scheurer,
    R. A. Shaw, J. B. Schriber, Y. Xie, Z. L. Glick, D. A. Sirianni,
    J. S. O'Brien, J. M. Waldrop, A. Kumar, E. G. Hohenstein,
    B. P. Pritchard, B. R. Brooks, H. F. Schaefer III, A. Yu. Sokolov,
    K. Patkowski, A. E. DePrince III, U. Bozkaya, R. A. King,
    F. A. Evangelista, J. M. Turney, T. D. Crawford, C. D. Sherrill,
    J. Chem. Phys. 152(18) 184108 (2020). https://doi.org/10.1063/5.0006002

                            Additional Code Authors
    E. T. Seidl, C. L. Janssen, E. F. Valeev, M. L. Leininger,
    J. F. Gonthier, R. M. Richard, H. R. McAlexander, M. Saitow, X. Wang,
    P. Verma, M. H. Lechner, A. Jiang, S. Behnle, A. G. Heide,
    M. F. Herbst, and D. L. Poole

             Previous Authors, Complete List of Code Contributors,
                       and Citations for Specific Modules
    https://github.com/psi4/psi4/blob/master/codemeta.json
    https://github.com/psi4/psi4/graphs/contributors
    http://psicode.org/psi4manual/master/introduction.html#citing-psifour

    -----------------------------------------------------------------------


    Psi4 started on: Saturday, 13 June 2026 10:53AM

    Process ID: 1333010
    Host:       atl1-1-03-004-8-1.pace.gatech.edu
    PSIDATADIR: /storage/home/hcoda1/5/vlita3/.conda/envs/p4_qcml/share/psi4
    Memory:     250.0 GiB
    Threads:    10
    
  ==> Input QCSchema <==

--------------------------------------------------------------------------
{'driver': 'energy',
 'extras': {},
 'id': '207',
 'keywords': {},
 'model': {'basis': 'aug-cc-pvtz', 'method': 'hf'},
 'molecule': {'extras': {},
              'fix_com': True,
              'fix_orientation': True,
              'fragment_charges': [0.0, 0.0],
              'fragment_multiplicities': [1, 1],
              'fragments': [[0, 1, 2, 3, 4, 5, 6, 7, 8, 9, 10, 11, 12, 13, 14, 15, 16, 17, 18, 19, 20, 21, 22, 23, 24,
                             25, 26, 27, 28, 29, 30, 31, 32, 33, 34, 35, 36, 37, 38, 39, 40, 41, 42, 43, 44, 45, 46, 47,
                             48, 49, 50, 51, 52, 53, 54, 55, 56, 57, 58, 59, 60, 61, 62, 63, 64, 65, 66, 67],
                            [68, 69, 70, 71, 72, 73, 74, 75, 76, 77, 78, 79, 80, 81, 82, 83]],
              'geometry': [-5.34620642, -4.85206741, -0.42040662, -6.29696543, -3.97249137, -2.73196591, -7.16652857,
                           -1.39360971, -2.91024059, -7.07225732, 0.1478346, -0.75712917, -6.06055521, -0.70522859,
                           1.52779916, -5.14660825, -3.28275871, 1.6937689, -8.00940954, -0.47795161, -5.29622845,
                           -8.00389532, -2.01265111, -7.39175445, -7.1739962, -4.55869367, -7.20967896, -6.3482405,
                           -5.51081404, -4.93971915, -5.79174545, 0.94432733, 3.66064233, -4.5983628, 0.0799819,
                           5.76970066, -3.62293398, -2.4551662, 5.90550866, -3.92400421, -4.11631993, 3.96419018,
                           -2.16569152, -2.61945029, 8.3885177, 0.07636213, -0.84617571, 7.95116799, -0.9078112,
                           1.61784783, 7.8674416, -3.76570071, 1.39135281, 8.20497635, -3.85671125, -0.88804523,
                           10.06281411, 2.58001171, -1.3655127, 7.31184057, 4.1057488, 0.7110172, 6.7716308, 3.12911434,
                           3.1826792, 6.68292857, 0.58226752, 3.66820181, 7.1546987, 5.22477035, 4.85680231, 5.5947568,
                           5.45773257, 3.95265056, 2.86034162, 6.48712479, 1.44012834, 2.99187034, 6.82098554,
                           0.8515344, 5.79382301, 7.56885523, 3.52377684, 6.77238443, 6.80325367, 0.01007923,
                           0.87853632, 6.01230407, 0.99764822, -1.51581981, 4.9476594, 3.51769873, -1.64633715,
                           4.72513697, 4.9862546, 0.62058001, 6.12205861, -0.46131862, -3.71310038, 5.15756848,
                           0.40687221, -6.02295948, 4.08395781, 2.91056166, -6.14884699, 4.05329983, 4.41018879,
                           -3.96462935, 5.13306837, -1.12454068, -8.23614739, 4.07851898, -0.25961114, -10.44460058,
                           2.99478619, 2.19392857, -10.56107574, 3.00851807, 3.73807424, -8.47334713, 3.50361025,
                           -3.823107, 7.21233591, -0.52564981, 6.01194181, 6.93361699, 5.05829719, 6.89567715,
                           5.87089814, 8.0356414, -0.74107273, 6.26352729, 7.58901842, 3.63875572, 8.83518962,
                           9.35421802, 4.19783591, 5.97522954, -5.76611566, -1.64188193, 10.31542343, -2.98864212,
                           -0.45542891, 11.88758146, -4.77253092, 3.11242428, 8.71181923, -1.70891184, -4.50721847,
                           9.0671295, 7.55489696, -1.89976737, 0.96862939, 3.89947197, 6.86430373, 0.5027639,
                           -6.46680418, 2.87873678, 3.51311765, -3.18323648, -6.03153223, 4.04964208, 3.22722344,
                           6.29110633, -4.05969977, 6.91726822, -2.35617478, -3.61337858, 2.17488807, 5.6139636,
                           -8.5558299, 2.15939666, 2.84829877, -12.31851423, 4.06363758, -1.45295543, -12.11512622,
                           5.94772646, -3.00842661, -8.1365677, -4.65219392, -6.78410677, -0.29846731, -7.72607119,
                           2.09308409, -0.89347536, -5.69192784, -7.45269585, -4.79824367, -8.63836085, 1.47325902,
                           -5.4323305, -8.64382367, -1.28398557, -9.20131008, -7.19028923, -5.75067773, -8.88116704,
                           0.69471926, 7.16657411, 6.19908801, 3.21943853, -4.43255237, 5.4924338, -1.01804176,
                           -2.06721752, -6.41424693, -0.04006805, -3.69463605, -4.59993014, 0.29508244, -2.88730801,
                           -2.09508758, -0.32679714, -0.42272984, -1.41690966, -1.32071561, 1.15392876, -3.24915277,
                           -1.68814035, 0.37514049, -5.74325186, 0.62349756, -6.02367305, -5.33266218, 1.25684872,
                           -4.55988854, -0.10878832, -2.01790096, 3.74535177, -2.52671085, -2.46962752, 1.68011751,
                           -7.10722613, -0.06092458, 0.2181685, 0.50639917, -1.23619836, -2.74752497, -8.33105453,
                           2.06085935, -3.52195874, 1.83306118, 1.18336559, -6.86024705, -0.44470452, -2.90698951,
                           5.11929396, -4.19647021, -1.67462389, 4.39177019, -0.3135118],
              'id': 6,
              'identifiers': {'molecular_formula': 'C46FH29N2O6',
                              'molecule_hash': '6059439b7d3ff97eb634aabdaf8efaa815866e92'},
              'molecular_charge': 0.0,
              'molecular_multiplicity': 1,
              'name': 'C46FH29N2O6',
              'provenance': {'creator': 'QCElemental',
                             'routine': 'qcelemental.molparse.from_string',
                             'version': '0.29.0'},
              'schema_name': 'qcschema_molecule',
              'schema_version': 2,
              'symbols': ['C', 'C', 'C', 'C', 'C', 'C', 'C', 'C', 'C', 'C', 'C', 'C', 'C', 'C', 'C', 'C', 'C', 'C', 'C',
                          'C', 'C', 'C', 'C', 'C', 'C', 'C', 'C', 'C', 'C', 'C', 'C', 'C', 'C', 'C', 'C', 'C', 'C', 'C',
                          'C', 'C', 'O', 'O', 'H', 'H', 'H', 'H', 'H', 'H', 'H', 'H', 'H', 'H', 'H', 'H', 'H', 'H', 'H',
                          'H', 'H', 'H', 'H', 'H', 'H', 'H', 'H', 'H', 'H', 'H', 'C', 'C', 'C', 'C', 'C', 'C', 'F', 'N',
                          'N', 'H', 'H', 'H', 'O', 'O', 'O', 'O'],
              'validated': True},
 'protocols': {},
 'provenance': {'creator': 'QCElemental', 'routine': 'qcelemental.models.results', 'version': '0.29.0'},
 'schema_name': 'qcschema_input',
 'schema_version': 1}
--------------------------------------------------------------------------

Scratch directory: /tmp/tmpkolr5ixu_psi_scratch/
   => Libint2 <=

    Primary   basis highest AM E, G, H:  6, 6, 3
    Auxiliary basis highest AM E, G, H:  7, 7, 4
    Onebody   basis highest AM E, G, H:  -, -, -
    Solid Harmonics ordering:            Gaussian

*** tstart() called on atl1-1-03-004-8-1.pace.gatech.edu
*** at Sat Jun 13 10:53:03 2026

   => Loading Basis Set <=

    Name: AUG-CC-PVTZ
    Role: ORBITAL
    Keyword: BASIS
    atoms 1-40, 69-74  entry C          line   239 file /storage/home/hcoda1/5/vlita3/.conda/envs/p4_qcml/share/psi4/basis/aug-cc-pvtz.gbs 
    atoms 41-42, 81-84 entry O          line   331 file /storage/home/hcoda1/5/vlita3/.conda/envs/p4_qcml/share/psi4/basis/aug-cc-pvtz.gbs 
    atoms 43-68, 78-80 entry H          line    40 file /storage/home/hcoda1/5/vlita3/.conda/envs/p4_qcml/share/psi4/basis/aug-cc-pvtz.gbs 
    atoms 75           entry F          line   377 file /storage/home/hcoda1/5/vlita3/.conda/envs/p4_qcml/share/psi4/basis/aug-cc-pvtz.gbs 
    atoms 76-77        entry N          line   285 file /storage/home/hcoda1/5/vlita3/.conda/envs/p4_qcml/share/psi4/basis/aug-cc-pvtz.gbs 


         ---------------------------------------------------------
                                   SCF
               by Justin Turney, Rob Parrish, Andy Simmonett
                          and Daniel G. A. Smith
                              RHF Reference
                       10 Threads, 256000 MiB Core
         ---------------------------------------------------------

  ==> Geometry <==

    Molecular point group: c1
    Full point group: C1

    Geometry (in Bohr), charge = 0, multiplicity = 1:

       Center              X                  Y                   Z               Mass       
    ------------   -----------------  -----------------  -----------------  -----------------
         C           -5.346206420000    -4.852067410000    -0.420406620000    12.000000000000
         C           -6.296965430000    -3.972491370000    -2.731965910000    12.000000000000
         C           -7.166528570000    -1.393609710000    -2.910240590000    12.000000000000
         C           -7.072257320000     0.147834600000    -0.757129170000    12.000000000000
         C           -6.060555210000    -0.705228590000     1.527799160000    12.000000000000
         C           -5.146608250000    -3.282758710000     1.693768900000    12.000000000000
         C           -8.009409540000    -0.477951610000    -5.296228450000    12.000000000000
         C           -8.003895320000    -2.012651110000    -7.391754450000    12.000000000000
         C           -7.173996200000    -4.558693670000    -7.209678960000    12.000000000000
         C           -6.348240500000    -5.510814040000    -4.939719150000    12.000000000000
         C           -5.791745450000     0.944327330000     3.660642330000    12.000000000000
         C           -4.598362800000     0.079981900000     5.769700660000    12.000000000000
         C           -3.622933980000    -2.455166200000     5.905508660000    12.000000000000
         C           -3.924004210000    -4.116319930000     3.964190180000    12.000000000000
         C           -2.165691520000    -2.619450290000     8.388517700000    12.000000000000
         C            0.076362130000    -0.846175710000     7.951167990000    12.000000000000
         C           -0.907811200000     1.617847830000     7.867441600000    12.000000000000
         C           -3.765700710000     1.391352810000     8.204976350000    12.000000000000
         C           -3.856711250000    -0.888045230000    10.062814110000    12.000000000000
         C            2.580011710000    -1.365512700000     7.311840570000    12.000000000000
         C            4.105748800000     0.711017200000     6.771630800000    12.000000000000
         C            3.129114340000     3.182679200000     6.682928570000    12.000000000000
         C            0.582267520000     3.668201810000     7.154698700000    12.000000000000
         C            5.224770350000     4.856802310000     5.594756800000    12.000000000000
         C            5.457732570000     3.952650560000     2.860341620000    12.000000000000
         C            6.487124790000     1.440128340000     2.991870340000    12.000000000000
         C            6.820985540000     0.851534400000     5.793823010000    12.000000000000
         C            7.568855230000     3.523776840000     6.772384430000    12.000000000000
         C            6.803253670000     0.010079230000     0.878536320000    12.000000000000
         C            6.012304070000     0.997648220000    -1.515819810000    12.000000000000
         C            4.947659400000     3.517698730000    -1.646337150000    12.000000000000
         C            4.725136970000     4.986254600000     0.620580010000    12.000000000000
         C            6.122058610000    -0.461318620000    -3.713100380000    12.000000000000
         C            5.157568480000     0.406872210000    -6.022959480000    12.000000000000
         C            4.083957810000     2.910561660000    -6.148846990000    12.000000000000
         C            4.053299830000     4.410188790000    -3.964629350000    12.000000000000
         C            5.133068370000    -1.124540680000    -8.236147390000    12.000000000000
         C            4.078518980000    -0.259611140000   -10.444600580000    12.000000000000
         C            2.994786190000     2.193928570000   -10.561075740000    12.000000000000
         C            3.008518070000     3.738074240000    -8.473347130000    12.000000000000
         O            3.503610250000    -3.823107000000     7.212335910000    15.994914619570
         O           -0.525649810000     6.011941810000     6.933616990000    15.994914619570
         H            5.058297190000     6.895677150000     5.870898140000     1.007825032230
         H            8.035641400000    -0.741072730000     6.263527290000     1.007825032230
         H            7.589018420000     3.638755720000     8.835189620000     1.007825032230
         H            9.354218020000     4.197835910000     5.975229540000     1.007825032230
         H           -5.766115660000    -1.641881930000    10.315423430000     1.007825032230
         H           -2.988642120000    -0.455428910000    11.887581460000     1.007825032230
         H           -4.772530920000     3.112424280000     8.711819230000     1.007825032230
         H           -1.708911840000    -4.507218470000     9.067129500000     1.007825032230
         H            7.554896960000    -1.899767370000     0.968629390000     1.007825032230
         H            3.899471970000     6.864303730000     0.502763900000     1.007825032230
         H           -6.466804180000     2.878736780000     3.513117650000     1.007825032230
         H           -3.183236480000    -6.031532230000     4.049642080000     1.007825032230
         H            3.227223440000     6.291106330000    -4.059699770000     1.007825032230
         H            6.917268220000    -2.356174780000    -3.613378580000     1.007825032230
         H            2.174888070000     5.613963600000    -8.555829900000     1.007825032230
         H            2.159396660000     2.848298770000   -12.318514230000     1.007825032230
         H            4.063637580000    -1.452955430000   -12.115126220000     1.007825032230
         H            5.947726460000    -3.008426610000    -8.136567700000     1.007825032230
         H           -4.652193920000    -6.784106770000    -0.298467310000     1.007825032230
         H           -7.726071190000     2.093084090000    -0.893475360000     1.007825032230
         H           -5.691927840000    -7.452695850000    -4.798243670000     1.007825032230
         H           -8.638360850000     1.473259020000    -5.432330500000     1.007825032230
         H           -8.643823670000    -1.283985570000    -9.201310080000     1.007825032230
         H           -7.190289230000    -5.750677730000    -8.881167040000     1.007825032230
         H            0.694719260000     7.166574110000     6.199088010000     1.007825032230
         H            3.219438530000    -4.432552370000     5.492433800000     1.007825032230
         C           -1.018041760000    -2.067217520000    -6.414246930000    12.000000000000
         C           -0.040068050000    -3.694636050000    -4.599930140000    12.000000000000
         C            0.295082440000    -2.887308010000    -2.095087580000    12.000000000000
         C           -0.326797140000    -0.422729840000    -1.416909660000    12.000000000000
         C           -1.320715610000     1.153928760000    -3.249152770000    12.000000000000
         C           -1.688140350000     0.375140490000    -5.743251860000    12.000000000000
         F            0.623497560000    -6.023673050000    -5.332662180000    18.998403162730
         N            1.256848720000    -4.559888540000    -0.108788320000    14.003074004430
         N           -2.017900960000     3.745351770000    -2.526710850000    14.003074004430
         H           -2.469627520000     1.680117510000    -7.107226130000     1.007825032230
         H           -0.060924580000     0.218168500000     0.506399170000     1.007825032230
         H           -1.236198360000    -2.747524970000    -8.331054530000     1.007825032230
         O            2.060859350000    -3.521958740000     1.833061180000    15.994914619570
         O            1.183365590000    -6.860247050000    -0.444704520000    15.994914619570
         O           -2.906989510000     5.119293960000    -4.196470210000    15.994914619570
         O           -1.674623890000     4.391770190000    -0.313511800000    15.994914619570

  Running in c1 symmetry.

  Rotational constants: A =      0.00269  B =      0.00202  C =      0.00154 [cm^-1]
  Rotational constants: A =     80.53073  B =     60.67005  C =     46.28054 [MHz]
  Nuclear repulsion = 8036.031125408757362

  Charge       = 0
  Multiplicity = 1
  Electrons    = 376
  Nalpha       = 188
  Nbeta        = 188

  ==> Algorithm <==

  SCF Algorithm Type is DF.
  DIIS enabled.
  MOM disabled.
  Fractional occupation disabled.
  Guess Type is SAD.
  Energy threshold   = 1.00e-06
  Density threshold  = 1.00e-06
  Integral threshold = 1.00e-12

  ==> Primary Basis <==

  Basis Set: AUG-CC-PVTZ
    Blend: AUG-CC-PVTZ
    Number of shells: 1031
    Number of basis functions: 3197
    Number of Cartesian functions: 3750
    Spherical Harmonics?: true
    Max angular momentum: 3

   => Loading Basis Set <=

    Name: (AUG-CC-PVTZ AUX)
    Role: JKFIT
    Keyword: DF_BASIS_SCF
    atoms 1-40, 69-74  entry C          line   162 file /storage/home/hcoda1/5/vlita3/.conda/envs/p4_qcml/share/psi4/basis/aug-cc-pvtz-jkfit.gbs 
    atoms 41-42, 81-84 entry O          line   286 file /storage/home/hcoda1/5/vlita3/.conda/envs/p4_qcml/share/psi4/basis/aug-cc-pvtz-jkfit.gbs 
    atoms 43-68, 78-80 entry H          line    70 file /storage/home/hcoda1/5/vlita3/.conda/envs/p4_qcml/share/psi4/basis/aug-cc-pvtz-jkfit.gbs 
    atoms 75           entry F          line   348 file /storage/home/hcoda1/5/vlita3/.conda/envs/p4_qcml/share/psi4/basis/aug-cc-pvtz-jkfit.gbs 
    atoms 76-77        entry N          line   224 file /storage/home/hcoda1/5/vlita3/.conda/envs/p4_qcml/share/psi4/basis/aug-cc-pvtz-jkfit.gbs 

  ==> Integral Setup <==

  ==> DiskDFJK: Density-Fitted J/K Matrices <==

    J tasked:                  Yes
    K tasked:                  Yes
    wK tasked:                  No
    OpenMP threads:             10
    Integrals threads:          10
    Memory [MiB]:           192000
    Algorithm:                Disk
    Integral Cache:           NONE
    Schwarz Cutoff:          1E-12
    Fitting Condition:       1E-10

   => Auxiliary Basis Set <=

  Basis Set: (AUG-CC-PVTZ AUX)
    Blend: AUG-CC-PVTZ-JKFIT
    Number of shells: 2056
    Number of basis functions: 7054
    Number of Cartesian functions: 8800
    Spherical Harmonics?: true
    Max angular momentum: 4

  Minimum eigenvalue in the overlap matrix is 8.4696743678E-09.
  Reciprocal condition number of the overlap matrix is 2.5542464085E-10.
    Using canonical orthogonalization.
  Overall, 16 of 3197 possible MOs eliminated.


  ==> Pre-Iterations <==

  SCF Guess: Superposition of Atomic Densities via on-the-fly atomic UHF (no occupation information).

   -------------------------
    Irrep   Nso     Nmo    
   -------------------------
     A       3197    3181 
   -------------------------
    Total    3197    3181
   -------------------------

  ==> Iterations <==

                           Total Energy        Delta E     RMS |[F,P]|

   @DF-RHF iter SAD: -2419.58225374524181   -2.41958e+03   0.00000e+00 
   @DF-RHF iter   1: -2415.44369628959248    4.13856e+00   5.06080e-04 DIIS/ADIIS
   @DF-RHF iter   2: -2416.43753178578709   -9.93835e-01   3.18798e-04 DIIS/ADIIS
   @DF-RHF iter   3: -2416.83137417421040   -3.93842e-01   6.98616e-05 DIIS
   @DF-RHF iter   4: -2416.85650857768314   -2.51344e-02   2.83466e-05 DIIS
   @DF-RHF iter   5: -2416.86075992315727   -4.25135e-03   8.84473e-06 DIIS
   @DF-RHF iter   6: -2416.86125047872247   -4.90556e-04   3.23286e-06 DIIS
   @DF-RHF iter   7: -2416.86136363419928   -1.13155e-04   1.43320e-06 DIIS
   @DF-RHF iter   8: -2416.86139063607197   -2.70019e-05   6.92114e-07 DIIS
   @DF-RHF iter   9: -2416.86139912345334   -8.48738e-06   3.04862e-07 DIIS
   @DF-RHF iter  10: -2416.86140101898400   -1.89553e-06   1.48857e-07 DIIS
   @DF-RHF iter  11: -2416.86140145971422   -4.40730e-07   6.06588e-08 DIIS
  Energy and wave function converged.


  ==> Post-Iterations <==

    Orbital Energies [Eh]
    ---------------------

    Doubly Occupied:                                                      

       1A    -26.348841     2A    -20.626652     3A    -20.619226  
       4A    -20.613023     5A    -20.611585     6A    -20.588833  
       7A    -20.562764     8A    -15.877334     9A    -15.864152  
      10A    -11.391512    11A    -11.332351    12A    -11.320430  
      13A    -11.304692    14A    -11.298748    15A    -11.298541  
      16A    -11.283663    17A    -11.275399    18A    -11.260117  
      19A    -11.254456    20A    -11.254199    21A    -11.253521  
      22A    -11.253181    23A    -11.251623    24A    -11.251583  
      25A    -11.251248    26A    -11.250680    27A    -11.250594  
      28A    -11.249006    29A    -11.248730    30A    -11.248702  
      31A    -11.247975    32A    -11.247841    33A    -11.247625  
      34A    -11.246988    35A    -11.246822    36A    -11.246488  
      37A    -11.245657    38A    -11.245639    39A    -11.245599  
      40A    -11.244572    41A    -11.244098    42A    -11.244006  
      43A    -11.242617    44A    -11.242040    45A    -11.241312  
      46A    -11.240485    47A    -11.240269    48A    -11.238559  
      49A    -11.237971    50A    -11.236576    51A    -11.236103  
      52A    -11.235618    53A    -11.234613    54A    -11.234140  
      55A    -11.232010    56A     -1.667679    57A     -1.615511  
      58A     -1.604003    59A     -1.411953    60A     -1.400833  
      61A     -1.396995    62A     -1.369312    63A     -1.229406  
      64A     -1.219404    65A     -1.209909    66A     -1.188102  
      67A     -1.184667    68A     -1.147187    69A     -1.139077  
      70A     -1.133340    71A     -1.104313    72A     -1.096934  
      73A     -1.076188    74A     -1.073203    75A     -1.070269  
      76A     -1.058711    77A     -1.040689    78A     -1.035970  
      79A     -1.013052    80A     -1.005515    81A     -0.993472  
      82A     -0.992632    83A     -0.992450    84A     -0.975925  
      85A     -0.969765    86A     -0.961000    87A     -0.944349  
      88A     -0.915121    89A     -0.887929    90A     -0.887158  
      91A     -0.883370    92A     -0.848330    93A     -0.845501  
      94A     -0.839498    95A     -0.831287    96A     -0.824354  
      97A     -0.822573    98A     -0.819799    99A     -0.816952  
     100A     -0.809075   101A     -0.791630   102A     -0.780503  
     103A     -0.778155   104A     -0.775844   105A     -0.764282  
     106A     -0.753074   107A     -0.744944   108A     -0.736742  
     109A     -0.735265   110A     -0.729717   111A     -0.723917  
     112A     -0.723438   113A     -0.721543   114A     -0.716446  
     115A     -0.715005   116A     -0.709984   117A     -0.703295  
     118A     -0.690180   119A     -0.681666   120A     -0.675335  
     121A     -0.665683   122A     -0.658114   123A     -0.655102  
     124A     -0.644476   125A     -0.642560   126A     -0.638697  
     127A     -0.633675   128A     -0.629987   129A     -0.628076  
     130A     -0.622202   131A     -0.613298   132A     -0.611005  
     133A     -0.598904   134A     -0.595011   135A     -0.594480  
     136A     -0.592153   137A     -0.591120   138A     -0.588399  
     139A     -0.583906   140A     -0.580993   141A     -0.579907  
     142A     -0.578206   143A     -0.573049   144A     -0.571550  
     145A     -0.557993   146A     -0.557130   147A     -0.547720  
     148A     -0.544447   149A     -0.541864   150A     -0.537930  
     151A     -0.534414   152A     -0.532708   153A     -0.521143  
     154A     -0.519127   155A     -0.516323   156A     -0.513311  
     157A     -0.508016   158A     -0.504513   159A     -0.503787  
     160A     -0.502936   161A     -0.500427   162A     -0.492301  
     163A     -0.490446   164A     -0.488034   165A     -0.485921  
     166A     -0.483613   167A     -0.482250   168A     -0.477671  
     169A     -0.475789   170A     -0.471744   171A     -0.464624  
     172A     -0.462229   173A     -0.458453   174A     -0.440197  
     175A     -0.426975   176A     -0.414160   177A     -0.412850  
     178A     -0.407821   179A     -0.384249   180A     -0.377228  
     181A     -0.353704   182A     -0.347929   183A     -0.327209  
     184A     -0.309179   185A     -0.305076   186A     -0.287567  
     187A     -0.265305   188A     -0.262284  

    Virtual:                                                              

     189A      0.018311   190A      0.020518   191A      0.024964  
     192A      0.027368   193A      0.028193   194A      0.032412  
     195A      0.032712   196A      0.033886   197A      0.035407  
     198A      0.037022   199A      0.041756   200A      0.043870  
     201A      0.044476   202A      0.044866   203A      0.046247  
     204A      0.047775   205A      0.054646   206A      0.055533  
     207A      0.055880   208A      0.056949   209A      0.058412  
     210A      0.062313   211A      0.063102   212A      0.064558  
     213A      0.069144   214A      0.073066   215A      0.073557  
     216A      0.074619   217A      0.078816   218A      0.079951  
     219A      0.084793   220A      0.087025   221A      0.087187  
     222A      0.090464   223A      0.092359   224A      0.092975  
     225A      0.095929   226A      0.096656   227A      0.098172  
     228A      0.099958   229A      0.100178   230A      0.101308  
     231A      0.102276   232A      0.104296   233A      0.106615  
     234A      0.107321   235A      0.108051   236A      0.109273  
     237A      0.109835   238A      0.109979   239A      0.112167  
     240A      0.115348   241A      0.116985   242A      0.118010  
     243A      0.118960   244A      0.119576   245A      0.120611  
     246A      0.121438   247A      0.123272   248A      0.125545  
     249A      0.126871   250A      0.129193   251A      0.129993  
     252A      0.130655   253A      0.131870   254A      0.133286  
     255A      0.134307   256A      0.135016   257A      0.136119  
     258A      0.137459   259A      0.138661   260A      0.140106  
     261A      0.141206   262A      0.143384   263A      0.143879  
     264A      0.145259   265A      0.146127   266A      0.151216  
     267A      0.151899   268A      0.153306   269A      0.154085  
     270A      0.154272   271A      0.154838   272A      0.156868  
     273A      0.158173   274A      0.159098   275A      0.160441  
     276A      0.162010   277A      0.162885   278A      0.165588  
     279A      0.165909   280A      0.167140   281A      0.169007  
     282A      0.170800   283A      0.172673   284A      0.173850  
     285A      0.176028   286A      0.178574   287A      0.180361  
     288A      0.180561   289A      0.182008   290A      0.182864  
     291A      0.184982   292A      0.185231   293A      0.185585  
     294A      0.187317   295A      0.188573   296A      0.189828  
     297A      0.192585   298A      0.195285   299A      0.195494  
     300A      0.195826   301A      0.197897   302A      0.198201  
     303A      0.201069   304A      0.202570   305A      0.204033  
     306A      0.207821   307A      0.208230   308A      0.210484  
     309A      0.212753   310A      0.213564   311A      0.214362  
     312A      0.215707   313A      0.216611   314A      0.218025  
     315A      0.219560   316A      0.221032   317A      0.223417  
     318A      0.224118   319A      0.225463   320A      0.227093  
     321A      0.228643   322A      0.229615   323A      0.231023  
     324A      0.231891   325A      0.232417   326A      0.233365  
     327A      0.236323   328A      0.238790   329A      0.240264  
     330A      0.240927   331A      0.242106   332A      0.242958  
     333A      0.244825   334A      0.246930   335A      0.247754  
     336A      0.248397   337A      0.248746   338A      0.251308  
     339A      0.252423   340A      0.253445   341A      0.253975  
     342A      0.256114   343A      0.256707   344A      0.258461  
     345A      0.259220   346A      0.259470   347A      0.260260  
     348A      0.261805   349A      0.262304   350A      0.263204  
     351A      0.264497   352A      0.265659   353A      0.266377  
     354A      0.267206   355A      0.268247   356A      0.269523  
     357A      0.269809   358A      0.270119   359A      0.271486  
     360A      0.272639   361A      0.275029   362A      0.276694  
     363A      0.277137   364A      0.279141   365A      0.279890  
     366A      0.280898   367A      0.282088   368A      0.282663  
     369A      0.283182   370A      0.284836   371A      0.286721  
     372A      0.287323   373A      0.289594   374A      0.292251  
     375A      0.292726   376A      0.294003   377A      0.295063  
     378A      0.295632   379A      0.296126   380A      0.297792  
     381A      0.298255   382A      0.299235   383A      0.300425  
     384A      0.301265   385A      0.302378   386A      0.303861  
     387A      0.304891   388A      0.307053   389A      0.309399  
     390A      0.309594   391A      0.310859   392A      0.312968  
     393A      0.313987   394A      0.314354   395A      0.317264  
     396A      0.318349   397A      0.318961   398A      0.320312  
     399A      0.321770   400A      0.322162   401A      0.323058  
     402A      0.325289   403A      0.327303   404A      0.328386  
     405A      0.329389   406A      0.330298   407A      0.332129  
     408A      0.332306   409A      0.333198   410A      0.333711  
     411A      0.335701   412A      0.337627   413A      0.338023  
     414A      0.338861   415A      0.341462   416A      0.343283  
     417A      0.344896   418A      0.346735   419A      0.347350  
     420A      0.348567   421A      0.349400   422A      0.350661  
     423A      0.353693   424A      0.357110   425A      0.359360  
     426A      0.362061   427A      0.363768   428A      0.365756  
     429A      0.368337   430A      0.368989   431A      0.370593  
     432A      0.371234   433A      0.372128   434A      0.373559  
     435A      0.374148   436A      0.376326   437A      0.376552  
     438A      0.378689   439A      0.380267   440A      0.380931  
     441A      0.383226   442A      0.384556   443A      0.385808  
     444A      0.387050   445A      0.388513   446A      0.389013  
     447A      0.389866   448A      0.392379   449A      0.393331  
     450A      0.394122   451A      0.395279   452A      0.396615  
     453A      0.397661   454A      0.399549   455A      0.400608  
     456A      0.402689   457A      0.403372   458A      0.404467  
     459A      0.407470   460A      0.407937   461A      0.409412  
     462A      0.410982   463A      0.411595   464A      0.411875  
     465A      0.413902   466A      0.415784   467A      0.417281  
     468A      0.418816   469A      0.418981   470A      0.422187  
     471A      0.424041   472A      0.424911   473A      0.427145  
     474A      0.428768   475A      0.429560   476A      0.430764  
     477A      0.432206   478A      0.433695   479A      0.435460  
     480A      0.436760   481A      0.438297   482A      0.440444  
     483A      0.441716   484A      0.442135   485A      0.442763  
     486A      0.444020   487A      0.445035   488A      0.446462  
     489A      0.447302   490A      0.448489   491A      0.449377  
     492A      0.450192   493A      0.451803   494A      0.453139  
     495A      0.455100   496A      0.456975   497A      0.458538  
     498A      0.459387   499A      0.460231   500A      0.462287  
     501A      0.463495   502A      0.464174   503A      0.465709  
     504A      0.468027   505A      0.468852   506A      0.471131  
     507A      0.471784   508A      0.473634   509A      0.474889  
     510A      0.476571   511A      0.476912   512A      0.478882  
     513A      0.479918   514A      0.481125   515A      0.481783  
     516A      0.482354   517A      0.484330   518A      0.485807  
     519A      0.486127   520A      0.487714   521A      0.490044  
     522A      0.491809   523A      0.492750   524A      0.493034  
     525A      0.494274   526A      0.496222   527A      0.497587  
     528A      0.498237   529A      0.499470   530A      0.500183  
     531A      0.500814   532A      0.501525   533A      0.502568  
     534A      0.503069   535A      0.503918   536A      0.505836  
     537A      0.506356   538A      0.507637   539A      0.509223  
     540A      0.510529   541A      0.511322   542A      0.512620  
     543A      0.513182   544A      0.514508   545A      0.514895  
     546A      0.517150   547A      0.517259   548A      0.518710  
     549A      0.519448   550A      0.519889   551A      0.520774  
     552A      0.522290   553A      0.524986   554A      0.525895  
     555A      0.526255   556A      0.528660   557A      0.528922  
     558A      0.530318   559A      0.531246   560A      0.532075  
     561A      0.533493   562A      0.536012   563A      0.536569  
     564A      0.538441   565A      0.538955   566A      0.540195  
     567A      0.541435   568A      0.543232   569A      0.543960  
     570A      0.544598   571A      0.545275   572A      0.546361  
     573A      0.546918   574A      0.548140   575A      0.549556  
     576A      0.550961   577A      0.551980   578A      0.552394  
     579A      0.554033   580A      0.554319   581A      0.554740  
     582A      0.556076   583A      0.557104   584A      0.558783  
     585A      0.560666   586A      0.561589   587A      0.561834  
     588A      0.564687   589A      0.565380   590A      0.566522  
     591A      0.567792   592A      0.568416   593A      0.569832  
     594A      0.570687   595A      0.573133   596A      0.575070  
     597A      0.575338   598A      0.576895   599A      0.577754  
     600A      0.580571   601A      0.580738   602A      0.581173  
     603A      0.582584   604A      0.584182   605A      0.585586  
     606A      0.586017   607A      0.588213   608A      0.588828  
     609A      0.589586   610A      0.592038   611A      0.592440  
     612A      0.594417   613A      0.595522   614A      0.596327  
     615A      0.597351   616A      0.599083   617A      0.600472  
     618A      0.601031   619A      0.601818   620A      0.602660  
     621A      0.603616   622A      0.606022   623A      0.607539  
     624A      0.608987   625A      0.610408   626A      0.612113  
     627A      0.612484   628A      0.614807   629A      0.615520  
     630A      0.616545   631A      0.618010   632A      0.620313  
     633A      0.620938   634A      0.621974   635A      0.623049  
     636A      0.624033   637A      0.625487   638A      0.627858  
     639A      0.629281   640A      0.630774   641A      0.631416  
     642A      0.632512   643A      0.633895   644A      0.635483  
     645A      0.636451   646A      0.638907   647A      0.640424  
     648A      0.641912   649A      0.642769   650A      0.644323  
     651A      0.644858   652A      0.646567   653A      0.648170  
     654A      0.648473   655A      0.650356   656A      0.651612  
     657A      0.652237   658A      0.653110   659A      0.656256  
     660A      0.656661   661A      0.660265   662A      0.661766  
     663A      0.662063   664A      0.663138   665A      0.665305  
     666A      0.667418   667A      0.667906   668A      0.669536  
     669A      0.671695   670A      0.674994   671A      0.675728  
     672A      0.677949   673A      0.678077   674A      0.678973  
     675A      0.680628   676A      0.682588   677A      0.684108  
     678A      0.685378   679A      0.687409   680A      0.688770  
     681A      0.691831   682A      0.692761   683A      0.694156  
     684A      0.696272   685A      0.696614   686A      0.698795  
     687A      0.700411   688A      0.701177   689A      0.702783  
     690A      0.706615   691A      0.708107   692A      0.708845  
     693A      0.711248   694A      0.713302   695A      0.714511  
     696A      0.716234   697A      0.718818   698A      0.719803  
     699A      0.721384   700A      0.722333   701A      0.724583  
     702A      0.725983   703A      0.727176   704A      0.727678  
     705A      0.729244   706A      0.731531   707A      0.732257  
     708A      0.734476   709A      0.735165   710A      0.737588  
     711A      0.740269   712A      0.742632   713A      0.743985  
     714A      0.744484   715A      0.747449   716A      0.748832  
     717A      0.748924   718A      0.751394   719A      0.753012  
     720A      0.753753   721A      0.755692   722A      0.758739  
     723A      0.759051   724A      0.761129   725A      0.763124  
     726A      0.763817   727A      0.766012   728A      0.767352  
     729A      0.768021   730A      0.770644   731A      0.771073  
     732A      0.771590   733A      0.774647   734A      0.775004  
     735A      0.778169   736A      0.779492   737A      0.781188  
     738A      0.782786   739A      0.784418   740A      0.786998  
     741A      0.787658   742A      0.789129   743A      0.789400  
     744A      0.792250   745A      0.794784   746A      0.796185  
     747A      0.797618   748A      0.798545   749A      0.800113  
     750A      0.801697   751A      0.804512   752A      0.805689  
     753A      0.807891   754A      0.810073   755A      0.810510  
     756A      0.812513   757A      0.812876   758A      0.814682  
     759A      0.816108   760A      0.816676   761A      0.817901  
     762A      0.820674   763A      0.822009   764A      0.822970  
     765A      0.824126   766A      0.825303   767A      0.826904  
     768A      0.830474   769A      0.832466   770A      0.832754  
     771A      0.833926   772A      0.835163   773A      0.836133  
     774A      0.838214   775A      0.840325   776A      0.841864  
     777A      0.843777   778A      0.845520   779A      0.847551  
     780A      0.848786   781A      0.850369   782A      0.852053  
     783A      0.853880   784A      0.855754   785A      0.856488  
     786A      0.857341   787A      0.860001   788A      0.860457  
     789A      0.861179   790A      0.863124   791A      0.864407  
     792A      0.865905   793A      0.867432   794A      0.869392  
     795A      0.871752   796A      0.872644   797A      0.875206  
     798A      0.875946   799A      0.876699   800A      0.877867  
     801A      0.880517   802A      0.882041   803A      0.882984  
     804A      0.885590   805A      0.886132   806A      0.887744  
     807A      0.889493   808A      0.890438   809A      0.891526  
     810A      0.894780   811A      0.895242   812A      0.897557  
     813A      0.899186   814A      0.900182   815A      0.900612  
     816A      0.902525   817A      0.902928   818A      0.906008  
     819A      0.906103   820A      0.908013   821A      0.908409  
     822A      0.910463   823A      0.911580   824A      0.914242  
     825A      0.915787   826A      0.916406   827A      0.918185  
     828A      0.919310   829A      0.920822   830A      0.923449  
     831A      0.925784   832A      0.926093   833A      0.927431  
     834A      0.928405   835A      0.929648   836A      0.932274  
     837A      0.933545   838A      0.935774   839A      0.937162  
     840A      0.938182   841A      0.939625   842A      0.940364  
     843A      0.941606   844A      0.944316   845A      0.945941  
     846A      0.946850   847A      0.948060   848A      0.949093  
     849A      0.950461   850A      0.952177   851A      0.955399  
     852A      0.956283   853A      0.958555   854A      0.959742  
     855A      0.960003   856A      0.960974   857A      0.962270  
     858A      0.963664   859A      0.966208   860A      0.966368  
     861A      0.967708   862A      0.969893   863A      0.970917  
     864A      0.973240   865A      0.975070   866A      0.976908  
     867A      0.977596   868A      0.979212   869A      0.980004  
     870A      0.980994   871A      0.981854   872A      0.982391  
     873A      0.985486   874A      0.987176   875A      0.988826  
     876A      0.989708   877A      0.991427   878A      0.993304  
     879A      0.995044   880A      0.995495   881A      0.996977  
     882A      0.997377   883A      0.998744   884A      1.000110  
     885A      1.002491   886A      1.003494   887A      1.004455  
     888A      1.005833   889A      1.006561   890A      1.007885  
     891A      1.008731   892A      1.010421   893A      1.011230  
     894A      1.013218   895A      1.014067   896A      1.014386  
     897A      1.017453   898A      1.018367   899A      1.019049  
     900A      1.020562   901A      1.023819   902A      1.024535  
     903A      1.024709   904A      1.026073   905A      1.027694  
     906A      1.029053   907A      1.031095   908A      1.033005  
     909A      1.035279   910A      1.035881   911A      1.036148  
     912A      1.037777   913A      1.039146   914A      1.040185  
     915A      1.042401   916A      1.043744   917A      1.044752  
     918A      1.046004   919A      1.048111   920A      1.049802  
     921A      1.051331   922A      1.052205   923A      1.053244  
     924A      1.056130   925A      1.058915   926A      1.060324  
     927A      1.061405   928A      1.062496   929A      1.065134  
     930A      1.066177   931A      1.067190   932A      1.069970  
     933A      1.070386   934A      1.072972   935A      1.073691  
     936A      1.075735   937A      1.077256   938A      1.078877  
     939A      1.079890   940A      1.080881   941A      1.082478  
     942A      1.084774   943A      1.086255   944A      1.087244  
     945A      1.088119   946A      1.089898   947A      1.091922  
     948A      1.093546   949A      1.095393   950A      1.095878  
     951A      1.099100   952A      1.100311   953A      1.101780  
     954A      1.102715   955A      1.104510   956A      1.105677  
     957A      1.108391   958A      1.108782   959A      1.110252  
     960A      1.112414   961A      1.113071   962A      1.114041  
     963A      1.115739   964A      1.116286   965A      1.120340  
     966A      1.121646   967A      1.123036   968A      1.124930  
     969A      1.126670   970A      1.128654   971A      1.129523  
     972A      1.131674   973A      1.133222   974A      1.135433  
     975A      1.135781   976A      1.137783   977A      1.140779  
     978A      1.142036   979A      1.143107   980A      1.143749  
     981A      1.146692   982A      1.149237   983A      1.150059  
     984A      1.150682   985A      1.152316   986A      1.154004  
     987A      1.156339   988A      1.156925   989A      1.159110  
     990A      1.160403   991A      1.161850   992A      1.164306  
     993A      1.164922   994A      1.165806   995A      1.167449  
     996A      1.169837   997A      1.170887   998A      1.172581  
     999A      1.173223  1000A      1.174938  1001A      1.177574  
    1002A      1.179094  1003A      1.179179  1004A      1.182648  
    1005A      1.183828  1006A      1.186543  1007A      1.187125  
    1008A      1.187794  1009A      1.190177  1010A      1.192282  
    1011A      1.193057  1012A      1.194998  1013A      1.196327  
    1014A      1.197138  1015A      1.199555  1016A      1.201209  
    1017A      1.201459  1018A      1.203197  1019A      1.205769  
    1020A      1.206807  1021A      1.208542  1022A      1.209777  
    1023A      1.210165  1024A      1.211910  1025A      1.212458  
    1026A      1.214757  1027A      1.215642  1028A      1.216819  
    1029A      1.220963  1030A      1.222414  1031A      1.222655  
    1032A      1.224585  1033A      1.226287  1034A      1.227195  
    1035A      1.228804  1036A      1.229095  1037A      1.230683  
    1038A      1.233121  1039A      1.233891  1040A      1.234503  
    1041A      1.237466  1042A      1.239882  1043A      1.242749  
    1044A      1.243473  1045A      1.245492  1046A      1.247952  
    1047A      1.249080  1048A      1.251071  1049A      1.251629  
    1050A      1.253891  1051A      1.254239  1052A      1.256319  
    1053A      1.257674  1054A      1.258033  1055A      1.261665  
    1056A      1.263139  1057A      1.263767  1058A      1.266885  
    1059A      1.267675  1060A      1.268624  1061A      1.269994  
    1062A      1.271300  1063A      1.272708  1064A      1.273569  
    1065A      1.274828  1066A      1.277307  1067A      1.278358  
    1068A      1.279119  1069A      1.280802  1070A      1.282076  
    1071A      1.286777  1072A      1.288097  1073A      1.288847  
    1074A      1.289207  1075A      1.290612  1076A      1.294329  
    1077A      1.294902  1078A      1.296808  1079A      1.298007  
    1080A      1.300494  1081A      1.303876  1082A      1.304329  
    1083A      1.307008  1084A      1.308593  1085A      1.309254  
    1086A      1.310466  1087A      1.311399  1088A      1.315151  
    1089A      1.315420  1090A      1.316101  1091A      1.317677  
    1092A      1.320893  1093A      1.321130  1094A      1.322981  
    1095A      1.324229  1096A      1.325620  1097A      1.326879  
    1098A      1.328368  1099A      1.330730  1100A      1.331399  
    1101A      1.331635  1102A      1.332779  1103A      1.335877  
    1104A      1.336551  1105A      1.337943  1106A      1.339239  
    1107A      1.342210  1108A      1.344482  1109A      1.346885  
    1110A      1.348307  1111A      1.349912  1112A      1.353017  
    1113A      1.354254  1114A      1.356110  1115A      1.357140  
    1116A      1.358830  1117A      1.359848  1118A      1.362044  
    1119A      1.364027  1120A      1.365927  1121A      1.366695  
    1122A      1.369712  1123A      1.371148  1124A      1.372160  
    1125A      1.373797  1126A      1.374685  1127A      1.375622  
    1128A      1.377398  1129A      1.379725  1130A      1.380706  
    1131A      1.382664  1132A      1.383973  1133A      1.386095  
    1134A      1.387204  1135A      1.388084  1136A      1.390565  
    1137A      1.392372  1138A      1.394396  1139A      1.395312  
    1140A      1.396842  1141A      1.398794  1142A      1.401739  
    1143A      1.402110  1144A      1.403071  1145A      1.406873  
    1146A      1.408024  1147A      1.409317  1148A      1.410230  
    1149A      1.413051  1150A      1.415332  1151A      1.417092  
    1152A      1.418342  1153A      1.418993  1154A      1.420062  
    1155A      1.423258  1156A      1.423822  1157A      1.424977  
    1158A      1.426468  1159A      1.428377  1160A      1.430369  
    1161A      1.433582  1162A      1.434041  1163A      1.436127  
    1164A      1.437355  1165A      1.440142  1166A      1.440684  
    1167A      1.442253  1168A      1.445562  1169A      1.447244  
    1170A      1.448448  1171A      1.451770  1172A      1.452586  
    1173A      1.453573  1174A      1.455028  1175A      1.455865  
    1176A      1.456838  1177A      1.459841  1178A      1.460218  
    1179A      1.463225  1180A      1.465783  1181A      1.468250  
    1182A      1.468560  1183A      1.471604  1184A      1.474056  
    1185A      1.474988  1186A      1.476965  1187A      1.478610  
    1188A      1.480089  1189A      1.480877  1190A      1.483678  
    1191A      1.484199  1192A      1.485588  1193A      1.486884  
    1194A      1.489734  1195A      1.490955  1196A      1.493525  
    1197A      1.493761  1198A      1.496206  1199A      1.496622  
    1200A      1.498007  1201A      1.501023  1202A      1.502140  
    1203A      1.504718  1204A      1.507257  1205A      1.507696  
    1206A      1.509790  1207A      1.510283  1208A      1.512393  
    1209A      1.513312  1210A      1.517653  1211A      1.518249  
    1212A      1.520627  1213A      1.521306  1214A      1.522351  
    1215A      1.523915  1216A      1.524932  1217A      1.525684  
    1218A      1.526711  1219A      1.529767  1220A      1.531616  
    1221A      1.532248  1222A      1.532856  1223A      1.536234  
    1224A      1.538634  1225A      1.538989  1226A      1.540901  
    1227A      1.543451  1228A      1.545183  1229A      1.547112  
    1230A      1.549374  1231A      1.550662  1232A      1.554441  
    1233A      1.556026  1234A      1.557871  1235A      1.558720  
    1236A      1.560717  1237A      1.562362  1238A      1.564870  
    1239A      1.565927  1240A      1.566530  1241A      1.568425  
    1242A      1.569949  1243A      1.572500  1244A      1.574198  
    1245A      1.577236  1246A      1.579107  1247A      1.579699  
    1248A      1.581442  1249A      1.583983  1250A      1.585498  
    1251A      1.586277  1252A      1.588934  1253A      1.591649  
    1254A      1.592434  1255A      1.593911  1256A      1.595158  
    1257A      1.595834  1258A      1.600215  1259A      1.601463  
    1260A      1.603579  1261A      1.605635  1262A      1.608020  
    1263A      1.608515  1264A      1.609953  1265A      1.611552  
    1266A      1.614159  1267A      1.615171  1268A      1.616770  
    1269A      1.618241  1270A      1.621222  1271A      1.623060  
    1272A      1.624250  1273A      1.627572  1274A      1.628663  
    1275A      1.631097  1276A      1.632889  1277A      1.633449  
    1278A      1.634786  1279A      1.637749  1280A      1.638677  
    1281A      1.642982  1282A      1.643674  1283A      1.644884  
    1284A      1.646917  1285A      1.647810  1286A      1.650350  
    1287A      1.652687  1288A      1.653765  1289A      1.655275  
    1290A      1.657295  1291A      1.657653  1292A      1.659180  
    1293A      1.661295  1294A      1.662028  1295A      1.664692  
    1296A      1.665294  1297A      1.669265  1298A      1.669719  
    1299A      1.671093  1300A      1.672230  1301A      1.674820  
    1302A      1.675880  1303A      1.677246  1304A      1.678207  
    1305A      1.680696  1306A      1.683836  1307A      1.685576  
    1308A      1.686746  1309A      1.691242  1310A      1.692898  
    1311A      1.693607  1312A      1.694194  1313A      1.696271  
    1314A      1.696672  1315A      1.698481  1316A      1.698907  
    1317A      1.699967  1318A      1.702887  1319A      1.705757  
    1320A      1.706242  1321A      1.707818  1322A      1.708750  
    1323A      1.711971  1324A      1.712829  1325A      1.714175  
    1326A      1.716654  1327A      1.718932  1328A      1.720808  
    1329A      1.721899  1330A      1.723055  1331A      1.724165  
    1332A      1.728663  1333A      1.728718  1334A      1.730961  
    1335A      1.733140  1336A      1.735017  1337A      1.736753  
    1338A      1.737892  1339A      1.739908  1340A      1.742155  
    1341A      1.742956  1342A      1.744194  1343A      1.745238  
    1344A      1.747410  1345A      1.749591  1346A      1.750783  
    1347A      1.752543  1348A      1.753518  1349A      1.757198  
    1350A      1.758417  1351A      1.758911  1352A      1.760702  
    1353A      1.761473  1354A      1.765694  1355A      1.767579  
    1356A      1.769832  1357A      1.770251  1358A      1.770426  
    1359A      1.775084  1360A      1.776501  1361A      1.777455  
    1362A      1.778987  1363A      1.779926  1364A      1.782870  
    1365A      1.785657  1366A      1.786362  1367A      1.788999  
    1368A      1.789669  1369A      1.792754  1370A      1.794058  
    1371A      1.795473  1372A      1.796547  1373A      1.799384  
    1374A      1.801783  1375A      1.803727  1376A      1.804864  
    1377A      1.806211  1378A      1.807123  1379A      1.809304  
    1380A      1.812337  1381A      1.813686  1382A      1.814325  
    1383A      1.816170  1384A      1.818516  1385A      1.820995  
    1386A      1.822825  1387A      1.823418  1388A      1.827963  
    1389A      1.828387  1390A      1.829286  1391A      1.830875  
    1392A      1.832400  1393A      1.833516  1394A      1.835874  
    1395A      1.837712  1396A      1.840515  1397A      1.841309  
    1398A      1.842298  1399A      1.845448  1400A      1.846195  
    1401A      1.850035  1402A      1.850147  1403A      1.851539  
    1404A      1.852955  1405A      1.855978  1406A      1.856637  
    1407A      1.860103  1408A      1.863136  1409A      1.863546  
    1410A      1.864799  1411A      1.867302  1412A      1.868938  
    1413A      1.870159  1414A      1.871909  1415A      1.874450  
    1416A      1.875705  1417A      1.877220  1418A      1.879083  
    1419A      1.880920  1420A      1.884389  1421A      1.884994  
    1422A      1.886946  1423A      1.887632  1424A      1.891086  
    1425A      1.892668  1426A      1.893287  1427A      1.894695  
    1428A      1.895475  1429A      1.897308  1430A      1.899125  
    1431A      1.900682  1432A      1.902412  1433A      1.904712  
    1434A      1.907266  1435A      1.908552  1436A      1.909714  
    1437A      1.910881  1438A      1.913279  1439A      1.913865  
    1440A      1.916153  1441A      1.920470  1442A      1.923099  
    1443A      1.925010  1444A      1.926906  1445A      1.928573  
    1446A      1.929774  1447A      1.932072  1448A      1.935099  
    1449A      1.937553  1450A      1.938008  1451A      1.939053  
    1452A      1.940777  1453A      1.942946  1454A      1.945402  
    1455A      1.947418  1456A      1.948658  1457A      1.949564  
    1458A      1.951688  1459A      1.955059  1460A      1.956191  
    1461A      1.958255  1462A      1.962685  1463A      1.965197  
    1464A      1.966429  1465A      1.969106  1466A      1.972029  
    1467A      1.972793  1468A      1.973492  1469A      1.975941  
    1470A      1.978387  1471A      1.979259  1472A      1.982368  
    1473A      1.984707  1474A      1.985895  1475A      1.988082  
    1476A      1.988260  1477A      1.991710  1478A      1.992092  
    1479A      1.993787  1480A      1.995451  1481A      1.995995  
    1482A      1.999545  1483A      2.001736  1484A      2.003376  
    1485A      2.006587  1486A      2.007268  1487A      2.007883  
    1488A      2.012702  1489A      2.012959  1490A      2.013676  
    1491A      2.014772  1492A      2.017486  1493A      2.019632  
    1494A      2.021436  1495A      2.022738  1496A      2.026146  
    1497A      2.027249  1498A      2.029513  1499A      2.030431  
    1500A      2.030979  1501A      2.033005  1502A      2.034545  
    1503A      2.038574  1504A      2.041864  1505A      2.043572  
    1506A      2.044150  1507A      2.046559  1508A      2.047037  
    1509A      2.051647  1510A      2.052664  1511A      2.054341  
    1512A      2.055786  1513A      2.057110  1514A      2.060749  
    1515A      2.061980  1516A      2.064466  1517A      2.069083  
    1518A      2.069823  1519A      2.071834  1520A      2.072938  
    1521A      2.074781  1522A      2.076317  1523A      2.078124  
    1524A      2.081391  1525A      2.083130  1526A      2.083772  
    1527A      2.085826  1528A      2.087122  1529A      2.089912  
    1530A      2.092199  1531A      2.094480  1532A      2.097281  
    1533A      2.098914  1534A      2.098986  1535A      2.101523  
    1536A      2.103200  1537A      2.104048  1538A      2.107148  
    1539A      2.111949  1540A      2.112136  1541A      2.113532  
    1542A      2.114535  1543A      2.116671  1544A      2.117954  
    1545A      2.120114  1546A      2.122675  1547A      2.123502  
    1548A      2.126073  1549A      2.128093  1550A      2.130221  
    1551A      2.133066  1552A      2.135072  1553A      2.136213  
    1554A      2.138997  1555A      2.141269  1556A      2.143533  
    1557A      2.145040  1558A      2.145882  1559A      2.146415  
    1560A      2.149773  1561A      2.151602  1562A      2.153811  
    1563A      2.155527  1564A      2.156822  1565A      2.157629  
    1566A      2.162178  1567A      2.163444  1568A      2.167947  
    1569A      2.169975  1570A      2.171143  1571A      2.174517  
    1572A      2.176117  1573A      2.179134  1574A      2.180713  
    1575A      2.182784  1576A      2.184198  1577A      2.185900  
    1578A      2.188294  1579A      2.189892  1580A      2.192902  
    1581A      2.193732  1582A      2.197104  1583A      2.199618  
    1584A      2.200952  1585A      2.202417  1586A      2.204008  
    1587A      2.205401  1588A      2.209144  1589A      2.209698  
    1590A      2.211033  1591A      2.213457  1592A      2.216601  
    1593A      2.218468  1594A      2.222390  1595A      2.223762  
    1596A      2.224209  1597A      2.227534  1598A      2.232413  
    1599A      2.233339  1600A      2.234442  1601A      2.235662  
    1602A      2.237245  1603A      2.238060  1604A      2.240098  
    1605A      2.244082  1606A      2.244820  1607A      2.247050  
    1608A      2.247471  1609A      2.250301  1610A      2.251960  
    1611A      2.257185  1612A      2.261007  1613A      2.261155  
    1614A      2.262124  1615A      2.266149  1616A      2.266424  
    1617A      2.271028  1618A      2.272686  1619A      2.276565  
    1620A      2.276963  1621A      2.278972  1622A      2.279801  
    1623A      2.281956  1624A      2.283298  1625A      2.285014  
    1626A      2.288886  1627A      2.289110  1628A      2.292131  
    1629A      2.294519  1630A      2.296750  1631A      2.297866  
    1632A      2.300490  1633A      2.301862  1634A      2.304764  
    1635A      2.306842  1636A      2.307856  1637A      2.309820  
    1638A      2.313131  1639A      2.314125  1640A      2.315804  
    1641A      2.316342  1642A      2.317722  1643A      2.321460  
    1644A      2.321785  1645A      2.323995  1646A      2.327593  
    1647A      2.329272  1648A      2.330106  1649A      2.333248  
    1650A      2.334236  1651A      2.337135  1652A      2.339587  
    1653A      2.343419  1654A      2.344133  1655A      2.346891  
    1656A      2.347418  1657A      2.350399  1658A      2.352024  
    1659A      2.354178  1660A      2.358062  1661A      2.361278  
    1662A      2.362193  1663A      2.364045  1664A      2.367796  
    1665A      2.370214  1666A      2.371044  1667A      2.373685  
    1668A      2.375683  1669A      2.378113  1670A      2.380860  
    1671A      2.381687  1672A      2.383036  1673A      2.388344  
    1674A      2.388884  1675A      2.391413  1676A      2.393806  
    1677A      2.396566  1678A      2.397208  1679A      2.401127  
    1680A      2.403132  1681A      2.403658  1682A      2.406774  
    1683A      2.411908  1684A      2.412330  1685A      2.413065  
    1686A      2.417151  1687A      2.418642  1688A      2.420868  
    1689A      2.423688  1690A      2.425597  1691A      2.426923  
    1692A      2.428621  1693A      2.431793  1694A      2.433690  
    1695A      2.436821  1696A      2.437280  1697A      2.441548  
    1698A      2.442987  1699A      2.443558  1700A      2.444884  
    1701A      2.448322  1702A      2.450493  1703A      2.452690  
    1704A      2.454205  1705A      2.456937  1706A      2.458093  
    1707A      2.461389  1708A      2.462367  1709A      2.468021  
    1710A      2.469782  1711A      2.473989  1712A      2.475252  
    1713A      2.476662  1714A      2.478794  1715A      2.480385  
    1716A      2.483016  1717A      2.485944  1718A      2.488743  
    1719A      2.489413  1720A      2.494837  1721A      2.495113  
    1722A      2.495989  1723A      2.498686  1724A      2.502334  
    1725A      2.502872  1726A      2.507280  1727A      2.507844  
    1728A      2.509248  1729A      2.510933  1730A      2.515162  
    1731A      2.515618  1732A      2.517741  1733A      2.520914  
    1734A      2.522682  1735A      2.523662  1736A      2.527573  
    1737A      2.528077  1738A      2.529930  1739A      2.532082  
    1740A      2.534238  1741A      2.536141  1742A      2.538610  
    1743A      2.544331  1744A      2.545452  1745A      2.546900  
    1746A      2.547567  1747A      2.551370  1748A      2.554356  
    1749A      2.557896  1750A      2.559006  1751A      2.564192  
    1752A      2.565759  1753A      2.567111  1754A      2.570423  
    1755A      2.572415  1756A      2.574669  1757A      2.577741  
    1758A      2.578530  1759A      2.580820  1760A      2.584975  
    1761A      2.587603  1762A      2.593364  1763A      2.595914  
    1764A      2.598760  1765A      2.600159  1766A      2.600799  
    1767A      2.602431  1768A      2.605513  1769A      2.606573  
    1770A      2.607607  1771A      2.608393  1772A      2.612986  
    1773A      2.615771  1774A      2.617572  1775A      2.618955  
    1776A      2.622716  1777A      2.624593  1778A      2.625624  
    1779A      2.628270  1780A      2.629706  1781A      2.631840  
    1782A      2.634657  1783A      2.637906  1784A      2.643362  
    1785A      2.646030  1786A      2.649092  1787A      2.653972  
    1788A      2.656202  1789A      2.659836  1790A      2.662267  
    1791A      2.663708  1792A      2.666567  1793A      2.669800  
    1794A      2.671636  1795A      2.675713  1796A      2.679991  
    1797A      2.681288  1798A      2.685353  1799A      2.686526  
    1800A      2.690802  1801A      2.693872  1802A      2.695433  
    1803A      2.697640  1804A      2.698434  1805A      2.702084  
    1806A      2.705279  1807A      2.709717  1808A      2.711912  
    1809A      2.715136  1810A      2.715748  1811A      2.716095  
    1812A      2.721615  1813A      2.725396  1814A      2.727024  
    1815A      2.727979  1816A      2.731204  1817A      2.732804  
    1818A      2.736406  1819A      2.740539  1820A      2.743356  
    1821A      2.746902  1822A      2.747807  1823A      2.748699  
    1824A      2.754071  1825A      2.757783  1826A      2.759630  
    1827A      2.764181  1828A      2.765285  1829A      2.770524  
    1830A      2.772728  1831A      2.772910  1832A      2.776968  
    1833A      2.778030  1834A      2.782209  1835A      2.788247  
    1836A      2.790545  1837A      2.792925  1838A      2.795340  
    1839A      2.798301  1840A      2.800305  1841A      2.801960  
    1842A      2.804891  1843A      2.805930  1844A      2.808603  
    1845A      2.812973  1846A      2.816962  1847A      2.818189  
    1848A      2.820521  1849A      2.823035  1850A      2.825065  
    1851A      2.828173  1852A      2.830596  1853A      2.833897  
    1854A      2.837485  1855A      2.841616  1856A      2.843627  
    1857A      2.844124  1858A      2.848295  1859A      2.852243  
    1860A      2.856671  1861A      2.860435  1862A      2.862988  
    1863A      2.866332  1864A      2.868001  1865A      2.868628  
    1866A      2.875057  1867A      2.877639  1868A      2.877927  
    1869A      2.880983  1870A      2.885810  1871A      2.886654  
    1872A      2.891499  1873A      2.892664  1874A      2.896024  
    1875A      2.897162  1876A      2.899400  1877A      2.903710  
    1878A      2.905610  1879A      2.907852  1880A      2.910200  
    1881A      2.914306  1882A      2.918126  1883A      2.920704  
    1884A      2.924535  1885A      2.929745  1886A      2.934839  
    1887A      2.936555  1888A      2.937843  1889A      2.939800  
    1890A      2.945138  1891A      2.946629  1892A      2.949962  
    1893A      2.952746  1894A      2.953570  1895A      2.959206  
    1896A      2.960017  1897A      2.963561  1898A      2.964765  
    1899A      2.970989  1900A      2.975030  1901A      2.977643  
    1902A      2.981088  1903A      2.984607  1904A      2.991366  
    1905A      2.992520  1906A      2.994946  1907A      2.997470  
    1908A      3.005729  1909A      3.007427  1910A      3.012466  
    1911A      3.015352  1912A      3.020630  1913A      3.022343  
    1914A      3.024770  1915A      3.032802  1916A      3.035421  
    1917A      3.038129  1918A      3.043252  1919A      3.048931  
    1920A      3.051759  1921A      3.053483  1922A      3.062261  
    1923A      3.065332  1924A      3.066169  1925A      3.068369  
    1926A      3.073846  1927A      3.076594  1928A      3.079717  
    1929A      3.087957  1930A      3.091164  1931A      3.093709  
    1932A      3.095648  1933A      3.100249  1934A      3.104439  
    1935A      3.111165  1936A      3.113873  1937A      3.114735  
    1938A      3.120504  1939A      3.130218  1940A      3.140801  
    1941A      3.142534  1942A      3.144396  1943A      3.150886  
    1944A      3.152436  1945A      3.156520  1946A      3.168429  
    1947A      3.171143  1948A      3.172230  1949A      3.178400  
    1950A      3.182818  1951A      3.188507  1952A      3.191862  
    1953A      3.191974  1954A      3.197523  1955A      3.203021  
    1956A      3.212370  1957A      3.216491  1958A      3.222056  
    1959A      3.225721  1960A      3.234832  1961A      3.237789  
    1962A      3.240084  1963A      3.243320  1964A      3.245117  
    1965A      3.255073  1966A      3.256877  1967A      3.264560  
    1968A      3.268315  1969A      3.270696  1970A      3.275035  
    1971A      3.277623  1972A      3.285974  1973A      3.289790  
    1974A      3.295118  1975A      3.296511  1976A      3.298380  
    1977A      3.302583  1978A      3.308850  1979A      3.315721  
    1980A      3.323156  1981A      3.325859  1982A      3.333049  
    1983A      3.334233  1984A      3.338176  1985A      3.343435  
    1986A      3.346496  1987A      3.347453  1988A      3.355458  
    1989A      3.358965  1990A      3.362026  1991A      3.365564  
    1992A      3.370035  1993A      3.373862  1994A      3.377263  
    1995A      3.383902  1996A      3.385441  1997A      3.392615  
    1998A      3.396753  1999A      3.400504  2000A      3.403018  
    2001A      3.405933  2002A      3.408543  2003A      3.411888  
    2004A      3.413575  2005A      3.417657  2006A      3.421871  
    2007A      3.424908  2008A      3.428385  2009A      3.433523  
    2010A      3.437755  2011A      3.443361  2012A      3.447637  
    2013A      3.451547  2014A      3.456628  2015A      3.461551  
    2016A      3.464432  2017A      3.465844  2018A      3.471849  
    2019A      3.474498  2020A      3.479875  2021A      3.480571  
    2022A      3.482037  2023A      3.486287  2024A      3.489896  
    2025A      3.493228  2026A      3.495211  2027A      3.496920  
    2028A      3.498120  2029A      3.502351  2030A      3.509541  
    2031A      3.510429  2032A      3.514362  2033A      3.516166  
    2034A      3.516543  2035A      3.519757  2036A      3.523296  
    2037A      3.530348  2038A      3.532429  2039A      3.534536  
    2040A      3.538165  2041A      3.540414  2042A      3.543557  
    2043A      3.545710  2044A      3.547977  2045A      3.549821  
    2046A      3.552614  2047A      3.554287  2048A      3.558448  
    2049A      3.563460  2050A      3.564118  2051A      3.567844  
    2052A      3.571479  2053A      3.574137  2054A      3.576961  
    2055A      3.577956  2056A      3.582325  2057A      3.586494  
    2058A      3.587496  2059A      3.589951  2060A      3.591321  
    2061A      3.594314  2062A      3.594483  2063A      3.598022  
    2064A      3.602482  2065A      3.604998  2066A      3.609663  
    2067A      3.611263  2068A      3.612169  2069A      3.613967  
    2070A      3.616759  2071A      3.619943  2072A      3.621338  
    2073A      3.623330  2074A      3.625990  2075A      3.629184  
    2076A      3.633505  2077A      3.635972  2078A      3.637424  
    2079A      3.640753  2080A      3.642912  2081A      3.643932  
    2082A      3.649016  2083A      3.651570  2084A      3.653835  
    2085A      3.656358  2086A      3.658991  2087A      3.662652  
    2088A      3.665932  2089A      3.666332  2090A      3.667899  
    2091A      3.668615  2092A      3.671317  2093A      3.672471  
    2094A      3.679353  2095A      3.681040  2096A      3.683758  
    2097A      3.687099  2098A      3.689384  2099A      3.692932  
    2100A      3.694162  2101A      3.694852  2102A      3.697802  
    2103A      3.699040  2104A      3.701696  2105A      3.704607  
    2106A      3.706136  2107A      3.707351  2108A      3.710163  
    2109A      3.711710  2110A      3.713660  2111A      3.716482  
    2112A      3.719731  2113A      3.724335  2114A      3.728480  
    2115A      3.730282  2116A      3.731348  2117A      3.732900  
    2118A      3.735127  2119A      3.737818  2120A      3.738610  
    2121A      3.741522  2122A      3.743403  2123A      3.744549  
    2124A      3.749269  2125A      3.751126  2126A      3.752408  
    2127A      3.753026  2128A      3.755362  2129A      3.759307  
    2130A      3.759865  2131A      3.765975  2132A      3.768368  
    2133A      3.769063  2134A      3.773247  2135A      3.776229  
    2136A      3.777322  2137A      3.780585  2138A      3.783513  
    2139A      3.785267  2140A      3.788155  2141A      3.789320  
    2142A      3.790873  2143A      3.793213  2144A      3.794736  
    2145A      3.795878  2146A      3.800055  2147A      3.801511  
    2148A      3.804162  2149A      3.805667  2150A      3.807178  
    2151A      3.810875  2152A      3.812220  2153A      3.813386  
    2154A      3.815914  2155A      3.822334  2156A      3.824258  
    2157A      3.825525  2158A      3.827528  2159A      3.828795  
    2160A      3.830614  2161A      3.832134  2162A      3.834411  
    2163A      3.836309  2164A      3.842785  2165A      3.844902  
    2166A      3.845960  2167A      3.847367  2168A      3.850146  
    2169A      3.854032  2170A      3.854272  2171A      3.858343  
    2172A      3.859454  2173A      3.861672  2174A      3.863540  
    2175A      3.864549  2176A      3.867761  2177A      3.871112  
    2178A      3.871664  2179A      3.873298  2180A      3.874334  
    2181A      3.876947  2182A      3.880354  2183A      3.884417  
    2184A      3.885865  2185A      3.889250  2186A      3.891089  
    2187A      3.893215  2188A      3.896863  2189A      3.899685  
    2190A      3.900859  2191A      3.901843  2192A      3.904521  
    2193A      3.908159  2194A      3.909955  2195A      3.912180  
    2196A      3.916239  2197A      3.918057  2198A      3.919514  
    2199A      3.921322  2200A      3.923127  2201A      3.924326  
    2202A      3.926813  2203A      3.929023  2204A      3.930366  
    2205A      3.936585  2206A      3.937176  2207A      3.939115  
    2208A      3.942692  2209A      3.945271  2210A      3.946834  
    2211A      3.948101  2212A      3.949313  2213A      3.951972  
    2214A      3.954616  2215A      3.957601  2216A      3.958367  
    2217A      3.960310  2218A      3.962485  2219A      3.963638  
    2220A      3.966214  2221A      3.967267  2222A      3.969395  
    2223A      3.971434  2224A      3.973521  2225A      3.974809  
    2226A      3.975642  2227A      3.980564  2228A      3.983079  
    2229A      3.986214  2230A      3.988593  2231A      3.989807  
    2232A      3.992336  2233A      3.995417  2234A      3.997100  
    2235A      3.998336  2236A      4.001182  2237A      4.003275  
    2238A      4.007369  2239A      4.008219  2240A      4.011116  
    2241A      4.013080  2242A      4.015256  2243A      4.016839  
    2244A      4.019042  2245A      4.019959  2246A      4.022983  
    2247A      4.026774  2248A      4.027259  2249A      4.030162  
    2250A      4.032758  2251A      4.035313  2252A      4.039057  
    2253A      4.039249  2254A      4.042027  2255A      4.044000  
    2256A      4.046147  2257A      4.049606  2258A      4.052013  
    2259A      4.052823  2260A      4.054501  2261A      4.060088  
    2262A      4.062538  2263A      4.063872  2264A      4.066168  
    2265A      4.067000  2266A      4.069623  2267A      4.071501  
    2268A      4.073732  2269A      4.074375  2270A      4.075061  
    2271A      4.079183  2272A      4.080422  2273A      4.081375  
    2274A      4.084934  2275A      4.085641  2276A      4.089056  
    2277A      4.090652  2278A      4.093280  2279A      4.095660  
    2280A      4.097488  2281A      4.100036  2282A      4.101444  
    2283A      4.102913  2284A      4.108226  2285A      4.108892  
    2286A      4.110095  2287A      4.113305  2288A      4.115119  
    2289A      4.115364  2290A      4.120122  2291A      4.120382  
    2292A      4.121950  2293A      4.123916  2294A      4.126757  
    2295A      4.129646  2296A      4.131728  2297A      4.133996  
    2298A      4.135570  2299A      4.136802  2300A      4.141801  
    2301A      4.143603  2302A      4.145732  2303A      4.147650  
    2304A      4.149130  2305A      4.149586  2306A      4.153765  
    2307A      4.155156  2308A      4.156901  2309A      4.158723  
    2310A      4.159525  2311A      4.161929  2312A      4.165091  
    2313A      4.166456  2314A      4.168018  2315A      4.170995  
    2316A      4.173625  2317A      4.175313  2318A      4.176866  
    2319A      4.179139  2320A      4.181608  2321A      4.183112  
    2322A      4.184679  2323A      4.186337  2324A      4.188944  
    2325A      4.191207  2326A      4.193351  2327A      4.194535  
    2328A      4.197155  2329A      4.202274  2330A      4.203340  
    2331A      4.206486  2332A      4.206893  2333A      4.211212  
    2334A      4.213093  2335A      4.215316  2336A      4.217458  
    2337A      4.218194  2338A      4.219549  2339A      4.225125  
    2340A      4.225943  2341A      4.226309  2342A      4.227435  
    2343A      4.234601  2344A      4.235178  2345A      4.239181  
    2346A      4.242809  2347A      4.243118  2348A      4.246560  
    2349A      4.248352  2350A      4.249715  2351A      4.250327  
    2352A      4.253453  2353A      4.256092  2354A      4.260071  
    2355A      4.261969  2356A      4.262407  2357A      4.264183  
    2358A      4.266953  2359A      4.267901  2360A      4.271714  
    2361A      4.275063  2362A      4.277236  2363A      4.280079  
    2364A      4.280955  2365A      4.284947  2366A      4.285841  
    2367A      4.290919  2368A      4.293456  2369A      4.295395  
    2370A      4.297136  2371A      4.301546  2372A      4.302154  
    2373A      4.304625  2374A      4.307632  2375A      4.309390  
    2376A      4.309912  2377A      4.311509  2378A      4.312526  
    2379A      4.314784  2380A      4.319693  2381A      4.321634  
    2382A      4.324384  2383A      4.326568  2384A      4.328573  
    2385A      4.330606  2386A      4.332855  2387A      4.335306  
    2388A      4.340007  2389A      4.340190  2390A      4.342548  
    2391A      4.347100  2392A      4.348483  2393A      4.349742  
    2394A      4.352055  2395A      4.353599  2396A      4.356234  
    2397A      4.358009  2398A      4.360025  2399A      4.362482  
    2400A      4.365504  2401A      4.369785  2402A      4.372003  
    2403A      4.372988  2404A      4.373834  2405A      4.378753  
    2406A      4.381337  2407A      4.384004  2408A      4.386097  
    2409A      4.388886  2410A      4.390726  2411A      4.393304  
    2412A      4.395450  2413A      4.397128  2414A      4.399383  
    2415A      4.403293  2416A      4.405128  2417A      4.405735  
    2418A      4.406874  2419A      4.409164  2420A      4.412140  
    2421A      4.412834  2422A      4.414784  2423A      4.416662  
    2424A      4.419512  2425A      4.420758  2426A      4.422341  
    2427A      4.425827  2428A      4.427530  2429A      4.429155  
    2430A      4.430501  2431A      4.432575  2432A      4.435416  
    2433A      4.437236  2434A      4.437955  2435A      4.441715  
    2436A      4.442563  2437A      4.444652  2438A      4.446180  
    2439A      4.448477  2440A      4.450500  2441A      4.454767  
    2442A      4.455883  2443A      4.457797  2444A      4.459426  
    2445A      4.460323  2446A      4.464879  2447A      4.466976  
    2448A      4.468789  2449A      4.469344  2450A      4.473865  
    2451A      4.477077  2452A      4.477513  2453A      4.479976  
    2454A      4.482725  2455A      4.483550  2456A      4.485126  
    2457A      4.487446  2458A      4.487854  2459A      4.491879  
    2460A      4.497085  2461A      4.498370  2462A      4.502555  
    2463A      4.504206  2464A      4.505808  2465A      4.507252  
    2466A      4.508378  2467A      4.513390  2468A      4.514343  
    2469A      4.517549  2470A      4.519123  2471A      4.523503  
    2472A      4.524061  2473A      4.525469  2474A      4.527790  
    2475A      4.528351  2476A      4.533669  2477A      4.535363  
    2478A      4.540651  2479A      4.541735  2480A      4.542413  
    2481A      4.544004  2482A      4.549303  2483A      4.550622  
    2484A      4.552123  2485A      4.553523  2486A      4.557264  
    2487A      4.557954  2488A      4.559460  2489A      4.564582  
    2490A      4.566487  2491A      4.569465  2492A      4.571007  
    2493A      4.572949  2494A      4.574690  2495A      4.576549  
    2496A      4.581356  2497A      4.581900  2498A      4.584577  
    2499A      4.588645  2500A      4.592532  2501A      4.594276  
    2502A      4.595463  2503A      4.595842  2504A      4.597130  
    2505A      4.600890  2506A      4.602290  2507A      4.604575  
    2508A      4.609105  2509A      4.612242  2510A      4.615230  
    2511A      4.618127  2512A      4.620882  2513A      4.624165  
    2514A      4.624643  2515A      4.627033  2516A      4.630311  
    2517A      4.632030  2518A      4.637170  2519A      4.641491  
    2520A      4.644192  2521A      4.646826  2522A      4.647901  
    2523A      4.651816  2524A      4.656896  2525A      4.659389  
    2526A      4.660547  2527A      4.660839  2528A      4.664253  
    2529A      4.667962  2530A      4.668225  2531A      4.672312  
    2532A      4.673855  2533A      4.675746  2534A      4.677418  
    2535A      4.680453  2536A      4.682688  2537A      4.685541  
    2538A      4.686867  2539A      4.689019  2540A      4.692601  
    2541A      4.696026  2542A      4.697106  2543A      4.699320  
    2544A      4.702645  2545A      4.703963  2546A      4.706115  
    2547A      4.708023  2548A      4.711605  2549A      4.716054  
    2550A      4.719087  2551A      4.721178  2552A      4.721941  
    2553A      4.726069  2554A      4.726218  2555A      4.729964  
    2556A      4.731569  2557A      4.734262  2558A      4.735209  
    2559A      4.738821  2560A      4.740295  2561A      4.743702  
    2562A      4.749720  2563A      4.750537  2564A      4.754864  
    2565A      4.756512  2566A      4.757811  2567A      4.762223  
    2568A      4.765063  2569A      4.766532  2570A      4.771308  
    2571A      4.774892  2572A      4.775924  2573A      4.780265  
    2574A      4.781586  2575A      4.785229  2576A      4.786324  
    2577A      4.789243  2578A      4.791678  2579A      4.794946  
    2580A      4.797374  2581A      4.799538  2582A      4.803338  
    2583A      4.805762  2584A      4.809817  2585A      4.812891  
    2586A      4.814055  2587A      4.815631  2588A      4.819874  
    2589A      4.822193  2590A      4.826662  2591A      4.828174  
    2592A      4.829734  2593A      4.832590  2594A      4.834043  
    2595A      4.836570  2596A      4.840238  2597A      4.841845  
    2598A      4.844927  2599A      4.848677  2600A      4.850859  
    2601A      4.854082  2602A      4.856854  2603A      4.857304  
    2604A      4.860777  2605A      4.863972  2606A      4.865538  
    2607A      4.868292  2608A      4.869881  2609A      4.874460  
    2610A      4.877521  2611A      4.879157  2612A      4.881557  
    2613A      4.886975  2614A      4.888619  2615A      4.891431  
    2616A      4.895656  2617A      4.897021  2618A      4.897767  
    2619A      4.905990  2620A      4.909281  2621A      4.910202  
    2622A      4.912080  2623A      4.913002  2624A      4.916399  
    2625A      4.918259  2626A      4.922743  2627A      4.924248  
    2628A      4.931225  2629A      4.932199  2630A      4.936798  
    2631A      4.940254  2632A      4.942437  2633A      4.948012  
    2634A      4.952496  2635A      4.954912  2636A      4.955906  
    2637A      4.961919  2638A      4.964449  2639A      4.966097  
    2640A      4.966628  2641A      4.973844  2642A      4.975262  
    2643A      4.975764  2644A      4.979555  2645A      4.981160  
    2646A      4.984079  2647A      4.988646  2648A      4.989094  
    2649A      4.994535  2650A      4.996170  2651A      4.999970  
    2652A      5.000593  2653A      5.005235  2654A      5.009337  
    2655A      5.012616  2656A      5.013980  2657A      5.017287  
    2658A      5.018393  2659A      5.020914  2660A      5.028239  
    2661A      5.030082  2662A      5.033792  2663A      5.036401  
    2664A      5.038648  2665A      5.040826  2666A      5.043026  
    2667A      5.045197  2668A      5.049881  2669A      5.051840  
    2670A      5.053362  2671A      5.055476  2672A      5.058116  
    2673A      5.060714  2674A      5.063267  2675A      5.066082  
    2676A      5.068349  2677A      5.071039  2678A      5.078822  
    2679A      5.080956  2680A      5.082244  2681A      5.085932  
    2682A      5.089432  2683A      5.091864  2684A      5.095361  
    2685A      5.098991  2686A      5.099821  2687A      5.104163  
    2688A      5.105425  2689A      5.108167  2690A      5.110649  
    2691A      5.111893  2692A      5.114686  2693A      5.119059  
    2694A      5.120015  2695A      5.124124  2696A      5.127380  
    2697A      5.130900  2698A      5.135978  2699A      5.138885  
    2700A      5.141432  2701A      5.146030  2702A      5.147671  
    2703A      5.151075  2704A      5.152481  2705A      5.159790  
    2706A      5.162682  2707A      5.167505  2708A      5.170786  
    2709A      5.178117  2710A      5.179372  2711A      5.183555  
    2712A      5.186729  2713A      5.190182  2714A      5.191549  
    2715A      5.196960  2716A      5.200048  2717A      5.202597  
    2718A      5.204714  2719A      5.208719  2720A      5.211525  
    2721A      5.215164  2722A      5.217358  2723A      5.220348  
    2724A      5.220865  2725A      5.221749  2726A      5.226539  
    2727A      5.228028  2728A      5.230936  2729A      5.232624  
    2730A      5.234938  2731A      5.241589  2732A      5.243552  
    2733A      5.246756  2734A      5.248422  2735A      5.249727  
    2736A      5.253829  2737A      5.256719  2738A      5.260522  
    2739A      5.267000  2740A      5.268470  2741A      5.269864  
    2742A      5.273692  2743A      5.276797  2744A      5.281435  
    2745A      5.282903  2746A      5.284527  2747A      5.288347  
    2748A      5.289514  2749A      5.294391  2750A      5.300139  
    2751A      5.301921  2752A      5.305957  2753A      5.307857  
    2754A      5.311752  2755A      5.316682  2756A      5.317367  
    2757A      5.322181  2758A      5.325418  2759A      5.325783  
    2760A      5.331158  2761A      5.338283  2762A      5.343124  
    2763A      5.345969  2764A      5.348609  2765A      5.353644  
    2766A      5.358666  2767A      5.363300  2768A      5.365652  
    2769A      5.369874  2770A      5.371433  2771A      5.373101  
    2772A      5.374846  2773A      5.379191  2774A      5.381543  
    2775A      5.384572  2776A      5.388273  2777A      5.390660  
    2778A      5.392104  2779A      5.396434  2780A      5.404717  
    2781A      5.408724  2782A      5.410293  2783A      5.415319  
    2784A      5.416118  2785A      5.423578  2786A      5.424620  
    2787A      5.426364  2788A      5.430134  2789A      5.432533  
    2790A      5.434496  2791A      5.436762  2792A      5.441318  
    2793A      5.444850  2794A      5.448515  2795A      5.450528  
    2796A      5.454026  2797A      5.457947  2798A      5.459780  
    2799A      5.463831  2800A      5.466723  2801A      5.473717  
    2802A      5.474195  2803A      5.478984  2804A      5.482694  
    2805A      5.483300  2806A      5.484484  2807A      5.489391  
    2808A      5.492321  2809A      5.500021  2810A      5.501516  
    2811A      5.505291  2812A      5.513041  2813A      5.518532  
    2814A      5.521654  2815A      5.524780  2816A      5.533885  
    2817A      5.536071  2818A      5.537587  2819A      5.540043  
    2820A      5.544488  2821A      5.553244  2822A      5.556197  
    2823A      5.560206  2824A      5.565910  2825A      5.567469  
    2826A      5.571787  2827A      5.574747  2828A      5.583979  
    2829A      5.586254  2830A      5.590897  2831A      5.595333  
    2832A      5.598350  2833A      5.600839  2834A      5.603517  
    2835A      5.608244  2836A      5.614190  2837A      5.617697  
    2838A      5.623102  2839A      5.624962  2840A      5.628015  
    2841A      5.635259  2842A      5.638781  2843A      5.642983  
    2844A      5.656111  2845A      5.660620  2846A      5.670092  
    2847A      5.676334  2848A      5.677612  2849A      5.682279  
    2850A      5.688165  2851A      5.689725  2852A      5.697319  
    2853A      5.697697  2854A      5.703179  2855A      5.705206  
    2856A      5.709596  2857A      5.719919  2858A      5.724661  
    2859A      5.729189  2860A      5.729673  2861A      5.737238  
    2862A      5.739600  2863A      5.740901  2864A      5.744576  
    2865A      5.749067  2866A      5.750090  2867A      5.756029  
    2868A      5.760954  2869A      5.763420  2870A      5.768813  
    2871A      5.773916  2872A      5.774531  2873A      5.776994  
    2874A      5.780688  2875A      5.781582  2876A      5.788842  
    2877A      5.792263  2878A      5.795353  2879A      5.801819  
    2880A      5.807195  2881A      5.812090  2882A      5.818057  
    2883A      5.825925  2884A      5.832625  2885A      5.836643  
    2886A      5.843771  2887A      5.844857  2888A      5.853359  
    2889A      5.858483  2890A      5.866130  2891A      5.873188  
    2892A      5.875247  2893A      5.879160  2894A      5.887033  
    2895A      5.897818  2896A      5.905612  2897A      5.915022  
    2898A      5.926478  2899A      5.932131  2900A      5.940094  
    2901A      5.945368  2902A      5.958154  2903A      5.959433  
    2904A      5.964983  2905A      5.975527  2906A      5.976817  
    2907A      5.984310  2908A      5.988938  2909A      5.995634  
    2910A      6.000951  2911A      6.003899  2912A      6.008516  
    2913A      6.013780  2914A      6.023950  2915A      6.029241  
    2916A      6.032960  2917A      6.038716  2918A      6.044523  
    2919A      6.052820  2920A      6.057895  2921A      6.069696  
    2922A      6.080840  2923A      6.086989  2924A      6.089694  
    2925A      6.106641  2926A      6.111073  2927A      6.129729  
    2928A      6.132052  2929A      6.137274  2930A      6.143778  
    2931A      6.161658  2932A      6.175840  2933A      6.184077  
    2934A      6.188193  2935A      6.192153  2936A      6.203277  
    2937A      6.210329  2938A      6.212029  2939A      6.223925  
    2940A      6.239843  2941A      6.253783  2942A      6.260826  
    2943A      6.271895  2944A      6.279837  2945A      6.284323  
    2946A      6.286752  2947A      6.296233  2948A      6.304248  
    2949A      6.311940  2950A      6.314030  2951A      6.321921  
    2952A      6.333603  2953A      6.343033  2954A      6.359734  
    2955A      6.376763  2956A      6.399179  2957A      6.410868  
    2958A      6.419124  2959A      6.427856  2960A      6.468686  
    2961A      6.474266  2962A      6.481826  2963A      6.494945  
    2964A      6.501763  2965A      6.504740  2966A      6.519595  
    2967A      6.525888  2968A      6.548411  2969A      6.552779  
    2970A      6.556929  2971A      6.572960  2972A      6.574961  
    2973A      6.588779  2974A      6.614942  2975A      6.630915  
    2976A      6.637487  2977A      6.639114  2978A      6.646100  
    2979A      6.648401  2980A      6.653230  2981A      6.657644  
    2982A      6.663700  2983A      6.679329  2984A      6.686359  
    2985A      6.692374  2986A      6.696129  2987A      6.704547  
    2988A      6.713549  2989A      6.718458  2990A      6.725363  
    2991A      6.727062  2992A      6.743919  2993A      6.747224  
    2994A      6.756530  2995A      6.763996  2996A      6.776642  
    2997A      6.781639  2998A      6.800004  2999A      6.802716  
    3000A      6.808354  3001A      6.817694  3002A      6.823671  
    3003A      6.833372  3004A      6.837140  3005A      6.838878  
    3006A      6.846259  3007A      6.852898  3008A      6.878658  
    3009A      6.880997  3010A      6.887582  3011A      6.904329  
    3012A      6.913445  3013A      6.922940  3014A      6.938756  
    3015A      6.945894  3016A      6.946710  3017A      6.951412  
    3018A      6.955695  3019A      6.959204  3020A      6.963351  
    3021A      6.972769  3022A      6.976401  3023A      6.983416  
    3024A      7.002129  3025A      7.006740  3026A      7.007602  
    3027A      7.011721  3028A      7.020505  3029A      7.042130  
    3030A      7.048916  3031A      7.052593  3032A      7.054871  
    3033A      7.060369  3034A      7.083843  3035A      7.086772  
    3036A      7.097018  3037A      7.098503  3038A      7.103551  
    3039A      7.112122  3040A      7.117487  3041A      7.119958  
    3042A      7.125649  3043A      7.127156  3044A      7.150926  
    3045A      7.153644  3046A      7.157948  3047A      7.178465  
    3048A      7.189660  3049A      7.199106  3050A      7.205643  
    3051A      7.218230  3052A      7.224733  3053A      7.227646  
    3054A      7.238716  3055A      7.248205  3056A      7.258420  
    3057A      7.261112  3058A      7.286968  3059A      7.306782  
    3060A      7.316700  3061A      7.353764  3062A      7.368438  
    3063A      7.396765  3064A      7.416611  3065A      7.433119  
    3066A      7.438131  3067A      7.449776  3068A      7.450049  
    3069A      7.453175  3070A      7.470085  3071A      7.512753  
    3072A      7.519276  3073A      7.523701  3074A      7.541236  
    3075A      7.543672  3076A      7.556762  3077A      7.565655  
    3078A      7.583033  3079A      7.593814  3080A      7.596041  
    3081A      7.636035  3082A      7.643731  3083A      7.693713  
    3084A      7.713091  3085A      7.735672  3086A      7.763604  
    3087A      7.807576  3088A      7.824984  3089A      7.829221  
    3090A      7.840571  3091A      7.861325  3092A      7.915056  
    3093A      7.927140  3094A      7.940719  3095A      7.977837  
    3096A      8.036005  3097A      8.071262  3098A      8.082846  
    3099A      8.096974  3100A      8.113576  3101A      8.147257  
    3102A      8.166212  3103A      8.179839  3104A      8.221846  
    3105A      8.258043  3106A      8.281511  3107A      8.323783  
    3108A      8.521433  3109A      8.544830  3110A      8.585174  
    3111A      8.766204  3112A      8.817500  3113A      8.838265  
    3114A      8.932450  3115A      9.027674  3116A      9.150595  
    3117A      9.329791  3118A      9.370507  3119A      9.522092  
    3120A      9.625079  3121A      9.663302  3122A      9.702571  
    3123A      9.769485  3124A      9.827807  3125A     10.090664  
    3126A     10.207660  3127A     16.141293  3128A     16.168005  
    3129A     16.605374  3130A     16.828637  3131A     17.001714  
    3132A     17.010088  3133A     17.068629  3134A     17.133895  
    3135A     17.196004  3136A     17.361429  3137A     17.555984  
    3138A     17.674377  3139A     17.822663  3140A     17.938262  
    3141A     18.141016  3142A     18.394645  3143A     18.405636  
    3144A     18.467502  3145A     18.671451  3146A     18.718360  
    3147A     18.797445  3148A     18.916304  3149A     19.089402  
    3150A     19.156625  3151A     19.708580  3152A     19.903744  
    3153A     19.920020  3154A     20.204201  3155A     20.454242  
    3156A     20.498704  3157A     20.559401  3158A     21.238715  
    3159A     21.481106  3160A     21.540334  3161A     21.689476  
    3162A     21.771590  3163A     21.832055  3164A     22.013522  
    3165A     22.172536  3166A     22.181705  3167A     22.306171  
    3168A     22.327169  3169A     22.395597  3170A     22.477307  
    3171A     22.538891  3172A     22.699810  3173A     22.784726  
    3174A     22.831037  3175A     22.881743  3176A     23.082449  
    3177A     23.125982  3178A     23.225271  3179A     23.331907  
    3180A     23.534316  3181A     23.596703  

    Final Occupation by Irrep:
              A 
    DOCC [   188 ]
    NA   [   188 ]
    NB   [   188 ]

  @DF-RHF Final Energy: -2416.86140145971422

   => Energetics <=

    Nuclear Repulsion Energy =           8036.0311254087573616
    One-Electron Energy =              -19311.3581184801696509
    Two-Electron Energy =                8858.4655916116989829
    Total Energy =                      -2416.8614014597133064

Computation Completed


Properties will be evaluated at   0.000000,   0.000000,   0.000000 [a0]

Properties computed using the SCF density matrix


 Multipole Moments:

 ------------------------------------------------------------------------------------
     Multipole            Electronic (a.u.)      Nuclear  (a.u.)        Total (a.u.)
 ------------------------------------------------------------------------------------

 L = 1.  Multiply by 2.5417464519 to convert [e a0] to [Debye]
 Dipole X            :        -10.8148927           10.8896665            0.0747738
 Dipole Y            :         38.7342058          -38.3816908            0.3525150
 Dipole Z            :        -32.8135973           31.3327632           -1.4808341
 Magnitude           :                                                    1.5240497

 ------------------------------------------------------------------------------------

*** tstop() called on atl1-1-03-004-8-1.pace.gatech.edu at Sat Jun 13 12:18:43 2026
Module time:
	user time   =   32370.14 seconds =     539.50 minutes
	system time =    2190.25 seconds =      36.50 minutes
	total time  =       5140 seconds =      85.67 minutes
Total time:
	user time   =   32370.14 seconds =     539.50 minutes
	system time =    2190.25 seconds =      36.50 minutes
	total time  =       5140 seconds =      85.67 minutes

    Psi4 stopped on: Saturday, 13 June 2026 12:18PM
    Psi4 wall time for execution: 1:25:48.95

*** Psi4 exiting successfully. Buy a developer a beer!
