
    -----------------------------------------------------------------------
          Psi4: An Open-Source Ab Initio Electronic Structure Package
                               Psi4 1.9.1 release

                         Git: Rev {} zzzzzzz 


    D. G. A. Smith, L. A. Burns, A. C. Simmonett, R. M. Parrish,
    M. C. Schieber, R. Galvelis, P. Kraus, H. Kruse, R. Di Remigio,
    A. Alenaizan, A. M. James, S. Lehtola, J. P. Misiewicz, M. Scheurer,
    R. A. Shaw, J. B. Schriber, Y. Xie, Z. L. Glick, D. A. Sirianni,
    J. S. O'Brien, J. M. Waldrop, A. Kumar, E. G. Hohenstein,
    B. P. Pritchard, B. R. Brooks, H. F. Schaefer III, A. Yu. Sokolov,
    K. Patkowski, A. E. DePrince III, U. Bozkaya, R. A. King,
    F. A. Evangelista, J. M. Turney, T. D. Crawford, C. D. Sherrill,
    J. Chem. Phys. 152(18) 184108 (2020). https://doi.org/10.1063/5.0006002

                            Additional Code Authors
    E. T. Seidl, C. L. Janssen, E. F. Valeev, M. L. Leininger,
    J. F. Gonthier, R. M. Richard, H. R. McAlexander, M. Saitow, X. Wang,
    P. Verma, M. H. Lechner, A. Jiang, S. Behnle, A. G. Heide,
    M. F. Herbst, and D. L. Poole

             Previous Authors, Complete List of Code Contributors,
                       and Citations for Specific Modules
    https://github.com/psi4/psi4/blob/master/codemeta.json
    https://github.com/psi4/psi4/graphs/contributors
    http://psicode.org/psi4manual/master/introduction.html#citing-psifour

    -----------------------------------------------------------------------


    Psi4 started on: Saturday, 13 June 2026 07:02AM

    Process ID: 254803
    Host:       atl1-1-02-003-29-2.pace.gatech.edu
    PSIDATADIR: /storage/home/hcoda1/5/vlita3/.conda/envs/p4_qcml/share/psi4
    Memory:     250.0 GiB
    Threads:    10
    
  ==> Input QCSchema <==

--------------------------------------------------------------------------
{'driver': 'energy',
 'extras': {},
 'id': '195',
 'keywords': {},
 'model': {'basis': 'aug-cc-pvtz', 'method': 'hf'},
 'molecule': {'extras': {},
              'fix_com': True,
              'fix_orientation': True,
              'fragment_charges': [0.0, 0.0],
              'fragment_multiplicities': [1, 1],
              'fragments': [[0, 1, 2, 3, 4, 5, 6, 7, 8, 9, 10, 11, 12, 13, 14, 15, 16, 17, 18, 19, 20, 21, 22, 23, 24,
                             25, 26, 27, 28, 29, 30, 31, 32, 33, 34, 35],
                            [36, 37, 38, 39, 40, 41, 42, 43, 44, 45, 46, 47, 48, 49, 50, 51, 52, 53, 54, 55, 56, 57, 58,
                             59, 60, 61, 62, 63, 64, 65, 66, 67, 68, 69, 70, 71]],
              'geometry': [-2.81102804, -2.32727976, -3.26733672, -0.12371685, -2.32727976, -3.26733672, 1.21993874,
                           0.0, -3.26733672, -0.12371685, 2.32727976, -3.26733672, -2.81102804, 2.32727976, -3.26733672,
                           -4.15468364, 0.0, -3.26733672, 1.21375609, -4.64385085, -3.26733672, -0.17645855,
                           -6.93684965, -3.26733672, -2.75828635, -6.93684965, -3.26733672, -4.14850099, -4.64385085,
                           -3.26733672, -6.82962953, 0.0, -3.26733672, -8.12031742, -2.3504606, -3.26733672,
                           -6.82940352, -4.58638906, -3.26733672, -8.12031742, 2.3504606, -3.26733672, -6.82940352,
                           4.58638906, -3.26733672, -4.14850099, 4.64385085, -3.26733672, -2.75828635, 6.93684965,
                           -3.26733672, -0.17645855, 6.93684965, -3.26733672, 1.21375609, 4.64385085, -3.26733672,
                           3.89465863, 4.58638906, -3.26733672, 5.18557252, 2.3504606, -3.26733672, 3.89488463, 0.0,
                           -3.26733672, 5.18557252, -2.3504606, -3.26733672, 3.89465863, -4.58638906, -3.26733672,
                           0.84958395, -8.70675598, -3.26733672, -3.78432885, -8.70675598, -3.26733672, -7.84916611,
                           -6.35992109, -3.26733672, -10.16612251, -2.34683489, -3.26733672, -10.16612251, 2.34683489,
                           -3.26733672, -7.84916611, 6.35992109, -3.26733672, -3.78432885, 8.70675598, -3.26733672,
                           0.84958395, 8.70675598, -3.26733672, 4.91442121, 6.35992109, -3.26733672, 7.23137761,
                           2.34683489, -3.26733672, 7.23137761, -2.34683489, -3.26733672, 4.91442121, -6.35992109,
                           -3.26733672, 0.12371685, -2.32727976, 3.26733672, 2.81102804, -2.32727976, 3.26733672,
                           4.15468364, 0.0, 3.26733672, 2.81102804, 2.32727976, 3.26733672, 0.12371685, 2.32727976,
                           3.26733672, -1.21993874, 0.0, 3.26733672, 4.14850099, -4.64385085, 3.26733672, 2.75828635,
                           -6.93684965, 3.26733672, 0.17645855, -6.93684965, 3.26733672, -1.21375609, -4.64385085,
                           3.26733672, -3.89488463, 0.0, 3.26733672, -5.18557252, -2.3504606, 3.26733672, -3.89465863,
                           -4.58638906, 3.26733672, -5.18557252, 2.3504606, 3.26733672, -3.89465863, 4.58638906,
                           3.26733672, -1.21375609, 4.64385085, 3.26733672, 0.17645855, 6.93684965, 3.26733672,
                           2.75828635, 6.93684965, 3.26733672, 4.14850099, 4.64385085, 3.26733672, 6.82940352,
                           4.58638906, 3.26733672, 8.12031742, 2.3504606, 3.26733672, 6.82962953, 0.0, 3.26733672,
                           8.12031742, -2.3504606, 3.26733672, 6.82940352, -4.58638906, 3.26733672, 3.78432885,
                           -8.70675598, 3.26733672, -0.84958395, -8.70675598, 3.26733672, -4.91442121, -6.35992109,
                           3.26733672, -7.23137761, -2.34683489, 3.26733672, -7.23137761, 2.34683489, 3.26733672,
                           -4.91442121, 6.35992109, 3.26733672, -0.84958395, 8.70675598, 3.26733672, 3.78432885,
                           8.70675598, 3.26733672, 7.84916611, 6.35992109, 3.26733672, 10.16612251, 2.34683489,
                           3.26733672, 10.16612251, -2.34683489, 3.26733672, 7.84916611, -6.35992109, 3.26733672],
              'id': 2,
              'identifiers': {'molecular_formula': 'C48H24',
                              'molecule_hash': '5e8f6cf798e5af2fc45ad63c8cba340f6c4842b2'},
              'molecular_charge': 0.0,
              'molecular_multiplicity': 1,
              'name': 'C48H24',
              'provenance': {'creator': 'QCElemental',
                             'routine': 'qcelemental.molparse.from_string',
                             'version': '0.29.0'},
              'schema_name': 'qcschema_molecule',
              'schema_version': 2,
              'symbols': ['C', 'C', 'C', 'C', 'C', 'C', 'C', 'C', 'C', 'C', 'C', 'C', 'C', 'C', 'C', 'C', 'C', 'C', 'C',
                          'C', 'C', 'C', 'C', 'C', 'H', 'H', 'H', 'H', 'H', 'H', 'H', 'H', 'H', 'H', 'H', 'H', 'C', 'C',
                          'C', 'C', 'C', 'C', 'C', 'C', 'C', 'C', 'C', 'C', 'C', 'C', 'C', 'C', 'C', 'C', 'C', 'C', 'C',
                          'C', 'C', 'C', 'H', 'H', 'H', 'H', 'H', 'H', 'H', 'H', 'H', 'H', 'H', 'H'],
              'validated': True},
 'protocols': {},
 'provenance': {'creator': 'QCElemental', 'routine': 'qcelemental.models.results', 'version': '0.29.0'},
 'schema_name': 'qcschema_input',
 'schema_version': 1}
--------------------------------------------------------------------------

Scratch directory: /tmp/tmp57vdfqfy_psi_scratch/
   => Libint2 <=

    Primary   basis highest AM E, G, H:  6, 6, 3
    Auxiliary basis highest AM E, G, H:  7, 7, 4
    Onebody   basis highest AM E, G, H:  -, -, -
    Solid Harmonics ordering:            Gaussian

*** tstart() called on atl1-1-02-003-29-2.pace.gatech.edu
*** at Sat Jun 13 07:02:20 2026

   => Loading Basis Set <=

    Name: AUG-CC-PVTZ
    Role: ORBITAL
    Keyword: BASIS
    atoms 1-24, 37-60  entry C          line   239 file /storage/home/hcoda1/5/vlita3/.conda/envs/p4_qcml/share/psi4/basis/aug-cc-pvtz.gbs 
    atoms 25-36, 61-72 entry H          line    40 file /storage/home/hcoda1/5/vlita3/.conda/envs/p4_qcml/share/psi4/basis/aug-cc-pvtz.gbs 


         ---------------------------------------------------------
                                   SCF
               by Justin Turney, Rob Parrish, Andy Simmonett
                          and Daniel G. A. Smith
                              RHF Reference
                       10 Threads, 256000 MiB Core
         ---------------------------------------------------------

  ==> Geometry <==

    Molecular point group: c2h
    Full point group: C2h

    Geometry (in Bohr), charge = 0, multiplicity = 1:

       Center              X                  Y                   Z               Mass       
    ------------   -----------------  -----------------  -----------------  -----------------
         C           -2.811028040000    -2.327279760000    -3.267336720000    12.000000000000
         C           -0.123716850000    -2.327279760000    -3.267336720000    12.000000000000
         C            1.219938740000     0.000000000000    -3.267336720000    12.000000000000
         C           -0.123716850000     2.327279760000    -3.267336720000    12.000000000000
         C           -2.811028040000     2.327279760000    -3.267336720000    12.000000000000
         C           -4.154683640000     0.000000000000    -3.267336720000    12.000000000000
         C            1.213756090000    -4.643850850000    -3.267336720000    12.000000000000
         C           -0.176458550000    -6.936849650000    -3.267336720000    12.000000000000
         C           -2.758286350000    -6.936849650000    -3.267336720000    12.000000000000
         C           -4.148500990000    -4.643850850000    -3.267336720000    12.000000000000
         C           -6.829629530000     0.000000000000    -3.267336720000    12.000000000000
         C           -8.120317420000    -2.350460600000    -3.267336720000    12.000000000000
         C           -6.829403520000    -4.586389060000    -3.267336720000    12.000000000000
         C           -8.120317420000     2.350460600000    -3.267336720000    12.000000000000
         C           -6.829403520000     4.586389060000    -3.267336720000    12.000000000000
         C           -4.148500990000     4.643850850000    -3.267336720000    12.000000000000
         C           -2.758286350000     6.936849650000    -3.267336720000    12.000000000000
         C           -0.176458550000     6.936849650000    -3.267336720000    12.000000000000
         C            1.213756090000     4.643850850000    -3.267336720000    12.000000000000
         C            3.894658630000     4.586389060000    -3.267336720000    12.000000000000
         C            5.185572520000     2.350460600000    -3.267336720000    12.000000000000
         C            3.894884630000     0.000000000000    -3.267336720000    12.000000000000
         C            5.185572520000    -2.350460600000    -3.267336720000    12.000000000000
         C            3.894658630000    -4.586389060000    -3.267336720000    12.000000000000
         H            0.849583950000    -8.706755980000    -3.267336720000     1.007825032230
         H           -3.784328850000    -8.706755980000    -3.267336720000     1.007825032230
         H           -7.849166110000    -6.359921090000    -3.267336720000     1.007825032230
         H          -10.166122510000    -2.346834890000    -3.267336720000     1.007825032230
         H          -10.166122510000     2.346834890000    -3.267336720000     1.007825032230
         H           -7.849166110000     6.359921090000    -3.267336720000     1.007825032230
         H           -3.784328850000     8.706755980000    -3.267336720000     1.007825032230
         H            0.849583950000     8.706755980000    -3.267336720000     1.007825032230
         H            4.914421210000     6.359921090000    -3.267336720000     1.007825032230
         H            7.231377610000     2.346834890000    -3.267336720000     1.007825032230
         H            7.231377610000    -2.346834890000    -3.267336720000     1.007825032230
         H            4.914421210000    -6.359921090000    -3.267336720000     1.007825032230
         C            0.123716850000    -2.327279760000     3.267336720000    12.000000000000
         C            2.811028040000    -2.327279760000     3.267336720000    12.000000000000
         C            4.154683640000     0.000000000000     3.267336720000    12.000000000000
         C            2.811028040000     2.327279760000     3.267336720000    12.000000000000
         C            0.123716850000     2.327279760000     3.267336720000    12.000000000000
         C           -1.219938740000     0.000000000000     3.267336720000    12.000000000000
         C            4.148500990000    -4.643850850000     3.267336720000    12.000000000000
         C            2.758286350000    -6.936849650000     3.267336720000    12.000000000000
         C            0.176458550000    -6.936849650000     3.267336720000    12.000000000000
         C           -1.213756090000    -4.643850850000     3.267336720000    12.000000000000
         C           -3.894884630000     0.000000000000     3.267336720000    12.000000000000
         C           -5.185572520000    -2.350460600000     3.267336720000    12.000000000000
         C           -3.894658630000    -4.586389060000     3.267336720000    12.000000000000
         C           -5.185572520000     2.350460600000     3.267336720000    12.000000000000
         C           -3.894658630000     4.586389060000     3.267336720000    12.000000000000
         C           -1.213756090000     4.643850850000     3.267336720000    12.000000000000
         C            0.176458550000     6.936849650000     3.267336720000    12.000000000000
         C            2.758286350000     6.936849650000     3.267336720000    12.000000000000
         C            4.148500990000     4.643850850000     3.267336720000    12.000000000000
         C            6.829403520000     4.586389060000     3.267336720000    12.000000000000
         C            8.120317420000     2.350460600000     3.267336720000    12.000000000000
         C            6.829629530000     0.000000000000     3.267336720000    12.000000000000
         C            8.120317420000    -2.350460600000     3.267336720000    12.000000000000
         C            6.829403520000    -4.586389060000     3.267336720000    12.000000000000
         H            3.784328850000    -8.706755980000     3.267336720000     1.007825032230
         H           -0.849583950000    -8.706755980000     3.267336720000     1.007825032230
         H           -4.914421210000    -6.359921090000     3.267336720000     1.007825032230
         H           -7.231377610000    -2.346834890000     3.267336720000     1.007825032230
         H           -7.231377610000     2.346834890000     3.267336720000     1.007825032230
         H           -4.914421210000     6.359921090000     3.267336720000     1.007825032230
         H           -0.849583950000     8.706755980000     3.267336720000     1.007825032230
         H            3.784328850000     8.706755980000     3.267336720000     1.007825032230
         H            7.849166110000     6.359921090000     3.267336720000     1.007825032230
         H           10.166122510000     2.346834890000     3.267336720000     1.007825032230
         H           10.166122510000    -2.346834890000     3.267336720000     1.007825032230
         H            7.849166110000    -6.359921090000     3.267336720000     1.007825032230

  Running in c2h symmetry.

  Rotational constants: A =      0.00378  B =      0.00326  C =      0.00251 [cm^-1]
  Rotational constants: A =    113.23902  B =     97.86670  C =     75.24221 [MHz]
  Nuclear repulsion = 6088.170067665134411

  Charge       = 0
  Multiplicity = 1
  Electrons    = 312
  Nalpha       = 156
  Nbeta        = 156

  ==> Algorithm <==

  SCF Algorithm Type is DF.
  DIIS enabled.
  MOM disabled.
  Fractional occupation disabled.
  Guess Type is SAD.
  Energy threshold   = 1.00e-06
  Density threshold  = 1.00e-06
  Integral threshold = 1.00e-12

  ==> Primary Basis <==

  Basis Set: AUG-CC-PVTZ
    Blend: AUG-CC-PVTZ
    Number of shells: 888
    Number of basis functions: 2760
    Number of Cartesian functions: 3240
    Spherical Harmonics?: true
    Max angular momentum: 3

   => Loading Basis Set <=

    Name: (AUG-CC-PVTZ AUX)
    Role: JKFIT
    Keyword: DF_BASIS_SCF
    atoms 1-24, 37-60  entry C          line   162 file /storage/home/hcoda1/5/vlita3/.conda/envs/p4_qcml/share/psi4/basis/aug-cc-pvtz-jkfit.gbs 
    atoms 25-36, 61-72 entry H          line    70 file /storage/home/hcoda1/5/vlita3/.conda/envs/p4_qcml/share/psi4/basis/aug-cc-pvtz-jkfit.gbs 

  ==> Integral Setup <==

  ==> DiskDFJK: Density-Fitted J/K Matrices <==

    J tasked:                  Yes
    K tasked:                  Yes
    wK tasked:                  No
    OpenMP threads:             10
    Integrals threads:          10
    Memory [MiB]:           192000
    Algorithm:                Core
    Integral Cache:           NONE
    Schwarz Cutoff:          1E-12
    Fitting Condition:       1E-10

   => Auxiliary Basis Set <=

  Basis Set: (AUG-CC-PVTZ AUX)
    Blend: AUG-CC-PVTZ-JKFIT
    Number of shells: 1776
    Number of basis functions: 6096
    Number of Cartesian functions: 7608
    Spherical Harmonics?: true
    Max angular momentum: 4

  Minimum eigenvalue in the overlap matrix is 1.3049964763E-10.
  Reciprocal condition number of the overlap matrix is 4.3273072668E-12.
    Using canonical orthogonalization.
  Overall, 31 of 2760 possible MOs eliminated.


  ==> Pre-Iterations <==

  SCF Guess: Superposition of Atomic Densities via on-the-fly atomic UHF (no occupation information).

   -------------------------
    Irrep   Nso     Nmo    
   -------------------------
     Ag       718     710 
     Bg       662     655 
     Au       662     654 
     Bu       718     710 
   -------------------------
    Total    2760    2729
   -------------------------

  ==> Iterations <==

                           Total Energy        Delta E     RMS |[F,P]|

   @DF-RHF iter SAD: -1836.52413042398643   -1.83652e+03   0.00000e+00 
   @DF-RHF iter   1: -1831.42851167149888    5.09562e+00   9.07657e-04 DIIS/ADIIS
   @DF-RHF iter   2: -1832.21264660232873   -7.84135e-01   4.51654e-04 DIIS/ADIIS
   @DF-RHF iter   3: -1832.38505580458286   -1.72409e-01   2.05077e-04 DIIS/ADIIS
   @DF-RHF iter   4: -1832.42280520773011   -3.77494e-02   7.40344e-05 DIIS
   @DF-RHF iter   5: -1832.42860294613934   -5.79774e-03   1.47090e-05 DIIS
   @DF-RHF iter   6: -1832.42888249132648   -2.79545e-04   4.63363e-06 DIIS
   @DF-RHF iter   7: -1832.42894520568370   -6.27144e-05   1.82062e-06 DIIS
   @DF-RHF iter   8: -1832.42896144383803   -1.62382e-05   8.62463e-07 DIIS
   @DF-RHF iter   9: -1832.42896478797843   -3.34414e-06   3.47351e-07 DIIS
   @DF-RHF iter  10: -1832.42896515984876   -3.71870e-07   1.42119e-07 DIIS
  Energy and wave function converged.


  ==> Post-Iterations <==

    Orbital Energies [Eh]
    ---------------------

    Doubly Occupied:                                                      

       1Ag   -11.242135     1Bu   -11.242135     1Bg   -11.241370  
       1Au   -11.241369     2Bu   -11.241365     2Ag   -11.241365  
       3Bu   -11.240931     3Ag   -11.240931     4Bu   -11.240644  
       4Ag   -11.240642     2Bg   -11.240554     2Au   -11.240553  
       5Ag   -11.239572     5Bu   -11.239572     3Bg   -11.239558  
       3Au   -11.239558     6Bu   -11.239366     6Ag   -11.239366  
       7Bu   -11.238824     7Ag   -11.238823     4Bg   -11.238751  
       4Au   -11.238750     8Bu   -11.237893     8Ag   -11.237892  
       5Bg   -11.235800     5Au   -11.235800     9Bu   -11.235714  
       9Ag   -11.235714     6Bg   -11.234218    10Bu   -11.234217  
       6Au   -11.234217    10Ag   -11.234215     7Bg   -11.234150  
       7Au   -11.234150    11Ag   -11.234125    11Bu   -11.234125  
      12Ag   -11.232382    12Bu   -11.232382     8Au   -11.232382  
       8Bg   -11.232382     9Au   -11.232044     9Bg   -11.232043  
      13Ag   -11.232029    13Bu   -11.232029    10Au   -11.230103  
      10Bg   -11.230103    14Ag   -11.230039    14Bu   -11.230039  
      15Ag    -1.214341    15Bu    -1.209707    11Au    -1.168217  
      16Bu    -1.167501    16Ag    -1.164572    11Bg    -1.163929  
      17Ag    -1.108275    12Bg    -1.108200    17Bu    -1.105783  
      12Au    -1.105567    18Ag    -1.087321    18Bu    -1.085001  
      13Au    -1.047759    13Bg    -1.046060    19Bu    -1.029683  
      19Ag    -1.028332    14Au    -1.009047    20Ag    -1.007773  
      20Bu    -1.007641    14Bg    -1.006648    21Ag    -0.967791  
      15Au    -0.966939    15Bg    -0.966532    21Bu    -0.966064  
      22Ag    -0.860453    16Au    -0.860410    22Bu    -0.859783  
      16Bg    -0.859658    17Bg    -0.858228    23Bu    -0.857767  
      23Ag    -0.857705    17Au    -0.857320    24Ag    -0.844096  
      24Bu    -0.843760    18Au    -0.771883    18Bg    -0.771569  
      25Bu    -0.757822    25Ag    -0.757705    19Au    -0.735816  
      26Ag    -0.735398    26Bu    -0.734667    19Bg    -0.734555  
      20Au    -0.720794    20Bg    -0.720556    27Bu    -0.700141  
      27Ag    -0.700013    28Ag    -0.649224    21Au    -0.648662  
      21Bg    -0.648159    28Bu    -0.648054    22Bg    -0.631571  
      29Ag    -0.631501    22Au    -0.631451    29Bu    -0.631418  
      23Bg    -0.629514    30Bu    -0.629337    23Au    -0.629159  
      30Ag    -0.629028    31Ag    -0.595128    32Ag    -0.589553  
      31Bu    -0.589049    24Au    -0.582812    33Ag    -0.582685  
      24Bg    -0.582197    32Bu    -0.582163    25Au    -0.578639  
      25Bg    -0.578629    33Bu    -0.562719    26Bg    -0.562227  
      26Au    -0.562072    34Ag    -0.562051    34Bu    -0.558665  
      27Au    -0.537246    35Bu    -0.529570    36Bu    -0.527577  
      35Ag    -0.527534    28Au    -0.525500    27Bg    -0.525326  
      28Bg    -0.510361    29Au    -0.509999    36Ag    -0.508194  
      30Au    -0.507091    37Bu    -0.506671    29Bg    -0.506617  
      37Ag    -0.505374    30Bg    -0.501537    38Ag    -0.456237  
      31Bg    -0.454603    38Bu    -0.454382    31Au    -0.454369  
      32Bg    -0.454047    39Ag    -0.453852    39Bu    -0.433797  
      32Au    -0.431901    40Ag    -0.427610    40Bu    -0.408256  
      33Au    -0.370643    33Bg    -0.354469    41Bu    -0.350798  
      41Ag    -0.340840    34Au    -0.336479    42Ag    -0.324708  
      42Bu    -0.323882    34Bg    -0.316801    43Ag    -0.263373  
      35Au    -0.256301    35Bg    -0.250283    43Bu    -0.245204  

    Virtual:                                                              

      36Au     0.024511    44Bu     0.024944    44Ag     0.025419  
      36Bg     0.031206    45Ag     0.031382    45Bu     0.036220  
      37Bg     0.039469    46Ag     0.040077    46Bu     0.041280  
      37Au     0.042207    47Bu     0.048131    38Au     0.048589  
      39Au     0.054683    47Ag     0.054925    38Bg     0.055599  
      48Ag     0.055883    49Ag     0.062174    39Bg     0.063314  
      48Bu     0.064336    40Bg     0.064437    50Ag     0.070948  
      40Au     0.071959    49Bu     0.072005    41Au     0.076637  
      50Bu     0.077604    51Bu     0.079481    52Bu     0.080170  
      42Au     0.080673    41Bg     0.087727    42Bg     0.089795  
      51Ag     0.090727    52Ag     0.093254    53Ag     0.095007  
      43Bg     0.096994    43Au     0.097898    54Ag     0.098362  
      53Bu     0.099113    44Bg     0.100557    54Bu     0.104360  
      45Bg     0.105406    55Ag     0.105501    44Au     0.110750  
      55Bu     0.112005    45Au     0.112739    46Bg     0.112816  
      56Bu     0.114772    56Ag     0.115366    57Bu     0.115619  
      57Ag     0.116987    46Au     0.117909    47Bg     0.120887  
      58Ag     0.122484    47Au     0.124091    58Bu     0.124301  
      48Au     0.124776    49Au     0.127699    59Bu     0.128502  
      60Bu     0.130839    59Ag     0.131483    48Bg     0.133143  
      60Ag     0.133613    61Bu     0.133638    50Au     0.135134  
      61Ag     0.136752    62Bu     0.142864    62Ag     0.143651  
      49Bg     0.144141    63Ag     0.146406    63Bu     0.151641  
      51Au     0.152355    50Bg     0.152813    64Bu     0.155222  
      64Ag     0.155301    51Bg     0.155376    65Ag     0.159914  
      52Bg     0.160016    52Au     0.162421    53Bg     0.162502  
      66Ag     0.163891    65Bu     0.165342    54Bg     0.168102  
      67Ag     0.169197    53Au     0.169475    66Bu     0.175865  
      68Ag     0.176014    55Bg     0.177276    54Au     0.178681  
      67Bu     0.181132    55Au     0.181301    68Bu     0.184340  
      56Au     0.184758    56Bg     0.187250    69Bu     0.187571  
      69Ag     0.190299    57Au     0.192056    70Bu     0.193366  
      71Bu     0.194090    57Bg     0.195499    58Au     0.195603  
      72Bu     0.197854    70Ag     0.202229    73Bu     0.202647  
      59Au     0.203390    60Au     0.208582    58Bg     0.209168  
      71Ag     0.212468    61Au     0.213074    74Bu     0.214667  
      72Ag     0.215848    59Bg     0.216588    62Au     0.216670  
      75Bu     0.216964    73Ag     0.219619    60Bg     0.220638  
      61Bg     0.223285    74Ag     0.223661    62Bg     0.224903  
      76Bu     0.225706    75Ag     0.226324    76Ag     0.228604  
      77Bu     0.228800    77Ag     0.233873    63Bg     0.234841  
      63Au     0.237984    64Bg     0.240788    78Ag     0.240972  
      78Bu     0.244242    79Ag     0.244551    64Au     0.247959  
      80Ag     0.248011    65Bg     0.248189    79Bu     0.249137  
      65Au     0.251371    66Bg     0.251614    66Au     0.254930  
      81Ag     0.255498    80Bu     0.255756    67Au     0.258150  
      82Ag     0.259868    83Ag     0.261809    81Bu     0.262234  
      67Bg     0.262326    82Bu     0.263892    68Bg     0.264247  
      84Ag     0.267040    68Au     0.267054    85Ag     0.269906  
      69Bg     0.270169    69Au     0.270227    83Bu     0.271133  
      70Bg     0.273593    84Bu     0.274084    85Bu     0.277252  
      86Ag     0.277911    70Au     0.278156    71Bg     0.278585  
      86Bu     0.279146    87Ag     0.279198    71Au     0.282003  
      72Bg     0.284397    72Au     0.284600    87Bu     0.286299  
      88Ag     0.286412    73Au     0.288381    89Ag     0.289277  
      73Bg     0.290287    88Bu     0.291408    74Au     0.291913  
      89Bu     0.292208    74Bg     0.292228    90Ag     0.293321  
      90Bu     0.294060    91Ag     0.297564    75Au     0.299503  
      75Bg     0.304553    91Bu     0.305788    92Ag     0.306180  
      76Bg     0.308931    76Au     0.311204    93Ag     0.313755  
      77Bg     0.313893    94Ag     0.314418    92Bu     0.316772  
      77Au     0.317289    78Bg     0.318660    93Bu     0.319299  
      95Ag     0.319309    96Ag     0.321807    94Bu     0.322415  
      78Au     0.324421    79Bg     0.326923    97Ag     0.327113  
      79Au     0.327945    95Bu     0.331356    80Bg     0.333775  
      96Bu     0.333910    80Au     0.333923    98Ag     0.334699  
      97Bu     0.337388    81Au     0.339799    98Bu     0.340365  
      81Bg     0.343255    82Bg     0.344606    99Bu     0.347950  
      99Ag     0.351456    82Au     0.353446   100Bu     0.356117  
      83Au     0.359106   101Bu     0.359605    83Bg     0.359904  
     100Ag     0.360912    84Au     0.362287   101Ag     0.363389  
      85Au     0.364662   102Bu     0.368691    86Au     0.373595  
      84Bg     0.375887    87Au     0.378352   103Bu     0.378664  
     104Bu     0.379960   102Ag     0.380246    85Bg     0.384588  
     103Ag     0.384879    88Au     0.385292   105Bu     0.386237  
      86Bg     0.388453   106Bu     0.391651    87Bg     0.392005  
      89Au     0.392476   104Ag     0.395367    88Bg     0.395861  
     107Bu     0.397571   105Ag     0.398632   106Ag     0.400100  
      89Bg     0.401037   107Ag     0.402394    90Bg     0.405574  
     108Bu     0.412022   108Ag     0.412497   109Ag     0.413732  
      90Au     0.415898   109Bu     0.416158   110Ag     0.418393  
     110Bu     0.418692    91Bg     0.419603    91Au     0.425635  
      92Bg     0.426202   111Ag     0.426592    92Au     0.427728  
     112Ag     0.429844    93Bg     0.432419    93Au     0.432598  
     111Bu     0.433801    94Au     0.434528   113Ag     0.436735  
     112Bu     0.437250   114Ag     0.439379    94Bg     0.441508  
     113Bu     0.441516   115Ag     0.442352    95Bg     0.443395  
     114Bu     0.444442    95Au     0.447913    96Au     0.448751  
     115Bu     0.448826   116Ag     0.450051    96Bg     0.450666  
      97Au     0.453269   117Ag     0.453383   116Bu     0.456051  
     118Ag     0.456182    97Bg     0.458897    98Au     0.458970  
     117Bu     0.459284    98Bg     0.461636   119Ag     0.462612  
      99Bg     0.462993    99Au     0.463324   118Bu     0.463603  
     100Bg     0.465672   119Bu     0.465737   101Bg     0.469892  
     120Ag     0.470833   100Au     0.471433   121Ag     0.472036  
     120Bu     0.472435   121Bu     0.474532   101Au     0.475819  
     122Ag     0.478234   122Bu     0.481732   102Bg     0.482816  
     102Au     0.484075   123Ag     0.484986   123Bu     0.485881  
     103Bg     0.487271   124Ag     0.488796   103Au     0.491221  
     104Bg     0.493595   124Bu     0.496638   125Ag     0.498861  
     105Bg     0.500324   126Ag     0.501037   125Bu     0.504000  
     106Bg     0.504131   104Au     0.505205   127Ag     0.506602  
     105Au     0.509869   126Bu     0.510333   127Bu     0.514242  
     107Bg     0.514273   106Au     0.514362   128Ag     0.515034  
     108Bg     0.516197   129Ag     0.516739   107Au     0.519380  
     128Bu     0.521209   129Bu     0.523568   130Ag     0.523927  
     109Bg     0.525449   131Ag     0.526286   108Au     0.527454  
     130Bu     0.528437   132Ag     0.528581   133Ag     0.529069  
     110Bg     0.530115   109Au     0.530884   131Bu     0.531085  
     110Au     0.536033   134Ag     0.536365   132Bu     0.538077  
     111Bg     0.539192   133Bu     0.539586   135Ag     0.540765  
     112Bg     0.541462   136Ag     0.542397   111Au     0.545539  
     134Bu     0.545733   112Au     0.548625   137Ag     0.548658  
     135Bu     0.550853   113Bg     0.551158   113Au     0.551283  
     114Au     0.553406   136Bu     0.555206   138Ag     0.555864  
     139Ag     0.556040   137Bu     0.557545   138Bu     0.559681  
     115Au     0.561321   114Bg     0.562277   115Bg     0.564588  
     116Au     0.565202   140Ag     0.568234   116Bg     0.568423  
     139Bu     0.569270   141Ag     0.569429   140Bu     0.570692  
     117Bg     0.572721   117Au     0.573083   142Ag     0.573493  
     141Bu     0.573601   118Bg     0.574069   118Au     0.575841  
     119Bg     0.577090   142Bu     0.578120   143Ag     0.578177  
     144Ag     0.581335   143Bu     0.581883   119Au     0.583891  
     120Bg     0.585789   120Au     0.585863   145Ag     0.587460  
     144Bu     0.588788   145Bu     0.590783   121Au     0.591487  
     146Ag     0.592497   121Bg     0.594414   122Au     0.594527  
     146Bu     0.597066   123Au     0.600173   122Bg     0.600207  
     147Ag     0.600286   147Bu     0.602067   148Bu     0.603349  
     123Bg     0.603534   124Au     0.607025   148Ag     0.608069  
     124Bg     0.609818   149Bu     0.610541   149Ag     0.612844  
     150Bu     0.613535   125Au     0.613547   125Bg     0.614145  
     150Ag     0.617462   151Bu     0.621182   126Au     0.622333  
     151Ag     0.622465   126Bg     0.623622   127Au     0.624090  
     152Ag     0.626897   128Au     0.627041   152Bu     0.627780  
     127Bg     0.629948   129Au     0.630618   153Bu     0.631544  
     153Ag     0.631698   130Au     0.632231   128Bg     0.635393  
     154Bu     0.636038   131Au     0.637543   129Bg     0.639638  
     154Ag     0.643360   155Ag     0.644195   130Bg     0.644880  
     155Bu     0.645570   131Bg     0.653782   132Bg     0.654629  
     156Ag     0.659258   132Au     0.660237   156Bu     0.661687  
     133Au     0.664934   157Ag     0.668035   133Bg     0.668102  
     157Bu     0.671315   134Bg     0.673827   158Bu     0.675571  
     158Ag     0.677423   135Bg     0.679137   134Au     0.679306  
     159Ag     0.679646   135Au     0.682235   159Bu     0.686099  
     136Au     0.689464   160Ag     0.692681   160Bu     0.694424  
     161Ag     0.696554   161Bu     0.700726   136Bg     0.701579  
     162Ag     0.705195   137Au     0.705770   137Bg     0.708175  
     162Bu     0.714838   138Au     0.716002   163Ag     0.718455  
     163Bu     0.721689   164Bu     0.724854   139Au     0.727372  
     138Bg     0.728355   164Ag     0.729303   140Au     0.730514  
     139Bg     0.731506   165Bu     0.732099   165Ag     0.733502  
     166Ag     0.734587   166Bu     0.734900   140Bg     0.739342  
     167Ag     0.739693   141Bg     0.743776   141Au     0.744019  
     167Bu     0.746817   142Au     0.748356   168Ag     0.752402  
     142Bg     0.753026   143Bg     0.755554   168Bu     0.756284  
     169Ag     0.756884   143Au     0.758864   169Bu     0.761105  
     144Au     0.761876   170Ag     0.765822   144Bg     0.765840  
     145Au     0.768095   170Bu     0.768605   145Bg     0.770123  
     171Bu     0.775384   171Ag     0.775930   146Au     0.778778  
     146Bg     0.779119   172Bu     0.781444   172Ag     0.782508  
     147Bg     0.783100   147Au     0.785703   173Bu     0.789481  
     173Ag     0.789748   174Bu     0.791233   148Au     0.792046  
     174Ag     0.792540   148Bg     0.793510   175Ag     0.797619  
     149Bg     0.799405   149Au     0.799628   176Ag     0.800141  
     150Bg     0.800927   175Bu     0.801863   150Au     0.804425  
     177Ag     0.805791   176Bu     0.806770   151Bg     0.806896  
     151Au     0.808090   177Bu     0.813253   152Au     0.814402  
     178Ag     0.816874   152Bg     0.817852   178Bu     0.820240  
     179Ag     0.822044   179Bu     0.825506   153Au     0.826028  
     180Bu     0.828552   153Bg     0.829510   180Ag     0.830753  
     181Ag     0.831329   154Au     0.831837   155Au     0.837776  
     154Bg     0.838096   182Ag     0.841338   155Bg     0.841660  
     181Bu     0.845988   156Bg     0.848211   183Ag     0.848659  
     182Bu     0.849738   157Bg     0.850923   156Au     0.851236  
     183Bu     0.851639   184Ag     0.853060   158Bg     0.853722  
     159Bg     0.857360   185Ag     0.859895   157Au     0.860016  
     184Bu     0.860747   186Ag     0.862396   158Au     0.863050  
     185Bu     0.863548   186Bu     0.865487   160Bg     0.866068  
     159Au     0.869772   187Ag     0.870474   187Bu     0.874969  
     160Au     0.875623   188Ag     0.875953   161Bg     0.877336  
     188Bu     0.880370   161Au     0.880742   189Ag     0.883533  
     162Bg     0.890153   189Bu     0.891664   190Ag     0.891664  
     162Au     0.892406   163Bg     0.896183   191Ag     0.896342  
     163Au     0.898024   190Bu     0.900941   192Ag     0.901769  
     164Au     0.903513   191Bu     0.904872   164Bg     0.906946  
     165Au     0.909311   193Ag     0.910864   165Bg     0.911875  
     166Au     0.914320   166Bg     0.916782   194Ag     0.916878  
     192Bu     0.918990   167Au     0.919349   193Bu     0.921561  
     167Bg     0.923052   195Ag     0.923147   194Bu     0.925762  
     195Bu     0.927608   196Ag     0.930311   168Au     0.930681  
     168Bg     0.934326   197Ag     0.938772   169Au     0.939074  
     196Bu     0.942017   169Bg     0.942293   170Bg     0.943596  
     198Ag     0.943680   170Au     0.944805   197Bu     0.947173  
     198Bu     0.947897   171Au     0.949888   199Ag     0.952520  
     171Bg     0.953417   172Au     0.954885   200Ag     0.955864  
     199Bu     0.956009   172Bg     0.956730   173Au     0.957475  
     200Bu     0.958216   201Ag     0.961710   202Ag     0.964279  
     201Bu     0.964517   173Bg     0.965008   174Au     0.965958  
     202Bu     0.970300   174Bg     0.971591   175Au     0.972156  
     176Au     0.974741   175Bg     0.975895   203Ag     0.975997  
     204Ag     0.978040   203Bu     0.980065   176Bg     0.981541  
     205Ag     0.982414   177Bg     0.983608   177Au     0.984281  
     178Au     0.985958   204Bu     0.987376   178Bg     0.989773  
     205Bu     0.991169   206Ag     0.993133   179Au     0.993716  
     206Bu     0.996347   207Ag     0.998388   180Au     1.000094  
     207Bu     1.000660   208Ag     1.000888   179Bg     1.003178  
     180Bg     1.004758   181Bg     1.005437   208Bu     1.005489  
     209Ag     1.008591   209Bu     1.009648   210Ag     1.010701  
     210Bu     1.013618   211Ag     1.015419   181Au     1.016047  
     211Bu     1.016613   182Au     1.018297   212Ag     1.022048  
     182Bg     1.023105   213Ag     1.024601   212Bu     1.024828  
     183Au     1.026729   183Bg     1.028236   213Bu     1.032823  
     184Bg     1.033579   184Au     1.034619   214Ag     1.036171  
     214Bu     1.036735   185Au     1.040166   215Bu     1.041365  
     185Bg     1.044535   186Bg     1.046460   215Ag     1.046744  
     216Bu     1.049131   216Ag     1.050706   186Au     1.051245  
     217Ag     1.051371   187Bg     1.052173   188Bg     1.057122  
     187Au     1.058897   217Bu     1.059351   218Ag     1.060904  
     219Ag     1.063795   188Au     1.065562   189Bg     1.067980  
     218Bu     1.068135   189Au     1.069148   190Bg     1.075840  
     220Ag     1.076311   219Bu     1.078371   191Bg     1.078878  
     190Au     1.080104   221Ag     1.082641   191Au     1.084060  
     222Ag     1.086940   192Au     1.087656   192Bg     1.087784  
     220Bu     1.088997   221Bu     1.089160   222Bu     1.092089  
     193Au     1.094352   223Ag     1.097866   223Bu     1.098534  
     193Bg     1.100454   224Bu     1.102185   224Ag     1.102293  
     194Au     1.103363   225Ag     1.108342   194Bg     1.108575  
     226Ag     1.112956   195Bg     1.117357   196Bg     1.117816  
     195Au     1.118140   225Bu     1.119224   227Ag     1.122645  
     196Au     1.122659   197Bg     1.125455   228Ag     1.125556  
     226Bu     1.127165   197Au     1.127226   227Bu     1.130643  
     198Bg     1.132287   228Bu     1.133249   229Ag     1.134936  
     198Au     1.136169   199Bg     1.136741   199Au     1.138783  
     230Ag     1.140537   200Au     1.143286   229Bu     1.144182  
     231Ag     1.144605   230Bu     1.147951   200Bg     1.150482  
     201Au     1.151096   232Ag     1.152334   201Bg     1.154244  
     231Bu     1.155078   202Au     1.158285   203Au     1.160451  
     233Ag     1.162118   232Bu     1.163820   233Bu     1.164541  
     234Ag     1.166813   202Bg     1.167378   204Au     1.168374  
     234Bu     1.168879   235Ag     1.170116   203Bg     1.171530  
     204Bg     1.172804   236Ag     1.174754   235Bu     1.176958  
     205Bg     1.181745   205Au     1.183097   206Bg     1.183804  
     237Ag     1.185190   206Au     1.185824   236Bu     1.188085  
     237Bu     1.188545   207Bg     1.191548   238Ag     1.193436  
     207Au     1.193552   208Au     1.194911   238Bu     1.199543  
     208Bg     1.199612   209Au     1.203895   209Bg     1.204262  
     239Ag     1.205091   239Bu     1.206964   240Ag     1.208123  
     210Bg     1.208219   240Bu     1.211335   210Au     1.211426  
     241Bu     1.214700   211Au     1.218180   241Ag     1.219922  
     211Bg     1.222974   212Bg     1.225211   242Ag     1.225516  
     212Au     1.229972   243Ag     1.230965   242Bu     1.231207  
     243Bu     1.233843   213Au     1.235259   213Bg     1.235625  
     244Ag     1.237290   244Bu     1.237765   245Ag     1.240074  
     214Au     1.242263   214Bg     1.246300   246Ag     1.247426  
     215Bg     1.247907   215Au     1.249275   245Bu     1.251229  
     246Bu     1.253867   247Ag     1.255426   247Bu     1.258409  
     216Au     1.259634   248Bu     1.260490   216Bg     1.261745  
     249Bu     1.263110   248Ag     1.263721   217Au     1.265395  
     217Bg     1.268036   249Ag     1.269712   218Bg     1.273159  
     250Ag     1.276490   251Ag     1.277762   250Bu     1.280711  
     218Au     1.283473   251Bu     1.284057   219Bg     1.284210  
     220Bg     1.287159   252Bu     1.287254   219Au     1.291572  
     252Ag     1.291731   220Au     1.293932   253Ag     1.294503  
     253Bu     1.295657   221Au     1.295886   254Bu     1.299064  
     255Bu     1.303099   254Ag     1.304083   221Bg     1.306472  
     222Au     1.307435   255Ag     1.310869   256Bu     1.311850  
     222Bg     1.312363   223Au     1.313332   257Bu     1.316837  
     223Bg     1.318207   256Ag     1.321574   258Bu     1.326260  
     224Bg     1.327255   257Ag     1.327848   224Au     1.329061  
     258Ag     1.329894   225Au     1.335717   225Bg     1.337177  
     259Ag     1.337370   226Au     1.338567   226Bg     1.340957  
     259Bu     1.341152   260Ag     1.341957   260Bu     1.343000  
     227Bg     1.345823   261Ag     1.347765   261Bu     1.352122  
     227Au     1.353983   228Bg     1.354505   262Bu     1.354897  
     262Ag     1.355108   228Au     1.358366   263Bu     1.359001  
     263Ag     1.363195   229Bg     1.364248   230Bg     1.365513  
     229Au     1.365886   264Ag     1.368103   264Bu     1.370876  
     230Au     1.371139   265Ag     1.375793   265Bu     1.377275  
     231Bg     1.377304   231Au     1.380262   232Au     1.382202  
     266Bu     1.385633   266Ag     1.386475   267Bu     1.388317  
     267Ag     1.388393   232Bg     1.388436   233Bg     1.394823  
     268Bu     1.395411   234Bg     1.398769   235Bg     1.400493  
     233Au     1.400922   268Ag     1.401150   269Bu     1.408096  
     269Ag     1.409791   234Au     1.410131   270Bu     1.414183  
     270Ag     1.419230   236Bg     1.420800   271Ag     1.423473  
     271Bu     1.423868   235Au     1.424394   237Bg     1.427301  
     272Bu     1.428690   236Au     1.429375   238Bg     1.432716  
     237Au     1.434637   273Bu     1.434838   272Ag     1.436028  
     238Au     1.437285   273Ag     1.437868   274Bu     1.438359  
     274Ag     1.440413   239Bg     1.441517   239Au     1.444883  
     275Bu     1.448359   240Bg     1.450019   276Bu     1.451592  
     241Bg     1.455539   275Ag     1.460633   240Au     1.461349  
     242Bg     1.462604   277Bu     1.462953   276Ag     1.464534  
     277Ag     1.466313   241Au     1.466932   278Ag     1.471752  
     243Bg     1.474051   244Bg     1.476146   242Au     1.478875  
     278Bu     1.479860   243Au     1.482129   279Bu     1.483917  
     245Bg     1.487371   244Au     1.488335   279Ag     1.491711  
     246Bg     1.493816   245Au     1.494730   280Ag     1.495081  
     280Bu     1.497786   246Au     1.499765   281Ag     1.503697  
     247Bg     1.505626   281Bu     1.507106   247Au     1.507634  
     282Ag     1.507652   248Bg     1.508201   248Au     1.512274  
     282Bu     1.513995   283Ag     1.515010   249Bg     1.519572  
     283Bu     1.520252   284Bu     1.524007   284Ag     1.526158  
     249Au     1.526893   250Bg     1.527807   285Bu     1.534227  
     285Ag     1.535236   251Bg     1.537344   286Ag     1.539047  
     286Bu     1.539362   250Au     1.539629   251Au     1.543789  
     252Au     1.545137   287Bu     1.546058   287Ag     1.548039  
     252Bg     1.548619   253Bg     1.554025   288Bu     1.555237  
     253Au     1.556045   288Ag     1.557166   289Ag     1.557587  
     254Bg     1.560685   289Bu     1.561863   254Au     1.562511  
     290Ag     1.564521   255Au     1.567662   255Bg     1.568596  
     256Bg     1.571895   291Ag     1.575064   257Bg     1.575566  
     290Bu     1.576620   256Au     1.581308   291Bu     1.581321  
     292Ag     1.584676   258Bg     1.587461   257Au     1.589070  
     292Bu     1.589922   293Ag     1.592615   258Au     1.593370  
     294Ag     1.598545   259Au     1.599528   293Bu     1.600134  
     259Bg     1.601136   294Bu     1.604403   260Bg     1.607524  
     295Bu     1.607563   260Au     1.608572   295Ag     1.609509  
     296Ag     1.611383   261Bg     1.614748   296Bu     1.617753  
     261Au     1.619671   262Bg     1.622135   262Au     1.624308  
     297Bu     1.625755   297Ag     1.626412   263Bg     1.628234  
     298Bu     1.632362   263Au     1.634211   299Bu     1.637594  
     298Ag     1.638558   264Au     1.639193   264Bg     1.640764  
     300Bu     1.644364   265Au     1.644687   299Ag     1.644698  
     300Ag     1.646266   265Bg     1.647501   266Bg     1.651670  
     301Ag     1.655053   302Ag     1.656942   266Au     1.657416  
     267Bg     1.661377   301Bu     1.662171   303Ag     1.665077  
     268Bg     1.666121   302Bu     1.667682   267Au     1.669155  
     303Bu     1.670002   268Au     1.672163   304Ag     1.672232  
     269Bg     1.673726   269Au     1.675537   304Bu     1.675937  
     305Ag     1.677721   270Au     1.682270   305Bu     1.685483  
     306Ag     1.687015   271Au     1.690892   307Ag     1.692263  
     270Bg     1.694174   271Bg     1.694832   272Bg     1.696861  
     306Bu     1.699769   307Bu     1.700635   308Ag     1.701202  
     309Ag     1.703674   272Au     1.703797   310Ag     1.706107  
     308Bu     1.709243   273Au     1.709646   274Au     1.712597  
     273Bg     1.713388   309Bu     1.714578   274Bg     1.716138  
     275Au     1.716312   310Bu     1.717638   275Bg     1.721132  
     311Ag     1.721720   276Au     1.721766   312Ag     1.725316  
     313Ag     1.729418   311Bu     1.730249   312Bu     1.734150  
     276Bg     1.736261   277Au     1.740051   277Bg     1.741790  
     314Ag     1.743059   313Bu     1.743998   315Ag     1.748281  
     278Au     1.749573   314Bu     1.750548   278Bg     1.752388  
     315Bu     1.754251   279Bg     1.755526   316Ag     1.756510  
     279Au     1.756779   317Ag     1.760057   280Au     1.760711  
     280Bg     1.761830   316Bu     1.764398   281Au     1.765803  
     281Bg     1.767116   317Bu     1.771209   318Bu     1.773417  
     282Au     1.774913   318Ag     1.775394   282Bg     1.777090  
     319Ag     1.779126   283Au     1.779165   283Bg     1.780059  
     284Bg     1.785339   320Ag     1.785344   319Bu     1.788428  
     284Au     1.789733   285Bg     1.792676   285Au     1.792951  
     320Bu     1.795507   286Au     1.796185   321Ag     1.798656  
     321Bu     1.801614   322Ag     1.803762   286Bg     1.808500  
     322Bu     1.812760   287Au     1.812767   287Bg     1.816539  
     323Ag     1.819636   288Bg     1.822178   323Bu     1.823202  
     324Ag     1.824770   288Au     1.825515   325Ag     1.828364  
     289Bg     1.828435   324Bu     1.829923   325Bu     1.833397  
     289Au     1.834365   326Bu     1.839214   326Ag     1.840964  
     290Bg     1.842044   290Au     1.845342   291Bg     1.846179  
     291Au     1.850181   327Ag     1.850859   328Ag     1.851460  
     327Bu     1.853140   292Au     1.854478   292Bg     1.855747  
     328Bu     1.857272   293Bg     1.861470   329Bu     1.861864  
     329Ag     1.865932   293Au     1.866834   330Ag     1.870100  
     294Au     1.872328   330Bu     1.872434   294Bg     1.874963  
     331Ag     1.876024   331Bu     1.877391   332Ag     1.880590  
     295Bg     1.883965   333Ag     1.884630   295Au     1.886599  
     296Bg     1.892695   334Ag     1.893349   332Bu     1.894519  
     333Bu     1.896863   296Au     1.898703   334Bu     1.903292  
     297Bg     1.903716   297Au     1.905397   335Ag     1.908360  
     335Bu     1.908703   298Au     1.910203   298Bg     1.910413  
     299Bg     1.912432   336Bu     1.916022   336Ag     1.916045  
     299Au     1.916051   300Au     1.917662   337Ag     1.918950  
     300Bg     1.919903   337Bu     1.922160   301Au     1.926115  
     338Bu     1.931769   301Bg     1.933649   339Bu     1.938900  
     338Ag     1.938983   302Bg     1.939757   339Ag     1.942222  
     340Bu     1.945885   303Bg     1.946372   340Ag     1.949705  
     302Au     1.950331   341Ag     1.951352   304Bg     1.952823  
     303Au     1.953800   341Bu     1.954598   342Ag     1.956251  
     342Bu     1.957306   304Au     1.960871   305Bg     1.962738  
     343Ag     1.969723   305Au     1.971207   343Bu     1.975878  
     306Bg     1.975889   344Ag     1.977276   306Au     1.982029  
     345Ag     1.985143   307Bg     1.985189   344Bu     1.985517  
     345Bu     1.986596   307Au     1.989006   346Bu     1.991790  
     308Au     1.994662   308Bg     1.995520   346Ag     1.996214  
     347Ag     2.000830   309Au     2.009032   347Bu     2.009634  
     309Bg     2.010859   348Ag     2.011896   310Bg     2.016866  
     348Bu     2.017094   311Bg     2.023360   310Au     2.023492  
     349Bu     2.025544   349Ag     2.030030   312Bg     2.031537  
     350Ag     2.034918   311Au     2.037787   350Bu     2.038220  
     313Bg     2.039538   351Bu     2.043684   351Ag     2.044622  
     312Au     2.046853   352Ag     2.054570   314Bg     2.055116  
     352Bu     2.057052   353Ag     2.063156   313Au     2.063813  
     353Bu     2.065013   315Bg     2.067207   314Au     2.075462  
     354Ag     2.076729   316Bg     2.077921   315Au     2.079861  
     354Bu     2.080026   316Au     2.083325   355Ag     2.089901  
     355Bu     2.091341   317Au     2.096261   356Ag     2.097963  
     356Bu     2.099318   317Bg     2.101038   318Au     2.102230  
     357Ag     2.103317   318Bg     2.106474   357Bu     2.106559  
     319Bg     2.113527   319Au     2.115829   320Bg     2.119599  
     320Au     2.121837   358Bu     2.126172   358Ag     2.133069  
     321Au     2.139074   321Bg     2.144107   322Au     2.147516  
     323Au     2.148349   359Ag     2.149201   360Ag     2.154621  
     324Au     2.156668   322Bg     2.157044   359Bu     2.159536  
     360Bu     2.163686   361Ag     2.164269   323Bg     2.166451  
     361Bu     2.168613   362Ag     2.172175   362Bu     2.174424  
     324Bg     2.175024   325Au     2.178746   325Bg     2.180790  
     363Ag     2.181284   326Au     2.184882   326Bg     2.185895  
     363Bu     2.191954   364Bu     2.196158   364Ag     2.197267  
     327Au     2.199538   327Bg     2.202573   365Ag     2.203138  
     365Bu     2.204341   366Bu     2.206082   328Bg     2.207007  
     366Ag     2.209426   328Au     2.212202   367Ag     2.215782  
     368Ag     2.221697   367Bu     2.223023   329Au     2.227135  
     329Bg     2.229465   369Ag     2.230252   330Au     2.231613  
     368Bu     2.233768   331Au     2.235205   330Bg     2.238332  
     369Bu     2.238867   331Bg     2.240555   370Ag     2.244965  
     332Au     2.246889   370Bu     2.247246   332Bg     2.249412  
     371Ag     2.251572   333Au     2.251827   372Ag     2.257890  
     333Bg     2.259489   373Ag     2.261839   371Bu     2.264506  
     372Bu     2.269416   374Ag     2.270503   334Bg     2.273505  
     334Au     2.275143   373Bu     2.276225   375Ag     2.276881  
     374Bu     2.277491   375Bu     2.280430   335Au     2.280557  
     335Bg     2.283374   336Bg     2.285568   376Ag     2.285840  
     336Au     2.288292   377Ag     2.289639   337Au     2.290230  
     337Bg     2.295151   376Bu     2.296600   378Ag     2.299405  
     338Au     2.300617   338Bg     2.302381   377Bu     2.304754  
     339Au     2.311839   378Bu     2.314726   340Au     2.316079  
     339Bg     2.316177   379Ag     2.317552   341Au     2.317597  
     379Bu     2.321639   340Bg     2.325976   342Au     2.332942  
     341Bg     2.332991   380Bu     2.333097   380Ag     2.334594  
     342Bg     2.340495   381Ag     2.340764   381Bu     2.343242  
     343Au     2.343786   343Bg     2.344420   382Ag     2.348169  
     344Bg     2.352347   344Au     2.353580   383Ag     2.357717  
     384Ag     2.358949   382Bu     2.362187   345Bg     2.364975  
     345Au     2.367869   346Au     2.373078   346Bg     2.375180  
     347Au     2.375853   385Ag     2.377694   383Bu     2.377923  
     384Bu     2.379639   347Bg     2.384140   385Bu     2.390558  
     386Ag     2.392017   386Bu     2.394579   348Bg     2.395190  
     348Au     2.403586   349Bg     2.406605   387Ag     2.406706  
     388Ag     2.407109   389Ag     2.411365   349Au     2.411782  
     350Bg     2.414707   387Bu     2.415402   350Au     2.416964  
     390Ag     2.423484   388Bu     2.425574   351Bg     2.427071  
     389Bu     2.431369   391Ag     2.434940   390Bu     2.435014  
     352Bg     2.441726   351Au     2.442336   392Ag     2.450117  
     393Ag     2.454821   353Bg     2.458770   352Au     2.460448  
     391Bu     2.464882   392Bu     2.466725   353Au     2.467296  
     394Ag     2.470895   354Au     2.473017   355Au     2.475267  
     354Bg     2.477235   393Bu     2.478051   395Ag     2.483046  
     355Bg     2.486021   394Bu     2.486429   356Au     2.487288  
     396Ag     2.493439   395Bu     2.495479   357Au     2.496761  
     356Bg     2.497350   397Ag     2.502061   357Bg     2.503021  
     358Au     2.508804   396Bu     2.510198   398Ag     2.517954  
     399Ag     2.520118   359Au     2.520461   358Bg     2.521088  
     397Bu     2.522123   359Bg     2.528660   400Ag     2.528918  
     360Au     2.529197   398Bu     2.530540   360Bg     2.538219  
     361Au     2.547472   361Bg     2.550098   399Bu     2.550756  
     400Bu     2.553320   362Bg     2.554240   401Ag     2.554560  
     402Ag     2.555095   362Au     2.557008   363Bg     2.560332  
     401Bu     2.561251   402Bu     2.565820   403Ag     2.566748  
     363Au     2.569427   364Bg     2.571615   364Au     2.574830  
     404Ag     2.575822   403Bu     2.577273   365Au     2.580499  
     404Bu     2.582740   405Ag     2.593583   365Bg     2.595732  
     366Au     2.595877   406Ag     2.603987   405Bu     2.605545  
     407Ag     2.606542   406Bu     2.608204   366Bg     2.615341  
     408Ag     2.616375   367Bg     2.616994   367Au     2.622310  
     368Bg     2.623808   407Bu     2.625052   409Ag     2.632287  
     369Bg     2.633050   368Au     2.635859   408Bu     2.640893  
     369Au     2.649047   410Ag     2.655656   370Bg     2.658696  
     370Au     2.660752   411Ag     2.662748   409Bu     2.662958  
     410Bu     2.667948   371Au     2.668016   371Bg     2.668968  
     412Ag     2.676574   411Bu     2.677966   372Au     2.678035  
     372Bg     2.679126   413Ag     2.686616   412Bu     2.688570  
     414Ag     2.693980   373Bg     2.695371   413Bu     2.696662  
     373Au     2.701776   415Ag     2.703282   374Bg     2.703672  
     375Bg     2.709832   414Bu     2.710426   374Au     2.714433  
     416Ag     2.718940   376Bg     2.722328   415Bu     2.727230  
     375Au     2.731726   417Ag     2.732921   376Au     2.736579  
     377Bg     2.736901   416Bu     2.742250   418Ag     2.748999  
     417Bu     2.750675   418Bu     2.762268   378Bg     2.763842  
     419Ag     2.764233   377Au     2.765167   419Bu     2.765520  
     378Au     2.774335   420Ag     2.779450   379Au     2.780082  
     379Bg     2.780195   421Ag     2.783024   420Bu     2.786897  
     380Bg     2.789618   422Ag     2.796508   380Au     2.800253  
     421Bu     2.802129   381Bg     2.802484   422Bu     2.806990  
     381Au     2.811077   423Bu     2.812438   382Bg     2.813536  
     423Ag     2.818131   424Ag     2.827104   382Au     2.827339  
     383Bg     2.827884   424Bu     2.831975   425Ag     2.839664  
     383Au     2.845160   425Bu     2.846093   426Ag     2.847705  
     426Bu     2.850876   384Au     2.852212   384Bg     2.855917  
     385Au     2.861918   427Bu     2.866089   385Bg     2.866691  
     427Ag     2.869145   386Bg     2.870525   428Bu     2.871635  
     428Ag     2.876331   387Bg     2.886444   386Au     2.888628  
     387Au     2.891633   388Bg     2.897170   429Bu     2.902205  
     429Ag     2.907477   389Bg     2.910345   430Ag     2.912458  
     388Au     2.912702   430Bu     2.912895   389Au     2.920964  
     390Bg     2.922364   390Au     2.924636   431Ag     2.925176  
     431Bu     2.926877   391Au     2.933524   391Bg     2.934323  
     432Ag     2.940057   392Au     2.946644   392Bg     2.946695  
     433Ag     2.947039   393Bg     2.947893   432Bu     2.948301  
     434Ag     2.954022   433Bu     2.956399   394Bg     2.960980  
     434Bu     2.964100   393Au     2.964256   435Ag     2.964947  
     394Au     2.969967   395Bg     2.971865   436Ag     2.974848  
     395Au     2.981584   396Bg     2.987048   435Bu     2.992008  
     396Au     2.997965   437Ag     2.999293   397Bg     3.004236  
     436Bu     3.005297   438Ag     3.005833   397Au     3.017010  
     439Ag     3.022469   398Bg     3.023264   437Bu     3.026425  
     438Bu     3.037656   399Bg     3.041923   398Au     3.043708  
     439Bu     3.055661   440Ag     3.058006   399Au     3.065066  
     440Bu     3.068486   441Ag     3.070116   400Bg     3.074152  
     400Au     3.089010   401Bg     3.089517   442Ag     3.104257  
     443Ag     3.125186   441Bu     3.126462   402Bg     3.134204  
     401Au     3.135660   442Bu     3.158136   402Au     3.159161  
     443Bu     3.166392   403Bg     3.169256   404Bg     3.197190  
     403Au     3.204077   444Ag     3.236698   444Bu     3.238031  
     405Bg     3.242505   404Au     3.246672   445Bu     3.248424  
     405Au     3.253880   406Bg     3.262344   445Ag     3.265932  
     406Au     3.277814   446Bu     3.279256   407Au     3.284866  
     407Bg     3.289031   446Ag     3.296912   447Bu     3.309500  
     408Au     3.313018   448Bu     3.319982   447Ag     3.320499  
     409Au     3.321324   408Bg     3.325480   448Ag     3.326145  
     410Au     3.336849   409Bg     3.338274   449Bu     3.343080  
     449Ag     3.344009   410Bg     3.345555   450Ag     3.350880  
     451Ag     3.356695   411Au     3.358286   450Bu     3.365928  
     411Bg     3.369395   451Bu     3.369956   452Ag     3.372833  
     412Au     3.375627   412Bg     3.381934   413Au     3.383791  
     452Bu     3.388343   453Ag     3.395542   453Bu     3.402858  
     454Ag     3.403861   414Au     3.403967   413Bg     3.405662  
     454Bu     3.410898   414Bg     3.415924   455Ag     3.416043  
     415Au     3.418299   456Ag     3.424076   457Ag     3.435787  
     455Bu     3.437368   415Bg     3.443946   416Au     3.451309  
     416Bg     3.452633   456Bu     3.457703   458Ag     3.458486  
     417Au     3.459594   457Bu     3.459767   417Bg     3.467437  
     459Ag     3.469293   418Au     3.471326   418Bg     3.472934  
     458Bu     3.475782   459Bu     3.480947   419Bg     3.489029  
     460Ag     3.489438   460Bu     3.492961   419Au     3.493197  
     461Bu     3.500916   420Au     3.501717   420Bg     3.510859  
     421Au     3.513048   461Ag     3.515556   421Bg     3.519593  
     462Bu     3.521238   462Ag     3.523233   422Au     3.527788  
     422Bg     3.528201   463Bu     3.540752   463Ag     3.542061  
     464Ag     3.544737   464Bu     3.552443   423Au     3.555409  
     465Ag     3.558862   466Ag     3.565399   423Bg     3.565973  
     465Bu     3.567486   467Ag     3.574495   468Ag     3.576297  
     466Bu     3.577147   424Au     3.578523   424Bg     3.578741  
     467Bu     3.583042   425Au     3.584551   425Bg     3.588049  
     426Bg     3.591921   469Ag     3.592588   468Bu     3.594065  
     426Au     3.596057   469Bu     3.600528   470Ag     3.603829  
     470Bu     3.606552   427Bg     3.607347   471Ag     3.613776  
     427Au     3.615843   471Bu     3.617246   428Au     3.622341  
     472Ag     3.624139   428Bg     3.624391   472Bu     3.624743  
     429Bg     3.630672   473Ag     3.630816   429Au     3.633035  
     473Bu     3.635275   430Bg     3.636730   430Au     3.639510  
     474Bu     3.644396   431Bg     3.645738   474Ag     3.648448  
     431Au     3.650131   432Au     3.653964   475Bu     3.654961  
     475Ag     3.660809   432Bg     3.661736   476Ag     3.662526  
     433Bg     3.664664   476Bu     3.666664   477Ag     3.671023  
     477Bu     3.673098   433Au     3.673126   478Bu     3.676622  
     478Ag     3.678168   434Bg     3.682200   479Bu     3.685550  
     435Bg     3.687922   479Ag     3.690935   434Au     3.691372  
     480Ag     3.698793   480Bu     3.698972   481Ag     3.701347  
     436Bg     3.703069   435Au     3.703470   481Bu     3.704978  
     482Ag     3.706313   436Au     3.707271   437Bg     3.709691  
     437Au     3.716060   483Ag     3.718430   438Au     3.719059  
     438Bg     3.723860   482Bu     3.724763   483Bu     3.727059  
     439Au     3.728439   484Ag     3.730013   439Bg     3.730234  
     484Bu     3.733653   485Bu     3.734167   485Ag     3.736340  
     486Ag     3.739589   440Bg     3.739903   487Ag     3.743718  
     440Au     3.750548   441Bg     3.751932   486Bu     3.753525  
     441Au     3.757998   487Bu     3.769169   442Bg     3.771885  
     488Ag     3.772794   442Au     3.773184   443Bg     3.773329  
     489Ag     3.778861   444Bg     3.780046   488Bu     3.782721  
     443Au     3.783690   489Bu     3.785968   490Ag     3.789635  
     444Au     3.791943   445Bg     3.795343   491Ag     3.795601  
     445Au     3.798362   446Bg     3.801684   490Bu     3.802115  
     492Ag     3.802928   446Au     3.805758   491Bu     3.808800  
     493Ag     3.811300   447Bg     3.819134   492Bu     3.820627  
     448Bg     3.824616   447Au     3.825447   448Au     3.827690  
     494Ag     3.828339   495Ag     3.832465   493Bu     3.832573  
     449Bg     3.839994   449Au     3.840011   450Bg     3.843464  
     496Ag     3.844593   494Bu     3.849691   451Bg     3.852407  
     450Au     3.853133   495Bu     3.853272   497Ag     3.859398  
     451Au     3.860321   496Bu     3.862827   497Bu     3.863570  
     452Bg     3.865771   452Au     3.867748   498Ag     3.868760  
     498Bu     3.870348   453Au     3.875441   453Bg     3.875486  
     499Ag     3.879630   499Bu     3.885446   454Au     3.886145  
     454Bg     3.888018   500Ag     3.894168   455Au     3.898309  
     500Bu     3.898350   501Ag     3.898947   455Bg     3.900120  
     456Au     3.903996   501Bu     3.906185   457Au     3.907731  
     502Ag     3.912628   502Bu     3.913774   458Au     3.916084  
     503Ag     3.918064   456Bg     3.918084   503Bu     3.918418  
     457Bg     3.924102   504Bu     3.925352   458Bg     3.927416  
     504Ag     3.935616   459Au     3.936068   460Au     3.937688  
     505Ag     3.940608   505Bu     3.944055   459Bg     3.944652  
     506Bu     3.947452   506Ag     3.947920   460Bg     3.949100  
     507Ag     3.957306   461Bg     3.958706   507Bu     3.959525  
     508Ag     3.960620   461Au     3.961930   462Bg     3.968335  
     509Ag     3.968784   462Au     3.970710   463Bg     3.971010  
     508Bu     3.978213   510Ag     3.983095   464Bg     3.985012  
     509Bu     3.985447   463Au     3.985916   464Au     3.987361  
     510Bu     3.988383   465Bg     3.989780   511Ag     3.990320  
     511Bu     3.992614   512Ag     3.993376   465Au     4.000090  
     512Bu     4.001270   466Bg     4.001498   513Ag     4.006108  
     466Au     4.012229   467Bg     4.013348   467Au     4.015160  
     514Ag     4.016095   513Bu     4.022419   514Bu     4.025205  
     468Bg     4.027333   515Ag     4.030476   469Bg     4.032884  
     516Ag     4.034487   515Bu     4.040953   468Au     4.041819  
     470Bg     4.044250   516Bu     4.045412   517Bu     4.052042  
     471Bg     4.056861   517Ag     4.060582   469Au     4.063121  
     518Bu     4.064700   470Au     4.066444   518Ag     4.066925  
     472Bg     4.071479   519Ag     4.073265   519Bu     4.079295  
     520Ag     4.080312   471Au     4.080420   520Bu     4.082460  
     472Au     4.083335   521Bu     4.087063   473Bg     4.090347  
     521Ag     4.091067   473Au     4.093683   474Au     4.095981  
     522Ag     4.097204   474Bg     4.098379   522Bu     4.100199  
     523Ag     4.103167   475Bg     4.108558   523Bu     4.114141  
     524Ag     4.114604   475Au     4.114604   476Au     4.117604  
     524Bu     4.117940   476Bg     4.119044   477Bg     4.123410  
     525Ag     4.124467   525Bu     4.127746   477Au     4.130472  
     478Bg     4.130754   526Ag     4.131427   479Bg     4.133979  
     526Bu     4.137179   527Ag     4.140941   528Ag     4.143134  
     527Bu     4.144314   478Au     4.145121   529Ag     4.151732  
     528Bu     4.153953   479Au     4.154306   529Bu     4.157980  
     530Bu     4.160736   480Bg     4.163178   480Au     4.163798  
     481Bg     4.165085   531Bu     4.165164   530Ag     4.165955  
     482Bg     4.171832   481Au     4.172869   531Ag     4.174984  
     483Bg     4.178651   532Bu     4.178762   482Au     4.179560  
     483Au     4.181976   532Ag     4.184703   533Bu     4.187411  
     484Bg     4.191767   485Bg     4.195886   484Au     4.196847  
     533Ag     4.197044   534Bu     4.197408   535Bu     4.199144  
     485Au     4.201767   486Bg     4.203295   534Ag     4.204113  
     536Bu     4.209887   486Au     4.211610   535Ag     4.213118  
     487Bg     4.213694   487Au     4.217661   537Bu     4.218267  
     536Ag     4.220308   488Au     4.227468   538Bu     4.228685  
     488Bg     4.229446   537Ag     4.235184   539Bu     4.237381  
     489Au     4.239425   538Ag     4.239651   489Bg     4.241081  
     539Ag     4.244773   490Bg     4.248405   491Bg     4.253396  
     540Bu     4.254014   540Ag     4.255608   490Au     4.259094  
     541Bu     4.260015   541Ag     4.260105   491Au     4.263666  
     492Bg     4.267551   492Au     4.269131   542Ag     4.270641  
     493Bg     4.274304   543Ag     4.280615   493Au     4.280811  
     542Bu     4.281674   494Au     4.286963   494Bg     4.287132  
     543Bu     4.288437   495Bg     4.291659   544Ag     4.291706  
     544Bu     4.293800   495Au     4.298297   496Bg     4.300499  
     496Au     4.301552   545Ag     4.302426   545Bu     4.302715  
     546Ag     4.303133   497Bg     4.309875   546Bu     4.313711  
     547Ag     4.318827   497Au     4.323471   498Bg     4.325583  
     547Bu     4.326122   499Bg     4.327822   498Au     4.332240  
     548Ag     4.334333   548Bu     4.336702   500Bg     4.337116  
     499Au     4.337430   549Ag     4.337996   500Au     4.346418  
     550Ag     4.349478   549Bu     4.350898   551Ag     4.356451  
     550Bu     4.357228   552Ag     4.357921   501Bg     4.361077  
     501Au     4.365541   551Bu     4.366425   502Bg     4.368631  
     502Au     4.378202   553Ag     4.382653   503Au     4.384155  
     552Bu     4.386924   554Ag     4.390168   503Bg     4.390203  
     504Au     4.391305   553Bu     4.394097   504Bg     4.394977  
     554Bu     4.398753   505Bg     4.399028   555Ag     4.403605  
     505Au     4.405441   555Bu     4.406158   506Au     4.410059  
     556Ag     4.414417   557Ag     4.417126   506Bg     4.417176  
     556Bu     4.418307   558Ag     4.419381   507Bg     4.427400  
     557Bu     4.428068   507Au     4.430367   559Ag     4.432091  
     508Au     4.434995   508Bg     4.436519   509Au     4.438923  
     558Bu     4.440264   509Bg     4.442121   559Bu     4.443099  
     560Ag     4.445040   510Au     4.447381   560Bu     4.450846  
     561Ag     4.452597   510Bg     4.454049   561Bu     4.456799  
     511Bg     4.458977   562Ag     4.460081   562Bu     4.463104  
     511Au     4.463842   512Bg     4.469508   563Ag     4.469653  
     564Ag     4.471543   512Au     4.473117   513Au     4.478756  
     513Bg     4.479295   563Bu     4.479878   514Au     4.480644  
     565Ag     4.482418   514Bg     4.487997   515Au     4.488248  
     564Bu     4.490810   515Bg     4.493600   566Ag     4.493874  
     565Bu     4.496709   516Au     4.501249   516Bg     4.502923  
     566Bu     4.504359   517Bg     4.505344   517Au     4.506324  
     567Ag     4.506362   567Bu     4.514175   568Ag     4.514785  
     518Bg     4.516119   568Bu     4.518699   518Au     4.520366  
     569Ag     4.522176   569Bu     4.526387   519Bg     4.527979  
     570Ag     4.530031   520Bg     4.536655   519Au     4.538278  
     570Bu     4.539537   520Au     4.542141   571Ag     4.545434  
     521Bg     4.546153   571Bu     4.546283   572Ag     4.549576  
     572Bu     4.551201   522Bg     4.551626   523Bg     4.552677  
     521Au     4.558913   522Au     4.562949   573Ag     4.563048  
     573Bu     4.563841   574Bu     4.565475   524Bg     4.571827  
     523Au     4.574871   574Ag     4.577841   575Bu     4.583804  
     576Bu     4.589149   525Bg     4.589637   575Ag     4.590050  
     526Bg     4.592032   524Au     4.592271   576Ag     4.599213  
     577Bu     4.605257   525Au     4.607598   577Ag     4.609896  
     527Bg     4.611273   578Bu     4.613070   578Ag     4.613457  
     528Bg     4.618723   526Au     4.619045   527Au     4.625024  
     579Bu     4.626427   580Bu     4.628979   529Bg     4.629816  
     579Ag     4.629950   528Au     4.631041   529Au     4.631661  
     530Bg     4.636984   530Au     4.640941   531Bg     4.641407  
     580Ag     4.641910   581Ag     4.646637   581Bu     4.646861  
     532Bg     4.647531   582Ag     4.653513   531Au     4.654205  
     533Bg     4.657746   582Bu     4.657779   583Ag     4.661926  
     583Bu     4.664559   584Ag     4.666128   532Au     4.666447  
     534Bg     4.671533   585Ag     4.671788   533Au     4.675301  
     584Bu     4.678224   534Au     4.679995   535Bg     4.687591  
     585Bu     4.687896   586Ag     4.689067   535Au     4.690554  
     536Bg     4.696656   586Bu     4.697241   587Ag     4.701568  
     537Bg     4.707583   536Au     4.708733   587Bu     4.710423  
     588Ag     4.712251   588Bu     4.712584   537Au     4.714042  
     538Bg     4.721954   589Ag     4.723190   590Ag     4.727611  
     539Bg     4.733457   589Bu     4.736500   538Au     4.739036  
     591Ag     4.741838   590Bu     4.744947   591Bu     4.746715  
     539Au     4.751590   540Bg     4.754874   540Au     4.755482  
     592Bu     4.756572   592Ag     4.757183   541Bg     4.757647  
     593Ag     4.764323   541Au     4.765738   593Bu     4.766591  
     542Bg     4.769415   594Bu     4.777718   594Ag     4.782195  
     543Bg     4.783044   542Au     4.783461   595Ag     4.789837  
     544Bg     4.793529   595Bu     4.795881   596Bu     4.798860  
     543Au     4.799174   544Au     4.801669   545Bg     4.802951  
     596Ag     4.804885   597Bu     4.805578   545Au     4.807265  
     546Bg     4.807630   597Ag     4.808181   546Au     4.810107  
     547Au     4.813601   598Ag     4.816368   548Au     4.819596  
     599Ag     4.824313   598Bu     4.824601   547Bg     4.825453  
     548Bg     4.829667   599Bu     4.830151   600Bu     4.832431  
     549Au     4.838669   549Bg     4.839780   600Ag     4.840331  
     601Bu     4.842297   550Bg     4.842398   601Ag     4.846249  
     550Au     4.850320   551Bg     4.853111   602Ag     4.858081  
     602Bu     4.861497   551Au     4.861768   603Bu     4.863487  
     552Bg     4.865359   603Ag     4.874881   552Au     4.885242  
     604Bu     4.887132   604Ag     4.888763   553Bg     4.894301  
     553Au     4.896174   605Ag     4.899691   605Bu     4.904209  
     554Bg     4.907642   606Ag     4.908652   555Bg     4.911784  
     554Au     4.912405   606Bu     4.914023   556Bg     4.918246  
     607Ag     4.919628   607Bu     4.920888   555Au     4.921580  
     608Bu     4.927631   608Ag     4.930858   557Bg     4.941534  
     609Bu     4.942466   609Ag     4.943517   556Au     4.944636  
     558Bg     4.947170   610Bu     4.952473   557Au     4.952829  
     610Ag     4.952854   558Au     4.957118   559Bg     4.958223  
     611Bu     4.968900   611Ag     4.970454   560Bg     4.974076  
     612Ag     4.976913   559Au     4.976960   612Bu     4.978678  
     561Bg     4.980622   560Au     4.981560   613Ag     4.988502  
     562Bg     4.994885   561Au     4.995806   613Bu     5.000496  
     614Ag     5.001685   614Bu     5.011452   615Bu     5.013444  
     562Au     5.015857   563Bg     5.020759   615Ag     5.021091  
     564Bg     5.027634   616Ag     5.030296   563Au     5.032424  
     616Bu     5.037133   565Bg     5.039561   564Au     5.043932  
     617Ag     5.050790   565Au     5.053115   618Ag     5.056650  
     617Bu     5.058289   566Bg     5.059833   567Bg     5.060564  
     618Bu     5.064118   566Au     5.065630   619Ag     5.069024  
     567Au     5.072138   568Au     5.083308   568Bg     5.084016  
     619Bu     5.089053   569Au     5.093040   620Ag     5.093422  
     569Bg     5.096923   570Bg     5.106162   570Au     5.107788  
     621Ag     5.110011   620Bu     5.110332   621Bu     5.111443  
     571Bg     5.119129   571Au     5.121981   572Au     5.125079  
     622Bu     5.126833   622Ag     5.128371   572Bg     5.129086  
     623Ag     5.132808   624Ag     5.135281   573Bg     5.135659  
     623Bu     5.136389   624Bu     5.138297   573Au     5.138421  
     574Bg     5.138661   574Au     5.142206   625Ag     5.144865  
     575Au     5.150674   626Ag     5.150978   575Bg     5.151100  
     625Bu     5.151971   576Bg     5.153609   626Bu     5.165082  
     577Bg     5.165657   627Ag     5.168197   627Bu     5.170914  
     628Ag     5.172432   576Au     5.174416   578Bg     5.177728  
     628Bu     5.179644   629Ag     5.188902   577Au     5.194163  
     579Bg     5.199613   630Ag     5.200123   629Bu     5.200703  
     578Au     5.206963   630Bu     5.213216   579Au     5.222162  
     580Bg     5.227347   580Au     5.228527   631Bu     5.232668  
     632Bu     5.233341   631Ag     5.236218   581Bg     5.239394  
     633Bu     5.249333   632Ag     5.251234   581Au     5.254579  
     633Ag     5.254935   582Au     5.259625   634Ag     5.261254  
     582Bg     5.261680   634Bu     5.263280   635Ag     5.266369  
     583Bg     5.277001   583Au     5.278693   584Bg     5.280972  
     635Bu     5.281850   636Ag     5.284826   636Bu     5.284916  
     585Bg     5.288494   584Au     5.288753   637Bu     5.298913  
     637Ag     5.302142   586Bg     5.304684   585Au     5.308531  
     587Bg     5.309695   638Ag     5.310567   639Ag     5.313613  
     638Bu     5.314677   588Bg     5.322969   639Bu     5.325778  
     586Au     5.326548   587Au     5.328975   640Ag     5.329969  
     641Ag     5.333691   640Bu     5.343009   641Bu     5.344021  
     589Bg     5.344277   588Au     5.344670   589Au     5.356314  
     590Bg     5.369681   590Au     5.369852   642Ag     5.371723  
     591Bg     5.375634   642Bu     5.377410   643Ag     5.377944  
     644Ag     5.379002   643Bu     5.380940   591Au     5.383749  
     592Bg     5.384120   592Au     5.394237   644Bu     5.396666  
     593Bg     5.397041   593Au     5.399428   594Bg     5.406398  
     645Ag     5.416593   594Au     5.420528   645Bu     5.421892  
     646Bu     5.432796   647Bu     5.438324   595Bg     5.443237  
     646Ag     5.453198   647Ag     5.460097   595Au     5.460104  
     596Bg     5.465645   596Au     5.469779   648Bu     5.469791  
     597Au     5.470433   648Ag     5.475080   597Bg     5.477913  
     649Ag     5.480081   598Bg     5.480708   649Bu     5.483584  
     650Bu     5.489437   650Ag     5.492438   651Ag     5.499177  
     598Au     5.500062   599Bg     5.502540   651Bu     5.509782  
     599Au     5.512818   652Bu     5.513864   652Ag     5.516991  
     653Ag     5.524616   600Bg     5.532395   600Au     5.534997  
     653Bu     5.536576   654Bu     5.542687   601Bg     5.547380  
     654Ag     5.549716   602Bg     5.597379   655Bu     5.605697  
     655Ag     5.610736   603Bg     5.613098   601Au     5.613385  
     602Au     5.618924   656Ag     5.634527   656Bu     5.644212  
     603Au     5.645922   604Bg     5.646864   657Ag     5.649912  
     657Bu     5.652582   605Bg     5.661308   604Au     5.663263  
     658Bu     5.667595   605Au     5.674355   658Ag     5.675303  
     606Bg     5.683195   659Bu     5.687564   660Bu     5.693829  
     606Au     5.695433   659Ag     5.700063   607Bg     5.700278  
     660Ag     5.701804   661Ag     5.754154   661Bu     5.763362  
     608Bg     5.766335   607Au     5.769370   609Bg     5.793236  
     608Au     5.799255   662Ag     5.800990   662Bu     5.807858  
     610Bg     5.808414   609Au     5.816358   663Ag     5.816870  
     611Bg     5.820443   610Au     5.820708   663Bu     5.820794  
     664Bu     5.834475   664Ag     5.841720   611Au     5.849250  
     612Bg     5.849766   665Bu     5.855786   665Ag     5.856473  
     613Bg     5.879961   612Au     5.883293   666Ag     5.917141  
     613Au     5.919049   614Bg     5.921026   666Bu     5.924820  
     667Bu     5.930807   667Ag     5.931520   615Bg     5.934205  
     614Au     5.936339   615Au     5.938057   616Bg     5.953819  
     668Ag     5.989799   668Bu     6.004609   669Bu     6.013637  
     669Ag     6.014107   617Bg     6.016399   616Au     6.025540  
     670Bu     6.067199   617Au     6.071445   670Ag     6.078961  
     618Bg     6.086842   671Bu     6.092056   671Ag     6.094357  
     672Bu     6.162751   672Ag     6.163203   618Au     6.165020  
     619Bg     6.167198   619Au     6.195574   620Bg     6.201007  
     620Au     6.210064   673Bu     6.215490   673Ag     6.223360  
     621Bg     6.231955   621Au     6.248162   622Bg     6.248720  
     674Ag     6.249549   674Bu     6.258236   623Bg     6.306556  
     675Bu     6.317428   675Ag     6.325457   622Au     6.337946  
     676Bu     6.492841   623Au     6.499351   676Ag     6.511819  
     677Bu     6.520578   624Bg     6.524158   677Ag     6.549050  
     624Au     6.595712   625Au     6.597898   625Bg     6.599078  
     678Ag     6.603188   678Bu     6.609678   626Bg     6.617217  
     679Bu     6.620892   627Bg     6.625037   680Bu     6.630143  
     626Au     6.631138   679Ag     6.633595   680Ag     6.642417  
     627Au     6.643514   681Bu     6.644389   681Ag     6.649988  
     628Bg     6.650489   629Bg     6.657682   630Bg     6.678705  
     628Au     6.689100   682Ag     6.706532   631Bg     6.707292  
     629Au     6.711833   682Bu     6.724536   632Bg     6.742572  
     683Ag     6.743605   683Bu     6.745596   630Au     6.747405  
     631Au     6.761492   684Bu     6.764553   684Ag     6.765766  
     632Au     6.769327   633Bg     6.772503   633Au     6.811551  
     685Bu     6.826531   685Ag     6.831681   686Bu     6.849312  
     634Au     6.850456   686Ag     6.850494   634Bg     6.852513  
     687Ag     6.859486   687Bu     6.862362   635Bg     6.863925  
     635Au     6.882179   636Bg     6.887926   688Bu     6.908379  
     688Ag     6.910337   689Bu     7.016680   636Au     7.020851  
     689Ag     7.020902   690Ag     7.026105   637Au     7.035643  
     637Bg     7.035833   638Bg     7.040824   690Bu     7.042745  
     691Ag     7.067133   691Bu     7.079900   639Bg     7.088822  
     638Au     7.098665   692Ag     7.098824   639Au     7.105481  
     692Bu     7.105592   693Bu     7.119209   693Ag     7.125309  
     640Bg     7.127430   640Au     7.150133   641Bg     7.172491  
     641Au     7.182731   694Bu     7.184816   694Ag     7.192649  
     642Bg     7.208797   695Bu     7.287236   642Au     7.295278  
     695Ag     7.295964   643Bg     7.296135   696Ag     7.300562  
     696Bu     7.313676   644Bg     7.336323   643Au     7.343743  
     645Bg     7.648602   644Au     7.651406   697Ag    15.870014  
     697Bu    15.963866   646Bg    16.693507   698Bu    16.708101  
     698Ag    16.818750   645Au    16.821398   699Bu    17.942555  
     699Ag    18.026565   647Bg    18.032391   646Au    18.073577  
     700Bu    18.416864   700Ag    18.424974   648Bg    18.469827  
     647Au    18.475112   649Bg    19.129496   701Ag    19.136828  
     701Bu    19.162533   648Au    19.187640   649Au    20.725161  
     702Bu    20.760794   702Ag    20.832153   650Bg    20.891694  
     703Bu    21.059751   703Ag    21.519553   651Bg    21.615743  
     650Au    21.704313   704Ag    21.947094   704Bu    21.978629  
     652Bg    22.026014   651Au    22.086688   705Ag    22.114273  
     653Bg    22.160944   705Bu    22.254838   652Au    22.453801  
     706Bu    22.763955   706Ag    22.796122   707Bu    22.869719  
     707Ag    23.129999   708Bu    23.652482   653Au    23.739716  
     708Ag    23.754480   654Bg    23.783382   709Bu    24.191797  
     709Ag    24.249217   710Bu    24.318279   710Ag    24.416596  
     654Au    24.433402   655Bg    24.474942  

    Final Occupation by Irrep:
             Ag    Bg    Au    Bu 
    DOCC [    43,   35,   35,   43 ]
    NA   [    43,   35,   35,   43 ]
    NB   [    43,   35,   35,   43 ]

  @DF-RHF Final Energy: -1832.42896515984876

   => Energetics <=

    Nuclear Repulsion Energy =           6088.1700676651344111
    One-Electron Energy =              -14614.0129053018990817
    Two-Electron Energy =                6693.4138724769154578
    Total Energy =                      -1832.4289651598492128

Computation Completed


Properties will be evaluated at   0.000000,   0.000000,   0.000000 [a0]

Properties computed using the SCF density matrix


 Multipole Moments:

 ------------------------------------------------------------------------------------
     Multipole            Electronic (a.u.)      Nuclear  (a.u.)        Total (a.u.)
 ------------------------------------------------------------------------------------

 L = 1.  Multiply by 2.5417464519 to convert [e a0] to [Debye]
 Dipole X            :          0.0000000            0.0000000            0.0000000
 Dipole Y            :          0.0000000           -0.0000000           -0.0000000
 Dipole Z            :          0.0000000           -0.0000000           -0.0000000
 Magnitude           :                                                    0.0000000

 ------------------------------------------------------------------------------------

*** tstop() called on atl1-1-02-003-29-2.pace.gatech.edu at Sat Jun 13 07:32:09 2026
Module time:
	user time   =   17261.49 seconds =     287.69 minutes
	system time =     218.56 seconds =       3.64 minutes
	total time  =       1789 seconds =      29.82 minutes
Total time:
	user time   =   17261.49 seconds =     287.69 minutes
	system time =     218.56 seconds =       3.64 minutes
	total time  =       1789 seconds =      29.82 minutes

    Psi4 stopped on: Saturday, 13 June 2026 07:32AM
    Psi4 wall time for execution: 0:29:48.40

*** Psi4 exiting successfully. Buy a developer a beer!
