
    -----------------------------------------------------------------------
          Psi4: An Open-Source Ab Initio Electronic Structure Package
                               Psi4 1.9.1 release

                         Git: Rev {} zzzzzzz 


    D. G. A. Smith, L. A. Burns, A. C. Simmonett, R. M. Parrish,
    M. C. Schieber, R. Galvelis, P. Kraus, H. Kruse, R. Di Remigio,
    A. Alenaizan, A. M. James, S. Lehtola, J. P. Misiewicz, M. Scheurer,
    R. A. Shaw, J. B. Schriber, Y. Xie, Z. L. Glick, D. A. Sirianni,
    J. S. O'Brien, J. M. Waldrop, A. Kumar, E. G. Hohenstein,
    B. P. Pritchard, B. R. Brooks, H. F. Schaefer III, A. Yu. Sokolov,
    K. Patkowski, A. E. DePrince III, U. Bozkaya, R. A. King,
    F. A. Evangelista, J. M. Turney, T. D. Crawford, C. D. Sherrill,
    J. Chem. Phys. 152(18) 184108 (2020). https://doi.org/10.1063/5.0006002

                            Additional Code Authors
    E. T. Seidl, C. L. Janssen, E. F. Valeev, M. L. Leininger,
    J. F. Gonthier, R. M. Richard, H. R. McAlexander, M. Saitow, X. Wang,
    P. Verma, M. H. Lechner, A. Jiang, S. Behnle, A. G. Heide,
    M. F. Herbst, and D. L. Poole

             Previous Authors, Complete List of Code Contributors,
                       and Citations for Specific Modules
    https://github.com/psi4/psi4/blob/master/codemeta.json
    https://github.com/psi4/psi4/graphs/contributors
    http://psicode.org/psi4manual/master/introduction.html#citing-psifour

    -----------------------------------------------------------------------


    Psi4 started on: Saturday, 13 June 2026 10:45AM

    Process ID: 273154
    Host:       atl1-1-03-004-8-2.pace.gatech.edu
    PSIDATADIR: /storage/home/hcoda1/5/vlita3/.conda/envs/p4_qcml/share/psi4
    Memory:     250.0 GiB
    Threads:    10
    
  ==> Input QCSchema <==

--------------------------------------------------------------------------
{'driver': 'energy',
 'extras': {},
 'id': '202',
 'keywords': {},
 'model': {'basis': 'aug-cc-pvtz', 'method': 'hf'},
 'molecule': {'extras': {},
              'fix_com': True,
              'fix_orientation': True,
              'fragment_charges': [0.0, 0.0],
              'fragment_multiplicities': [1, 1],
              'fragments': [[0, 1, 2, 3, 4, 5, 6, 7, 8, 9, 10, 11, 12, 13, 14, 15, 16, 17, 18, 19, 20, 21, 22, 23, 24,
                             25, 26, 27, 28, 29, 30, 31, 32, 33, 34, 35, 36, 37, 38, 39, 40, 41, 42, 43, 44, 45, 46, 47,
                             48, 49, 50, 51, 52, 53, 54, 55],
                            [56, 57, 58, 59, 60, 61, 62, 63, 64, 65, 66, 67, 68, 69, 70, 71, 72, 73, 74, 75, 76, 77, 78,
                             79, 80, 81, 82, 83, 84, 85, 86, 87, 88, 89, 90, 91, 92, 93, 94, 95, 96, 97, 98, 99, 100,
                             101, 102, 103, 104, 105, 106, 107, 108, 109, 110, 111]],
              'geometry': [39.18725066, 24.74029443, 4.00810911, 37.91546498, 22.14947992, 3.77378307, 35.03363264,
                           22.26853266, 4.05535227, 33.7429497, 19.68527705, 3.82102623, 30.85922763, 19.81566815,
                           4.07613925, 29.56287551, 17.23808172, 3.82858513, 26.67726371, 17.37792145, 4.05535227,
                           25.37335269, 14.80600419, 3.78890088, 22.48774089, 14.95907201, 3.99866048, 21.17249151,
                           12.3909342, 3.72653992, 18.28876944, 12.55534038, 3.93818925, 16.9621817, 9.99287175,
                           3.67551731, 14.08034936, 10.16483683, 3.9060639, 12.74809244, 7.60425793, 3.66417896,
                           9.86814983, 7.77811273, 3.92685089, 8.53400318, 5.21564411, 3.71142211, 5.65595029,
                           5.38571946, 4.00621939, 4.34070091, 2.8138022, 3.80590842, 2.28845834, 3.00088509,
                           4.00432966, 38.81875407, 25.57933283, 5.86570989, 41.23760351, 24.59667525, 3.76811389,
                           38.46915474, 26.04798491, 2.57191726, 38.38222733, 21.31233124, 1.93318983, 38.68647324,
                           20.86635588, 5.21186465, 34.56120111, 23.10568134, 5.89594551, 34.26073465, 23.5516567,
                           2.61538096, 34.22860931, 18.8424592, 1.98610216, 34.50072987, 18.40782219, 5.27044616,
                           30.37356801, 20.65281683, 5.91484277, 30.10333718, 21.10257164, 2.63238849, 30.06365293,
                           16.39337414, 1.99744051, 30.30175842, 15.95495768, 5.28556397, 26.17648629, 18.2131804,
                           5.89027633, 25.94216025, 18.67049412, 2.60593233, 25.88168901, 13.96507607, 1.95964599,
                           26.09711779, 13.51532125, 5.24776945, 21.97940457, 15.79433096, 5.83169482, 21.76586551,
                           16.25353441, 2.54546109, 21.67893811, 11.5518958, 1.89728503, 21.89247716, 11.09647181,
                           5.18351876, 17.78610229, 13.3962685, 5.76933386, 17.56878379, 13.8516925, 2.48310013,
                           17.45540022, 9.14816417, 1.84248297, 17.68594681, 8.69651963, 5.1287167, 13.59468975,
                           11.01521359, 5.73909824, 13.3528048, 11.4574095, 2.45286451, 13.21863425, 6.7557709,
                           1.82925489, 13.48697536, 6.31168526, 5.1135989, 9.4032772, 8.63604839, 5.76177496,
                           9.12359773, 9.0631265, 2.47743095, 8.983758, 4.35959817, 1.87271859, 9.29178336, 3.92874061,
                           5.15517287, 5.21186465, 6.2493243, 5.84114345, 4.90005984, 6.66506404, 2.55868917,
                           4.72431531, 1.92563092, 1.9747638, 5.00966396, 1.52500898, 5.28367425, 9.39004912,
                           8.90249978, -3.87960774, 8.09936617, 6.31924416, -4.11393378, 5.21753383, 6.43829691,
                           -3.83236458, 3.94574815, 3.84748239, -4.06669062, 12.27188146, 8.77210867, -4.13661049,
                           13.57012331, 11.35158484, -3.88716664, 16.45384537, 11.20985538, -4.11393378, 17.75964613,
                           13.78177263, -3.84748239, 20.64525792, 13.62870482, -4.05724199, 21.95861758, 16.19684262,
                           -3.78512143, 24.84422937, 16.03243645, -3.99677076, 26.16892739, 18.5967948, -3.73409882,
                           29.05075973, 18.42294, -3.96464541, 30.38301665, 20.98540862, -3.72276047, 33.26295926,
                           20.80966409, -3.98732212, 34.5971059, 23.37213272, -3.77000362, 37.47515879, 23.20205737,
                           -4.0648009, 38.79040818, 25.77397463, -3.86637965, 40.84265075, 25.58878146, -4.0648009,
                           38.12144513, 27.06276784, -5.34414548, 37.91924443, 22.33845253, -5.89972496, 38.23104924,
                           21.92271278, -2.61727068, 34.14735109, 24.23006838, -1.93318983, 33.83932573, 24.65903621,
                           -5.21564411, 33.72783189, 19.95172843, -5.82035647, 34.00751135, 19.52465033, -2.53601246,
                           29.91247484, 21.83389565, -1.8878364, 29.64413373, 22.27609157, -5.17218041, 29.53641934,
                           17.57256324, -5.79767975, 29.78019401, 17.13225705, -2.51144602, 25.67759859, 19.43961265,
                           -1.90106448, 25.44516228, 19.8912572, -5.18729821, 25.34500679, 15.19150832, -5.82791537,
                           25.5623253, 14.73797405, -2.54168164, 21.45217098, 17.03777075, -1.95586654, 21.24052165,
                           17.49130502, -5.24210027, 21.15359425, 12.79344587, -5.89027633, 21.3671333, 12.33424242,
                           -2.6040426, 17.24942007, 14.62270076, -2.02011723, 17.03588102, 15.07245558, -5.30635096,
                           16.9546228, 10.37459643, -5.95074757, 17.18894884, 9.91728271, -2.66451384, 13.06934588,
                           12.19440269, -2.05791175, 12.82935067, 12.63281915, -5.34414548, 12.75754107, 7.93684973,
                           -5.97531401, 13.02777191, 7.48520518, -2.69285973, 8.9043895, 9.74531763, -2.04468367,
                           8.57179771, 5.48209549, -5.95641675, 8.87037443, 5.03612012, -2.67585219, 4.75077148,
                           7.27544558, -1.99177134, 4.44652557, 7.72142095, -5.27044616, 1.8953953, 3.99110158,
                           -3.82858513, 4.31424474, 3.00844399, -5.92618113, 4.66384408, 2.53979191, -2.63238849,
                           8.63037921, 10.17995464, -5.3309174, 38.40679377, 26.6621459, -2.03334531],
              'id': 13,
              'identifiers': {'molecular_formula': 'C36H76',
                              'molecule_hash': '5a1027ed7a2872ae334f0d27d7734dfd003db69d'},
              'masses': [12.0, 12.0, 12.0, 12.0, 12.0, 12.0, 12.0, 12.0, 12.0, 12.0, 12.0, 12.0, 12.0, 12.0, 12.0, 12.0,
                         12.0, 12.0, 1.00782503223, 1.00782503223, 1.00782503223, 1.00782503223, 1.00782503223,
                         1.00782503223, 1.00782503223, 1.00782503223, 1.00782503223, 1.00782503223, 1.00782503223,
                         1.00782503223, 1.00782503223, 1.00782503223, 1.00782503223, 1.00782503223, 1.00782503223,
                         1.00782503223, 1.00782503223, 1.00782503223, 1.00782503223, 1.00782503223, 1.00782503223,
                         1.00782503223, 1.00782503223, 1.00782503223, 1.00782503223, 1.00782503223, 1.00782503223,
                         1.00782503223, 1.00782503223, 1.00782503223, 1.00782503223, 1.00782503223, 1.00782503223,
                         1.00782503223, 1.00782503223, 1.00782503223, 12.0, 12.0, 12.0, 12.0, 12.0, 12.0, 12.0, 12.0,
                         12.0, 12.0, 12.0, 12.0, 12.0, 12.0, 12.0, 12.0, 12.0, 12.0, 1.00782503223, 1.00782503223,
                         1.00782503223, 1.00782503223, 1.00782503223, 1.00782503223, 1.00782503223, 1.00782503223,
                         1.00782503223, 1.00782503223, 1.00782503223, 1.00782503223, 1.00782503223, 1.00782503223,
                         1.00782503223, 1.00782503223, 1.00782503223, 1.00782503223, 1.00782503223, 1.00782503223,
                         1.00782503223, 1.00782503223, 1.00782503223, 1.00782503223, 1.00782503223, 1.00782503223,
                         1.00782503223, 1.00782503223, 1.00782503223, 1.00782503223, 1.00782503223, 1.00782503223,
                         1.00782503223, 1.00782503223, 1.00782503223, 1.00782503223, 1.00782503223, 1.00782503223],
              'molecular_charge': 0.0,
              'molecular_multiplicity': 1,
              'name': 'C36H76 ([1],[0])',
              'provenance': {'creator': 'QCElemental',
                             'routine': 'qcelemental.molparse.from_schema',
                             'version': '0.29.0'},
              'real': [False, False, False, False, False, False, False, False, False, False, False, False, False, False,
                       False, False, False, False, False, False, False, False, False, False, False, False, False, False,
                       False, False, False, False, False, False, False, False, False, False, False, False, False, False,
                       False, False, False, False, False, False, False, False, False, False, False, False, False, False,
                       True, True, True, True, True, True, True, True, True, True, True, True, True, True, True, True,
                       True, True, True, True, True, True, True, True, True, True, True, True, True, True, True, True,
                       True, True, True, True, True, True, True, True, True, True, True, True, True, True, True, True,
                       True, True, True, True, True, True, True, True],
              'schema_name': 'qcschema_molecule',
              'schema_version': 2,
              'symbols': ['C', 'C', 'C', 'C', 'C', 'C', 'C', 'C', 'C', 'C', 'C', 'C', 'C', 'C', 'C', 'C', 'C', 'C', 'H',
                          'H', 'H', 'H', 'H', 'H', 'H', 'H', 'H', 'H', 'H', 'H', 'H', 'H', 'H', 'H', 'H', 'H', 'H', 'H',
                          'H', 'H', 'H', 'H', 'H', 'H', 'H', 'H', 'H', 'H', 'H', 'H', 'H', 'H', 'H', 'H', 'H', 'H', 'C',
                          'C', 'C', 'C', 'C', 'C', 'C', 'C', 'C', 'C', 'C', 'C', 'C', 'C', 'C', 'C', 'C', 'C', 'H', 'H',
                          'H', 'H', 'H', 'H', 'H', 'H', 'H', 'H', 'H', 'H', 'H', 'H', 'H', 'H', 'H', 'H', 'H', 'H', 'H',
                          'H', 'H', 'H', 'H', 'H', 'H', 'H', 'H', 'H', 'H', 'H', 'H', 'H', 'H', 'H', 'H', 'H'],
              'validated': True},
 'protocols': {},
 'provenance': {'creator': 'QCElemental', 'routine': 'qcelemental.models.results', 'version': '0.29.0'},
 'schema_name': 'qcschema_input',
 'schema_version': 1}
--------------------------------------------------------------------------

Scratch directory: /tmp/tmpxnp6vf_p_psi_scratch/
   => Libint2 <=

    Primary   basis highest AM E, G, H:  6, 6, 3
    Auxiliary basis highest AM E, G, H:  7, 7, 4
    Onebody   basis highest AM E, G, H:  -, -, -
    Solid Harmonics ordering:            Gaussian

*** tstart() called on atl1-1-03-004-8-2.pace.gatech.edu
*** at Sat Jun 13 10:45:27 2026

   => Loading Basis Set <=

    Name: AUG-CC-PVTZ
    Role: ORBITAL
    Keyword: BASIS
    atoms 1-18, 57-74   entry C          line   239 file /storage/home/hcoda1/5/vlita3/.conda/envs/p4_qcml/share/psi4/basis/aug-cc-pvtz.gbs 
    atoms 19-56, 75-112 entry H          line    40 file /storage/home/hcoda1/5/vlita3/.conda/envs/p4_qcml/share/psi4/basis/aug-cc-pvtz.gbs 


         ---------------------------------------------------------
                                   SCF
               by Justin Turney, Rob Parrish, Andy Simmonett
                          and Daniel G. A. Smith
                              RHF Reference
                       10 Threads, 256000 MiB Core
         ---------------------------------------------------------

  ==> Geometry <==

    Molecular point group: c1
    Full point group: C1

    Geometry (in Bohr), charge = 0, multiplicity = 1:

       Center              X                  Y                   Z               Mass       
    ------------   -----------------  -----------------  -----------------  -----------------
      Gh(C)          39.187250660000    24.740294430000     4.008109110000    12.000000000000
      Gh(C)          37.915464980000    22.149479920000     3.773783070000    12.000000000000
      Gh(C)          35.033632640000    22.268532660000     4.055352270000    12.000000000000
      Gh(C)          33.742949700000    19.685277050000     3.821026230000    12.000000000000
      Gh(C)          30.859227630000    19.815668150000     4.076139250000    12.000000000000
      Gh(C)          29.562875510000    17.238081720000     3.828585130000    12.000000000000
      Gh(C)          26.677263710000    17.377921450000     4.055352270000    12.000000000000
      Gh(C)          25.373352690000    14.806004190000     3.788900880000    12.000000000000
      Gh(C)          22.487740890000    14.959072010000     3.998660480000    12.000000000000
      Gh(C)          21.172491510000    12.390934200000     3.726539920000    12.000000000000
      Gh(C)          18.288769440000    12.555340380000     3.938189250000    12.000000000000
      Gh(C)          16.962181700000     9.992871750000     3.675517310000    12.000000000000
      Gh(C)          14.080349360000    10.164836830000     3.906063900000    12.000000000000
      Gh(C)          12.748092440000     7.604257930000     3.664178960000    12.000000000000
      Gh(C)           9.868149830000     7.778112730000     3.926850890000    12.000000000000
      Gh(C)           8.534003180000     5.215644110000     3.711422110000    12.000000000000
      Gh(C)           5.655950290000     5.385719460000     4.006219390000    12.000000000000
      Gh(C)           4.340700910000     2.813802200000     3.805908420000    12.000000000000
      Gh(H)           2.288458340000     3.000885090000     4.004329660000     1.007825032230
      Gh(H)          38.818754070000    25.579332830000     5.865709890000     1.007825032230
      Gh(H)          41.237603510000    24.596675250000     3.768113890000     1.007825032230
      Gh(H)          38.469154740000    26.047984910000     2.571917260000     1.007825032230
      Gh(H)          38.382227330000    21.312331240000     1.933189830000     1.007825032230
      Gh(H)          38.686473240000    20.866355880000     5.211864650000     1.007825032230
      Gh(H)          34.561201110000    23.105681340000     5.895945510000     1.007825032230
      Gh(H)          34.260734650000    23.551656700000     2.615380960000     1.007825032230
      Gh(H)          34.228609310000    18.842459200000     1.986102160000     1.007825032230
      Gh(H)          34.500729870000    18.407822190000     5.270446160000     1.007825032230
      Gh(H)          30.373568010000    20.652816830000     5.914842770000     1.007825032230
      Gh(H)          30.103337180000    21.102571640000     2.632388490000     1.007825032230
      Gh(H)          30.063652930000    16.393374140000     1.997440510000     1.007825032230
      Gh(H)          30.301758420000    15.954957680000     5.285563970000     1.007825032230
      Gh(H)          26.176486290000    18.213180400000     5.890276330000     1.007825032230
      Gh(H)          25.942160250000    18.670494120000     2.605932330000     1.007825032230
      Gh(H)          25.881689010000    13.965076070000     1.959645990000     1.007825032230
      Gh(H)          26.097117790000    13.515321250000     5.247769450000     1.007825032230
      Gh(H)          21.979404570000    15.794330960000     5.831694820000     1.007825032230
      Gh(H)          21.765865510000    16.253534410000     2.545461090000     1.007825032230
      Gh(H)          21.678938110000    11.551895800000     1.897285030000     1.007825032230
      Gh(H)          21.892477160000    11.096471810000     5.183518760000     1.007825032230
      Gh(H)          17.786102290000    13.396268500000     5.769333860000     1.007825032230
      Gh(H)          17.568783790000    13.851692500000     2.483100130000     1.007825032230
      Gh(H)          17.455400220000     9.148164170000     1.842482970000     1.007825032230
      Gh(H)          17.685946810000     8.696519630000     5.128716700000     1.007825032230
      Gh(H)          13.594689750000    11.015213590000     5.739098240000     1.007825032230
      Gh(H)          13.352804800000    11.457409500000     2.452864510000     1.007825032230
      Gh(H)          13.218634250000     6.755770900000     1.829254890000     1.007825032230
      Gh(H)          13.486975360000     6.311685260000     5.113598900000     1.007825032230
      Gh(H)           9.403277200000     8.636048390000     5.761774960000     1.007825032230
      Gh(H)           9.123597730000     9.063126500000     2.477430950000     1.007825032230
      Gh(H)           8.983758000000     4.359598170000     1.872718590000     1.007825032230
      Gh(H)           9.291783360000     3.928740610000     5.155172870000     1.007825032230
      Gh(H)           5.211864650000     6.249324300000     5.841143450000     1.007825032230
      Gh(H)           4.900059840000     6.665064040000     2.558689170000     1.007825032230
      Gh(H)           4.724315310000     1.925630920000     1.974763800000     1.007825032230
      Gh(H)           5.009663960000     1.525008980000     5.283674250000     1.007825032230
         C            9.390049120000     8.902499780000    -3.879607740000    12.000000000000
         C            8.099366170000     6.319244160000    -4.113933780000    12.000000000000
         C            5.217533830000     6.438296910000    -3.832364580000    12.000000000000
         C            3.945748150000     3.847482390000    -4.066690620000    12.000000000000
         C           12.271881460000     8.772108670000    -4.136610490000    12.000000000000
         C           13.570123310000    11.351584840000    -3.887166640000    12.000000000000
         C           16.453845370000    11.209855380000    -4.113933780000    12.000000000000
         C           17.759646130000    13.781772630000    -3.847482390000    12.000000000000
         C           20.645257920000    13.628704820000    -4.057241990000    12.000000000000
         C           21.958617580000    16.196842620000    -3.785121430000    12.000000000000
         C           24.844229370000    16.032436450000    -3.996770760000    12.000000000000
         C           26.168927390000    18.596794800000    -3.734098820000    12.000000000000
         C           29.050759730000    18.422940000000    -3.964645410000    12.000000000000
         C           30.383016650000    20.985408620000    -3.722760470000    12.000000000000
         C           33.262959260000    20.809664090000    -3.987322120000    12.000000000000
         C           34.597105900000    23.372132720000    -3.770003620000    12.000000000000
         C           37.475158790000    23.202057370000    -4.064800900000    12.000000000000
         C           38.790408180000    25.773974630000    -3.866379650000    12.000000000000
         H           40.842650750000    25.588781460000    -4.064800900000     1.007825032230
         H           38.121445130000    27.062767840000    -5.344145480000     1.007825032230
         H           37.919244430000    22.338452530000    -5.899724960000     1.007825032230
         H           38.231049240000    21.922712780000    -2.617270680000     1.007825032230
         H           34.147351090000    24.230068380000    -1.933189830000     1.007825032230
         H           33.839325730000    24.659036210000    -5.215644110000     1.007825032230
         H           33.727831890000    19.951728430000    -5.820356470000     1.007825032230
         H           34.007511350000    19.524650330000    -2.536012460000     1.007825032230
         H           29.912474840000    21.833895650000    -1.887836400000     1.007825032230
         H           29.644133730000    22.276091570000    -5.172180410000     1.007825032230
         H           29.536419340000    17.572563240000    -5.797679750000     1.007825032230
         H           29.780194010000    17.132257050000    -2.511446020000     1.007825032230
         H           25.677598590000    19.439612650000    -1.901064480000     1.007825032230
         H           25.445162280000    19.891257200000    -5.187298210000     1.007825032230
         H           25.345006790000    15.191508320000    -5.827915370000     1.007825032230
         H           25.562325300000    14.737974050000    -2.541681640000     1.007825032230
         H           21.452170980000    17.037770750000    -1.955866540000     1.007825032230
         H           21.240521650000    17.491305020000    -5.242100270000     1.007825032230
         H           21.153594250000    12.793445870000    -5.890276330000     1.007825032230
         H           21.367133300000    12.334242420000    -2.604042600000     1.007825032230
         H           17.249420070000    14.622700760000    -2.020117230000     1.007825032230
         H           17.035881020000    15.072455580000    -5.306350960000     1.007825032230
         H           16.954622800000    10.374596430000    -5.950747570000     1.007825032230
         H           17.188948840000     9.917282710000    -2.664513840000     1.007825032230
         H           13.069345880000    12.194402690000    -2.057911750000     1.007825032230
         H           12.829350670000    12.632819150000    -5.344145480000     1.007825032230
         H           12.757541070000     7.936849730000    -5.975314010000     1.007825032230
         H           13.027771910000     7.485205180000    -2.692859730000     1.007825032230
         H            8.904389500000     9.745317630000    -2.044683670000     1.007825032230
         H            8.571797710000     5.482095490000    -5.956416750000     1.007825032230
         H            8.870374430000     5.036120120000    -2.675852190000     1.007825032230
         H            4.750771480000     7.275445580000    -1.991771340000     1.007825032230
         H            4.446525570000     7.721420950000    -5.270446160000     1.007825032230
         H            1.895395300000     3.991101580000    -3.828585130000     1.007825032230
         H            4.314244740000     3.008443990000    -5.926181130000     1.007825032230
         H            4.663844080000     2.539791910000    -2.632388490000     1.007825032230
         H            8.630379210000    10.179954640000    -5.330917400000     1.007825032230
         H           38.406793770000    26.662145900000    -2.033345310000     1.007825032230

  Running in c1 symmetry.

  Rotational constants: A =      0.00674  B =      0.00014  C =      0.00014 [cm^-1]
  Rotational constants: A =    202.03768  B =      4.27015  C =      4.19674 [MHz]
  Nuclear repulsion = 1177.211817927325001

  Charge       = 0
  Multiplicity = 1
  Electrons    = 146
  Nalpha       = 73
  Nbeta        = 73

  ==> Algorithm <==

  SCF Algorithm Type is DF.
  DIIS enabled.
  MOM disabled.
  Fractional occupation disabled.
  Guess Type is SAD.
  Energy threshold   = 1.00e-06
  Density threshold  = 1.00e-06
  Integral threshold = 1.00e-12

  ==> Primary Basis <==

  Basis Set: AUG-CC-PVTZ
    Blend: AUG-CC-PVTZ
    Number of shells: 1188
    Number of basis functions: 3404
    Number of Cartesian functions: 3880
    Spherical Harmonics?: true
    Max angular momentum: 3

   => Loading Basis Set <=

    Name: (AUG-CC-PVTZ AUX)
    Role: JKFIT
    Keyword: DF_BASIS_SCF
    atoms 1-18, 57-74   entry C          line   162 file /storage/home/hcoda1/5/vlita3/.conda/envs/p4_qcml/share/psi4/basis/aug-cc-pvtz-jkfit.gbs 
    atoms 19-56, 75-112 entry H          line    70 file /storage/home/hcoda1/5/vlita3/.conda/envs/p4_qcml/share/psi4/basis/aug-cc-pvtz-jkfit.gbs 

  ==> Integral Setup <==

  ==> DiskDFJK: Density-Fitted J/K Matrices <==

    J tasked:                  Yes
    K tasked:                  Yes
    wK tasked:                  No
    OpenMP threads:             10
    Integrals threads:          10
    Memory [MiB]:           192000
    Algorithm:                Core
    Integral Cache:           NONE
    Schwarz Cutoff:          1E-12
    Fitting Condition:       1E-10

   => Auxiliary Basis Set <=

  Basis Set: (AUG-CC-PVTZ AUX)
    Blend: AUG-CC-PVTZ-JKFIT
    Number of shells: 2144
    Number of basis functions: 7240
    Number of Cartesian functions: 8896
    Spherical Harmonics?: true
    Max angular momentum: 4

  Minimum eigenvalue in the overlap matrix is 2.2061596341E-08.
  Reciprocal condition number of the overlap matrix is 6.8411741151E-10.
    Using canonical orthogonalization.
  Overall, 1 of 3404 possible MOs eliminated.


  ==> Pre-Iterations <==

  SCF Guess: Superposition of Atomic Densities via on-the-fly atomic UHF (no occupation information).

   -------------------------
    Irrep   Nso     Nmo    
   -------------------------
     A       3404    3403 
   -------------------------
    Total    3404    3403
   -------------------------

  ==> Iterations <==

                           Total Energy        Delta E     RMS |[F,P]|

   @DF-RHF iter SAD:  -703.54730413540096   -7.03547e+02   0.00000e+00 
   @DF-RHF iter   1:  -703.17544057243822    3.71864e-01   3.34367e-04 DIIS/ADIIS
   @DF-RHF iter   2:  -703.88663670443998   -7.11196e-01   1.43796e-04 DIIS/ADIIS
   @DF-RHF iter   3:  -704.01499843219858   -1.28362e-01   2.74436e-05 DIIS
   @DF-RHF iter   4:  -704.02468709938353   -9.68867e-03   4.35604e-06 DIIS
   @DF-RHF iter   5:  -704.02488266741420   -1.95568e-04   1.65346e-06 DIIS
   @DF-RHF iter   6:  -704.02490611651604   -2.34491e-05   2.35566e-07 DIIS
   @DF-RHF iter   7:  -704.02490686089777   -7.44382e-07   6.25541e-08 DIIS
  Energy and wave function converged.


  ==> Post-Iterations <==

    Orbital Energies [Eh]
    ---------------------

    Doubly Occupied:                                                      

       1A    -11.215692     2A    -11.215677     3A    -11.213535  
       4A    -11.213535     5A    -11.213287     6A    -11.213272  
       7A    -11.213150     8A    -11.213066     9A    -11.212958  
      10A    -11.212817    11A    -11.212713    12A    -11.212597  
      13A    -11.212463    14A    -11.212348    15A    -11.212210  
      16A    -11.212069    17A    -11.210238    18A    -11.210073  
      19A     -1.094706    20A     -1.088078    21A     -1.076785  
      22A     -1.061078    23A     -1.041054    24A     -1.016963  
      25A     -0.989179    26A     -0.957908    27A     -0.923997  
      28A     -0.888555    29A     -0.852941    30A     -0.820310  
      31A     -0.795211    32A     -0.785620    33A     -0.782544  
      34A     -0.781492    35A     -0.777401    36A     -0.776111  
      37A     -0.660256    38A     -0.654236    39A     -0.644135  
      40A     -0.630375    41A     -0.613402    42A     -0.593809  
      43A     -0.589837    44A     -0.588638    45A     -0.578996  
      46A     -0.572393    47A     -0.571497    48A     -0.562016  
      49A     -0.550040    50A     -0.542755    51A     -0.540423  
      52A     -0.528003    53A     -0.521273    54A     -0.507589  
      55A     -0.503491    56A     -0.501751    57A     -0.489778  
      58A     -0.484836    59A     -0.475632    60A     -0.472440  
      61A     -0.465602    62A     -0.464426    63A     -0.462664  
      64A     -0.459487    65A     -0.456998    66A     -0.456920  
      67A     -0.456510    68A     -0.455759    69A     -0.455594  
      70A     -0.453297    71A     -0.451559    72A     -0.431384  
      73A     -0.408472  

    Virtual:                                                              

      74A      0.016721    75A      0.018269    76A      0.023502  
      77A      0.026811    78A      0.029050    79A      0.029548  
      80A      0.030602    81A      0.031844    82A      0.034492  
      83A      0.037533    84A      0.038054    85A      0.040778  
      86A      0.041690    87A      0.042320    88A      0.046270  
      89A      0.046795    90A      0.049180    91A      0.049939  
      92A      0.051009    93A      0.052616    94A      0.057093  
      95A      0.057406    96A      0.058542    97A      0.061628  
      98A      0.062188    99A      0.062297   100A      0.065089  
     101A      0.065921   102A      0.066364   103A      0.066795  
     104A      0.069799   105A      0.071282   106A      0.072348  
     107A      0.074164   108A      0.074882   109A      0.075415  
     110A      0.078584   111A      0.080250   112A      0.081392  
     113A      0.081545   114A      0.083376   115A      0.084809  
     116A      0.085926   117A      0.086400   118A      0.088769  
     119A      0.089086   120A      0.091427   121A      0.092967  
     122A      0.093530   123A      0.094456   124A      0.095053  
     125A      0.098383   126A      0.098622   127A      0.099187  
     128A      0.099405   129A      0.101991   130A      0.104001  
     131A      0.106625   132A      0.106796   133A      0.107201  
     134A      0.108262   135A      0.108724   136A      0.111105  
     137A      0.111991   138A      0.113783   139A      0.114407  
     140A      0.114460   141A      0.117120   142A      0.117778  
     143A      0.119435   144A      0.120216   145A      0.121019  
     146A      0.122692   147A      0.123636   148A      0.124212  
     149A      0.124645   150A      0.126397   151A      0.126782  
     152A      0.127648   153A      0.128405   154A      0.131102  
     155A      0.131570   156A      0.131771   157A      0.133132  
     158A      0.135192   159A      0.136102   160A      0.139394  
     161A      0.139741   162A      0.140789   163A      0.141560  
     164A      0.142600   165A      0.144496   166A      0.145248  
     167A      0.146752   168A      0.148030   169A      0.149845  
     170A      0.151229   171A      0.151891   172A      0.153305  
     173A      0.153606   174A      0.154188   175A      0.154540  
     176A      0.155164   177A      0.156923   178A      0.157371  
     179A      0.157726   180A      0.159333   181A      0.160344  
     182A      0.162362   183A      0.162859   184A      0.164636  
     185A      0.166554   186A      0.169507   187A      0.170624  
     188A      0.171484   189A      0.172076   190A      0.172368  
     191A      0.173289   192A      0.173933   193A      0.174934  
     194A      0.176604   195A      0.178520   196A      0.179339  
     197A      0.179631   198A      0.183242   199A      0.184070  
     200A      0.185303   201A      0.185384   202A      0.187473  
     203A      0.188809   204A      0.189570   205A      0.189671  
     206A      0.190981   207A      0.191244   208A      0.192305  
     209A      0.192639   210A      0.194768   211A      0.196829  
     212A      0.197969   213A      0.199571   214A      0.201311  
     215A      0.201675   216A      0.202598   217A      0.203826  
     218A      0.204082   219A      0.204783   220A      0.205917  
     221A      0.206253   222A      0.208062   223A      0.208848  
     224A      0.210947   225A      0.211807   226A      0.212224  
     227A      0.214056   228A      0.214651   229A      0.216836  
     230A      0.217754   231A      0.218835   232A      0.219136  
     233A      0.221193   234A      0.223157   235A      0.224302  
     236A      0.227382   237A      0.228009   238A      0.228164  
     239A      0.229462   240A      0.230692   241A      0.231730  
     242A      0.233380   243A      0.234927   244A      0.235479  
     245A      0.236888   246A      0.238174   247A      0.239209  
     248A      0.240970   249A      0.241473   250A      0.244149  
     251A      0.244762   252A      0.245652   253A      0.246643  
     254A      0.248529   255A      0.251045   256A      0.251884  
     257A      0.252900   258A      0.253878   259A      0.256430  
     260A      0.258408   261A      0.259633   262A      0.260899  
     263A      0.261849   264A      0.264743   265A      0.266303  
     266A      0.267020   267A      0.268681   268A      0.270275  
     269A      0.270994   270A      0.272148   271A      0.272518  
     272A      0.274358   273A      0.275175   274A      0.276329  
     275A      0.278197   276A      0.280386   277A      0.282691  
     278A      0.283765   279A      0.283868   280A      0.286599  
     281A      0.287611   282A      0.287645   283A      0.288621  
     284A      0.290091   285A      0.291023   286A      0.292676  
     287A      0.294435   288A      0.295408   289A      0.295703  
     290A      0.296485   291A      0.299011   292A      0.299649  
     293A      0.299871   294A      0.301173   295A      0.302555  
     296A      0.303400   297A      0.306501   298A      0.309116  
     299A      0.309648   300A      0.310499   301A      0.312707  
     302A      0.313795   303A      0.314816   304A      0.315589  
     305A      0.317312   306A      0.320051   307A      0.321804  
     308A      0.322520   309A      0.323205   310A      0.323748  
     311A      0.325195   312A      0.327851   313A      0.329768  
     314A      0.332159   315A      0.333273   316A      0.335023  
     317A      0.335517   318A      0.336202   319A      0.337024  
     320A      0.338988   321A      0.339945   322A      0.341289  
     323A      0.341708   324A      0.342369   325A      0.342675  
     326A      0.343595   327A      0.344300   328A      0.346610  
     329A      0.347719   330A      0.348126   331A      0.349826  
     332A      0.350977   333A      0.351901   334A      0.353059  
     335A      0.353543   336A      0.354194   337A      0.355252  
     338A      0.356501   339A      0.357405   340A      0.358202  
     341A      0.360193   342A      0.361414   343A      0.363216  
     344A      0.363818   345A      0.364574   346A      0.366108  
     347A      0.367932   348A      0.368914   349A      0.370082  
     350A      0.370253   351A      0.370418   352A      0.372017  
     353A      0.372634   354A      0.374400   355A      0.375240  
     356A      0.376526   357A      0.378179   358A      0.378881  
     359A      0.379040   360A      0.379803   361A      0.380842  
     362A      0.382114   363A      0.383332   364A      0.383919  
     365A      0.384933   366A      0.385641   367A      0.386649  
     368A      0.387396   369A      0.388460   370A      0.388941  
     371A      0.390723   372A      0.391879   373A      0.392381  
     374A      0.393035   375A      0.394042   376A      0.395830  
     377A      0.396705   378A      0.397546   379A      0.398129  
     380A      0.398891   381A      0.401385   382A      0.401985  
     383A      0.402642   384A      0.404082   385A      0.404110  
     386A      0.405198   387A      0.405631   388A      0.405969  
     389A      0.406762   390A      0.409641   391A      0.409927  
     392A      0.412516   393A      0.412663   394A      0.413358  
     395A      0.414806   396A      0.415956   397A      0.416515  
     398A      0.418048   399A      0.419408   400A      0.419993  
     401A      0.420114   402A      0.421938   403A      0.422258  
     404A      0.423548   405A      0.424859   406A      0.426392  
     407A      0.427462   408A      0.428963   409A      0.429307  
     410A      0.429372   411A      0.430691   412A      0.433560  
     413A      0.434756   414A      0.435878   415A      0.436309  
     416A      0.437470   417A      0.440327   418A      0.440711  
     419A      0.441047   420A      0.442720   421A      0.443816  
     422A      0.444223   423A      0.446737   424A      0.448544  
     425A      0.449646   426A      0.449991   427A      0.451699  
     428A      0.452563   429A      0.453579   430A      0.454079  
     431A      0.455911   432A      0.456482   433A      0.458788  
     434A      0.460477   435A      0.461578   436A      0.461995  
     437A      0.462622   438A      0.464154   439A      0.464613  
     440A      0.465757   441A      0.467882   442A      0.468281  
     443A      0.470474   444A      0.471581   445A      0.472870  
     446A      0.473182   447A      0.473624   448A      0.475085  
     449A      0.476381   450A      0.477146   451A      0.477491  
     452A      0.478928   453A      0.481712   454A      0.483401  
     455A      0.483943   456A      0.484137   457A      0.485174  
     458A      0.485939   459A      0.489083   460A      0.490726  
     461A      0.491402   462A      0.492367   463A      0.492508  
     464A      0.493821   465A      0.493935   466A      0.495070  
     467A      0.496023   468A      0.496376   469A      0.498733  
     470A      0.499215   471A      0.500912   472A      0.501206  
     473A      0.502770   474A      0.504983   475A      0.506946  
     476A      0.508380   477A      0.509462   478A      0.511292  
     479A      0.511836   480A      0.513450   481A      0.514845  
     482A      0.515211   483A      0.516742   484A      0.517483  
     485A      0.517715   486A      0.518663   487A      0.519516  
     488A      0.520778   489A      0.522500   490A      0.522874  
     491A      0.524645   492A      0.524835   493A      0.526948  
     494A      0.528056   495A      0.529032   496A      0.530796  
     497A      0.531448   498A      0.532839   499A      0.533954  
     500A      0.534509   501A      0.535526   502A      0.536296  
     503A      0.536553   504A      0.537281   505A      0.538878  
     506A      0.539817   507A      0.541316   508A      0.542261  
     509A      0.543294   510A      0.543820   511A      0.544716  
     512A      0.547105   513A      0.548907   514A      0.549635  
     515A      0.549958   516A      0.551287   517A      0.552426  
     518A      0.553155   519A      0.553972   520A      0.554419  
     521A      0.556349   522A      0.558304   523A      0.560322  
     524A      0.560698   525A      0.562132   526A      0.562914  
     527A      0.564553   528A      0.565747   529A      0.567507  
     530A      0.568483   531A      0.568846   532A      0.571715  
     533A      0.572920   534A      0.574189   535A      0.574464  
     536A      0.576717   537A      0.577699   538A      0.580971  
     539A      0.581486   540A      0.583416   541A      0.584204  
     542A      0.585209   543A      0.587214   544A      0.588873  
     545A      0.590147   546A      0.590585   547A      0.592476  
     548A      0.592814   549A      0.593951   550A      0.595436  
     551A      0.597097   552A      0.597430   553A      0.598738  
     554A      0.599390   555A      0.602669   556A      0.603667  
     557A      0.604646   558A      0.605558   559A      0.606450  
     560A      0.608413   561A      0.609265   562A      0.612312  
     563A      0.613629   564A      0.613966   565A      0.614129  
     566A      0.616093   567A      0.616422   568A      0.619430  
     569A      0.621785   570A      0.622496   571A      0.624557  
     572A      0.625138   573A      0.625744   574A      0.627453  
     575A      0.628067   576A      0.629516   577A      0.630577  
     578A      0.631646   579A      0.633123   580A      0.633631  
     581A      0.634992   582A      0.635411   583A      0.636019  
     584A      0.636609   585A      0.637242   586A      0.638428  
     587A      0.639608   588A      0.640412   589A      0.641172  
     590A      0.641975   591A      0.642633   592A      0.644680  
     593A      0.646198   594A      0.647479   595A      0.649350  
     596A      0.649794   597A      0.651218   598A      0.652038  
     599A      0.652725   600A      0.654713   601A      0.657143  
     602A      0.658709   603A      0.660218   604A      0.661199  
     605A      0.662573   606A      0.664006   607A      0.665144  
     608A      0.667765   609A      0.668364   610A      0.671065  
     611A      0.671820   612A      0.672134   613A      0.675347  
     614A      0.676912   615A      0.677703   616A      0.680475  
     617A      0.682117   618A      0.684025   619A      0.684201  
     620A      0.684734   621A      0.685854   622A      0.686327  
     623A      0.688906   624A      0.690170   625A      0.690709  
     626A      0.691898   627A      0.692739   628A      0.694453  
     629A      0.697542   630A      0.698063   631A      0.699984  
     632A      0.700447   633A      0.701226   634A      0.702467  
     635A      0.704067   636A      0.705374   637A      0.706731  
     638A      0.707709   639A      0.708409   640A      0.708987  
     641A      0.711587   642A      0.713489   643A      0.715042  
     644A      0.715422   645A      0.715590   646A      0.717184  
     647A      0.717386   648A      0.718761   649A      0.719723  
     650A      0.721145   651A      0.722789   652A      0.723089  
     653A      0.725173   654A      0.726192   655A      0.726686  
     656A      0.727246   657A      0.727788   658A      0.728115  
     659A      0.729626   660A      0.730154   661A      0.731939  
     662A      0.732567   663A      0.733483   664A      0.734226  
     665A      0.737236   666A      0.738000   667A      0.738243  
     668A      0.741627   669A      0.742633   670A      0.744392  
     671A      0.745934   672A      0.746903   673A      0.748080  
     674A      0.749439   675A      0.750161   676A      0.750593  
     677A      0.753179   678A      0.754500   679A      0.756191  
     680A      0.756707   681A      0.758010   682A      0.759441  
     683A      0.760118   684A      0.760827   685A      0.761900  
     686A      0.762441   687A      0.765901   688A      0.769389  
     689A      0.770142   690A      0.771295   691A      0.772894  
     692A      0.773310   693A      0.775237   694A      0.776189  
     695A      0.776959   696A      0.779244   697A      0.780239  
     698A      0.781244   699A      0.781624   700A      0.784187  
     701A      0.785237   702A      0.786599   703A      0.787081  
     704A      0.787489   705A      0.789788   706A      0.790259  
     707A      0.792414   708A      0.794139   709A      0.796387  
     710A      0.797134   711A      0.798413   712A      0.799462  
     713A      0.799882   714A      0.800557   715A      0.802613  
     716A      0.803297   717A      0.804712   718A      0.805521  
     719A      0.806085   720A      0.806746   721A      0.809895  
     722A      0.810758   723A      0.812347   724A      0.815431  
     725A      0.816135   726A      0.817836   727A      0.819048  
     728A      0.821404   729A      0.823635   730A      0.824849  
     731A      0.825616   732A      0.828398   733A      0.828692  
     734A      0.831349   735A      0.834238   736A      0.834687  
     737A      0.836469   738A      0.837714   739A      0.838895  
     740A      0.839605   741A      0.841337   742A      0.843061  
     743A      0.843251   744A      0.845002   745A      0.845490  
     746A      0.847454   747A      0.847947   748A      0.850025  
     749A      0.850375   750A      0.850900   751A      0.852328  
     752A      0.853829   753A      0.855325   754A      0.857956  
     755A      0.858932   756A      0.860925   757A      0.861654  
     758A      0.862533   759A      0.863525   760A      0.865541  
     761A      0.866360   762A      0.868216   763A      0.869090  
     764A      0.870038   765A      0.871900   766A      0.872091  
     767A      0.874046   768A      0.874379   769A      0.877312  
     770A      0.879081   771A      0.880062   772A      0.881332  
     773A      0.881830   774A      0.884294   775A      0.884522  
     776A      0.886027   777A      0.888037   778A      0.888498  
     779A      0.889385   780A      0.890406   781A      0.893688  
     782A      0.894580   783A      0.896659   784A      0.897943  
     785A      0.898624   786A      0.901171   787A      0.901796  
     788A      0.903481   789A      0.905245   790A      0.906530  
     791A      0.906859   792A      0.909961   793A      0.911452  
     794A      0.912907   795A      0.914540   796A      0.914848  
     797A      0.915454   798A      0.918051   799A      0.919348  
     800A      0.920556   801A      0.922426   802A      0.923709  
     803A      0.925083   804A      0.925956   805A      0.927488  
     806A      0.928263   807A      0.929224   808A      0.930598  
     809A      0.931478   810A      0.933006   811A      0.933579  
     812A      0.934249   813A      0.935252   814A      0.936516  
     815A      0.937505   816A      0.938323   817A      0.939333  
     818A      0.940957   819A      0.943846   820A      0.944475  
     821A      0.945812   822A      0.946704   823A      0.947277  
     824A      0.947693   825A      0.949724   826A      0.951393  
     827A      0.953973   828A      0.955780   829A      0.956872  
     830A      0.958620   831A      0.961167   832A      0.962140  
     833A      0.963610   834A      0.966228   835A      0.967311  
     836A      0.968711   837A      0.969441   838A      0.969926  
     839A      0.971683   840A      0.972188   841A      0.974096  
     842A      0.974889   843A      0.976035   844A      0.976620  
     845A      0.978098   846A      0.980649   847A      0.981371  
     848A      0.983480   849A      0.984134   850A      0.984878  
     851A      0.986902   852A      0.988689   853A      0.991880  
     854A      0.992339   855A      0.995045   856A      0.996763  
     857A      0.999077   858A      1.000302   859A      1.000376  
     860A      1.003494   861A      1.004210   862A      1.006637  
     863A      1.008751   864A      1.009175   865A      1.009724  
     866A      1.011173   867A      1.013850   868A      1.015553  
     869A      1.018057   870A      1.018530   871A      1.020472  
     872A      1.020676   873A      1.022981   874A      1.024379  
     875A      1.025105   876A      1.026490   877A      1.028767  
     878A      1.029064   879A      1.029551   880A      1.031363  
     881A      1.034171   882A      1.034457   883A      1.036256  
     884A      1.036727   885A      1.038730   886A      1.039924  
     887A      1.042300   888A      1.043023   889A      1.045971  
     890A      1.047208   891A      1.049562   892A      1.051687  
     893A      1.055098   894A      1.056605   895A      1.056838  
     896A      1.058564   897A      1.058902   898A      1.060340  
     899A      1.061142   900A      1.061691   901A      1.063835  
     902A      1.064123   903A      1.065500   904A      1.066173  
     905A      1.066935   906A      1.067969   907A      1.070232  
     908A      1.071566   909A      1.073866   910A      1.074833  
     911A      1.076201   912A      1.077659   913A      1.079566  
     914A      1.080977   915A      1.082385   916A      1.082957  
     917A      1.083879   918A      1.088412   919A      1.089469  
     920A      1.090993   921A      1.093784   922A      1.095042  
     923A      1.095422   924A      1.096634   925A      1.097894  
     926A      1.098294   927A      1.099577   928A      1.100361  
     929A      1.101540   930A      1.102910   931A      1.103913  
     932A      1.106873   933A      1.107420   934A      1.110101  
     935A      1.111675   936A      1.112482   937A      1.114589  
     938A      1.116054   939A      1.117103   940A      1.118281  
     941A      1.119760   942A      1.120760   943A      1.121410  
     944A      1.122715   945A      1.124989   946A      1.126241  
     947A      1.127267   948A      1.128884   949A      1.131708  
     950A      1.133374   951A      1.134081   952A      1.135556  
     953A      1.136670   954A      1.138298   955A      1.140345  
     956A      1.141749   957A      1.143305   958A      1.143591  
     959A      1.144034   960A      1.146569   961A      1.149269  
     962A      1.150145   963A      1.151517   964A      1.153029  
     965A      1.153838   966A      1.155724   967A      1.156004  
     968A      1.156900   969A      1.158539   970A      1.160046  
     971A      1.160637   972A      1.162431   973A      1.164067  
     974A      1.164754   975A      1.165864   976A      1.166421  
     977A      1.168802   978A      1.169227   979A      1.170162  
     980A      1.171941   981A      1.174933   982A      1.175421  
     983A      1.177058   984A      1.177598   985A      1.180558  
     986A      1.183368   987A      1.183999   988A      1.186303  
     989A      1.187104   990A      1.187658   991A      1.189617  
     992A      1.190697   993A      1.192106   994A      1.192594  
     995A      1.193610   996A      1.195284   997A      1.196903  
     998A      1.197637   999A      1.199310  1000A      1.199995  
    1001A      1.200987  1002A      1.203527  1003A      1.204511  
    1004A      1.205846  1005A      1.207055  1006A      1.207570  
    1007A      1.208350  1008A      1.211993  1009A      1.212791  
    1010A      1.214072  1011A      1.215076  1012A      1.215668  
    1013A      1.216707  1014A      1.218161  1015A      1.219171  
    1016A      1.220249  1017A      1.221357  1018A      1.221742  
    1019A      1.222944  1020A      1.225132  1021A      1.225863  
    1022A      1.227482  1023A      1.228877  1024A      1.230628  
    1025A      1.232821  1026A      1.233774  1027A      1.235318  
    1028A      1.236747  1029A      1.238359  1030A      1.238758  
    1031A      1.240116  1032A      1.240958  1033A      1.243355  
    1034A      1.244493  1035A      1.246175  1036A      1.247013  
    1037A      1.247904  1038A      1.251452  1039A      1.253044  
    1040A      1.254336  1041A      1.255522  1042A      1.258615  
    1043A      1.260042  1044A      1.260901  1045A      1.261377  
    1046A      1.263480  1047A      1.263814  1048A      1.265254  
    1049A      1.266745  1050A      1.266788  1051A      1.268531  
    1052A      1.269623  1053A      1.270440  1054A      1.271537  
    1055A      1.272511  1056A      1.273424  1057A      1.274412  
    1058A      1.276725  1059A      1.276860  1060A      1.277456  
    1061A      1.278296  1062A      1.280021  1063A      1.280810  
    1064A      1.282908  1065A      1.284185  1066A      1.284968  
    1067A      1.285104  1068A      1.286067  1069A      1.288229  
    1070A      1.288891  1071A      1.290029  1072A      1.291063  
    1073A      1.292947  1074A      1.293491  1075A      1.295458  
    1076A      1.297541  1077A      1.298381  1078A      1.299018  
    1079A      1.301884  1080A      1.302402  1081A      1.303932  
    1082A      1.304302  1083A      1.306007  1084A      1.307102  
    1085A      1.309470  1086A      1.310341  1087A      1.311609  
    1088A      1.312310  1089A      1.313674  1090A      1.314589  
    1091A      1.316265  1092A      1.316891  1093A      1.317348  
    1094A      1.319245  1095A      1.322335  1096A      1.322885  
    1097A      1.325797  1098A      1.326769  1099A      1.327591  
    1100A      1.328525  1101A      1.330125  1102A      1.330973  
    1103A      1.333888  1104A      1.334771  1105A      1.335504  
    1106A      1.337148  1107A      1.338409  1108A      1.339923  
    1109A      1.341345  1110A      1.341948  1111A      1.343368  
    1112A      1.345933  1113A      1.346775  1114A      1.347357  
    1115A      1.348830  1116A      1.349729  1117A      1.352241  
    1118A      1.352972  1119A      1.353527  1120A      1.354048  
    1121A      1.355954  1122A      1.356561  1123A      1.357493  
    1124A      1.360390  1125A      1.362481  1126A      1.362963  
    1127A      1.364702  1128A      1.366103  1129A      1.368831  
    1130A      1.369853  1131A      1.371609  1132A      1.372269  
    1133A      1.374845  1134A      1.376506  1135A      1.377556  
    1136A      1.379012  1137A      1.380781  1138A      1.381799  
    1139A      1.384649  1140A      1.384922  1141A      1.387606  
    1142A      1.388259  1143A      1.389469  1144A      1.390128  
    1145A      1.391578  1146A      1.392752  1147A      1.394208  
    1148A      1.394596  1149A      1.395586  1150A      1.397128  
    1151A      1.398776  1152A      1.399756  1153A      1.400644  
    1154A      1.402111  1155A      1.403237  1156A      1.404167  
    1157A      1.405591  1158A      1.406403  1159A      1.407470  
    1160A      1.408131  1161A      1.410320  1162A      1.411201  
    1163A      1.412653  1164A      1.413153  1165A      1.414223  
    1166A      1.416807  1167A      1.417642  1168A      1.418203  
    1169A      1.419721  1170A      1.419840  1171A      1.421941  
    1172A      1.422296  1173A      1.422495  1174A      1.424639  
    1175A      1.426259  1176A      1.427221  1177A      1.427608  
    1178A      1.430092  1179A      1.431934  1180A      1.432405  
    1181A      1.433936  1182A      1.435577  1183A      1.436545  
    1184A      1.437101  1185A      1.438034  1186A      1.439926  
    1187A      1.441198  1188A      1.444084  1189A      1.444619  
    1190A      1.448765  1191A      1.448780  1192A      1.450944  
    1193A      1.451151  1194A      1.452224  1195A      1.454519  
    1196A      1.455091  1197A      1.455641  1198A      1.458181  
    1199A      1.458541  1200A      1.459650  1201A      1.461854  
    1202A      1.463382  1203A      1.467379  1204A      1.467670  
    1205A      1.468387  1206A      1.470842  1207A      1.471495  
    1208A      1.473566  1209A      1.476058  1210A      1.477033  
    1211A      1.477781  1212A      1.479090  1213A      1.479904  
    1214A      1.482193  1215A      1.483773  1216A      1.484667  
    1217A      1.485905  1218A      1.487281  1219A      1.488447  
    1220A      1.489353  1221A      1.490517  1222A      1.491872  
    1223A      1.495205  1224A      1.496323  1225A      1.498503  
    1226A      1.502188  1227A      1.503127  1228A      1.503721  
    1229A      1.504793  1230A      1.505616  1231A      1.508003  
    1232A      1.509790  1233A      1.513048  1234A      1.514480  
    1235A      1.516277  1236A      1.517227  1237A      1.520063  
    1238A      1.520878  1239A      1.523442  1240A      1.526630  
    1241A      1.529725  1242A      1.531959  1243A      1.533192  
    1244A      1.534881  1245A      1.535900  1246A      1.537072  
    1247A      1.538696  1248A      1.539530  1249A      1.541820  
    1250A      1.544702  1251A      1.544798  1252A      1.547276  
    1253A      1.549702  1254A      1.552281  1255A      1.553117  
    1256A      1.554218  1257A      1.556527  1258A      1.559494  
    1259A      1.559631  1260A      1.562092  1261A      1.562643  
    1262A      1.563984  1263A      1.565616  1264A      1.567371  
    1265A      1.570022  1266A      1.571825  1267A      1.573638  
    1268A      1.574008  1269A      1.577558  1270A      1.578343  
    1271A      1.579666  1272A      1.581097  1273A      1.582651  
    1274A      1.583836  1275A      1.585257  1276A      1.586346  
    1277A      1.587289  1278A      1.588143  1279A      1.589565  
    1280A      1.592612  1281A      1.593526  1282A      1.593822  
    1283A      1.595565  1284A      1.596956  1285A      1.599109  
    1286A      1.599395  1287A      1.601080  1288A      1.603528  
    1289A      1.604010  1290A      1.604724  1291A      1.606513  
    1292A      1.607383  1293A      1.608630  1294A      1.610983  
    1295A      1.611486  1296A      1.612518  1297A      1.614632  
    1298A      1.616518  1299A      1.617900  1300A      1.619781  
    1301A      1.620685  1302A      1.622673  1303A      1.624998  
    1304A      1.626092  1305A      1.626716  1306A      1.628805  
    1307A      1.629563  1308A      1.633254  1309A      1.633802  
    1310A      1.634108  1311A      1.635769  1312A      1.637580  
    1313A      1.638159  1314A      1.640530  1315A      1.640999  
    1316A      1.643750  1317A      1.644360  1318A      1.645741  
    1319A      1.647546  1320A      1.648042  1321A      1.648827  
    1322A      1.650697  1323A      1.651641  1324A      1.652125  
    1325A      1.654594  1326A      1.656333  1327A      1.657467  
    1328A      1.657657  1329A      1.658921  1330A      1.660037  
    1331A      1.661539  1332A      1.663169  1333A      1.664107  
    1334A      1.665454  1335A      1.668168  1336A      1.670184  
    1337A      1.671653  1338A      1.672664  1339A      1.674799  
    1340A      1.675764  1341A      1.676509  1342A      1.676917  
    1343A      1.680382  1344A      1.681330  1345A      1.682049  
    1346A      1.682972  1347A      1.684222  1348A      1.686351  
    1349A      1.687510  1350A      1.689657  1351A      1.690784  
    1352A      1.691308  1353A      1.692895  1354A      1.693632  
    1355A      1.695507  1356A      1.697888  1357A      1.699557  
    1358A      1.701039  1359A      1.702170  1360A      1.702915  
    1361A      1.703791  1362A      1.705615  1363A      1.707036  
    1364A      1.708899  1365A      1.709105  1366A      1.711327  
    1367A      1.715014  1368A      1.716040  1369A      1.717272  
    1370A      1.718003  1371A      1.721145  1372A      1.722639  
    1373A      1.723637  1374A      1.724940  1375A      1.725230  
    1376A      1.727139  1377A      1.728310  1378A      1.728927  
    1379A      1.730339  1380A      1.731896  1381A      1.732513  
    1382A      1.734130  1383A      1.735220  1384A      1.737240  
    1385A      1.738683  1386A      1.739886  1387A      1.740557  
    1388A      1.742021  1389A      1.744818  1390A      1.745549  
    1391A      1.745976  1392A      1.747147  1393A      1.749734  
    1394A      1.751301  1395A      1.752340  1396A      1.754031  
    1397A      1.755621  1398A      1.757957  1399A      1.758630  
    1400A      1.759323  1401A      1.760460  1402A      1.761400  
    1403A      1.763502  1404A      1.764923  1405A      1.765783  
    1406A      1.766928  1407A      1.768879  1408A      1.770073  
    1409A      1.771627  1410A      1.773910  1411A      1.774558  
    1412A      1.776883  1413A      1.778493  1414A      1.779331  
    1415A      1.781686  1416A      1.782227  1417A      1.782581  
    1418A      1.783376  1419A      1.784579  1420A      1.787517  
    1421A      1.787939  1422A      1.789819  1423A      1.790071  
    1424A      1.791379  1425A      1.792966  1426A      1.793643  
    1427A      1.798507  1428A      1.798822  1429A      1.800220  
    1430A      1.802418  1431A      1.804135  1432A      1.804616  
    1433A      1.806568  1434A      1.807675  1435A      1.809238  
    1436A      1.811899  1437A      1.813019  1438A      1.814958  
    1439A      1.815927  1440A      1.816971  1441A      1.817244  
    1442A      1.818732  1443A      1.821789  1444A      1.822455  
    1445A      1.826377  1446A      1.828819  1447A      1.829143  
    1448A      1.830596  1449A      1.831671  1450A      1.832530  
    1451A      1.834270  1452A      1.837465  1453A      1.839946  
    1454A      1.841498  1455A      1.841872  1456A      1.842972  
    1457A      1.844393  1458A      1.846524  1459A      1.848363  
    1460A      1.849108  1461A      1.850710  1462A      1.852074  
    1463A      1.853716  1464A      1.855671  1465A      1.856190  
    1466A      1.856586  1467A      1.859072  1468A      1.859659  
    1469A      1.861025  1470A      1.863094  1471A      1.866413  
    1472A      1.866835  1473A      1.869158  1474A      1.873062  
    1475A      1.874006  1476A      1.875588  1477A      1.877808  
    1478A      1.878570  1479A      1.880910  1480A      1.882123  
    1481A      1.883094  1482A      1.885276  1483A      1.885911  
    1484A      1.887324  1485A      1.888893  1486A      1.890359  
    1487A      1.893411  1488A      1.894808  1489A      1.895211  
    1490A      1.897041  1491A      1.898002  1492A      1.902422  
    1493A      1.903659  1494A      1.904710  1495A      1.905886  
    1496A      1.909238  1497A      1.910117  1498A      1.911098  
    1499A      1.911982  1500A      1.914445  1501A      1.916413  
    1502A      1.918996  1503A      1.920540  1504A      1.920903  
    1505A      1.922503  1506A      1.923304  1507A      1.924856  
    1508A      1.925693  1509A      1.927265  1510A      1.929170  
    1511A      1.930675  1512A      1.932415  1513A      1.933101  
    1514A      1.934765  1515A      1.937209  1516A      1.940763  
    1517A      1.943017  1518A      1.945187  1519A      1.945543  
    1520A      1.950525  1521A      1.951992  1522A      1.953207  
    1523A      1.955213  1524A      1.957514  1525A      1.958581  
    1526A      1.961411  1527A      1.963436  1528A      1.964355  
    1529A      1.965671  1530A      1.967394  1531A      1.970513  
    1532A      1.972318  1533A      1.973252  1534A      1.975460  
    1535A      1.975835  1536A      1.978265  1537A      1.981534  
    1538A      1.982892  1539A      1.984269  1540A      1.986179  
    1541A      1.988430  1542A      1.990826  1543A      1.992737  
    1544A      1.993125  1545A      1.994439  1546A      1.995880  
    1547A      1.996834  1548A      1.998062  1549A      1.998903  
    1550A      2.001488  1551A      2.002668  1552A      2.003271  
    1553A      2.003754  1554A      2.005062  1555A      2.007647  
    1556A      2.008845  1557A      2.010501  1558A      2.013122  
    1559A      2.014630  1560A      2.015701  1561A      2.016675  
    1562A      2.018512  1563A      2.019441  1564A      2.023110  
    1565A      2.024190  1566A      2.025092  1567A      2.027488  
    1568A      2.028118  1569A      2.030461  1570A      2.031820  
    1571A      2.032694  1572A      2.035355  1573A      2.035764  
    1574A      2.037102  1575A      2.040439  1576A      2.041121  
    1577A      2.042793  1578A      2.044113  1579A      2.045339  
    1580A      2.047600  1581A      2.048720  1582A      2.049577  
    1583A      2.051521  1584A      2.052945  1585A      2.053507  
    1586A      2.055866  1587A      2.058320  1588A      2.059606  
    1589A      2.060923  1590A      2.062436  1591A      2.062612  
    1592A      2.063468  1593A      2.066626  1594A      2.067055  
    1595A      2.068537  1596A      2.070732  1597A      2.073086  
    1598A      2.073911  1599A      2.074357  1600A      2.076877  
    1601A      2.078435  1602A      2.080587  1603A      2.081804  
    1604A      2.084654  1605A      2.085675  1606A      2.088242  
    1607A      2.089255  1608A      2.090758  1609A      2.091757  
    1610A      2.095079  1611A      2.096359  1612A      2.099903  
    1613A      2.100531  1614A      2.101423  1615A      2.101935  
    1616A      2.105232  1617A      2.106884  1618A      2.108883  
    1619A      2.109896  1620A      2.112146  1621A      2.113348  
    1622A      2.116013  1623A      2.118054  1624A      2.119584  
    1625A      2.120754  1626A      2.122393  1627A      2.124049  
    1628A      2.125432  1629A      2.126406  1630A      2.127382  
    1631A      2.129015  1632A      2.130679  1633A      2.133207  
    1634A      2.134105  1635A      2.136370  1636A      2.138137  
    1637A      2.138867  1638A      2.140552  1639A      2.142846  
    1640A      2.143279  1641A      2.146386  1642A      2.147928  
    1643A      2.148190  1644A      2.152828  1645A      2.153885  
    1646A      2.156698  1647A      2.157642  1648A      2.162239  
    1649A      2.163699  1650A      2.164217  1651A      2.164752  
    1652A      2.166086  1653A      2.168853  1654A      2.170831  
    1655A      2.173549  1656A      2.174796  1657A      2.176974  
    1658A      2.179011  1659A      2.181923  1660A      2.183560  
    1661A      2.186138  1662A      2.188527  1663A      2.188742  
    1664A      2.190292  1665A      2.192224  1666A      2.192926  
    1667A      2.194342  1668A      2.195878  1669A      2.196359  
    1670A      2.199521  1671A      2.201259  1672A      2.203912  
    1673A      2.208206  1674A      2.209455  1675A      2.212759  
    1676A      2.213575  1677A      2.215073  1678A      2.217004  
    1679A      2.220143  1680A      2.223205  1681A      2.225625  
    1682A      2.229632  1683A      2.231079  1684A      2.233145  
    1685A      2.236037  1686A      2.237062  1687A      2.240777  
    1688A      2.242706  1689A      2.244655  1690A      2.245157  
    1691A      2.248622  1692A      2.250627  1693A      2.251318  
    1694A      2.252643  1695A      2.256262  1696A      2.257523  
    1697A      2.257930  1698A      2.261526  1699A      2.262934  
    1700A      2.264316  1701A      2.265698  1702A      2.266378  
    1703A      2.270572  1704A      2.270648  1705A      2.271969  
    1706A      2.273803  1707A      2.276000  1708A      2.278170  
    1709A      2.278738  1710A      2.279920  1711A      2.281822  
    1712A      2.284028  1713A      2.286205  1714A      2.289997  
    1715A      2.291557  1716A      2.293470  1717A      2.293878  
    1718A      2.297030  1719A      2.299351  1720A      2.300642  
    1721A      2.301694  1722A      2.302583  1723A      2.305619  
    1724A      2.308338  1725A      2.309671  1726A      2.311216  
    1727A      2.312895  1728A      2.313519  1729A      2.315458  
    1730A      2.316903  1731A      2.319820  1732A      2.322319  
    1733A      2.323114  1734A      2.324844  1735A      2.326963  
    1736A      2.328561  1737A      2.331023  1738A      2.333377  
    1739A      2.336094  1740A      2.338598  1741A      2.339715  
    1742A      2.342135  1743A      2.344625  1744A      2.345222  
    1745A      2.345401  1746A      2.347164  1747A      2.349247  
    1748A      2.351470  1749A      2.354533  1750A      2.355454  
    1751A      2.358624  1752A      2.361235  1753A      2.362040  
    1754A      2.363174  1755A      2.366171  1756A      2.367774  
    1757A      2.369306  1758A      2.371992  1759A      2.374228  
    1760A      2.375377  1761A      2.376270  1762A      2.378733  
    1763A      2.379735  1764A      2.382388  1765A      2.383409  
    1766A      2.384174  1767A      2.386855  1768A      2.387762  
    1769A      2.389797  1770A      2.391868  1771A      2.392504  
    1772A      2.394760  1773A      2.396408  1774A      2.396808  
    1775A      2.399161  1776A      2.399662  1777A      2.401007  
    1778A      2.402912  1779A      2.404961  1780A      2.407965  
    1781A      2.411163  1782A      2.411241  1783A      2.413360  
    1784A      2.415840  1785A      2.416863  1786A      2.418963  
    1787A      2.420714  1788A      2.422143  1789A      2.424229  
    1790A      2.425620  1791A      2.427357  1792A      2.428999  
    1793A      2.430950  1794A      2.433638  1795A      2.434388  
    1796A      2.435720  1797A      2.438302  1798A      2.440654  
    1799A      2.442030  1800A      2.443231  1801A      2.448242  
    1802A      2.450916  1803A      2.452603  1804A      2.453508  
    1805A      2.456455  1806A      2.457725  1807A      2.460035  
    1808A      2.461828  1809A      2.464468  1810A      2.466051  
    1811A      2.467341  1812A      2.469028  1813A      2.472635  
    1814A      2.472770  1815A      2.475528  1816A      2.476217  
    1817A      2.478580  1818A      2.479216  1819A      2.480653  
    1820A      2.484639  1821A      2.485186  1822A      2.486140  
    1823A      2.488569  1824A      2.490004  1825A      2.492161  
    1826A      2.497137  1827A      2.499056  1828A      2.500899  
    1829A      2.504832  1830A      2.509194  1831A      2.512510  
    1832A      2.513861  1833A      2.519499  1834A      2.520811  
    1835A      2.521737  1836A      2.524500  1837A      2.526096  
    1838A      2.529569  1839A      2.533310  1840A      2.534288  
    1841A      2.540822  1842A      2.542154  1843A      2.543326  
    1844A      2.545567  1845A      2.547930  1846A      2.549552  
    1847A      2.553672  1848A      2.556098  1849A      2.560861  
    1850A      2.560966  1851A      2.562075  1852A      2.566405  
    1853A      2.567519  1854A      2.567853  1855A      2.569757  
    1856A      2.570664  1857A      2.571782  1858A      2.574755  
    1859A      2.577599  1860A      2.579686  1861A      2.582421  
    1862A      2.584992  1863A      2.586103  1864A      2.588003  
    1865A      2.589167  1866A      2.592696  1867A      2.594040  
    1868A      2.595153  1869A      2.596288  1870A      2.598524  
    1871A      2.600043  1872A      2.603551  1873A      2.605611  
    1874A      2.608102  1875A      2.609121  1876A      2.610212  
    1877A      2.613337  1878A      2.613619  1879A      2.616591  
    1880A      2.618200  1881A      2.619688  1882A      2.621902  
    1883A      2.624954  1884A      2.626069  1885A      2.630566  
    1886A      2.631721  1887A      2.632732  1888A      2.635024  
    1889A      2.637578  1890A      2.640062  1891A      2.645022  
    1892A      2.648916  1893A      2.651461  1894A      2.652005  
    1895A      2.654248  1896A      2.658225  1897A      2.661843  
    1898A      2.665612  1899A      2.669520  1900A      2.673119  
    1901A      2.677443  1902A      2.679002  1903A      2.679591  
    1904A      2.681454  1905A      2.683574  1906A      2.684030  
    1907A      2.687678  1908A      2.688966  1909A      2.691334  
    1910A      2.694014  1911A      2.695530  1912A      2.698456  
    1913A      2.702965  1914A      2.704667  1915A      2.707016  
    1916A      2.707769  1917A      2.711733  1918A      2.712512  
    1919A      2.714713  1920A      2.718739  1921A      2.720848  
    1922A      2.725264  1923A      2.726132  1924A      2.727426  
    1925A      2.728801  1926A      2.732990  1927A      2.734605  
    1928A      2.736110  1929A      2.737598  1930A      2.739037  
    1931A      2.741780  1932A      2.742188  1933A      2.745038  
    1934A      2.745757  1935A      2.748614  1936A      2.750343  
    1937A      2.760190  1938A      2.761668  1939A      2.763077  
    1940A      2.767931  1941A      2.769904  1942A      2.770433  
    1943A      2.775450  1944A      2.780969  1945A      2.782706  
    1946A      2.785403  1947A      2.788602  1948A      2.793127  
    1949A      2.795241  1950A      2.796347  1951A      2.799184  
    1952A      2.800642  1953A      2.802195  1954A      2.803586  
    1955A      2.807300  1956A      2.809958  1957A      2.815565  
    1958A      2.818239  1959A      2.821068  1960A      2.822913  
    1961A      2.824272  1962A      2.830113  1963A      2.830718  
    1964A      2.834164  1965A      2.836896  1966A      2.838466  
    1967A      2.840661  1968A      2.842018  1969A      2.843908  
    1970A      2.847138  1971A      2.849158  1972A      2.851144  
    1973A      2.851868  1974A      2.853156  1975A      2.855695  
    1976A      2.859067  1977A      2.862452  1978A      2.867442  
    1979A      2.869186  1980A      2.878697  1981A      2.879202  
    1982A      2.883842  1983A      2.884082  1984A      2.886745  
    1985A      2.890214  1986A      2.892683  1987A      2.896977  
    1988A      2.898226  1989A      2.899876  1990A      2.900925  
    1991A      2.904128  1992A      2.905520  1993A      2.909799  
    1994A      2.912527  1995A      2.914921  1996A      2.915909  
    1997A      2.917663  1998A      2.921075  1999A      2.922958  
    2000A      2.924797  2001A      2.930213  2002A      2.935288  
    2003A      2.936508  2004A      2.938015  2005A      2.943814  
    2006A      2.944912  2007A      2.949825  2008A      2.958060  
    2009A      2.958964  2010A      2.965856  2011A      2.968559  
    2012A      2.971896  2013A      2.972469  2014A      2.980658  
    2015A      2.985879  2016A      2.991562  2017A      2.993011  
    2018A      2.999481  2019A      3.001225  2020A      3.011832  
    2021A      3.013431  2022A      3.016423  2023A      3.017850  
    2024A      3.021205  2025A      3.026043  2026A      3.033497  
    2027A      3.036367  2028A      3.046249  2029A      3.049663  
    2030A      3.050776  2031A      3.055170  2032A      3.060540  
    2033A      3.061792  2034A      3.066971  2035A      3.069610  
    2036A      3.070754  2037A      3.070957  2038A      3.076202  
    2039A      3.079542  2040A      3.080560  2041A      3.082979  
    2042A      3.088029  2043A      3.091640  2044A      3.094631  
    2045A      3.098210  2046A      3.105428  2047A      3.107679  
    2048A      3.108681  2049A      3.110241  2050A      3.117909  
    2051A      3.121914  2052A      3.124014  2053A      3.129169  
    2054A      3.133642  2055A      3.139289  2056A      3.145112  
    2057A      3.146478  2058A      3.148482  2059A      3.161600  
    2060A      3.163996  2061A      3.165886  2062A      3.168537  
    2063A      3.174973  2064A      3.177228  2065A      3.178256  
    2066A      3.185688  2067A      3.188226  2068A      3.191406  
    2069A      3.194693  2070A      3.196393  2071A      3.199524  
    2072A      3.209717  2073A      3.210406  2074A      3.220679  
    2075A      3.224919  2076A      3.228439  2077A      3.235035  
    2078A      3.236744  2079A      3.244038  2080A      3.245081  
    2081A      3.253705  2082A      3.254349  2083A      3.256777  
    2084A      3.264768  2085A      3.272027  2086A      3.277035  
    2087A      3.278828  2088A      3.283049  2089A      3.289630  
    2090A      3.292382  2091A      3.297715  2092A      3.312076  
    2093A      3.320334  2094A      3.324073  2095A      3.325858  
    2096A      3.329711  2097A      3.336781  2098A      3.344996  
    2099A      3.346913  2100A      3.356200  2101A      3.368300  
    2102A      3.371903  2103A      3.382347  2104A      3.389372  
    2105A      3.395426  2106A      3.412288  2107A      3.414636  
    2108A      3.415601  2109A      3.416933  2110A      3.420627  
    2111A      3.433492  2112A      3.443829  2113A      3.454406  
    2114A      3.460938  2115A      3.464921  2116A      3.469722  
    2117A      3.470963  2118A      3.474374  2119A      3.490091  
    2120A      3.507457  2121A      3.511213  2122A      3.518006  
    2123A      3.518930  2124A      3.527095  2125A      3.532419  
    2126A      3.537725  2127A      3.540583  2128A      3.545714  
    2129A      3.548559  2130A      3.550184  2131A      3.559670  
    2132A      3.568243  2133A      3.580829  2134A      3.582913  
    2135A      3.588266  2136A      3.597305  2137A      3.600929  
    2138A      3.609155  2139A      3.613929  2140A      3.621494  
    2141A      3.625732  2142A      3.628258  2143A      3.635306  
    2144A      3.648179  2145A      3.650282  2146A      3.657784  
    2147A      3.665015  2148A      3.671086  2149A      3.674028  
    2150A      3.676074  2151A      3.680447  2152A      3.682431  
    2153A      3.687375  2154A      3.689753  2155A      3.689975  
    2156A      3.697182  2157A      3.700936  2158A      3.704443  
    2159A      3.707209  2160A      3.711830  2161A      3.713047  
    2162A      3.714508  2163A      3.717068  2164A      3.726341  
    2165A      3.729062  2166A      3.734834  2167A      3.743121  
    2168A      3.747243  2169A      3.752134  2170A      3.752848  
    2171A      3.754578  2172A      3.761672  2173A      3.765307  
    2174A      3.768140  2175A      3.773525  2176A      3.775194  
    2177A      3.786102  2178A      3.792586  2179A      3.795774  
    2180A      3.800222  2181A      3.805734  2182A      3.814212  
    2183A      3.815209  2184A      3.817683  2185A      3.826721  
    2186A      3.829304  2187A      3.832067  2188A      3.832727  
    2189A      3.841679  2190A      3.843953  2191A      3.845718  
    2192A      3.848554  2193A      3.851384  2194A      3.853078  
    2195A      3.858002  2196A      3.859746  2197A      3.860671  
    2198A      3.865983  2199A      3.867192  2200A      3.871321  
    2201A      3.874420  2202A      3.878815  2203A      3.889942  
    2204A      3.894674  2205A      3.901883  2206A      3.903721  
    2207A      3.908150  2208A      3.909140  2209A      3.918468  
    2210A      3.923674  2211A      3.925505  2212A      3.929913  
    2213A      3.932008  2214A      3.937554  2215A      3.947870  
    2216A      3.948051  2217A      3.950956  2218A      3.951355  
    2219A      3.955192  2220A      3.960379  2221A      3.966888  
    2222A      3.970859  2223A      3.975373  2224A      3.981439  
    2225A      3.983437  2226A      3.985503  2227A      3.989116  
    2228A      3.991175  2229A      3.992833  2230A      3.994652  
    2231A      3.997007  2232A      4.001980  2233A      4.003318  
    2234A      4.006186  2235A      4.008009  2236A      4.009522  
    2237A      4.013005  2238A      4.014152  2239A      4.015702  
    2240A      4.018701  2241A      4.022890  2242A      4.025892  
    2243A      4.030505  2244A      4.032108  2245A      4.034813  
    2246A      4.035949  2247A      4.039800  2248A      4.041959  
    2249A      4.044280  2250A      4.045687  2251A      4.048564  
    2252A      4.049974  2253A      4.054287  2254A      4.056598  
    2255A      4.060092  2256A      4.065178  2257A      4.068470  
    2258A      4.072796  2259A      4.076970  2260A      4.078874  
    2261A      4.081441  2262A      4.086215  2263A      4.088301  
    2264A      4.088948  2265A      4.091939  2266A      4.093034  
    2267A      4.095595  2268A      4.097131  2269A      4.103798  
    2270A      4.105362  2271A      4.111977  2272A      4.113882  
    2273A      4.115678  2274A      4.120023  2275A      4.124692  
    2276A      4.126511  2277A      4.130209  2278A      4.131657  
    2279A      4.132075  2280A      4.135381  2281A      4.137363  
    2282A      4.137744  2283A      4.141485  2284A      4.144472  
    2285A      4.145935  2286A      4.149448  2287A      4.150497  
    2288A      4.153389  2289A      4.156315  2290A      4.157276  
    2291A      4.158391  2292A      4.163299  2293A      4.165961  
    2294A      4.167940  2295A      4.169419  2296A      4.170144  
    2297A      4.176661  2298A      4.178682  2299A      4.182070  
    2300A      4.183885  2301A      4.186710  2302A      4.190253  
    2303A      4.192302  2304A      4.192890  2305A      4.196883  
    2306A      4.200215  2307A      4.203978  2308A      4.204448  
    2309A      4.208321  2310A      4.209954  2311A      4.214413  
    2312A      4.215007  2313A      4.215989  2314A      4.221188  
    2315A      4.223613  2316A      4.226391  2317A      4.227144  
    2318A      4.229699  2319A      4.231973  2320A      4.234296  
    2321A      4.235829  2322A      4.239020  2323A      4.240884  
    2324A      4.242696  2325A      4.244642  2326A      4.247539  
    2327A      4.248858  2328A      4.250660  2329A      4.252280  
    2330A      4.256269  2331A      4.256960  2332A      4.262251  
    2333A      4.267929  2334A      4.268061  2335A      4.271717  
    2336A      4.273046  2337A      4.274283  2338A      4.277714  
    2339A      4.279038  2340A      4.283186  2341A      4.284735  
    2342A      4.286730  2343A      4.288617  2344A      4.290636  
    2345A      4.292120  2346A      4.294877  2347A      4.298820  
    2348A      4.301175  2349A      4.304203  2350A      4.309142  
    2351A      4.313837  2352A      4.315511  2353A      4.319542  
    2354A      4.320022  2355A      4.324522  2356A      4.326546  
    2357A      4.328041  2358A      4.331266  2359A      4.334136  
    2360A      4.336270  2361A      4.338592  2362A      4.341429  
    2363A      4.344265  2364A      4.346463  2365A      4.347197  
    2366A      4.350047  2367A      4.351266  2368A      4.352752  
    2369A      4.355758  2370A      4.359435  2371A      4.360607  
    2372A      4.362339  2373A      4.364454  2374A      4.366572  
    2375A      4.369896  2376A      4.372792  2377A      4.373599  
    2378A      4.376661  2379A      4.377134  2380A      4.380974  
    2381A      4.382983  2382A      4.385360  2383A      4.385950  
    2384A      4.386561  2385A      4.390770  2386A      4.391760  
    2387A      4.395113  2388A      4.398044  2389A      4.398437  
    2390A      4.402380  2391A      4.403223  2392A      4.406363  
    2393A      4.408326  2394A      4.411271  2395A      4.412760  
    2396A      4.414011  2397A      4.416556  2398A      4.417856  
    2399A      4.422766  2400A      4.423353  2401A      4.425045  
    2402A      4.430147  2403A      4.430665  2404A      4.433113  
    2405A      4.437993  2406A      4.440296  2407A      4.441075  
    2408A      4.443081  2409A      4.443455  2410A      4.448666  
    2411A      4.451207  2412A      4.452473  2413A      4.455329  
    2414A      4.457086  2415A      4.458368  2416A      4.460955  
    2417A      4.463312  2418A      4.465983  2419A      4.467388  
    2420A      4.468801  2421A      4.471463  2422A      4.475752  
    2423A      4.477132  2424A      4.478565  2425A      4.480827  
    2426A      4.481651  2427A      4.483997  2428A      4.484613  
    2429A      4.487636  2430A      4.488316  2431A      4.489953  
    2432A      4.493048  2433A      4.494258  2434A      4.497990  
    2435A      4.499749  2436A      4.503225  2437A      4.503704  
    2438A      4.506392  2439A      4.508095  2440A      4.509873  
    2441A      4.513126  2442A      4.515120  2443A      4.518113  
    2444A      4.519835  2445A      4.521781  2446A      4.529569  
    2447A      4.530052  2448A      4.533771  2449A      4.536766  
    2450A      4.537399  2451A      4.538294  2452A      4.543649  
    2453A      4.544192  2454A      4.546449  2455A      4.550876  
    2456A      4.553118  2457A      4.554269  2458A      4.558937  
    2459A      4.562331  2460A      4.565604  2461A      4.568588  
    2462A      4.570683  2463A      4.576653  2464A      4.579192  
    2465A      4.582043  2466A      4.582578  2467A      4.583883  
    2468A      4.588503  2469A      4.589924  2470A      4.594936  
    2471A      4.595494  2472A      4.598029  2473A      4.598374  
    2474A      4.601315  2475A      4.603602  2476A      4.605240  
    2477A      4.606557  2478A      4.607357  2479A      4.611386  
    2480A      4.612253  2481A      4.614594  2482A      4.616156  
    2483A      4.616955  2484A      4.619714  2485A      4.621316  
    2486A      4.626055  2487A      4.628838  2488A      4.630703  
    2489A      4.632418  2490A      4.635127  2491A      4.637550  
    2492A      4.639381  2493A      4.642352  2494A      4.645381  
    2495A      4.647174  2496A      4.651327  2497A      4.652079  
    2498A      4.658746  2499A      4.660789  2500A      4.663855  
    2501A      4.665833  2502A      4.667714  2503A      4.673248  
    2504A      4.675475  2505A      4.679083  2506A      4.679881  
    2507A      4.682390  2508A      4.686006  2509A      4.688466  
    2510A      4.694526  2511A      4.694949  2512A      4.700686  
    2513A      4.704501  2514A      4.706246  2515A      4.707078  
    2516A      4.712407  2517A      4.713646  2518A      4.715495  
    2519A      4.718810  2520A      4.721007  2521A      4.723825  
    2522A      4.726415  2523A      4.731295  2524A      4.732754  
    2525A      4.735654  2526A      4.737270  2527A      4.738639  
    2528A      4.744547  2529A      4.745923  2530A      4.749574  
    2531A      4.752679  2532A      4.753961  2533A      4.756570  
    2534A      4.759561  2535A      4.761637  2536A      4.763575  
    2537A      4.768256  2538A      4.769337  2539A      4.772233  
    2540A      4.776990  2541A      4.778671  2542A      4.779865  
    2543A      4.781507  2544A      4.785833  2545A      4.787873  
    2546A      4.789364  2547A      4.793245  2548A      4.794356  
    2549A      4.797212  2550A      4.801105  2551A      4.803493  
    2552A      4.805545  2553A      4.809000  2554A      4.810456  
    2555A      4.811770  2556A      4.814639  2557A      4.815238  
    2558A      4.816668  2559A      4.824605  2560A      4.827774  
    2561A      4.830326  2562A      4.831420  2563A      4.834379  
    2564A      4.835047  2565A      4.838118  2566A      4.839406  
    2567A      4.840461  2568A      4.844374  2569A      4.845484  
    2570A      4.848321  2571A      4.849669  2572A      4.855038  
    2573A      4.857529  2574A      4.859131  2575A      4.864272  
    2576A      4.866346  2577A      4.868204  2578A      4.869727  
    2579A      4.871757  2580A      4.874774  2581A      4.878372  
    2582A      4.880348  2583A      4.883748  2584A      4.887593  
    2585A      4.889820  2586A      4.890751  2587A      4.892162  
    2588A      4.894402  2589A      4.896107  2590A      4.901815  
    2591A      4.904351  2592A      4.906338  2593A      4.907950  
    2594A      4.911500  2595A      4.913440  2596A      4.915457  
    2597A      4.919159  2598A      4.922511  2599A      4.925497  
    2600A      4.928386  2601A      4.928836  2602A      4.930820  
    2603A      4.935218  2604A      4.938533  2605A      4.940446  
    2606A      4.942381  2607A      4.944985  2608A      4.945698  
    2609A      4.951733  2610A      4.952376  2611A      4.954108  
    2612A      4.957033  2613A      4.958358  2614A      4.959644  
    2615A      4.961849  2616A      4.964037  2617A      4.966376  
    2618A      4.969153  2619A      4.972095  2620A      4.973141  
    2621A      4.978369  2622A      4.979769  2623A      4.980545  
    2624A      4.983295  2625A      4.986068  2626A      4.991705  
    2627A      4.993054  2628A      4.994655  2629A      4.996250  
    2630A      4.999495  2631A      4.999688  2632A      5.000615  
    2633A      5.004152  2634A      5.008465  2635A      5.009690  
    2636A      5.013498  2637A      5.014985  2638A      5.018704  
    2639A      5.020489  2640A      5.022904  2641A      5.027059  
    2642A      5.028442  2643A      5.031076  2644A      5.032294  
    2645A      5.034148  2646A      5.037838  2647A      5.039829  
    2648A      5.041710  2649A      5.044025  2650A      5.045604  
    2651A      5.049213  2652A      5.050704  2653A      5.052155  
    2654A      5.054532  2655A      5.055100  2656A      5.058143  
    2657A      5.060216  2658A      5.062329  2659A      5.064862  
    2660A      5.066727  2661A      5.072294  2662A      5.072848  
    2663A      5.074438  2664A      5.076562  2665A      5.078005  
    2666A      5.078847  2667A      5.080866  2668A      5.083281  
    2669A      5.084337  2670A      5.085434  2671A      5.088105  
    2672A      5.089154  2673A      5.089973  2674A      5.091684  
    2675A      5.094900  2676A      5.095589  2677A      5.096642  
    2678A      5.097848  2679A      5.099419  2680A      5.102498  
    2681A      5.104382  2682A      5.106798  2683A      5.108760  
    2684A      5.109598  2685A      5.110195  2686A      5.114403  
    2687A      5.116362  2688A      5.118291  2689A      5.119343  
    2690A      5.122279  2691A      5.124296  2692A      5.125716  
    2693A      5.127157  2694A      5.129318  2695A      5.130943  
    2696A      5.132463  2697A      5.134707  2698A      5.137869  
    2699A      5.139243  2700A      5.143753  2701A      5.145197  
    2702A      5.145813  2703A      5.147596  2704A      5.148955  
    2705A      5.151984  2706A      5.153818  2707A      5.156677  
    2708A      5.157510  2709A      5.160142  2710A      5.160772  
    2711A      5.164540  2712A      5.167167  2713A      5.172082  
    2714A      5.175597  2715A      5.177250  2716A      5.178258  
    2717A      5.180091  2718A      5.182976  2719A      5.184015  
    2720A      5.188951  2721A      5.194616  2722A      5.195521  
    2723A      5.198609  2724A      5.199985  2725A      5.200890  
    2726A      5.205320  2727A      5.208908  2728A      5.210905  
    2729A      5.214014  2730A      5.216916  2731A      5.219222  
    2732A      5.224070  2733A      5.228499  2734A      5.229982  
    2735A      5.230603  2736A      5.234525  2737A      5.238144  
    2738A      5.239362  2739A      5.240074  2740A      5.243936  
    2741A      5.251564  2742A      5.256469  2743A      5.261934  
    2744A      5.263449  2745A      5.267485  2746A      5.268432  
    2747A      5.269881  2748A      5.274132  2749A      5.279524  
    2750A      5.279768  2751A      5.281767  2752A      5.282949  
    2753A      5.284724  2754A      5.287671  2755A      5.291353  
    2756A      5.292241  2757A      5.298175  2758A      5.299951  
    2759A      5.303404  2760A      5.308367  2761A      5.309705  
    2762A      5.312396  2763A      5.314994  2764A      5.319338  
    2765A      5.321209  2766A      5.323371  2767A      5.324818  
    2768A      5.327277  2769A      5.330026  2770A      5.333948  
    2771A      5.335527  2772A      5.337839  2773A      5.339264  
    2774A      5.340477  2775A      5.342740  2776A      5.345505  
    2777A      5.346394  2778A      5.348800  2779A      5.352913  
    2780A      5.355040  2781A      5.356256  2782A      5.358068  
    2783A      5.359388  2784A      5.361911  2785A      5.363773  
    2786A      5.367897  2787A      5.373510  2788A      5.374936  
    2789A      5.377417  2790A      5.378864  2791A      5.382976  
    2792A      5.384399  2793A      5.386322  2794A      5.387945  
    2795A      5.388715  2796A      5.391387  2797A      5.392841  
    2798A      5.395222  2799A      5.395675  2800A      5.400834  
    2801A      5.403654  2802A      5.406340  2803A      5.407323  
    2804A      5.411083  2805A      5.413624  2806A      5.416304  
    2807A      5.417516  2808A      5.419306  2809A      5.422547  
    2810A      5.423833  2811A      5.427572  2812A      5.429784  
    2813A      5.430349  2814A      5.431409  2815A      5.434764  
    2816A      5.436507  2817A      5.440398  2818A      5.441774  
    2819A      5.442640  2820A      5.447987  2821A      5.451893  
    2822A      5.452954  2823A      5.454494  2824A      5.455173  
    2825A      5.457414  2826A      5.460166  2827A      5.462980  
    2828A      5.464655  2829A      5.464779  2830A      5.469917  
    2831A      5.471779  2832A      5.473284  2833A      5.476741  
    2834A      5.479834  2835A      5.482469  2836A      5.483687  
    2837A      5.488398  2838A      5.490452  2839A      5.492652  
    2840A      5.496143  2841A      5.500398  2842A      5.502658  
    2843A      5.507125  2844A      5.508516  2845A      5.511498  
    2846A      5.512556  2847A      5.517658  2848A      5.520426  
    2849A      5.523310  2850A      5.528842  2851A      5.531464  
    2852A      5.537146  2853A      5.537646  2854A      5.539994  
    2855A      5.543351  2856A      5.547636  2857A      5.550220  
    2858A      5.552031  2859A      5.555923  2860A      5.559486  
    2861A      5.563750  2862A      5.564238  2863A      5.566510  
    2864A      5.569548  2865A      5.571275  2866A      5.572504  
    2867A      5.575737  2868A      5.578184  2869A      5.580957  
    2870A      5.582132  2871A      5.584424  2872A      5.585075  
    2873A      5.590160  2874A      5.591915  2875A      5.596643  
    2876A      5.598740  2877A      5.600773  2878A      5.603967  
    2879A      5.604645  2880A      5.606225  2881A      5.609738  
    2882A      5.610777  2883A      5.613279  2884A      5.613852  
    2885A      5.615277  2886A      5.619174  2887A      5.621043  
    2888A      5.621933  2889A      5.625535  2890A      5.626365  
    2891A      5.628082  2892A      5.630212  2893A      5.632648  
    2894A      5.634266  2895A      5.635483  2896A      5.636759  
    2897A      5.637304  2898A      5.642108  2899A      5.643727  
    2900A      5.646172  2901A      5.648280  2902A      5.649894  
    2903A      5.653520  2904A      5.655490  2905A      5.657335  
    2906A      5.659091  2907A      5.660372  2908A      5.662826  
    2909A      5.663277  2910A      5.668231  2911A      5.674598  
    2912A      5.679676  2913A      5.681793  2914A      5.684943  
    2915A      5.685562  2916A      5.689676  2917A      5.692338  
    2918A      5.692846  2919A      5.695826  2920A      5.697084  
    2921A      5.701268  2922A      5.704163  2923A      5.709726  
    2924A      5.710113  2925A      5.713377  2926A      5.718773  
    2927A      5.722164  2928A      5.723193  2929A      5.727288  
    2930A      5.728776  2931A      5.729819  2932A      5.732430  
    2933A      5.736031  2934A      5.738395  2935A      5.742358  
    2936A      5.742883  2937A      5.743701  2938A      5.747225  
    2939A      5.749653  2940A      5.751489  2941A      5.754905  
    2942A      5.756205  2943A      5.758885  2944A      5.761995  
    2945A      5.763951  2946A      5.765380  2947A      5.766602  
    2948A      5.767343  2949A      5.770081  2950A      5.772657  
    2951A      5.774683  2952A      5.778670  2953A      5.780671  
    2954A      5.783608  2955A      5.784539  2956A      5.786278  
    2957A      5.792452  2958A      5.798006  2959A      5.798514  
    2960A      5.801072  2961A      5.803144  2962A      5.804485  
    2963A      5.808848  2964A      5.811099  2965A      5.815902  
    2966A      5.819616  2967A      5.822785  2968A      5.825248  
    2969A      5.829393  2970A      5.830346  2971A      5.834557  
    2972A      5.838557  2973A      5.841363  2974A      5.842319  
    2975A      5.843056  2976A      5.847703  2977A      5.852054  
    2978A      5.855472  2979A      5.858873  2980A      5.859230  
    2981A      5.864231  2982A      5.866028  2983A      5.868632  
    2984A      5.871584  2985A      5.874295  2986A      5.877528  
    2987A      5.878427  2988A      5.879909  2989A      5.884499  
    2990A      5.887043  2991A      5.887262  2992A      5.891160  
    2993A      5.893322  2994A      5.897845  2995A      5.898982  
    2996A      5.902622  2997A      5.903402  2998A      5.907501  
    2999A      5.910843  3000A      5.911935  3001A      5.916122  
    3002A      5.918552  3003A      5.920551  3004A      5.921254  
    3005A      5.925344  3006A      5.927226  3007A      5.930105  
    3008A      5.933422  3009A      5.937733  3010A      5.941189  
    3011A      5.942978  3012A      5.943952  3013A      5.949071  
    3014A      5.950441  3015A      5.958294  3016A      5.960345  
    3017A      5.965099  3018A      5.970525  3019A      5.971286  
    3020A      5.979899  3021A      5.983157  3022A      5.985372  
    3023A      5.986974  3024A      5.989583  3025A      5.992031  
    3026A      5.993236  3027A      5.995811  3028A      5.999325  
    3029A      5.999973  3030A      6.001828  3031A      6.005459  
    3032A      6.010926  3033A      6.015304  3034A      6.017544  
    3035A      6.019145  3036A      6.023023  3037A      6.024780  
    3038A      6.028026  3039A      6.033159  3040A      6.034001  
    3041A      6.035972  3042A      6.040476  3043A      6.042437  
    3044A      6.045207  3045A      6.047081  3046A      6.056922  
    3047A      6.058401  3048A      6.060899  3049A      6.067133  
    3050A      6.067469  3051A      6.070110  3052A      6.071929  
    3053A      6.077082  3054A      6.079926  3055A      6.082921  
    3056A      6.085255  3057A      6.088546  3058A      6.089709  
    3059A      6.092111  3060A      6.092729  3061A      6.094235  
    3062A      6.095489  3063A      6.100845  3064A      6.102500  
    3065A      6.110067  3066A      6.110937  3067A      6.114581  
    3068A      6.117381  3069A      6.118149  3070A      6.121676  
    3071A      6.123845  3072A      6.126588  3073A      6.141839  
    3074A      6.142891  3075A      6.151950  3076A      6.156502  
    3077A      6.158377  3078A      6.160321  3079A      6.162531  
    3080A      6.169471  3081A      6.171478  3082A      6.177753  
    3083A      6.178597  3084A      6.182880  3085A      6.190265  
    3086A      6.191623  3087A      6.196466  3088A      6.199171  
    3089A      6.203052  3090A      6.210575  3091A      6.214861  
    3092A      6.217501  3093A      6.221075  3094A      6.222763  
    3095A      6.228440  3096A      6.230735  3097A      6.231956  
    3098A      6.235696  3099A      6.236894  3100A      6.239042  
    3101A      6.244705  3102A      6.245548  3103A      6.251203  
    3104A      6.257123  3105A      6.261686  3106A      6.265958  
    3107A      6.271650  3108A      6.274189  3109A      6.281374  
    3110A      6.285759  3111A      6.290818  3112A      6.292184  
    3113A      6.294009  3114A      6.294419  3115A      6.299428  
    3116A      6.303172  3117A      6.306743  3118A      6.308020  
    3119A      6.314790  3120A      6.318201  3121A      6.322276  
    3122A      6.329203  3123A      6.330527  3124A      6.334630  
    3125A      6.335945  3126A      6.338234  3127A      6.342644  
    3128A      6.346887  3129A      6.349570  3130A      6.351708  
    3131A      6.355227  3132A      6.357675  3133A      6.360704  
    3134A      6.363972  3135A      6.367715  3136A      6.372035  
    3137A      6.374912  3138A      6.381673  3139A      6.383967  
    3140A      6.385383  3141A      6.386948  3142A      6.397839  
    3143A      6.399688  3144A      6.406488  3145A      6.409467  
    3146A      6.416295  3147A      6.421433  3148A      6.422291  
    3149A      6.423643  3150A      6.429166  3151A      6.437698  
    3152A      6.452410  3153A      6.456836  3154A      6.460475  
    3155A      6.469215  3156A      6.481363  3157A      6.494004  
    3158A      6.499474  3159A      6.510144  3160A      6.528937  
    3161A      6.534150  3162A      6.544429  3163A      6.551939  
    3164A      6.555757  3165A      6.566484  3166A      6.572243  
    3167A      6.573958  3168A      6.581640  3169A      6.587901  
    3170A      6.590088  3171A      6.606760  3172A      6.614343  
    3173A      6.633769  3174A      6.644297  3175A      6.655865  
    3176A      6.657579  3177A      6.680594  3178A      6.683710  
    3179A      6.689009  3180A      6.700121  3181A      6.707356  
    3182A      6.710684  3183A      6.719252  3184A      6.727574  
    3185A      6.732102  3186A      6.764252  3187A      6.770731  
    3188A      6.772761  3189A      6.787941  3190A      6.798453  
    3191A      6.817134  3192A      6.822426  3193A      6.827174  
    3194A      6.837837  3195A      6.839670  3196A      6.856646  
    3197A      6.865468  3198A      6.867291  3199A      6.869343  
    3200A      6.879107  3201A      6.896592  3202A      6.898494  
    3203A      6.902137  3204A      6.906931  3205A      6.915432  
    3206A      6.917599  3207A      6.927184  3208A      6.942406  
    3209A      6.948633  3210A      6.954102  3211A      6.973446  
    3212A      6.983914  3213A      7.000843  3214A      7.008834  
    3215A      7.016209  3216A      7.022035  3217A      7.032967  
    3218A      7.038954  3219A      7.047191  3220A      7.053852  
    3221A      7.055796  3222A      7.067305  3223A      7.071085  
    3224A      7.071412  3225A      7.073468  3226A      7.082316  
    3227A      7.089696  3228A      7.102855  3229A      7.107103  
    3230A      7.115745  3231A      7.127223  3232A      7.141702  
    3233A      7.159991  3234A      7.161682  3235A      7.164697  
    3236A      7.186207  3237A      7.187609  3238A      7.203115  
    3239A      7.224551  3240A      7.232002  3241A      7.236127  
    3242A      7.237491  3243A      7.239196  3244A      7.258465  
    3245A      7.264102  3246A      7.273514  3247A      7.286920  
    3248A      7.300760  3249A      7.311696  3250A      7.316218  
    3251A      7.335601  3252A      7.349819  3253A      7.364644  
    3254A      7.390704  3255A      7.393724  3256A      7.397059  
    3257A      7.442164  3258A      7.460568  3259A      7.462573  
    3260A      7.473635  3261A      7.494212  3262A      7.549509  
    3263A      7.590248  3264A      7.621858  3265A      7.628304  
    3266A      7.652946  3267A      7.658568  3268A      7.676067  
    3269A      7.677532  3270A      7.694060  3271A      7.695556  
    3272A      7.704949  3273A      7.710828  3274A      7.719921  
    3275A      7.724163  3276A      7.733210  3277A      7.757863  
    3278A      7.768005  3279A      7.779609  3280A      7.837738  
    3281A      7.859990  3282A      7.861926  3283A      7.872899  
    3284A      7.878136  3285A      7.901951  3286A      7.912756  
    3287A      7.944645  3288A      7.950981  3289A      7.956999  
    3290A      7.961458  3291A      7.972155  3292A      7.981039  
    3293A      7.994743  3294A      7.996778  3295A      8.008782  
    3296A      8.017904  3297A      8.021237  3298A      8.026552  
    3299A      8.032380  3300A      8.041402  3301A      8.053441  
    3302A      8.063403  3303A      8.083648  3304A      8.085768  
    3305A      8.097403  3306A      8.131877  3307A      8.164686  
    3308A      8.188208  3309A      8.209281  3310A      8.216776  
    3311A      8.234305  3312A      8.236692  3313A      8.352189  
    3314A      8.363897  3315A      8.406562  3316A      8.410234  
    3317A      8.510003  3318A      8.535523  3319A      8.556522  
    3320A      8.564422  3321A      8.589273  3322A      8.598739  
    3323A      8.614020  3324A      8.621339  3325A      8.639506  
    3326A      8.644033  3327A      8.667385  3328A      8.669218  
    3329A      8.697721  3330A      8.699045  3331A      8.751231  
    3332A      8.752362  3333A      9.077221  3334A      9.103915  
    3335A      9.192439  3336A      9.285378  3337A      9.350143  
    3338A      9.394686  3339A      9.414120  3340A      9.447203  
    3341A      9.454368  3342A      9.456792  3343A      9.498741  
    3344A      9.501342  3345A      9.553423  3346A      9.710934  
    3347A      9.876904  3348A     10.018196  3349A     10.120526  
    3350A     10.503462  3351A     10.505055  3352A     10.565748  
    3353A     10.570704  3354A     10.599657  3355A     10.617339  
    3356A     10.636462  3357A     10.677407  3358A     10.706618  
    3359A     10.768677  3360A     10.790234  3361A     10.891350  
    3362A     10.904994  3363A     10.911916  3364A     11.013107  
    3365A     11.068235  3366A     11.120232  3367A     11.132350  
    3368A     18.108754  3369A     18.117641  3370A     18.355058  
    3371A     18.398523  3372A     18.472210  3373A     18.516232  
    3374A     18.617079  3375A     18.668902  3376A     18.710452  
    3377A     18.738277  3378A     18.795746  3379A     19.018250  
    3380A     19.036127  3381A     19.082537  3382A     19.510901  
    3383A     19.841137  3384A     20.105592  3385A     20.114493  
    3386A     53.590022  3387A     53.602259  3388A     54.149417  
    3389A     54.232860  3390A     54.368739  3391A     54.510790  
    3392A     54.712539  3393A     54.743912  3394A     54.814924  
    3395A     54.977266  3396A     55.005851  3397A     55.270024  
    3398A     55.290484  3399A     55.400494  3400A     56.211336  
    3401A     56.859471  3402A     57.390287  3403A     57.397971  

    Final Occupation by Irrep:
              A 
    DOCC [    73 ]
    NA   [    73 ]
    NB   [    73 ]

  @DF-RHF Final Energy:  -704.02490686089777

   => Energetics <=

    Nuclear Repulsion Energy =           1177.2118179273250007
    One-Electron Energy =               -3287.2776584803186779
    Two-Electron Energy =                1406.0409336920961323
    Total Energy =                       -704.0249068608977723

Computation Completed


Properties will be evaluated at   0.000000,   0.000000,   0.000000 [a0]

Properties computed using the SCF density matrix


 Multipole Moments:

 ------------------------------------------------------------------------------------
     Multipole            Electronic (a.u.)      Nuclear  (a.u.)        Total (a.u.)
 ------------------------------------------------------------------------------------

 L = 1.  Multiply by 2.5417464519 to convert [e a0] to [Debye]
 Dipole X            :      -3113.8287185         3113.8283486           -0.0003700
 Dipole Y            :      -2170.7513995         2170.7510770           -0.0003225
 Dipole Z            :        574.6170290         -574.6146922            0.0023369
 Magnitude           :                                                    0.0023878

 ------------------------------------------------------------------------------------

*** tstop() called on atl1-1-03-004-8-2.pace.gatech.edu at Sat Jun 13 11:15:15 2026
Module time:
	user time   =   17234.63 seconds =     287.24 minutes
	system time =     130.21 seconds =       2.17 minutes
	total time  =       1788 seconds =      29.80 minutes
Total time:
	user time   =   17234.63 seconds =     287.24 minutes
	system time =     130.21 seconds =       2.17 minutes
	total time  =       1788 seconds =      29.80 minutes

    Psi4 stopped on: Saturday, 13 June 2026 11:15AM
    Psi4 wall time for execution: 0:29:48.47

*** Psi4 exiting successfully. Buy a developer a beer!
