
    -----------------------------------------------------------------------
          Psi4: An Open-Source Ab Initio Electronic Structure Package
                               Psi4 1.9.1 release

                         Git: Rev {} zzzzzzz 


    D. G. A. Smith, L. A. Burns, A. C. Simmonett, R. M. Parrish,
    M. C. Schieber, R. Galvelis, P. Kraus, H. Kruse, R. Di Remigio,
    A. Alenaizan, A. M. James, S. Lehtola, J. P. Misiewicz, M. Scheurer,
    R. A. Shaw, J. B. Schriber, Y. Xie, Z. L. Glick, D. A. Sirianni,
    J. S. O'Brien, J. M. Waldrop, A. Kumar, E. G. Hohenstein,
    B. P. Pritchard, B. R. Brooks, H. F. Schaefer III, A. Yu. Sokolov,
    K. Patkowski, A. E. DePrince III, U. Bozkaya, R. A. King,
    F. A. Evangelista, J. M. Turney, T. D. Crawford, C. D. Sherrill,
    J. Chem. Phys. 152(18) 184108 (2020). https://doi.org/10.1063/5.0006002

                            Additional Code Authors
    E. T. Seidl, C. L. Janssen, E. F. Valeev, M. L. Leininger,
    J. F. Gonthier, R. M. Richard, H. R. McAlexander, M. Saitow, X. Wang,
    P. Verma, M. H. Lechner, A. Jiang, S. Behnle, A. G. Heide,
    M. F. Herbst, and D. L. Poole

             Previous Authors, Complete List of Code Contributors,
                       and Citations for Specific Modules
    https://github.com/psi4/psi4/blob/master/codemeta.json
    https://github.com/psi4/psi4/graphs/contributors
    http://psicode.org/psi4manual/master/introduction.html#citing-psifour

    -----------------------------------------------------------------------


    Psi4 started on: Saturday, 13 June 2026 07:32AM

    Process ID: 255579
    Host:       atl1-1-02-003-29-2.pace.gatech.edu
    PSIDATADIR: /storage/home/hcoda1/5/vlita3/.conda/envs/p4_qcml/share/psi4
    Memory:     250.0 GiB
    Threads:    10
    
  ==> Input QCSchema <==

--------------------------------------------------------------------------
{'driver': 'energy',
 'extras': {},
 'id': '196',
 'keywords': {},
 'model': {'basis': 'aug-cc-pvtz', 'method': 'hf'},
 'molecule': {'extras': {},
              'fix_com': True,
              'fix_orientation': True,
              'fragment_charges': [0.0, 0.0],
              'fragment_multiplicities': [1, 1],
              'fragments': [[0, 1, 2, 3, 4, 5, 6, 7, 8, 9, 10, 11, 12, 13, 14, 15, 16, 17, 18, 19, 20, 21, 22, 23, 24,
                             25, 26, 27, 28, 29, 30, 31, 32, 33, 34, 35],
                            [36, 37, 38, 39, 40, 41, 42, 43, 44, 45, 46, 47, 48, 49, 50, 51, 52, 53, 54, 55, 56, 57, 58,
                             59, 60, 61, 62, 63, 64, 65, 66, 67, 68, 69, 70, 71]],
              'geometry': [-2.81102804, -2.32727976, -3.26733672, -0.12371685, -2.32727976, -3.26733672, 1.21993874,
                           0.0, -3.26733672, -0.12371685, 2.32727976, -3.26733672, -2.81102804, 2.32727976, -3.26733672,
                           -4.15468364, 0.0, -3.26733672, 1.21375609, -4.64385085, -3.26733672, -0.17645855,
                           -6.93684965, -3.26733672, -2.75828635, -6.93684965, -3.26733672, -4.14850099, -4.64385085,
                           -3.26733672, -6.82962953, 0.0, -3.26733672, -8.12031742, -2.3504606, -3.26733672,
                           -6.82940352, -4.58638906, -3.26733672, -8.12031742, 2.3504606, -3.26733672, -6.82940352,
                           4.58638906, -3.26733672, -4.14850099, 4.64385085, -3.26733672, -2.75828635, 6.93684965,
                           -3.26733672, -0.17645855, 6.93684965, -3.26733672, 1.21375609, 4.64385085, -3.26733672,
                           3.89465863, 4.58638906, -3.26733672, 5.18557252, 2.3504606, -3.26733672, 3.89488463, 0.0,
                           -3.26733672, 5.18557252, -2.3504606, -3.26733672, 3.89465863, -4.58638906, -3.26733672,
                           0.84958395, -8.70675598, -3.26733672, -3.78432885, -8.70675598, -3.26733672, -7.84916611,
                           -6.35992109, -3.26733672, -10.16612251, -2.34683489, -3.26733672, -10.16612251, 2.34683489,
                           -3.26733672, -7.84916611, 6.35992109, -3.26733672, -3.78432885, 8.70675598, -3.26733672,
                           0.84958395, 8.70675598, -3.26733672, 4.91442121, 6.35992109, -3.26733672, 7.23137761,
                           2.34683489, -3.26733672, 7.23137761, -2.34683489, -3.26733672, 4.91442121, -6.35992109,
                           -3.26733672, 0.12371685, -2.32727976, 3.26733672, 2.81102804, -2.32727976, 3.26733672,
                           4.15468364, 0.0, 3.26733672, 2.81102804, 2.32727976, 3.26733672, 0.12371685, 2.32727976,
                           3.26733672, -1.21993874, 0.0, 3.26733672, 4.14850099, -4.64385085, 3.26733672, 2.75828635,
                           -6.93684965, 3.26733672, 0.17645855, -6.93684965, 3.26733672, -1.21375609, -4.64385085,
                           3.26733672, -3.89488463, 0.0, 3.26733672, -5.18557252, -2.3504606, 3.26733672, -3.89465863,
                           -4.58638906, 3.26733672, -5.18557252, 2.3504606, 3.26733672, -3.89465863, 4.58638906,
                           3.26733672, -1.21375609, 4.64385085, 3.26733672, 0.17645855, 6.93684965, 3.26733672,
                           2.75828635, 6.93684965, 3.26733672, 4.14850099, 4.64385085, 3.26733672, 6.82940352,
                           4.58638906, 3.26733672, 8.12031742, 2.3504606, 3.26733672, 6.82962953, 0.0, 3.26733672,
                           8.12031742, -2.3504606, 3.26733672, 6.82940352, -4.58638906, 3.26733672, 3.78432885,
                           -8.70675598, 3.26733672, -0.84958395, -8.70675598, 3.26733672, -4.91442121, -6.35992109,
                           3.26733672, -7.23137761, -2.34683489, 3.26733672, -7.23137761, 2.34683489, 3.26733672,
                           -4.91442121, 6.35992109, 3.26733672, -0.84958395, 8.70675598, 3.26733672, 3.78432885,
                           8.70675598, 3.26733672, 7.84916611, 6.35992109, 3.26733672, 10.16612251, 2.34683489,
                           3.26733672, 10.16612251, -2.34683489, 3.26733672, 7.84916611, -6.35992109, 3.26733672],
              'id': 10,
              'identifiers': {'molecular_formula': 'C48H24',
                              'molecule_hash': 'c1dab0bff2b2c78f2e4529631a3bee8a50d4ce93'},
              'masses': [12.0, 12.0, 12.0, 12.0, 12.0, 12.0, 12.0, 12.0, 12.0, 12.0, 12.0, 12.0, 12.0, 12.0, 12.0, 12.0,
                         12.0, 12.0, 12.0, 12.0, 12.0, 12.0, 12.0, 12.0, 1.00782503223, 1.00782503223, 1.00782503223,
                         1.00782503223, 1.00782503223, 1.00782503223, 1.00782503223, 1.00782503223, 1.00782503223,
                         1.00782503223, 1.00782503223, 1.00782503223, 12.0, 12.0, 12.0, 12.0, 12.0, 12.0, 12.0, 12.0,
                         12.0, 12.0, 12.0, 12.0, 12.0, 12.0, 12.0, 12.0, 12.0, 12.0, 12.0, 12.0, 12.0, 12.0, 12.0, 12.0,
                         1.00782503223, 1.00782503223, 1.00782503223, 1.00782503223, 1.00782503223, 1.00782503223,
                         1.00782503223, 1.00782503223, 1.00782503223, 1.00782503223, 1.00782503223, 1.00782503223],
              'molecular_charge': 0.0,
              'molecular_multiplicity': 1,
              'name': 'C48H24 ([1],[0])',
              'provenance': {'creator': 'QCElemental',
                             'routine': 'qcelemental.molparse.from_schema',
                             'version': '0.29.0'},
              'real': [False, False, False, False, False, False, False, False, False, False, False, False, False, False,
                       False, False, False, False, False, False, False, False, False, False, False, False, False, False,
                       False, False, False, False, False, False, False, False, True, True, True, True, True, True, True,
                       True, True, True, True, True, True, True, True, True, True, True, True, True, True, True, True,
                       True, True, True, True, True, True, True, True, True, True, True, True, True],
              'schema_name': 'qcschema_molecule',
              'schema_version': 2,
              'symbols': ['C', 'C', 'C', 'C', 'C', 'C', 'C', 'C', 'C', 'C', 'C', 'C', 'C', 'C', 'C', 'C', 'C', 'C', 'C',
                          'C', 'C', 'C', 'C', 'C', 'H', 'H', 'H', 'H', 'H', 'H', 'H', 'H', 'H', 'H', 'H', 'H', 'C', 'C',
                          'C', 'C', 'C', 'C', 'C', 'C', 'C', 'C', 'C', 'C', 'C', 'C', 'C', 'C', 'C', 'C', 'C', 'C', 'C',
                          'C', 'C', 'C', 'H', 'H', 'H', 'H', 'H', 'H', 'H', 'H', 'H', 'H', 'H', 'H'],
              'validated': True},
 'protocols': {},
 'provenance': {'creator': 'QCElemental', 'routine': 'qcelemental.models.results', 'version': '0.29.0'},
 'schema_name': 'qcschema_input',
 'schema_version': 1}
--------------------------------------------------------------------------

Scratch directory: /tmp/tmpisb3hfvm_psi_scratch/
   => Libint2 <=

    Primary   basis highest AM E, G, H:  6, 6, 3
    Auxiliary basis highest AM E, G, H:  7, 7, 4
    Onebody   basis highest AM E, G, H:  -, -, -
    Solid Harmonics ordering:            Gaussian

*** tstart() called on atl1-1-02-003-29-2.pace.gatech.edu
*** at Sat Jun 13 07:32:12 2026

   => Loading Basis Set <=

    Name: AUG-CC-PVTZ
    Role: ORBITAL
    Keyword: BASIS
    atoms 1-24, 37-60  entry C          line   239 file /storage/home/hcoda1/5/vlita3/.conda/envs/p4_qcml/share/psi4/basis/aug-cc-pvtz.gbs 
    atoms 25-36, 61-72 entry H          line    40 file /storage/home/hcoda1/5/vlita3/.conda/envs/p4_qcml/share/psi4/basis/aug-cc-pvtz.gbs 


         ---------------------------------------------------------
                                   SCF
               by Justin Turney, Rob Parrish, Andy Simmonett
                          and Daniel G. A. Smith
                              RHF Reference
                       10 Threads, 256000 MiB Core
         ---------------------------------------------------------

  ==> Geometry <==

    Molecular point group: cs
    Full point group: Cs

    Geometry (in Bohr), charge = 0, multiplicity = 1:

       Center              X                  Y                   Z               Mass       
    ------------   -----------------  -----------------  -----------------  -----------------
      Gh(C)          -2.811028040000    -2.327279760000    -3.267336720000    12.000000000000
      Gh(C)          -0.123716850000    -2.327279760000    -3.267336720000    12.000000000000
      Gh(C)           1.219938740000     0.000000000000    -3.267336720000    12.000000000000
      Gh(C)          -0.123716850000     2.327279760000    -3.267336720000    12.000000000000
      Gh(C)          -2.811028040000     2.327279760000    -3.267336720000    12.000000000000
      Gh(C)          -4.154683640000     0.000000000000    -3.267336720000    12.000000000000
      Gh(C)           1.213756090000    -4.643850850000    -3.267336720000    12.000000000000
      Gh(C)          -0.176458550000    -6.936849650000    -3.267336720000    12.000000000000
      Gh(C)          -2.758286350000    -6.936849650000    -3.267336720000    12.000000000000
      Gh(C)          -4.148500990000    -4.643850850000    -3.267336720000    12.000000000000
      Gh(C)          -6.829629530000     0.000000000000    -3.267336720000    12.000000000000
      Gh(C)          -8.120317420000    -2.350460600000    -3.267336720000    12.000000000000
      Gh(C)          -6.829403520000    -4.586389060000    -3.267336720000    12.000000000000
      Gh(C)          -8.120317420000     2.350460600000    -3.267336720000    12.000000000000
      Gh(C)          -6.829403520000     4.586389060000    -3.267336720000    12.000000000000
      Gh(C)          -4.148500990000     4.643850850000    -3.267336720000    12.000000000000
      Gh(C)          -2.758286350000     6.936849650000    -3.267336720000    12.000000000000
      Gh(C)          -0.176458550000     6.936849650000    -3.267336720000    12.000000000000
      Gh(C)           1.213756090000     4.643850850000    -3.267336720000    12.000000000000
      Gh(C)           3.894658630000     4.586389060000    -3.267336720000    12.000000000000
      Gh(C)           5.185572520000     2.350460600000    -3.267336720000    12.000000000000
      Gh(C)           3.894884630000     0.000000000000    -3.267336720000    12.000000000000
      Gh(C)           5.185572520000    -2.350460600000    -3.267336720000    12.000000000000
      Gh(C)           3.894658630000    -4.586389060000    -3.267336720000    12.000000000000
      Gh(H)           0.849583950000    -8.706755980000    -3.267336720000     1.007825032230
      Gh(H)          -3.784328850000    -8.706755980000    -3.267336720000     1.007825032230
      Gh(H)          -7.849166110000    -6.359921090000    -3.267336720000     1.007825032230
      Gh(H)         -10.166122510000    -2.346834890000    -3.267336720000     1.007825032230
      Gh(H)         -10.166122510000     2.346834890000    -3.267336720000     1.007825032230
      Gh(H)          -7.849166110000     6.359921090000    -3.267336720000     1.007825032230
      Gh(H)          -3.784328850000     8.706755980000    -3.267336720000     1.007825032230
      Gh(H)           0.849583950000     8.706755980000    -3.267336720000     1.007825032230
      Gh(H)           4.914421210000     6.359921090000    -3.267336720000     1.007825032230
      Gh(H)           7.231377610000     2.346834890000    -3.267336720000     1.007825032230
      Gh(H)           7.231377610000    -2.346834890000    -3.267336720000     1.007825032230
      Gh(H)           4.914421210000    -6.359921090000    -3.267336720000     1.007825032230
         C            0.123716850000    -2.327279760000     3.267336720000    12.000000000000
         C            2.811028040000    -2.327279760000     3.267336720000    12.000000000000
         C            4.154683640000     0.000000000000     3.267336720000    12.000000000000
         C            2.811028040000     2.327279760000     3.267336720000    12.000000000000
         C            0.123716850000     2.327279760000     3.267336720000    12.000000000000
         C           -1.219938740000     0.000000000000     3.267336720000    12.000000000000
         C            4.148500990000    -4.643850850000     3.267336720000    12.000000000000
         C            2.758286350000    -6.936849650000     3.267336720000    12.000000000000
         C            0.176458550000    -6.936849650000     3.267336720000    12.000000000000
         C           -1.213756090000    -4.643850850000     3.267336720000    12.000000000000
         C           -3.894884630000     0.000000000000     3.267336720000    12.000000000000
         C           -5.185572520000    -2.350460600000     3.267336720000    12.000000000000
         C           -3.894658630000    -4.586389060000     3.267336720000    12.000000000000
         C           -5.185572520000     2.350460600000     3.267336720000    12.000000000000
         C           -3.894658630000     4.586389060000     3.267336720000    12.000000000000
         C           -1.213756090000     4.643850850000     3.267336720000    12.000000000000
         C            0.176458550000     6.936849650000     3.267336720000    12.000000000000
         C            2.758286350000     6.936849650000     3.267336720000    12.000000000000
         C            4.148500990000     4.643850850000     3.267336720000    12.000000000000
         C            6.829403520000     4.586389060000     3.267336720000    12.000000000000
         C            8.120317420000     2.350460600000     3.267336720000    12.000000000000
         C            6.829629530000     0.000000000000     3.267336720000    12.000000000000
         C            8.120317420000    -2.350460600000     3.267336720000    12.000000000000
         C            6.829403520000    -4.586389060000     3.267336720000    12.000000000000
         H            3.784328850000    -8.706755980000     3.267336720000     1.007825032230
         H           -0.849583950000    -8.706755980000     3.267336720000     1.007825032230
         H           -4.914421210000    -6.359921090000     3.267336720000     1.007825032230
         H           -7.231377610000    -2.346834890000     3.267336720000     1.007825032230
         H           -7.231377610000     2.346834890000     3.267336720000     1.007825032230
         H           -4.914421210000     6.359921090000     3.267336720000     1.007825032230
         H           -0.849583950000     8.706755980000     3.267336720000     1.007825032230
         H            3.784328850000     8.706755980000     3.267336720000     1.007825032230
         H            7.849166110000     6.359921090000     3.267336720000     1.007825032230
         H           10.166122510000     2.346834890000     3.267336720000     1.007825032230
         H           10.166122510000    -2.346834890000     3.267336720000     1.007825032230
         H            7.849166110000    -6.359921090000     3.267336720000     1.007825032230

  Running in cs symmetry.

  Rotational constants: A =      0.00378  B =      0.00326  C =      0.00251 [cm^-1]
  Rotational constants: A =    113.23902  B =     97.86670  C =     75.24221 [MHz]
  Nuclear repulsion = 1837.330664984319583

  Charge       = 0
  Multiplicity = 1
  Electrons    = 156
  Nalpha       = 78
  Nbeta        = 78

  ==> Algorithm <==

  SCF Algorithm Type is DF.
  DIIS enabled.
  MOM disabled.
  Fractional occupation disabled.
  Guess Type is SAD.
  Energy threshold   = 1.00e-06
  Density threshold  = 1.00e-06
  Integral threshold = 1.00e-12

  ==> Primary Basis <==

  Basis Set: AUG-CC-PVTZ
    Blend: AUG-CC-PVTZ
    Number of shells: 888
    Number of basis functions: 2760
    Number of Cartesian functions: 3240
    Spherical Harmonics?: true
    Max angular momentum: 3

   => Loading Basis Set <=

    Name: (AUG-CC-PVTZ AUX)
    Role: JKFIT
    Keyword: DF_BASIS_SCF
    atoms 1-24, 37-60  entry C          line   162 file /storage/home/hcoda1/5/vlita3/.conda/envs/p4_qcml/share/psi4/basis/aug-cc-pvtz-jkfit.gbs 
    atoms 25-36, 61-72 entry H          line    70 file /storage/home/hcoda1/5/vlita3/.conda/envs/p4_qcml/share/psi4/basis/aug-cc-pvtz-jkfit.gbs 

  ==> Integral Setup <==

  ==> DiskDFJK: Density-Fitted J/K Matrices <==

    J tasked:                  Yes
    K tasked:                  Yes
    wK tasked:                  No
    OpenMP threads:             10
    Integrals threads:          10
    Memory [MiB]:           192000
    Algorithm:                Core
    Integral Cache:           NONE
    Schwarz Cutoff:          1E-12
    Fitting Condition:       1E-10

   => Auxiliary Basis Set <=

  Basis Set: (AUG-CC-PVTZ AUX)
    Blend: AUG-CC-PVTZ-JKFIT
    Number of shells: 1776
    Number of basis functions: 6096
    Number of Cartesian functions: 7608
    Spherical Harmonics?: true
    Max angular momentum: 4

  Minimum eigenvalue in the overlap matrix is 1.2243416004E-10.
  Reciprocal condition number of the overlap matrix is 3.5504774292E-12.
    Using canonical orthogonalization.
  Overall, 29 of 2760 possible MOs eliminated.


  ==> Pre-Iterations <==

  SCF Guess: Superposition of Atomic Densities via on-the-fly atomic UHF (no occupation information).

   -------------------------
    Irrep   Nso     Nmo    
   -------------------------
     A'      1436    1421 
     A"      1324    1310 
   -------------------------
    Total    2760    2731
   -------------------------

  ==> Iterations <==

                           Total Energy        Delta E     RMS |[F,P]|

   @DF-RHF iter SAD:  -917.80257400608400   -9.17803e+02   0.00000e+00 
   @DF-RHF iter   1:  -915.73596430917564    2.06661e+00   4.46275e-04 DIIS/ADIIS
   @DF-RHF iter   2:  -916.15871698351134   -4.22753e-01   1.72649e-04 DIIS/ADIIS
   @DF-RHF iter   3:  -916.21880976116722   -6.00928e-02   5.66243e-05 DIIS
   @DF-RHF iter   4:  -916.22535783469152   -6.54807e-03   2.80754e-05 DIIS
   @DF-RHF iter   5:  -916.22709836079571   -1.74053e-03   5.23904e-06 DIIS
   @DF-RHF iter   6:  -916.22718672532460   -8.83645e-05   1.89775e-06 DIIS
   @DF-RHF iter   7:  -916.22720935533619   -2.26300e-05   7.09961e-07 DIIS
   @DF-RHF iter   8:  -916.22721586143587   -6.50610e-06   2.04451e-07 DIIS
   @DF-RHF iter   9:  -916.22721640397322   -5.42537e-07   3.33898e-08 DIIS
  Energy and wave function converged.


  ==> Post-Iterations <==

    Orbital Energies [Eh]
    ---------------------

    Doubly Occupied:                                                      

       1Ap   -11.248483     1App  -11.248086     2Ap   -11.248085  
       2App  -11.247530     3Ap   -11.247529     4Ap   -11.247413  
       5Ap   -11.246918     3App  -11.246828     6Ap   -11.246827  
       4App  -11.246332     7Ap   -11.246331     8Ap   -11.245922  
       5App  -11.240302     9Ap   -11.240280     6App  -11.240280  
       7App  -11.240232    10Ap   -11.240232    11Ap   -11.240207  
       8App  -11.238874    12Ap   -11.238852     9App  -11.238852  
      10App  -11.238810    13Ap   -11.238810    14Ap   -11.238790  
      15Ap    -1.218690    11App   -1.172578    16Ap    -1.172577  
      12App   -1.113328    17Ap    -1.113328    18Ap    -1.092651  
      13App   -1.053082    19Ap    -1.035448    14App   -1.014309  
      20Ap    -1.014309    21Ap    -0.973134    15App   -0.973134  
      16App   -0.866252    22Ap    -0.866251    23Ap    -0.864318  
      17App   -0.864318    24Ap    -0.850336    18App   -0.777741  
      25Ap    -0.764094    26Ap    -0.741269    19App   -0.741268  
      20App   -0.727025    27Ap    -0.706488    21App   -0.654609  
      28Ap    -0.654608    22App   -0.637629    29Ap    -0.637628  
      23App   -0.635396    30Ap    -0.635396    31Ap    -0.595303  
      24App   -0.588774    32Ap    -0.588774    25App   -0.585083  
      33Ap    -0.581870    26App   -0.568489    34Ap    -0.568489  
      35Ap    -0.533514    27App   -0.531404    28App   -0.524832  
      36Ap    -0.524831    29App   -0.516608    30App   -0.513010  
      37Ap    -0.513010    38Ap    -0.460839    31App   -0.460839  
      32App   -0.449522    39Ap    -0.449522    40Ap    -0.425861  
      33App   -0.368184    41Ap    -0.350411    34App   -0.333734  
      42Ap    -0.333733    35App   -0.260314    43Ap    -0.260314  

    Virtual:                                                              

      44Ap     0.019064    36App    0.022908    45Ap     0.023760  
      37App    0.030952    46Ap     0.031028    47Ap     0.032262  
      38App    0.037049    48Ap     0.037339    49Ap     0.041897  
      39App    0.042543    50Ap     0.047577    40App    0.047926  
      51Ap     0.053531    41App    0.053651    52Ap     0.054518  
      53Ap     0.055959    42App    0.056687    54Ap     0.062903  
      43App    0.063749    55Ap     0.066422    44App    0.066652  
      56Ap     0.071151    45App    0.073217    57Ap     0.073284  
      58Ap     0.074423    46App    0.078271    59Ap     0.080721  
      60Ap     0.081179    47App    0.081629    48App    0.086562  
      61Ap     0.087193    62Ap     0.089686    49App    0.090282  
      50App    0.091414    63Ap     0.092368    51App    0.093076  
      64Ap     0.094462    65Ap     0.097915    52App    0.101320  
      53App    0.105756    66Ap     0.106182    67Ap     0.108512  
      54App    0.108683    68Ap     0.110546    69Ap     0.111654  
      70Ap     0.112747    55App    0.112834    56App    0.113368  
      71Ap     0.116768    57App    0.117764    72Ap     0.120546  
      58App    0.122034    59App    0.122934    73Ap     0.124286  
      74Ap     0.126765    60App    0.128183    75Ap     0.128500  
      61App    0.130191    76Ap     0.130593    77Ap     0.131782  
      78Ap     0.134812    62App    0.137988    63App    0.139009  
      79Ap     0.139972    80Ap     0.141013    81Ap     0.148343  
      64App    0.149839    82Ap     0.150584    65App    0.151433  
      83Ap     0.152421    66App    0.153101    84Ap     0.156110  
      85Ap     0.157623    67App    0.158205    86Ap     0.159746  
      87Ap     0.159939    68App    0.160692    69App    0.161875  
      88Ap     0.164760    70App    0.165899    89Ap     0.167589  
      71App    0.167937    72App    0.172106    90Ap     0.172116  
      91Ap     0.175093    73App    0.175712    74App    0.176303  
      92Ap     0.177136    93Ap     0.178249    75App    0.180989  
      94Ap     0.181830    95Ap     0.182758    76App    0.188478  
      96Ap     0.190984    77App    0.191335    97Ap     0.192065  
      98Ap     0.193304    78App    0.194607    99Ap     0.194764  
      79App    0.195009   100Ap     0.197918    80App    0.199308  
     101Ap     0.199582    81App    0.200623   102Ap     0.203009  
      82App    0.204209   103Ap     0.204414    83App    0.206048  
     104Ap     0.207379    84App    0.207584    85App    0.210249  
      86App    0.215061   105Ap     0.216122   106Ap     0.217042  
      87App    0.219600   107Ap     0.220215   108Ap     0.221867  
      88App    0.223367    89App    0.224477   109Ap     0.225099  
     110Ap     0.227997   111Ap     0.232151   112Ap     0.233711  
      90App    0.234042   113Ap     0.235584    91App    0.236593  
     114Ap     0.237839    92App    0.238026    93App    0.240361  
      94App    0.242796   115Ap     0.243740    95App    0.246022  
     116Ap     0.247318    96App    0.249391   117Ap     0.251054  
     118Ap     0.252257    97App    0.253568   119Ap     0.255179  
      98App    0.255484   120Ap     0.255886   121Ap     0.257512  
      99App    0.258748   122Ap     0.259412   100App    0.259928  
     123Ap     0.261591   124Ap     0.263823   101App    0.264516  
     125Ap     0.265573   102App    0.267871   103App    0.269278  
     126Ap     0.270598   127Ap     0.272736   104App    0.274030  
     128Ap     0.274279   129Ap     0.276509   105App    0.278015  
     130Ap     0.279666   106App    0.280166   131Ap     0.280519  
     107App    0.280941   108App    0.282031   132Ap     0.283566  
     109App    0.283990   133Ap     0.286728   110App    0.288185  
     111App    0.290783   134Ap     0.291255   135Ap     0.293118  
     136Ap     0.296235   112App    0.296725   113App    0.299692  
     137Ap     0.300033   138Ap     0.301508   139Ap     0.303559  
     140Ap     0.304840   114App    0.305212   115App    0.307095  
     116App    0.310006   141Ap     0.311504   117App    0.311579  
     142Ap     0.312239   118App    0.313129   143Ap     0.314964  
     119App    0.315839   144Ap     0.318104   120App    0.319284  
     145Ap     0.319386   121App    0.321037   146Ap     0.321987  
     122App    0.323640   147Ap     0.323807   148Ap     0.325182  
     149Ap     0.326828   123App    0.328653   150Ap     0.330240  
     151Ap     0.332168   124App    0.333781   125App    0.334202  
     152Ap     0.336154   126App    0.337036   153Ap     0.338682  
     154Ap     0.338980   155Ap     0.341502   127App    0.341572  
     128App    0.346215   129App    0.346584   130App    0.349043  
     156Ap     0.352333   157Ap     0.356879   131App    0.361813  
     158Ap     0.364269   132App    0.364270   159Ap     0.365009  
     133App    0.366845   160Ap     0.368269   134App    0.369816  
     161Ap     0.370863   162Ap     0.372740   163Ap     0.376938  
     135App    0.377104   136App    0.377409   164Ap     0.381848  
     137App    0.384449   165Ap     0.385681   166Ap     0.387227  
     138App    0.388153   167Ap     0.389218   168Ap     0.390767  
     139App    0.391022   140App    0.393196   169Ap     0.393697  
     141App    0.395748   170Ap     0.396415   171Ap     0.399545  
     142App    0.400131   172Ap     0.405327   173Ap     0.407076  
     143App    0.407236   144App    0.407934   174Ap     0.410990  
     145App    0.412032   175Ap     0.412411   176Ap     0.417007  
     146App    0.420319   177Ap     0.421283   147App    0.421482  
     148App    0.425325   178Ap     0.425688   149App    0.427579  
     179Ap     0.428989   180Ap     0.429496   181Ap     0.432084  
     150App    0.432532   182Ap     0.434886   151App    0.435938  
     183Ap     0.438995   152App    0.439624   184Ap     0.440190  
     153App    0.443142   154App    0.445073   185Ap     0.445348  
     155App    0.446594   186Ap     0.447552   187Ap     0.447954  
     156App    0.449987   188Ap     0.453047   157App    0.453239  
     189Ap     0.454093   158App    0.455094   190Ap     0.456347  
     159App    0.457434   191Ap     0.458014   192Ap     0.460340  
     160App    0.460608   161App    0.461939   193Ap     0.462734  
     194Ap     0.467931   162App    0.468157   195Ap     0.470144  
     163App    0.471304   196Ap     0.471771   197Ap     0.472890  
     198Ap     0.475350   164App    0.475835   199Ap     0.478870  
     165App    0.479179   200Ap     0.480799   166App    0.481264  
     167App    0.484392   201Ap     0.485151   168App    0.488384  
     202Ap     0.490620   169App    0.491944   170App    0.494592  
     203Ap     0.495356   171App    0.495850   172App    0.499433  
     204Ap     0.500077   205Ap     0.501530   206Ap     0.503483  
     207Ap     0.505810   173App    0.505881   208Ap     0.506998  
     174App    0.507898   175App    0.510000   176App    0.511720  
     209Ap     0.512033   210Ap     0.514266   211Ap     0.515712  
     177App    0.517396   212Ap     0.517466   178App    0.518459  
     213Ap     0.521789   214Ap     0.522341   179App    0.522422  
     215Ap     0.524813   216Ap     0.528110   180App    0.528423  
     217Ap     0.530645   181App    0.530663   218Ap     0.532102  
     182App    0.532680   183App    0.535211   219Ap     0.536790  
     220Ap     0.539625   184App    0.539937   221Ap     0.541255  
     185App    0.541954   222Ap     0.542414   223Ap     0.545172  
     186App    0.545491   224Ap     0.547390   187App    0.548855  
     225Ap     0.550383   188App    0.550720   226Ap     0.551196  
     189App    0.552943   227Ap     0.555787   190App    0.555946  
     228Ap     0.556585   229Ap     0.558388   230Ap     0.559156  
     191App    0.560210   231Ap     0.561992   192App    0.563323  
     232Ap     0.564282   193App    0.568575   233Ap     0.569222  
     194App    0.570492   195App    0.571425   234Ap     0.572150  
     235Ap     0.576170   196App    0.576593   236Ap     0.577399  
     237Ap     0.581279   197App    0.581872   198App    0.583330  
     199App    0.584113   238Ap     0.584906   239Ap     0.588119  
     200App    0.588453   240Ap     0.589647   241Ap     0.590357  
     201App    0.591930   202App    0.592463   242Ap     0.593949  
     203App    0.594564   243Ap     0.598570   204App    0.599459  
     244Ap     0.599881   205App    0.600991   245Ap     0.602301  
     206App    0.604714   246Ap     0.606325   207App    0.608305  
     247Ap     0.608578   208App    0.612121   248Ap     0.613200  
     209App    0.615895   249Ap     0.616289   210App    0.616428  
     250Ap     0.618761   211App    0.620819   251Ap     0.622826  
     212App    0.623043   213App    0.623924   252Ap     0.628330  
     214App    0.631135   253Ap     0.631595   215App    0.631818  
     216App    0.633609   254Ap     0.633708   255Ap     0.635715  
     256Ap     0.637829   217App    0.639219   218App    0.641159  
     219App    0.642857   257Ap     0.642859   220App    0.645192  
     221App    0.647720   258Ap     0.649295   259Ap     0.652382  
     260Ap     0.652813   222App    0.654124   261Ap     0.657797  
     223App    0.661006   262Ap     0.663373   263Ap     0.666897  
     224App    0.669561   225App    0.669957   264Ap     0.672958  
     226App    0.673223   265Ap     0.675355   227App    0.676897  
     266Ap     0.678137   267Ap     0.682031   228App    0.685024  
     268Ap     0.686622   269Ap     0.687393   229App    0.688418  
     230App    0.689394   270Ap     0.693056   231App    0.693407  
     271Ap     0.693895   272Ap     0.697458   273Ap     0.700203  
     274Ap     0.703968   232App    0.704849   275Ap     0.707942  
     233App    0.710156   276Ap     0.711360   234App    0.712080  
     235App    0.712210   277Ap     0.715152   278Ap     0.717343  
     236App    0.719694   279Ap     0.723551   280Ap     0.724689  
     281Ap     0.726469   237App    0.727555   238App    0.728418  
     282Ap     0.731647   239App    0.732018   283Ap     0.733743  
     240App    0.735297   284Ap     0.737484   241App    0.740004  
     285Ap     0.741730   242App    0.743355   243App    0.746101  
     286Ap     0.746210   287Ap     0.746894   244App    0.748350  
     245App    0.752976   288Ap     0.754009   289Ap     0.755436  
     246App    0.755908   290Ap     0.758483   291Ap     0.759157  
     247App    0.761581   248App    0.761741   292Ap     0.763083  
     293Ap     0.765675   249App    0.771342   294Ap     0.772561  
     250App    0.773169   295Ap     0.773225   251App    0.774137  
     252App    0.775625   296Ap     0.776470   297Ap     0.778079  
     253App    0.782038   298Ap     0.782880   299Ap     0.784290  
     254App    0.785059   255App    0.786747   300Ap     0.789328  
     301Ap     0.789842   256App    0.790706   257App    0.792127  
     302Ap     0.792781   258App    0.793082   303Ap     0.797411  
     259App    0.798062   260App    0.799085   304Ap     0.799882  
     305Ap     0.802622   261App    0.803052   306Ap     0.804523  
     307Ap     0.807597   308Ap     0.808299   262App    0.814202  
     309Ap     0.816550   310Ap     0.818030   263App    0.819579  
     311Ap     0.819934   264App    0.822066   265App    0.823972  
     312Ap     0.827999   266App    0.829432   313Ap     0.830206  
     267App    0.832659   314Ap     0.835627   268App    0.836093  
     315Ap     0.836610   316Ap     0.838137   269App    0.839962  
     270App    0.843535   317Ap     0.844944   271App    0.847305  
     318Ap     0.848332   319Ap     0.849906   272App    0.850169  
     273App    0.855498   320Ap     0.856004   274App    0.858556  
     321Ap     0.859200   275App    0.860930   322Ap     0.862147  
     323Ap     0.862901   276App    0.863607   277App    0.868441  
     278App    0.869064   324Ap     0.870167   325Ap     0.870768  
     326Ap     0.871868   279App    0.874541   327Ap     0.880132  
     280App    0.881865   281App    0.883341   328Ap     0.885068  
     282App    0.886501   329Ap     0.886827   330Ap     0.888011  
     283App    0.891804   331Ap     0.893328   284App    0.894886  
     332Ap     0.897051   285App    0.898436   333Ap     0.902240  
     286App    0.903285   287App    0.903783   334Ap     0.905637  
     335Ap     0.907425   288App    0.907522   336Ap     0.909365  
     289App    0.910757   290App    0.911684   337Ap     0.912210  
     291App    0.913860   338Ap     0.918317   292App    0.919119  
     339Ap     0.919155   293App    0.921609   294App    0.923820  
     340Ap     0.925550   341Ap     0.927050   295App    0.928978  
     342Ap     0.932141   296App    0.932993   297App    0.934805  
     343Ap     0.935598   298App    0.936301   344Ap     0.937954  
     299App    0.938574   345Ap     0.941353   346Ap     0.945365  
     300App    0.945579   347Ap     0.947163   301App    0.948007  
     302App    0.951733   348Ap     0.953381   303App    0.953839  
     349Ap     0.954981   350Ap     0.955259   304App    0.960552  
     305App    0.961521   351Ap     0.961966   352Ap     0.965147  
     306App    0.966204   307App    0.967586   308App    0.970551  
     353Ap     0.971037   354Ap     0.973073   355Ap     0.973495  
     309App    0.974693   356Ap     0.977882   310App    0.978861  
     357Ap     0.979678   311App    0.980546   312App    0.983260  
     358Ap     0.985640   359Ap     0.988112   360Ap     0.989323  
     313App    0.991615   314App    0.991840   361Ap     0.994108  
     362Ap     0.996469   363Ap     0.998632   315App    1.000943  
     316App    1.002933   364Ap     1.003653   365Ap     1.006676  
     317App    1.008517   318App    1.010385   366Ap     1.011132  
     367Ap     1.012260   368Ap     1.013217   319App    1.014180  
     320App    1.017573   369Ap     1.018548   370Ap     1.021742  
     321App    1.022066   322App    1.022878   371Ap     1.025689  
     323App    1.027175   372Ap     1.028528   373Ap     1.030967  
     324App    1.031285   325App    1.035175   374Ap     1.036050  
     326App    1.037318   375Ap     1.040138   327App    1.041269  
     376Ap     1.045314   377Ap     1.047046   328App    1.048782  
     378Ap     1.049801   379Ap     1.051530   329App    1.051796  
     330App    1.055752   380Ap     1.056934   381Ap     1.059606  
     331App    1.060844   382Ap     1.061385   332App    1.063567  
     383Ap     1.064356   333App    1.067501   384Ap     1.068344  
     334App    1.069450   385Ap     1.070900   386Ap     1.072350  
     335App    1.073882   336App    1.074814   387Ap     1.075603  
     337App    1.076636   388Ap     1.079005   389Ap     1.081542  
     338App    1.081846   390Ap     1.083955   339App    1.084251  
     340App    1.086960   391Ap     1.088516   341App    1.089035  
     392Ap     1.092541   393Ap     1.094734   342App    1.094845  
     394Ap     1.096785   343App    1.098306   395Ap     1.103064  
     344App    1.103589   396Ap     1.108210   345App    1.108390  
     397Ap     1.112020   398Ap     1.113436   346App    1.115270  
     399Ap     1.118080   347App    1.119153   348App    1.120855  
     400Ap     1.125967   349App    1.126959   401Ap     1.127943  
     350App    1.128001   351App    1.129522   402Ap     1.131878  
     403Ap     1.134300   352App    1.135093   404Ap     1.135695  
     353App    1.136765   405Ap     1.139935   406Ap     1.142894  
     354App    1.143491   407Ap     1.144823   408Ap     1.147514  
     355App    1.148647   409Ap     1.149923   356App    1.152054  
     410Ap     1.154516   411Ap     1.158851   412Ap     1.159975  
     357App    1.160663   358App    1.161289   413Ap     1.163751  
     359App    1.165822   414Ap     1.167536   360App    1.168905  
     415Ap     1.169280   416Ap     1.169803   361App    1.170578  
     362App    1.173316   417Ap     1.175293   418Ap     1.179346  
     363App    1.179754   419Ap     1.182762   364App    1.183553  
     420Ap     1.184543   365App    1.186744   421Ap     1.189453  
     366App    1.191456   367App    1.194354   422Ap     1.195957  
     368App    1.197950   423Ap     1.200814   369App    1.203283  
     424Ap     1.203291   425Ap     1.207953   370App    1.209331  
     371App    1.211036   426Ap     1.212328   372App    1.212485  
     427Ap     1.214225   373App    1.216329   428Ap     1.221731  
     374App    1.221826   429Ap     1.222913   375App    1.223799  
     430Ap     1.225710   376App    1.227665   377App    1.229593  
     431Ap     1.232036   432Ap     1.233260   378App    1.233752  
     379App    1.237245   433Ap     1.237319   434Ap     1.238839  
     435Ap     1.242719   380App    1.244372   381App    1.247073  
     436Ap     1.249499   437Ap     1.250037   438Ap     1.254422  
     382App    1.255635   439Ap     1.256638   383App    1.257482  
     384App    1.260386   440Ap     1.265409   385App    1.266313  
     386App    1.267492   441Ap     1.269800   387App    1.270195  
     442Ap     1.273420   443Ap     1.274316   388App    1.275097  
     444Ap     1.276479   389App    1.278261   445Ap     1.279768  
     390App    1.282568   446Ap     1.284772   447Ap     1.285724  
     391App    1.286257   392App    1.288215   448Ap     1.291695  
     393App    1.292441   449Ap     1.296147   450Ap     1.297273  
     394App    1.297974   451Ap     1.300216   395App    1.302605  
     452Ap     1.304779   453Ap     1.305829   396App    1.306961  
     454Ap     1.308304   397App    1.311160   455Ap     1.313570  
     398App    1.316397   456Ap     1.316453   457Ap     1.318578  
     458Ap     1.323122   399App    1.323178   400App    1.327853  
     401App    1.329081   459Ap     1.329143   460Ap     1.330507  
     461Ap     1.333913   402App    1.334459   403App    1.335284  
     404App    1.336985   405App    1.339227   462Ap     1.339336  
     463Ap     1.341266   464Ap     1.345845   406App    1.347351  
     407App    1.348422   408App    1.350601   465Ap     1.353784  
     466Ap     1.354165   409App    1.355598   467Ap     1.355826  
     468Ap     1.360383   410App    1.362860   469Ap     1.364838  
     470Ap     1.365681   411App    1.369015   412App    1.369776  
     413App    1.374028   471Ap     1.377317   414App    1.378689  
     472Ap     1.379764   473Ap     1.381549   474Ap     1.382316  
     415App    1.383378   475Ap     1.385807   476Ap     1.387595  
     416App    1.388102   417App    1.394573   477Ap     1.394627  
     418App    1.395592   478Ap     1.396226   419App    1.400779  
     479Ap     1.401291   420App    1.402212   480Ap     1.404122  
     421App    1.405350   481Ap     1.408644   482Ap     1.410648  
     483Ap     1.414013   422App    1.414637   484Ap     1.418015  
     423App    1.423827   424App    1.427545   425App    1.428703  
     485Ap     1.429126   426App    1.430985   486Ap     1.434494  
     487Ap     1.435995   427App    1.436426   488Ap     1.437458  
     428App    1.439028   489Ap     1.441060   490Ap     1.444054  
     429App    1.444977   491Ap     1.446877   430App    1.448766  
     492Ap     1.449268   431App    1.452054   493Ap     1.454137  
     432App    1.456636   494Ap     1.456648   433App    1.460939  
     434App    1.463630   495Ap     1.466047   435App    1.468780  
     496Ap     1.470489   436App    1.470588   497Ap     1.471699  
     498Ap     1.476210   437App    1.476656   499Ap     1.482393  
     438App    1.484324   500Ap     1.485652   439App    1.485657  
     501Ap     1.486331   440App    1.487138   441App    1.489301  
     442App    1.491768   502Ap     1.492192   443App    1.495074  
     503Ap     1.495355   504Ap     1.498088   444App    1.499745  
     505Ap     1.501573   445App    1.503091   506Ap     1.503935  
     446App    1.505488   507Ap     1.508887   447App    1.511918  
     508Ap     1.512118   448App    1.513483   509Ap     1.514154  
     449App    1.516530   510Ap     1.521490   511Ap     1.521925  
     450App    1.522506   451App    1.524307   512Ap     1.524323  
     513Ap     1.525583   452App    1.527480   514Ap     1.531003  
     453App    1.531640   515Ap     1.531993   454App    1.534472  
     516Ap     1.536311   455App    1.537554   517Ap     1.540919  
     456App    1.544210   518Ap     1.545393   457App    1.547424  
     519Ap     1.548619   458App    1.548710   520Ap     1.551642  
     459App    1.552825   521Ap     1.557504   460App    1.558701  
     461App    1.560224   522Ap     1.561684   462App    1.566155  
     523Ap     1.566928   463App    1.569391   524Ap     1.570788  
     464App    1.571764   525Ap     1.573402   526Ap     1.574274  
     465App    1.578238   527Ap     1.580864   466App    1.581719  
     467App    1.584971   528Ap     1.585155   529Ap     1.589775  
     468App    1.589928   530Ap     1.593603   531Ap     1.594922  
     469App    1.595083   470App    1.598633   471App    1.599813  
     532Ap     1.599967   533Ap     1.601244   534Ap     1.604500  
     472App    1.605989   535Ap     1.606454   536Ap     1.608959  
     473App    1.609480   474App    1.614189   475App    1.615851  
     537Ap     1.618436   538Ap     1.621163   539Ap     1.625892  
     476App    1.627346   477App    1.629265   540Ap     1.630074  
     478App    1.631431   541Ap     1.634071   479App    1.637409  
     542Ap     1.637655   543Ap     1.639090   544Ap     1.639785  
     480App    1.643902   481App    1.645211   545Ap     1.647733  
     546Ap     1.650226   482App    1.651938   483App    1.653205  
     547Ap     1.655102   484App    1.656755   548Ap     1.658091  
     485App    1.658547   549Ap     1.663331   486App    1.665631  
     550Ap     1.665918   487App    1.668515   551Ap     1.672250  
     488App    1.675369   552Ap     1.676240   489App    1.676773  
     553Ap     1.678738   490App    1.679260   554Ap     1.680621  
     555Ap     1.682872   491App    1.686206   492App    1.689575  
     556Ap     1.690847   493App    1.692024   557Ap     1.694698  
     494App    1.694787   558Ap     1.697872   495App    1.701272  
     559Ap     1.701517   496App    1.703262   560Ap     1.703623  
     497App    1.703630   498App    1.704331   561Ap     1.708870  
     499App    1.710742   562Ap     1.711766   563Ap     1.715803  
     564Ap     1.717895   565Ap     1.719374   500App    1.721337  
     501App    1.724330   566Ap     1.725646   502App    1.726625  
     503App    1.730508   567Ap     1.732030   504App    1.733813  
     568Ap     1.734375   505App    1.734859   569Ap     1.739317  
     570Ap     1.740505   506App    1.741126   507App    1.742728  
     571Ap     1.746011   508App    1.746970   572Ap     1.747761  
     509App    1.749829   573Ap     1.755538   574Ap     1.756415  
     510App    1.757440   511App    1.758732   575Ap     1.760457  
     512App    1.762146   576Ap     1.762654   513App    1.765308  
     577Ap     1.767335   514App    1.768394   578Ap     1.769862  
     579Ap     1.772977   515App    1.775715   580Ap     1.777805  
     516App    1.778992   581Ap     1.780186   517App    1.782965  
     518App    1.789776   582Ap     1.791055   583Ap     1.791487  
     519App    1.793873   584Ap     1.796643   520App    1.799584  
     585Ap     1.800578   521App    1.801784   586Ap     1.804213  
     587Ap     1.805728   522App    1.806240   588Ap     1.809563  
     523App    1.812485   589Ap     1.812497   524App    1.817566  
     590Ap     1.819273   525App    1.820058   591Ap     1.821707  
     526App    1.824166   592Ap     1.825252   527App    1.825903  
     593Ap     1.827625   594Ap     1.829114   528App    1.830434  
     595Ap     1.833178   529App    1.837382   596Ap     1.839439  
     530App    1.840254   597Ap     1.842638   531App    1.845509  
     598Ap     1.846582   599Ap     1.849947   600Ap     1.851094  
     532App    1.851948   533App    1.854599   601Ap     1.855436  
     534App    1.856786   535App    1.860359   602Ap     1.860525  
     603Ap     1.863434   536App    1.864917   604Ap     1.865510  
     605Ap     1.873273   537App    1.873753   538App    1.874760  
     606Ap     1.876923   539App    1.878350   607Ap     1.881314  
     540App    1.883256   608Ap     1.885035   541App    1.889337  
     609Ap     1.890280   542App    1.893419   543App    1.895224  
     610Ap     1.895241   611Ap     1.896361   544App    1.898707  
     612Ap     1.898807   545App    1.901483   613Ap     1.902953  
     546App    1.904460   614Ap     1.907009   547App    1.908982  
     615Ap     1.911088   548App    1.911576   616Ap     1.913708  
     549App    1.914936   617Ap     1.918104   550App    1.922087  
     551App    1.923601   618Ap     1.926190   619Ap     1.929482  
     552App    1.929592   620Ap     1.930829   553App    1.934479  
     621Ap     1.935863   554App    1.937463   555App    1.941196  
     622Ap     1.941721   623Ap     1.944744   556App    1.946232  
     624Ap     1.948235   557App    1.952492   558App    1.952818  
     625Ap     1.953211   559App    1.954755   626Ap     1.959028  
     627Ap     1.959906   628Ap     1.961999   560App    1.964977  
     561App    1.966461   629Ap     1.967112   630Ap     1.968218  
     562App    1.970203   563App    1.975576   564App    1.976212  
     631Ap     1.977887   632Ap     1.981390   633Ap     1.982659  
     565App    1.983148   634Ap     1.986569   635Ap     1.986975  
     566App    1.991138   636Ap     1.992345   567App    1.993446  
     568App    1.994666   637Ap     1.995299   569App    1.999277  
     638Ap     2.001993   639Ap     2.005058   640Ap     2.005554  
     570App    2.009821   641Ap     2.014033   571App    2.015594  
     572App    2.017738   642Ap     2.022325   643Ap     2.022937  
     573App    2.026512   644Ap     2.027921   574App    2.032229  
     575App    2.034888   645Ap     2.036159   646Ap     2.039062  
     576App    2.041102   647Ap     2.042746   648Ap     2.045367  
     577App    2.046974   578App    2.050566   579App    2.051736  
     649Ap     2.052001   650Ap     2.056981   580App    2.058098  
     651Ap     2.059154   581App    2.060855   652Ap     2.065390  
     582App    2.066480   653Ap     2.069241   583App    2.073841  
     654Ap     2.075577   655Ap     2.079432   584App    2.080085  
     585App    2.084993   586App    2.087097   656Ap     2.090326  
     657Ap     2.091569   658Ap     2.092894   587App    2.094277  
     588App    2.096700   659Ap     2.097837   589App    2.101404  
     660Ap     2.102729   590App    2.106398   661Ap     2.108195  
     591App    2.110915   592App    2.113491   593App    2.113748  
     662Ap     2.114477   594App    2.120100   663Ap     2.121012  
     595App    2.123689   664Ap     2.125974   596App    2.127946  
     665Ap     2.132658   597App    2.136118   598App    2.137536  
     666Ap     2.140267   599App    2.144625   667Ap     2.144903  
     668Ap     2.146320   600App    2.148154   601App    2.153779  
     669Ap     2.153916   670Ap     2.160166   602App    2.161493  
     603App    2.164642   671Ap     2.165423   604App    2.168549  
     672Ap     2.172031   605App    2.172765   606App    2.176465  
     673Ap     2.176651   674Ap     2.176961   675Ap     2.180231  
     607App    2.190372   676Ap     2.190884   677Ap     2.194003  
     608App    2.195755   678Ap     2.198279   679Ap     2.203728  
     609App    2.205224   680Ap     2.205723   610App    2.208511  
     681Ap     2.211316   611App    2.215150   612App    2.217740  
     682Ap     2.218196   683Ap     2.223435   613App    2.224044  
     684Ap     2.226465   614App    2.230258   685Ap     2.231628  
     615App    2.234647   686Ap     2.235500   616App    2.238394  
     687Ap     2.240640   617App    2.245683   618App    2.249207  
     688Ap     2.249244   689Ap     2.250930   690Ap     2.251622  
     619App    2.252235   620App    2.257663   691Ap     2.261634  
     621App    2.264030   692Ap     2.267027   622App    2.268081  
     693Ap     2.271907   623App    2.272992   694Ap     2.277461  
     624App    2.279731   695Ap     2.283200   625App    2.283992  
     696Ap     2.285687   626App    2.289428   697Ap     2.291776  
     627App    2.293929   698Ap     2.297408   699Ap     2.302452  
     628App    2.302476   700Ap     2.309130   629App    2.310519  
     630App    2.313650   701Ap     2.314838   631App    2.317881  
     702Ap     2.318865   632App    2.319931   703Ap     2.322799  
     633App    2.324575   704Ap     2.325510   634App    2.327946  
     635App    2.332400   705Ap     2.335792   706Ap     2.342303  
     636App    2.343049   637App    2.347092   707Ap     2.348555  
     638App    2.352030   708Ap     2.354434   639App    2.355823  
     640App    2.359092   709Ap     2.360689   641App    2.363596  
     710Ap     2.369343   642App    2.369873   643App    2.374952  
     711Ap     2.375153   712Ap     2.378401   644App    2.381860  
     713Ap     2.383013   645App    2.385972   714Ap     2.387313  
     715Ap     2.390012   646App    2.391313   716Ap     2.391776  
     647App    2.395544   717Ap     2.396493   648App    2.399313  
     718Ap     2.402516   719Ap     2.406272   720Ap     2.411166  
     649App    2.413009   721Ap     2.415714   650App    2.417434  
     651App    2.419033   652App    2.425222   722Ap     2.426790  
     653App    2.428251   723Ap     2.429009   724Ap     2.436399  
     654App    2.437250   655App    2.443334   725Ap     2.444502  
     726Ap     2.447552   656App    2.449750   727Ap     2.451591  
     657App    2.455035   728Ap     2.456563   658App    2.461385  
     729Ap     2.462603   730Ap     2.466081   731Ap     2.469175  
     659App    2.469433   732Ap     2.473357   733Ap     2.475416  
     660App    2.475827   661App    2.477567   662App    2.480895  
     734Ap     2.482314   663App    2.487039   735Ap     2.487122  
     664App    2.494017   736Ap     2.495557   665App    2.499667  
     737Ap     2.499950   738Ap     2.501706   666App    2.503319  
     739Ap     2.512573   667App    2.516132   740Ap     2.517470  
     668App    2.517902   741Ap     2.521675   742Ap     2.523565  
     669App    2.524822   743Ap     2.526223   670App    2.531503  
     671App    2.532415   744Ap     2.535917   745Ap     2.536533  
     672App    2.536722   746Ap     2.538883   747Ap     2.542084  
     673App    2.545709   674App    2.549815   748Ap     2.552639  
     749Ap     2.557789   675App    2.560667   676App    2.561713  
     750Ap     2.565302   677App    2.565913   678App    2.569701  
     679App    2.575636   751Ap     2.577168   752Ap     2.577858  
     753Ap     2.582505   680App    2.585658   754Ap     2.588895  
     681App    2.589414   755Ap     2.593150   756Ap     2.596968  
     757Ap     2.597521   682App    2.598494   683App    2.604252  
     684App    2.605482   758Ap     2.609020   685App    2.610442  
     759Ap     2.610903   760Ap     2.617975   686App    2.618030  
     687App    2.620151   761Ap     2.621225   688App    2.625706  
     762Ap     2.630215   689App    2.634866   763Ap     2.636487  
     690App    2.643520   691App    2.644636   764Ap     2.645324  
     692App    2.650334   693App    2.650977   765Ap     2.652186  
     766Ap     2.653912   694App    2.656467   767Ap     2.663731  
     768Ap     2.663977   695App    2.670196   769Ap     2.674840  
     696App    2.675260   770Ap     2.678347   771Ap     2.684335  
     697App    2.684809   698App    2.687997   772Ap     2.688839  
     773Ap     2.694422   699App    2.697737   774Ap     2.700486  
     700App    2.702161   775Ap     2.705027   701App    2.708724  
     702App    2.711237   776Ap     2.711454   777Ap     2.716482  
     703App    2.718190   778Ap     2.719739   779Ap     2.723164  
     704App    2.725221   780Ap     2.729056   705App    2.733011  
     781Ap     2.734163   706App    2.735150   782Ap     2.736912  
     707App    2.743514   783Ap     2.743604   784Ap     2.745375  
     785Ap     2.749367   708App    2.750292   709App    2.751163  
     710App    2.755242   711App    2.762282   712App    2.765674  
     786Ap     2.767526   787Ap     2.768943   713App    2.774937  
     788Ap     2.774949   789Ap     2.778681   714App    2.780464  
     715App    2.783280   790Ap     2.785049   791Ap     2.789770  
     716App    2.791916   717App    2.794754   792Ap     2.796775  
     793Ap     2.799870   794Ap     2.801917   718App    2.802119  
     719App    2.805861   795Ap     2.809483   796Ap     2.812956  
     720App    2.815352   797Ap     2.819655   721App    2.824257  
     722App    2.825910   798Ap     2.827057   723App    2.829716  
     799Ap     2.832526   724App    2.834418   800Ap     2.835561  
     725App    2.838928   801Ap     2.846109   802Ap     2.848909  
     726App    2.849725   727App    2.851957   803Ap     2.857118  
     728App    2.861044   729App    2.862665   804Ap     2.864619  
     730App    2.866918   805Ap     2.871926   731App    2.874611  
     732App    2.878795   806Ap     2.883723   733App    2.886140  
     807Ap     2.891354   734App    2.892598   808Ap     2.894792  
     809Ap     2.896214   810Ap     2.902425   735App    2.903527  
     811Ap     2.908969   736App    2.912151   812Ap     2.914907  
     737App    2.916094   738App    2.918234   813Ap     2.921122  
     739App    2.925646   814Ap     2.925850   740App    2.932666  
     815Ap     2.934247   741App    2.936538   816Ap     2.937145  
     742App    2.943769   817Ap     2.947925   818Ap     2.951581  
     819Ap     2.953881   743App    2.954140   744App    2.957584  
     820Ap     2.957843   745App    2.959246   821Ap     2.960422  
     822Ap     2.964792   746App    2.965524   747App    2.974407  
     823Ap     2.975132   748App    2.981072   749App    2.982925  
     824Ap     2.984487   750App    2.990796   825Ap     2.996427  
     826Ap     2.998440   751App    3.000258   752App    3.002888  
     827Ap     3.005965   828Ap     3.009859   753App    3.012409  
     754App    3.019316   829Ap     3.023992   755App    3.027207  
     756App    3.031744   830Ap     3.035105   757App    3.044057  
     758App    3.049964   831Ap     3.055048   832Ap     3.056029  
     833Ap     3.062720   759App    3.068029   834Ap     3.075568  
     835Ap     3.083269   760App    3.085916   836Ap     3.090280  
     761App    3.093599   762App    3.099657   837Ap     3.104241  
     838Ap     3.108442   763App    3.111312   839Ap     3.114699  
     764App    3.115290   840Ap     3.123029   765App    3.128493  
     841Ap     3.131514   766App    3.139831   842Ap     3.142769  
     843Ap     3.146915   844Ap     3.154913   767App    3.155906  
     845Ap     3.162235   768App    3.164726   769App    3.175864  
     770App    3.185187   846Ap     3.187308   771App    3.194157  
     847Ap     3.196959   772App    3.197624   848Ap     3.202858  
     773App    3.212423   849Ap     3.214728   774App    3.223651  
     850Ap     3.228033   851Ap     3.238507   775App    3.239849  
     776App    3.248862   852Ap     3.265830   777App    3.276828  
     853Ap     3.280598   778App    3.284057   854Ap     3.289414  
     779App    3.292974   855Ap     3.293693   780App    3.298916  
     856Ap     3.300368   857Ap     3.304207   781App    3.306724  
     858Ap     3.313395   782App    3.317560   783App    3.321291  
     859Ap     3.329175   860Ap     3.340275   784App    3.341384  
     861Ap     3.341967   785App    3.349164   786App    3.353572  
     862Ap     3.353884   863Ap     3.356371   787App    3.363668  
     788App    3.372853   864Ap     3.373583   865Ap     3.379089  
     789App    3.381175   866Ap     3.384057   867Ap     3.388281  
     790App    3.388617   791App    3.398547   868Ap     3.402578  
     792App    3.405256   869Ap     3.413851   870Ap     3.420507  
     793App    3.425191   871Ap     3.425299   872Ap     3.431365  
     794App    3.437388   873Ap     3.440648   795App    3.443495  
     874Ap     3.444585   796App    3.450805   875Ap     3.456951  
     797App    3.458622   876Ap     3.465378   798App    3.471784  
     877Ap     3.477687   878Ap     3.480822   799App    3.485500  
     800App    3.487222   879Ap     3.497351   801App    3.504157  
     880Ap     3.512987   802App    3.514927   803App    3.523285  
     881Ap     3.525693   882Ap     3.532042   804App    3.533281  
     805App    3.540805   883Ap     3.545240   806App    3.552393  
     884Ap     3.553696   885Ap     3.560988   807App    3.563256  
     886Ap     3.566462   887Ap     3.572356   888Ap     3.576856  
     808App    3.579071   889Ap     3.584978   809App    3.592202  
     810App    3.595377   890Ap     3.601392   811App    3.601911  
     891Ap     3.606535   892Ap     3.612066   812App    3.612831  
     893Ap     3.617885   813App    3.621448   814App    3.623493  
     894Ap     3.623875   895Ap     3.629979   815App    3.633533  
     896Ap     3.637483   897Ap     3.640293   816App    3.642464  
     898Ap     3.651386   817App    3.653312   818App    3.654849  
     899Ap     3.665249   819App    3.674214   900Ap     3.675178  
     820App    3.677517   821App    3.678721   901Ap     3.682184  
     902Ap     3.687003   822App    3.689260   903Ap     3.691381  
     904Ap     3.696395   823App    3.699245   905Ap     3.700166  
     906Ap     3.705188   824App    3.712429   825App    3.716612  
     907Ap     3.719482   908Ap     3.720892   826App    3.721265  
     909Ap     3.723953   827App    3.733030   828App    3.738456  
     910Ap     3.747283   829App    3.749215   911Ap     3.749731  
     912Ap     3.752472   830App    3.756568   831App    3.764598  
     832App    3.772102   913Ap     3.775505   833App    3.777525  
     914Ap     3.780241   915Ap     3.788921   834App    3.790111  
     835App    3.791571   916Ap     3.791960   917Ap     3.797744  
     918Ap     3.804979   836App    3.807513   919Ap     3.809451  
     837App    3.811087   838App    3.814434   920Ap     3.815947  
     839App    3.817490   921Ap     3.817781   840App    3.826548  
     922Ap     3.828263   841App    3.830303   842App    3.833514  
     923Ap     3.833772   924Ap     3.838843   843App    3.839670  
     925Ap     3.844026   844App    3.845916   845App    3.847963  
     926Ap     3.856348   846App    3.857774   927Ap     3.861073  
     847App    3.865775   928Ap     3.869310   848App    3.869513  
     929Ap     3.876033   930Ap     3.878038   849App    3.880615  
     931Ap     3.885798   850App    3.886667   932Ap     3.890715  
     851App    3.896478   933Ap     3.898388   852App    3.903078  
     934Ap     3.906719   853App    3.910856   854App    3.914470  
     935Ap     3.918518   855App    3.920375   936Ap     3.920401  
     937Ap     3.932441   856App    3.933818   938Ap     3.936347  
     857App    3.941579   939Ap     3.949905   940Ap     3.957345  
     858App    3.957379   859App    3.960021   941Ap     3.960546  
     860App    3.961325   942Ap     3.972107   861App    3.972667  
     943Ap     3.978669   862App    3.981140   944Ap     3.984319  
     945Ap     3.985184   946Ap     3.987879   863App    3.990056  
     864App    3.993961   947Ap     3.996648   865App    3.999682  
     948Ap     4.001063   866App    4.010340   949Ap     4.019565  
     867App    4.019633   950Ap     4.022429   868App    4.027531  
     951Ap     4.027704   869App    4.032685   952Ap     4.040017  
     953Ap     4.043418   870App    4.045612   954Ap     4.055545  
     871App    4.056682   955Ap     4.057776   956Ap     4.059185  
     957Ap     4.062472   872App    4.063948   873App    4.067453  
     874App    4.072855   958Ap     4.075027   875App    4.079140  
     959Ap     4.083756   960Ap     4.086456   876App    4.087321  
     877App    4.090443   961Ap     4.094968   962Ap     4.098421  
     878App    4.100914   879App    4.102278   963Ap     4.109449  
     880App    4.111350   964Ap     4.113579   965Ap     4.119080  
     966Ap     4.119277   881App    4.123038   882App    4.123818  
     967Ap     4.126665   968Ap     4.130407   883App    4.130847  
     969Ap     4.131619   884App    4.133355   885App    4.139232  
     886App    4.141668   970Ap     4.143828   971Ap     4.147336  
     887App    4.150600   972Ap     4.152711   973Ap     4.155209  
     888App    4.155724   889App    4.159757   974Ap     4.160878  
     975Ap     4.169285   890App    4.170675   976Ap     4.174417  
     891App    4.175208   892App    4.177422   977Ap     4.180712  
     893App    4.183594   978Ap     4.183658   979Ap     4.186222  
     894App    4.187061   980Ap     4.192556   981Ap     4.198131  
     895App    4.200262   982Ap     4.203316   896App    4.210212  
     983Ap     4.213033   984Ap     4.215713   897App    4.216003  
     898App    4.216900   985Ap     4.218336   899App    4.220355  
     900App    4.223718   986Ap     4.227909   987Ap     4.231516  
     901App    4.231901   902App    4.237609   988Ap     4.238055  
     903App    4.240428   989Ap     4.242723   990Ap     4.248623  
     904App    4.248987   991Ap     4.250067   905App    4.252708  
     906App    4.257719   992Ap     4.260027   907App    4.261143  
     993Ap     4.266643   908App    4.267626   909App    4.269161  
     994Ap     4.271681   910App    4.276364   995Ap     4.277590  
     996Ap     4.284904   911App    4.287577   997Ap     4.288410  
     998Ap     4.293197   912App    4.293309   999Ap     4.295183  
     913App    4.296798   914App    4.299311  1000Ap     4.300356  
    1001Ap     4.309493   915App    4.311060  1002Ap     4.314211  
    1003Ap     4.315791   916App    4.318913   917App    4.325138  
    1004Ap     4.325231   918App    4.330187   919App    4.334670  
    1005Ap     4.338929  1006Ap     4.340914   920App    4.342093  
    1007Ap     4.345747   921App    4.349009  1008Ap     4.351645  
     922App    4.359678   923App    4.365192  1009Ap     4.366917  
     924App    4.367648  1010Ap     4.367965  1011Ap     4.371206  
    1012Ap     4.375342   925App    4.378306   926App    4.383211  
    1013Ap     4.383238   927App    4.386388  1014Ap     4.391763  
     928App    4.393821   929App    4.394790  1015Ap     4.398464  
    1016Ap     4.399012   930App    4.404575  1017Ap     4.410365  
    1018Ap     4.412533   931App    4.413323   932App    4.415489  
    1019Ap     4.417620  1020Ap     4.420925  1021Ap     4.422920  
    1022Ap     4.427484   933App    4.428317  1023Ap     4.430702  
    1024Ap     4.433602   934App    4.436273  1025Ap     4.439012  
     935App    4.441751  1026Ap     4.444677   936App    4.444745  
     937App    4.449023   938App    4.454214  1027Ap     4.454394  
    1028Ap     4.458260  1029Ap     4.459112   939App    4.461021  
     940App    4.462735  1030Ap     4.466237   941App    4.470841  
     942App    4.472683  1031Ap     4.474120   943App    4.476131  
    1032Ap     4.476830  1033Ap     4.478104   944App    4.482981  
    1034Ap     4.485811  1035Ap     4.488730   945App    4.491060  
     946App    4.496668  1036Ap     4.496775  1037Ap     4.498711  
     947App    4.499257  1038Ap     4.502924   948App    4.504158  
     949App    4.505557   950App    4.510343  1039Ap     4.510598  
    1040Ap     4.512904   951App    4.517908  1041Ap     4.518576  
     952App    4.523368  1042Ap     4.523376  1043Ap     4.524572  
     953App    4.528250   954App    4.530263  1044Ap     4.530454  
     955App    4.534474  1045Ap     4.538048  1046Ap     4.545922  
    1047Ap     4.548092   956App    4.551176  1048Ap     4.553088  
     957App    4.556611   958App    4.558109  1049Ap     4.559931  
     959App    4.564789   960App    4.566787   961App    4.567729  
    1050Ap     4.568525  1051Ap     4.572069  1052Ap     4.576526  
     962App    4.579410  1053Ap     4.582300   963App    4.584410  
     964App    4.591413  1054Ap     4.593381   965App    4.594547  
    1055Ap     4.596623   966App    4.602193  1056Ap     4.603784  
     967App    4.604732  1057Ap     4.605703   968App    4.607208  
    1058Ap     4.608131  1059Ap     4.615783   969App    4.618594  
    1060Ap     4.620670  1061Ap     4.624077   970App    4.625602  
    1062Ap     4.632196   971App    4.632754  1063Ap     4.640378  
     972App    4.642957  1064Ap     4.643532   973App    4.643743  
     974App    4.645338  1065Ap     4.646496  1066Ap     4.648700  
    1067Ap     4.651865   975App    4.652200   976App    4.659581  
     977App    4.663393   978App    4.666141  1068Ap     4.666922  
     979App    4.670094  1069Ap     4.670190  1070Ap     4.673031  
    1071Ap     4.676527   980App    4.676976   981App    4.684167  
     982App    4.684999  1072Ap     4.686731  1073Ap     4.689422  
    1074Ap     4.693799   983App    4.696478  1075Ap     4.699071  
     984App    4.699564   985App    4.704795   986App    4.710320  
    1076Ap     4.710761  1077Ap     4.712758  1078Ap     4.717095  
    1079Ap     4.721648  1080Ap     4.727871   987App    4.727996  
     988App    4.731491  1081Ap     4.731858  1082Ap     4.734607  
     989App    4.738557  1083Ap     4.741764   990App    4.744331  
    1084Ap     4.749201   991App    4.750149  1085Ap     4.757744  
     992App    4.758372   993App    4.762307  1086Ap     4.765822  
    1087Ap     4.767243   994App    4.768155   995App    4.771855  
    1088Ap     4.772850  1089Ap     4.775716   996App    4.778217  
     997App    4.781527  1090Ap     4.784617  1091Ap     4.786493  
     998App    4.790872   999App    4.791895  1092Ap     4.795002  
    1000App    4.797932  1093Ap     4.801683  1001App    4.802084  
    1094Ap     4.803290  1002App    4.808269  1095Ap     4.810887  
    1003App    4.811245  1096Ap     4.816271  1097Ap     4.819663  
    1004App    4.819985  1098Ap     4.821436  1099Ap     4.822285  
    1005App    4.824671  1006App    4.827962  1100Ap     4.831122  
    1007App    4.832069  1008App    4.835422  1101Ap     4.835689  
    1009App    4.840341  1102Ap     4.846393  1010App    4.847439  
    1103Ap     4.850598  1104Ap     4.852510  1011App    4.853912  
    1105Ap     4.858185  1012App    4.861653  1013App    4.862851  
    1106Ap     4.865582  1014App    4.868054  1107Ap     4.873636  
    1015App    4.875683  1016App    4.883279  1108Ap     4.884243  
    1017App    4.888885  1018App    4.891138  1109Ap     4.891470  
    1110Ap     4.894139  1111Ap     4.898052  1019App    4.900898  
    1112Ap     4.902555  1113Ap     4.905513  1020App    4.908121  
    1114Ap     4.914757  1021App    4.918311  1115Ap     4.919365  
    1116Ap     4.924931  1022App    4.926047  1117Ap     4.934353  
    1023App    4.936380  1118Ap     4.937973  1024App    4.938653  
    1119Ap     4.945901  1120Ap     4.949323  1025App    4.950463  
    1121Ap     4.953375  1122Ap     4.957415  1026App    4.959256  
    1027App    4.960616  1028App    4.966494  1123Ap     4.971195  
    1029App    4.971610  1030App    4.974464  1124Ap     4.978941  
    1125Ap     4.983893  1031App    4.984321  1126Ap     4.985853  
    1032App    4.986072  1127Ap     4.992880  1033App    4.995676  
    1034App    5.007280  1128Ap     5.011561  1035App    5.013563  
    1036App    5.016155  1129Ap     5.019077  1037App    5.021462  
    1130Ap     5.025937  1038App    5.027482  1131Ap     5.032865  
    1132Ap     5.036609  1039App    5.037703  1040App    5.042673  
    1133Ap     5.044056  1041App    5.044918  1134Ap     5.046736  
    1135Ap     5.051852  1042App    5.057099  1043App    5.059087  
    1136Ap     5.061510  1044App    5.064299  1137Ap     5.065659  
    1045App    5.071378  1138Ap     5.071768  1046App    5.079414  
    1047App    5.082002  1139Ap     5.083495  1140Ap     5.089533  
    1048App    5.092669  1141Ap     5.096709  1049App    5.098027  
    1142Ap     5.101508  1050App    5.104651  1143Ap     5.106309  
    1051App    5.109136  1052App    5.114866  1144Ap     5.115433  
    1145Ap     5.116862  1146Ap     5.118834  1053App    5.121382  
    1054App    5.125571  1147Ap     5.126675  1148Ap     5.132365  
    1055App    5.133563  1149Ap     5.134512  1056App    5.136504  
    1057App    5.139022  1150Ap     5.139470  1058App    5.144382  
    1059App    5.147377  1151Ap     5.150743  1060App    5.154284  
    1152Ap     5.159238  1153Ap     5.162906  1061App    5.163021  
    1154Ap     5.168382  1062App    5.172252  1155Ap     5.173595  
    1063App    5.173747  1156Ap     5.186810  1064App    5.189647  
    1157Ap     5.189678  1065App    5.194205  1158Ap     5.198509  
    1159Ap     5.200808  1066App    5.204668  1067App    5.212268  
    1160Ap     5.213338  1161Ap     5.216264  1068App    5.216865  
    1162Ap     5.219369  1069App    5.224192  1163Ap     5.227730  
    1070App    5.229213  1071App    5.235103  1164Ap     5.236700  
    1072App    5.238076  1165Ap     5.239652  1073App    5.245426  
    1166Ap     5.250017  1074App    5.254071  1075App    5.255140  
    1167Ap     5.255598  1168Ap     5.258152  1169Ap     5.261823  
    1076App    5.265933  1170Ap     5.270294  1171Ap     5.277295  
    1077App    5.278959  1078App    5.281185  1079App    5.281518  
    1172Ap     5.283785  1173Ap     5.284783  1174Ap     5.290377  
    1080App    5.290405  1175Ap     5.296081  1081App    5.296207  
    1082App    5.300120  1176Ap     5.301633  1177Ap     5.303351  
    1083App    5.304577  1178Ap     5.312576  1084App    5.316191  
    1179Ap     5.318603  1180Ap     5.323438  1181Ap     5.326443  
    1085App    5.328579  1086App    5.332497  1182Ap     5.332837  
    1087App    5.338865  1088App    5.346134  1183Ap     5.346507  
    1184Ap     5.353245  1089App    5.355019  1185Ap     5.369049  
    1090App    5.369638  1091App    5.377000  1186Ap     5.379673  
    1187Ap     5.386095  1092App    5.386710  1188Ap     5.391041  
    1093App    5.393732  1094App    5.398392  1095App    5.404449  
    1189Ap     5.406182  1096App    5.407708  1190Ap     5.413095  
    1191Ap     5.416120  1097App    5.425136  1098App    5.428744  
    1192Ap     5.430541  1193Ap     5.433285  1099App    5.438699  
    1194Ap     5.445209  1195Ap     5.448745  1100App    5.451932  
    1196Ap     5.459457  1101App    5.461359  1197Ap     5.461457  
    1102App    5.463070  1103App    5.472766  1104App    5.474708  
    1198Ap     5.477410  1199Ap     5.480058  1200Ap     5.482818  
    1105App    5.482993  1201Ap     5.491602  1106App    5.491677  
    1202Ap     5.494291  1107App    5.495715  1203Ap     5.503467  
    1204Ap     5.511258  1205Ap     5.511447  1108App    5.512342  
    1109App    5.527266  1206Ap     5.528409  1110App    5.528955  
    1111App    5.533098  1207Ap     5.534907  1208Ap     5.541076  
    1112App    5.547481  1209Ap     5.551379  1210Ap     5.554915  
    1113App    5.558211  1211Ap     5.559275  1114App    5.563435  
    1212Ap     5.569988  1115App    5.573453  1213Ap     5.579432  
    1116App    5.582549  1214Ap     5.586024  1117App    5.591152  
    1118App    5.594314  1215Ap     5.594777  1119App    5.599217  
    1216Ap     5.600237  1120App    5.606796  1217Ap     5.607751  
    1218Ap     5.612323  1121App    5.618553  1122App    5.625601  
    1123App    5.627387  1219Ap     5.637168  1220Ap     5.638715  
    1124App    5.640154  1221Ap     5.641153  1125App    5.647436  
    1126App    5.657282  1222Ap     5.658049  1127App    5.661460  
    1223Ap     5.662386  1128App    5.666984  1224Ap     5.668431  
    1225Ap     5.673916  1129App    5.682699  1226Ap     5.683483  
    1130App    5.683669  1227Ap     5.687021  1228Ap     5.689945  
    1131App    5.690631  1229Ap     5.691815  1132App    5.699700  
    1230Ap     5.700552  1133App    5.704799  1231Ap     5.709136  
    1232Ap     5.718848  1134App    5.722488  1233Ap     5.727766  
    1135App    5.730140  1234Ap     5.731317  1235Ap     5.741764  
    1136App    5.741809  1137App    5.754045  1236Ap     5.757719  
    1138App    5.765932  1139App    5.781309  1237Ap     5.781972  
    1140App    5.790344  1238Ap     5.792730  1141App    5.793769  
    1142App    5.795742  1239Ap     5.800486  1143App    5.801595  
    1240Ap     5.802972  1241Ap     5.811812  1242Ap     5.815314  
    1144App    5.815752  1243Ap     5.817753  1145App    5.826448  
    1244Ap     5.827649  1146App    5.832036  1245Ap     5.835917  
    1147App    5.840309  1148App    5.844707  1246Ap     5.849969  
    1149App    5.865301  1247Ap     5.867544  1150App    5.867930  
    1248Ap     5.877192  1151App    5.882362  1152App    5.887343  
    1153App    5.899322  1249Ap     5.900164  1250Ap     5.912355  
    1251Ap     5.918463  1154App    5.918533  1252Ap     5.922636  
    1155App    5.929616  1253Ap     5.937674  1156App    5.940462  
    1157App    5.942891  1254Ap     5.951063  1158App    5.959185  
    1255Ap     5.963132  1159App    5.968796  1256Ap     5.970245  
    1257Ap     5.977719  1160App    5.983625  1258Ap     5.993775  
    1161App    5.999189  1162App    6.001713  1259Ap     6.004137  
    1260Ap     6.009312  1163App    6.010644  1261Ap     6.014091  
    1262Ap     6.017996  1164App    6.019927  1263Ap     6.025468  
    1165App    6.032759  1264Ap     6.045121  1166App    6.054896  
    1265Ap     6.059517  1167App    6.062300  1168App    6.064431  
    1266Ap     6.069288  1169App    6.072395  1267Ap     6.077079  
    1268Ap     6.080179  1170App    6.088256  1269Ap     6.090913  
    1171App    6.093767  1270Ap     6.107383  1172App    6.107806  
    1271Ap     6.112945  1173App    6.118620  1272Ap     6.139227  
    1174App    6.141779  1273Ap     6.147665  1175App    6.150626  
    1274Ap     6.160618  1176App    6.166824  1275Ap     6.171448  
    1177App    6.176977  1178App    6.190322  1276Ap     6.192252  
    1179App    6.197155  1180App    6.199621  1277Ap     6.213043  
    1181App    6.217282  1278Ap     6.217616  1279Ap     6.223501  
    1182App    6.225530  1183App    6.238829  1280Ap     6.247784  
    1184App    6.248661  1281Ap     6.251205  1282Ap     6.255432  
    1185App    6.284860  1186App    6.287233  1283Ap     6.287646  
    1284Ap     6.313759  1187App    6.316089  1188App    6.364847  
    1285Ap     6.365821  1189App    6.371013  1286Ap     6.371561  
    1190App    6.391451  1287Ap     6.394959  1191App    6.399006  
    1288Ap     6.451894  1192App    6.454816  1289Ap     6.466212  
    1290Ap     6.479171  1193App    6.485393  1291Ap     6.486117  
    1292Ap     6.496686  1194App    6.515721  1293Ap     6.526680  
    1195App    6.536652  1294Ap     6.540971  1196App    6.543855  
    1295Ap     6.552544  1197App    6.555652  1198App    6.562282  
    1199App    6.592471  1200App    6.603662  1296Ap     6.605817  
    1297Ap     6.623090  1298Ap     6.629321  1201App    6.630236  
    1299Ap     6.630729  1202App    6.641829  1203App    6.659022  
    1300Ap     6.664417  1204App    6.675288  1301Ap     6.678555  
    1302Ap     6.683259  1205App    6.686123  1303Ap     6.697244  
    1206App    6.701517  1207App    6.709675  1304Ap     6.734265  
    1208App    6.739202  1305Ap     6.740441  1209App    6.752015  
    1306Ap     6.757027  1210App    6.770033  1307Ap     6.781341  
    1308Ap     6.798192  1211App    6.799189  1212App    6.807245  
    1309Ap     6.823622  1310Ap     6.836889  1213App    6.838296  
    1311Ap     6.845723  1214App    6.851747  1312Ap     6.855303  
    1215App    6.878847  1216App    6.889572  1313Ap     6.891239  
    1217App    6.895393  1314Ap     6.903299  1315Ap     6.925347  
    1316Ap     6.976038  1218App    6.981641  1317Ap     7.016130  
    1219App    7.022916  1318Ap     7.028186  1220App    7.030867  
    1319Ap     7.062893  1221App    7.071978  1320Ap     7.074171  
    1321Ap     7.082200  1222App    7.090730  1322Ap     7.094158  
    1223App    7.106037  1323Ap     7.107621  1224App    7.119429  
    1324Ap     7.119985  1225App    7.150074  1226App    7.162810  
    1325Ap     7.182479  1227App    7.190191  1326Ap     7.216110  
    1228App    7.234675  1229App    7.241328  1327Ap     7.249043  
    1328Ap     7.267120  1329Ap     7.279928  1230App    7.281012  
    1231App    7.283361  1330Ap     7.291212  1331Ap     7.294476  
    1232App    7.295553  1233App    7.303894  1332Ap     7.312500  
    1333Ap     7.332304  1234App    7.336460  1235App    7.371019  
    1334Ap     7.462566  1335Ap     7.467094  1236App    7.476171  
    1237App    7.480294  1336Ap     7.490429  1238App    7.493610  
    1337Ap     7.511855  1239App    7.514913  1240App    7.518680  
    1338Ap     7.524827  1339Ap     7.529486  1340Ap     7.546122  
    1341Ap     7.567883  1241App    7.573174  1342Ap     7.591843  
    1242App    7.593689  1343Ap     7.596230  1243App    7.607083  
    1244App    7.643886  1344Ap     7.660007  1245App    7.661424  
    1246App    7.674689  1345Ap     7.760076  1247App    7.763645  
    1248App    7.774881  1346Ap     7.788742  1249App    7.799536  
    1347Ap     7.828185  1250App    7.843462  1348Ap     7.863532  
    1251App    7.864833  1349Ap     7.886388  1252App    7.886934  
    1253App    7.910866  1350Ap     7.933641  1254App    7.946463  
    1351Ap     7.950215  1352Ap     8.022561  1353Ap     8.041620  
    1255App    8.043483  1354Ap     8.045343  1355Ap     8.063946  
    1256App    8.065725  1356Ap     8.209509  1257App    8.215177  
    1357Ap     8.262500  1358Ap     8.265753  1258App    8.269257  
    1259App    8.274698  1359Ap     8.284248  1360Ap     8.329075  
    1260App    8.339693  1361Ap     8.411812  1261App    8.424218  
    1362Ap     8.514878  1363Ap     8.526345  1262App    8.528136  
    1263App    8.529731  1364Ap     8.532026  1365Ap     8.566772  
    1264App    8.576042  1265App    8.633289  1366Ap     8.922066  
    1266App    8.922614  1267App    8.965224  1367Ap     9.102774  
    1268App    9.117304  1368Ap     9.124043  1269App    9.134421  
    1369Ap     9.221663  1370Ap     9.494291  1270App    9.510344  
    1371Ap     9.721730  1372Ap     9.726342  1271App    9.727346  
    1272App    9.743301  1373Ap     9.913590  1374Ap     9.944249  
    1273App    9.949302  1274App    9.965497  1375Ap    10.002339  
    1275App   10.039582  1376Ap    10.040713  1377Ap    10.261469  
    1276App   10.268576  1378Ap    10.332506  1277App   10.352227  
    1379Ap    10.420405  1278App   10.426174  1380Ap    10.540819  
    1279App   10.565075  1381Ap    11.015769  1280App   11.029685  
    1281App   11.160166  1382Ap    11.160246  1282App   11.371343  
    1383Ap    11.385595  1283App   11.396715  1384Ap    11.428011  
    1385Ap    11.458024  1284App   11.459356  1386Ap    11.837991  
    1285App   11.859032  1387Ap    11.962953  1286App   12.031503  
    1388Ap    12.092057  1389Ap    12.106370  1287App   12.110881  
    1288App   12.150973  1390Ap    12.375928  1391Ap    12.493483  
    1289App   12.506260  1392Ap    12.718489  1393Ap    12.747953  
    1290App   12.752877  1394Ap    15.923223  1395Ap    16.750328  
    1291App   16.756060  1396Ap    17.981468  1292App   18.051768  
    1397Ap    18.416481  1293App   18.468186  1398Ap    19.145855  
    1294App   19.153156  1399Ap    20.795290  1295App   20.803957  
    1400Ap    21.324210  1296App   21.653754  1401Ap    21.963035  
    1297App   22.056232  1402Ap    22.194059  1298App   22.298868  
    1403Ap    22.820356  1404Ap    22.902287  1405Ap    23.717940  
    1299App   23.752711  1406Ap    24.193328  1407Ap    24.372929  
    1300App   24.475925  1408Ap    49.926730  1409Ap    51.285366  
    1301App   51.294058  1410Ap    53.715956  1302App   53.858597  
    1411Ap    54.569724  1303App   54.607446  1412Ap    55.760351  
    1304App   55.767527  1413Ap    58.840092  1414Ap    58.971005  
    1305App   58.981233  1306App   59.774254  1415Ap    60.507349  
    1307App   60.645475  1416Ap    60.823238  1308App   61.031880  
    1417Ap    61.971065  1418Ap    62.601334  1419Ap    63.717789  
    1309App   63.781907  1420Ap    64.570262  1421Ap    64.902504  
    1310App   65.101660  

    Final Occupation by Irrep:
             Ap   App 
    DOCC [    43,   35 ]
    NA   [    43,   35 ]
    NB   [    43,   35 ]

  @DF-RHF Final Energy:  -916.22721640397322

   => Energetics <=

    Nuclear Repulsion Energy =           1837.3306649843195828
    One-Electron Energy =               -4892.5170123061234335
    Two-Electron Energy =                2138.9591309178304073
    Total Energy =                       -916.2272164039732161

Computation Completed


Properties will be evaluated at   0.000000,   0.000000,   0.000000 [a0]

Properties computed using the SCF density matrix


 Multipole Moments:

 ------------------------------------------------------------------------------------
     Multipole            Electronic (a.u.)      Nuclear  (a.u.)        Total (a.u.)
 ------------------------------------------------------------------------------------

 L = 1.  Multiply by 2.5417464519 to convert [e a0] to [Debye]
 Dipole X            :       -228.9099692          228.9101020            0.0001328
 Dipole Y            :          0.0000000           -0.0000000           -0.0000000
 Dipole Z            :       -509.7033035          509.7045283            0.0012248
 Magnitude           :                                                    0.0012320

 ------------------------------------------------------------------------------------

*** tstop() called on atl1-1-02-003-29-2.pace.gatech.edu at Sat Jun 13 07:56:42 2026
Module time:
	user time   =   14180.63 seconds =     236.34 minutes
	system time =     132.37 seconds =       2.21 minutes
	total time  =       1470 seconds =      24.50 minutes
Total time:
	user time   =   14180.63 seconds =     236.34 minutes
	system time =     132.37 seconds =       2.21 minutes
	total time  =       1470 seconds =      24.50 minutes

    Psi4 stopped on: Saturday, 13 June 2026 07:56AM
    Psi4 wall time for execution: 0:24:30.28

*** Psi4 exiting successfully. Buy a developer a beer!
