
    -----------------------------------------------------------------------
          Psi4: An Open-Source Ab Initio Electronic Structure Package
                               Psi4 1.9.1 release

                         Git: Rev {} zzzzzzz 


    D. G. A. Smith, L. A. Burns, A. C. Simmonett, R. M. Parrish,
    M. C. Schieber, R. Galvelis, P. Kraus, H. Kruse, R. Di Remigio,
    A. Alenaizan, A. M. James, S. Lehtola, J. P. Misiewicz, M. Scheurer,
    R. A. Shaw, J. B. Schriber, Y. Xie, Z. L. Glick, D. A. Sirianni,
    J. S. O'Brien, J. M. Waldrop, A. Kumar, E. G. Hohenstein,
    B. P. Pritchard, B. R. Brooks, H. F. Schaefer III, A. Yu. Sokolov,
    K. Patkowski, A. E. DePrince III, U. Bozkaya, R. A. King,
    F. A. Evangelista, J. M. Turney, T. D. Crawford, C. D. Sherrill,
    J. Chem. Phys. 152(18) 184108 (2020). https://doi.org/10.1063/5.0006002

                            Additional Code Authors
    E. T. Seidl, C. L. Janssen, E. F. Valeev, M. L. Leininger,
    J. F. Gonthier, R. M. Richard, H. R. McAlexander, M. Saitow, X. Wang,
    P. Verma, M. H. Lechner, A. Jiang, S. Behnle, A. G. Heide,
    M. F. Herbst, and D. L. Poole

             Previous Authors, Complete List of Code Contributors,
                       and Citations for Specific Modules
    https://github.com/psi4/psi4/blob/master/codemeta.json
    https://github.com/psi4/psi4/graphs/contributors
    http://psicode.org/psi4manual/master/introduction.html#citing-psifour

    -----------------------------------------------------------------------


    Psi4 started on: Saturday, 13 June 2026 09:22AM

    Process ID: 363040
    Host:       atl1-1-02-003-29-2.pace.gatech.edu
    PSIDATADIR: /storage/home/hcoda1/5/vlita3/.conda/envs/p4_qcml/share/psi4
    Memory:     250.0 GiB
    Threads:    10
    
  ==> Input QCSchema <==

--------------------------------------------------------------------------
{'driver': 'energy',
 'extras': {},
 'id': '199',
 'keywords': {},
 'model': {'basis': 'aug-cc-pvtz', 'method': 'hf'},
 'molecule': {'extras': {},
              'fix_com': True,
              'fix_orientation': True,
              'fragment_charges': [0.0, 0.0],
              'fragment_multiplicities': [1, 1],
              'fragments': [[0, 1, 2, 3, 4, 5, 6, 7, 8, 9, 10, 11, 12, 13, 14, 15, 16, 17, 18, 19, 20, 21, 22, 23, 24,
                             25, 26, 27, 28, 29, 30, 31, 32, 33, 34, 35, 36, 37, 38, 39, 40, 41, 42, 43, 44, 45, 46, 47,
                             48, 49, 50, 51, 52, 53, 54, 55, 56, 57, 58, 59, 60, 61, 62, 63, 64, 65, 66, 67, 68, 69, 70,
                             71],
                            [72, 73, 74, 75, 76, 77, 78, 79, 80, 81, 82, 83, 84, 85, 86, 87, 88, 89, 90, 91]],
              'geometry': [-0.27392714, 6.18819166, -1.19323544, -2.46344698, 5.77825337, -2.60449614, -4.6940608,
                           5.39705781, -1.25234985, -4.71896739, 5.33938337, 1.40379628, -2.51326016, 5.65638493,
                           2.81229042, -0.29786241, 6.1264921, 1.46128175, -7.4236946, 4.94664159, -2.11437677,
                           -8.0102089, 2.21933216, -1.3518118, -8.03725088, 2.16388759, 1.30730308, -7.46490952,
                           4.85601033, 2.19433108, -8.21278754, 0.01810099, -2.78449255, -8.41651891, -2.24308601,
                           -1.44718061, -8.44656555, -2.29788807, 1.20944929, -8.27108559, -0.09424159, 2.64331111,
                           -8.82968863, 6.36030791, 0.05739419, 2.39027678, 6.99321499, -1.97848656, 2.35234998,
                           6.89052727, 2.33048585, 4.24147139, 4.87579576, 1.47132186, 4.26509297, 4.93957402,
                           -1.18371122, 5.91295305, 3.35513315, 2.83024282, 7.66850862, 1.97164575, 1.43096487,
                           7.69269711, 2.03631218, -1.22332744, 5.96134893, 3.48626124, -2.58482409, 2.91214355,
                           8.90127146, 0.22748523, 9.87956377, 0.34201964, -2.07607202, 9.16122218, -2.35520346,
                           -1.32189933, 9.13548411, -2.42066358, 1.33912796, 9.83927481, 0.23553924, 2.23913649,
                           8.55002806, -4.47912335, -2.729596, 7.90073706, -6.7005909, -1.42801501, 7.87418641,
                           -6.76523843, 1.20657123, 8.49702124, -4.61078057, 2.62830668, 11.77284258, 0.92596769,
                           0.1150709, -8.31764844, -5.08264518, 1.9809621, -5.66577687, -5.91321761, 1.16915466,
                           -5.63425624, -5.85826437, -1.48990165, -8.26696598, -4.99384695, -2.32929532, -3.49926256,
                           -6.47956853, 2.52781105, -1.27490751, -7.03089613, 1.18478458, -1.24350593, -6.97650981,
                           -1.44679133, -3.43540871, -6.36901955, -2.81856431, -9.87669139, -6.270716, -0.2182029,
                           -2.4529401, 5.84171037, -4.65828828, -2.54030214, 5.62747212, 4.86674397, -7.86022133,
                           5.46728004, -4.05896164, -7.93792687, 5.29540945, 4.15038659, -8.11773431, 0.05695332,
                           -4.83605482, -8.21892915, -0.14041005, 4.69617729, -8.40519945, 8.38335422, 0.10379812,
                           -10.87140543, 6.03249712, 0.03110168, 2.58575005, 7.68646102, -3.90969218, 2.51428061,
                           7.49055311, 4.29570653, 5.92036077, 3.32542665, 4.88460188, 6.00539845, 3.55672913,
                           -4.63769027, 1.57808761, 10.48166831, 0.25357668, 4.86729199, 9.57563912, 0.26070473,
                           10.52462179, 0.60197793, -4.01470426, 10.44833354, 0.39868497, 4.19987852, 8.5531839,
                           -4.43267388, -4.7823677, 7.42214502, -8.39155563, -2.48982755, 7.37512864, -8.50599744,
                           2.1742055, 8.4600204, -4.66543145, 4.68064374, 12.34503276, 2.91199237, 0.16959272,
                           13.42257349, -0.321261, 0.09956022, -8.86591468, -5.52843157, 3.91606055, -8.76902842,
                           -5.35979242, -4.29349555, -3.50574432, -6.49980749, 4.58215122, 0.4449946, -7.48906022,
                           2.20842844, 0.50076797, -7.39238184, -2.44683628, -3.39254972, -6.30418305, -4.87158167,
                           -11.84561594, -5.6407569, -0.22849246, -9.76051103, -8.33473156, -0.2592572, 0.45225115,
                           -0.84580551, -2.67537976, 2.67838443, -1.53842793, -1.2866805, 2.65068104, -1.59445642,
                           1.27425178, 0.39459182, -0.96458424, 2.64450164, -1.86313012, -0.39368286, 1.25325503,
                           -1.83502422, -0.33633346, -1.30877329, 0.51180775, -0.67721548, -5.30584073, 2.77402347,
                           -1.11680357, -6.67834882, 4.65792923, -1.46517081, -7.76197447, -1.67832057, -0.01779464,
                           -6.70601441, -3.49875233, 0.52904962, -7.81566159, 0.39835616, -0.91584254, 5.28048061,
                           2.63210503, -1.41763286, 6.67793308, 4.4946569, -1.81660506, 7.78079614, -1.82246132,
                           -0.32547131, 6.66298535, -3.66775054, 0.16586372, 7.75745803, 4.38153789, -2.03474371,
                           -2.30489896, 4.33176251, -2.13518265, 2.30622176, -3.59287959, 0.00412869, 2.26776584,
                           -3.54227272, 0.1076148, -2.34208877],
              'id': 11,
              'identifiers': {'molecular_formula': 'C54H34N4',
                              'molecule_hash': '4c8c81f85cb59bc3d701ac2a728348ee32004706'},
              'masses': [12.0, 12.0, 12.0, 12.0, 12.0, 12.0, 12.0, 12.0, 12.0, 12.0, 12.0, 12.0, 12.0, 12.0, 12.0, 12.0,
                         12.0, 12.0, 12.0, 12.0, 12.0, 12.0, 12.0, 12.0, 12.0, 12.0, 12.0, 12.0, 12.0, 12.0, 12.0, 12.0,
                         12.0, 12.0, 12.0, 12.0, 12.0, 12.0, 12.0, 12.0, 12.0, 12.0, 1.00782503223, 1.00782503223,
                         1.00782503223, 1.00782503223, 1.00782503223, 1.00782503223, 1.00782503223, 1.00782503223,
                         1.00782503223, 1.00782503223, 1.00782503223, 1.00782503223, 1.00782503223, 1.00782503223,
                         1.00782503223, 1.00782503223, 1.00782503223, 1.00782503223, 1.00782503223, 1.00782503223,
                         1.00782503223, 1.00782503223, 1.00782503223, 1.00782503223, 1.00782503223, 1.00782503223,
                         1.00782503223, 1.00782503223, 1.00782503223, 1.00782503223, 12.0, 12.0, 12.0, 12.0, 12.0, 12.0,
                         12.0, 12.0, 14.00307400443, 12.0, 14.00307400443, 12.0, 12.0, 14.00307400443, 12.0,
                         14.00307400443, 1.00782503223, 1.00782503223, 1.00782503223, 1.00782503223],
              'molecular_charge': 0.0,
              'molecular_multiplicity': 1,
              'name': 'C54H34N4 ([1],[0])',
              'provenance': {'creator': 'QCElemental',
                             'routine': 'qcelemental.molparse.from_schema',
                             'version': '0.29.0'},
              'real': [False, False, False, False, False, False, False, False, False, False, False, False, False, False,
                       False, False, False, False, False, False, False, False, False, False, False, False, False, False,
                       False, False, False, False, False, False, False, False, False, False, False, False, False, False,
                       False, False, False, False, False, False, False, False, False, False, False, False, False, False,
                       False, False, False, False, False, False, False, False, False, False, False, False, False, False,
                       False, False, True, True, True, True, True, True, True, True, True, True, True, True, True, True,
                       True, True, True, True, True, True],
              'schema_name': 'qcschema_molecule',
              'schema_version': 2,
              'symbols': ['C', 'C', 'C', 'C', 'C', 'C', 'C', 'C', 'C', 'C', 'C', 'C', 'C', 'C', 'C', 'C', 'C', 'C', 'C',
                          'C', 'C', 'C', 'C', 'C', 'C', 'C', 'C', 'C', 'C', 'C', 'C', 'C', 'C', 'C', 'C', 'C', 'C', 'C',
                          'C', 'C', 'C', 'C', 'H', 'H', 'H', 'H', 'H', 'H', 'H', 'H', 'H', 'H', 'H', 'H', 'H', 'H', 'H',
                          'H', 'H', 'H', 'H', 'H', 'H', 'H', 'H', 'H', 'H', 'H', 'H', 'H', 'H', 'H', 'C', 'C', 'C', 'C',
                          'C', 'C', 'C', 'C', 'N', 'C', 'N', 'C', 'C', 'N', 'C', 'N', 'H', 'H', 'H', 'H'],
              'validated': True},
 'protocols': {},
 'provenance': {'creator': 'QCElemental', 'routine': 'qcelemental.models.results', 'version': '0.29.0'},
 'schema_name': 'qcschema_input',
 'schema_version': 1}
--------------------------------------------------------------------------

Scratch directory: /tmp/tmpe4egac_b_psi_scratch/
   => Libint2 <=

    Primary   basis highest AM E, G, H:  6, 6, 3
    Auxiliary basis highest AM E, G, H:  7, 7, 4
    Onebody   basis highest AM E, G, H:  -, -, -
    Solid Harmonics ordering:            Gaussian

*** tstart() called on atl1-1-02-003-29-2.pace.gatech.edu
*** at Sat Jun 13 09:22:04 2026

   => Loading Basis Set <=

    Name: AUG-CC-PVTZ
    Role: ORBITAL
    Keyword: BASIS
    atoms 1-42, 73-80, 82, 84-85, 87 entry C          line   239 file /storage/home/hcoda1/5/vlita3/.conda/envs/p4_qcml/share/psi4/basis/aug-cc-pvtz.gbs 
    atoms 43-72, 89-92               entry H          line    40 file /storage/home/hcoda1/5/vlita3/.conda/envs/p4_qcml/share/psi4/basis/aug-cc-pvtz.gbs 
    atoms 81, 83, 86, 88             entry N          line   285 file /storage/home/hcoda1/5/vlita3/.conda/envs/p4_qcml/share/psi4/basis/aug-cc-pvtz.gbs 


         ---------------------------------------------------------
                                   SCF
               by Justin Turney, Rob Parrish, Andy Simmonett
                          and Daniel G. A. Smith
                              RHF Reference
                       10 Threads, 256000 MiB Core
         ---------------------------------------------------------

  ==> Geometry <==

    Molecular point group: c1
    Full point group: C1

    Geometry (in Bohr), charge = 0, multiplicity = 1:

       Center              X                  Y                   Z               Mass       
    ------------   -----------------  -----------------  -----------------  -----------------
      Gh(C)          -0.273927140000     6.188191660000    -1.193235440000    12.000000000000
      Gh(C)          -2.463446980000     5.778253370000    -2.604496140000    12.000000000000
      Gh(C)          -4.694060800000     5.397057810000    -1.252349850000    12.000000000000
      Gh(C)          -4.718967390000     5.339383370000     1.403796280000    12.000000000000
      Gh(C)          -2.513260160000     5.656384930000     2.812290420000    12.000000000000
      Gh(C)          -0.297862410000     6.126492100000     1.461281750000    12.000000000000
      Gh(C)          -7.423694600000     4.946641590000    -2.114376770000    12.000000000000
      Gh(C)          -8.010208900000     2.219332160000    -1.351811800000    12.000000000000
      Gh(C)          -8.037250880000     2.163887590000     1.307303080000    12.000000000000
      Gh(C)          -7.464909520000     4.856010330000     2.194331080000    12.000000000000
      Gh(C)          -8.212787540000     0.018100990000    -2.784492550000    12.000000000000
      Gh(C)          -8.416518910000    -2.243086010000    -1.447180610000    12.000000000000
      Gh(C)          -8.446565550000    -2.297888070000     1.209449290000    12.000000000000
      Gh(C)          -8.271085590000    -0.094241590000     2.643311110000    12.000000000000
      Gh(C)          -8.829688630000     6.360307910000     0.057394190000    12.000000000000
      Gh(C)           2.390276780000     6.993214990000    -1.978486560000    12.000000000000
      Gh(C)           2.352349980000     6.890527270000     2.330485850000    12.000000000000
      Gh(C)           4.241471390000     4.875795760000     1.471321860000    12.000000000000
      Gh(C)           4.265092970000     4.939574020000    -1.183711220000    12.000000000000
      Gh(C)           5.912953050000     3.355133150000     2.830242820000    12.000000000000
      Gh(C)           7.668508620000     1.971645750000     1.430964870000    12.000000000000
      Gh(C)           7.692697110000     2.036312180000    -1.223327440000    12.000000000000
      Gh(C)           5.961348930000     3.486261240000    -2.584824090000    12.000000000000
      Gh(C)           2.912143550000     8.901271460000     0.227485230000    12.000000000000
      Gh(C)           9.879563770000     0.342019640000    -2.076072020000    12.000000000000
      Gh(C)           9.161222180000    -2.355203460000    -1.321899330000    12.000000000000
      Gh(C)           9.135484110000    -2.420663580000     1.339127960000    12.000000000000
      Gh(C)           9.839274810000     0.235539240000     2.239136490000    12.000000000000
      Gh(C)           8.550028060000    -4.479123350000    -2.729596000000    12.000000000000
      Gh(C)           7.900737060000    -6.700590900000    -1.428015010000    12.000000000000
      Gh(C)           7.874186410000    -6.765238430000     1.206571230000    12.000000000000
      Gh(C)           8.497021240000    -4.610780570000     2.628306680000    12.000000000000
      Gh(C)          11.772842580000     0.925967690000     0.115070900000    12.000000000000
      Gh(C)          -8.317648440000    -5.082645180000     1.980962100000    12.000000000000
      Gh(C)          -5.665776870000    -5.913217610000     1.169154660000    12.000000000000
      Gh(C)          -5.634256240000    -5.858264370000    -1.489901650000    12.000000000000
      Gh(C)          -8.266965980000    -4.993846950000    -2.329295320000    12.000000000000
      Gh(C)          -3.499262560000    -6.479568530000     2.527811050000    12.000000000000
      Gh(C)          -1.274907510000    -7.030896130000     1.184784580000    12.000000000000
      Gh(C)          -1.243505930000    -6.976509810000    -1.446791330000    12.000000000000
      Gh(C)          -3.435408710000    -6.369019550000    -2.818564310000    12.000000000000
      Gh(C)          -9.876691390000    -6.270716000000    -0.218202900000    12.000000000000
      Gh(H)          -2.452940100000     5.841710370000    -4.658288280000     1.007825032230
      Gh(H)          -2.540302140000     5.627472120000     4.866743970000     1.007825032230
      Gh(H)          -7.860221330000     5.467280040000    -4.058961640000     1.007825032230
      Gh(H)          -7.937926870000     5.295409450000     4.150386590000     1.007825032230
      Gh(H)          -8.117734310000     0.056953320000    -4.836054820000     1.007825032230
      Gh(H)          -8.218929150000    -0.140410050000     4.696177290000     1.007825032230
      Gh(H)          -8.405199450000     8.383354220000     0.103798120000     1.007825032230
      Gh(H)         -10.871405430000     6.032497120000     0.031101680000     1.007825032230
      Gh(H)           2.585750050000     7.686461020000    -3.909692180000     1.007825032230
      Gh(H)           2.514280610000     7.490553110000     4.295706530000     1.007825032230
      Gh(H)           5.920360770000     3.325426650000     4.884601880000     1.007825032230
      Gh(H)           6.005398450000     3.556729130000    -4.637690270000     1.007825032230
      Gh(H)           1.578087610000    10.481668310000     0.253576680000     1.007825032230
      Gh(H)           4.867291990000     9.575639120000     0.260704730000     1.007825032230
      Gh(H)          10.524621790000     0.601977930000    -4.014704260000     1.007825032230
      Gh(H)          10.448333540000     0.398684970000     4.199878520000     1.007825032230
      Gh(H)           8.553183900000    -4.432673880000    -4.782367700000     1.007825032230
      Gh(H)           7.422145020000    -8.391555630000    -2.489827550000     1.007825032230
      Gh(H)           7.375128640000    -8.505997440000     2.174205500000     1.007825032230
      Gh(H)           8.460020400000    -4.665431450000     4.680643740000     1.007825032230
      Gh(H)          12.345032760000     2.911992370000     0.169592720000     1.007825032230
      Gh(H)          13.422573490000    -0.321261000000     0.099560220000     1.007825032230
      Gh(H)          -8.865914680000    -5.528431570000     3.916060550000     1.007825032230
      Gh(H)          -8.769028420000    -5.359792420000    -4.293495550000     1.007825032230
      Gh(H)          -3.505744320000    -6.499807490000     4.582151220000     1.007825032230
      Gh(H)           0.444994600000    -7.489060220000     2.208428440000     1.007825032230
      Gh(H)           0.500767970000    -7.392381840000    -2.446836280000     1.007825032230
      Gh(H)          -3.392549720000    -6.304183050000    -4.871581670000     1.007825032230
      Gh(H)         -11.845615940000    -5.640756900000    -0.228492460000     1.007825032230
      Gh(H)          -9.760511030000    -8.334731560000    -0.259257200000     1.007825032230
         C            0.452251150000    -0.845805510000    -2.675379760000    12.000000000000
         C            2.678384430000    -1.538427930000    -1.286680500000    12.000000000000
         C            2.650681040000    -1.594456420000     1.274251780000    12.000000000000
         C            0.394591820000    -0.964584240000     2.644501640000    12.000000000000
         C           -1.863130120000    -0.393682860000     1.253255030000    12.000000000000
         C           -1.835024220000    -0.336333460000    -1.308773290000    12.000000000000
         C            0.511807750000    -0.677215480000    -5.305840730000    12.000000000000
         C            2.774023470000    -1.116803570000    -6.678348820000    12.000000000000
         N            4.657929230000    -1.465170810000    -7.761974470000    14.003074004430
         C           -1.678320570000    -0.017794640000    -6.706014410000    12.000000000000
         N           -3.498752330000     0.529049620000    -7.815661590000    14.003074004430
         C            0.398356160000    -0.915842540000     5.280480610000    12.000000000000
         C            2.632105030000    -1.417632860000     6.677933080000    12.000000000000
         N            4.494656900000    -1.816605060000     7.780796140000    14.003074004430
         C           -1.822461320000    -0.325471310000     6.662985350000    12.000000000000
         N           -3.667750540000     0.165863720000     7.757458030000    14.003074004430
         H            4.381537890000    -2.034743710000    -2.304898960000     1.007825032230
         H            4.331762510000    -2.135182650000     2.306221760000     1.007825032230
         H           -3.592879590000     0.004128690000     2.267765840000     1.007825032230
         H           -3.542272720000     0.107614800000    -2.342088770000     1.007825032230

  Running in c1 symmetry.

  Rotational constants: A =      0.00267  B =      0.00168  C =      0.00146 [cm^-1]
  Rotational constants: A =     80.12542  B =     50.33918  C =     43.84220 [MHz]
  Nuclear repulsion =  836.883087262661093

  Charge       = 0
  Multiplicity = 1
  Electrons    = 104
  Nalpha       = 52
  Nbeta        = 52

  ==> Algorithm <==

  SCF Algorithm Type is DF.
  DIIS enabled.
  MOM disabled.
  Fractional occupation disabled.
  Guess Type is SAD.
  Energy threshold   = 1.00e-06
  Density threshold  = 1.00e-06
  Integral threshold = 1.00e-12

  ==> Primary Basis <==

  Basis Set: AUG-CC-PVTZ
    Blend: AUG-CC-PVTZ
    Number of shells: 1118
    Number of basis functions: 3450
    Number of Cartesian functions: 4040
    Spherical Harmonics?: true
    Max angular momentum: 3

   => Loading Basis Set <=

    Name: (AUG-CC-PVTZ AUX)
    Role: JKFIT
    Keyword: DF_BASIS_SCF
    atoms 1-42, 73-80, 82, 84-85, 87 entry C          line   162 file /storage/home/hcoda1/5/vlita3/.conda/envs/p4_qcml/share/psi4/basis/aug-cc-pvtz-jkfit.gbs 
    atoms 43-72, 89-92               entry H          line    70 file /storage/home/hcoda1/5/vlita3/.conda/envs/p4_qcml/share/psi4/basis/aug-cc-pvtz-jkfit.gbs 
    atoms 81, 83, 86, 88             entry N          line   224 file /storage/home/hcoda1/5/vlita3/.conda/envs/p4_qcml/share/psi4/basis/aug-cc-pvtz-jkfit.gbs 

  ==> Integral Setup <==

  ==> DiskDFJK: Density-Fitted J/K Matrices <==

    J tasked:                  Yes
    K tasked:                  Yes
    wK tasked:                  No
    OpenMP threads:             10
    Integrals threads:          10
    Memory [MiB]:           192000
    Algorithm:                Disk
    Integral Cache:           NONE
    Schwarz Cutoff:          1E-12
    Fitting Condition:       1E-10

   => Auxiliary Basis Set <=

  Basis Set: (AUG-CC-PVTZ AUX)
    Blend: AUG-CC-PVTZ-JKFIT
    Number of shells: 2216
    Number of basis functions: 7596
    Number of Cartesian functions: 9468
    Spherical Harmonics?: true
    Max angular momentum: 4

  Minimum eigenvalue in the overlap matrix is 3.2999283483E-10.
  Reciprocal condition number of the overlap matrix is 8.9829939844E-12.
    Using canonical orthogonalization.
  Overall, 31 of 3450 possible MOs eliminated.


  ==> Pre-Iterations <==

  SCF Guess: Superposition of Atomic Densities via on-the-fly atomic UHF (no occupation information).

   -------------------------
    Irrep   Nso     Nmo    
   -------------------------
     A       3450    3419 
   -------------------------
    Total    3450    3419
   -------------------------

  ==> Iterations <==

                           Total Energy        Delta E     RMS |[F,P]|

   @DF-RHF iter SAD:  -672.41082144505583   -6.72411e+02   0.00000e+00 
   @DF-RHF iter   1:  -674.34976848632959   -1.93895e+00   2.26411e-04 DIIS/ADIIS
   @DF-RHF iter   2:  -674.49025109825880   -1.40483e-01   1.89332e-04 DIIS/ADIIS
   @DF-RHF iter   3:  -674.65934589244910   -1.69095e-01   3.60903e-05 DIIS
   @DF-RHF iter   4:  -674.66948598137651   -1.01401e-02   9.97964e-06 DIIS
   @DF-RHF iter   5:  -674.67064831160064   -1.16233e-03   3.61586e-06 DIIS
   @DF-RHF iter   6:  -674.67081655985442   -1.68248e-04   1.48992e-06 DIIS
   @DF-RHF iter   7:  -674.67087849889162   -6.19390e-05   6.34086e-07 DIIS
   @DF-RHF iter   8:  -674.67088782706469   -9.32817e-06   2.50878e-07 DIIS
   @DF-RHF iter   9:  -674.67088979245773   -1.96539e-06   1.27168e-07 DIIS
   @DF-RHF iter  10:  -674.67089039327811   -6.00820e-07   4.57096e-08 DIIS
  Energy and wave function converged.


  ==> Post-Iterations <==

    Orbital Energies [Eh]
    ---------------------

    Doubly Occupied:                                                      

       1A    -15.622346     2A    -15.622320     3A    -15.622282  
       4A    -15.622273     5A    -11.368446     6A    -11.368429  
       7A    -11.361269     8A    -11.361253     9A    -11.324229  
      10A    -11.324205    11A    -11.324156    12A    -11.324126  
      13A    -11.320783    14A    -11.320635    15A    -11.319249  
      16A    -11.319101    17A     -1.282155    18A     -1.274690  
      19A     -1.254870    20A     -1.254825    21A     -1.245141  
      22A     -1.185733    23A     -1.118952    24A     -1.110474  
      25A     -1.024020    26A     -0.929390    27A     -0.914027  
      28A     -0.847748    29A     -0.807912    30A     -0.804144  
      31A     -0.770535    32A     -0.693903    33A     -0.687987  
      34A     -0.676462    35A     -0.631103    36A     -0.624891  
      37A     -0.606353    38A     -0.601953    39A     -0.601876  
      40A     -0.601219    41A     -0.598072    42A     -0.570385  
      43A     -0.542424    44A     -0.521468    45A     -0.516008  
      46A     -0.515195    47A     -0.514685    48A     -0.502405  
      49A     -0.502283    50A     -0.449099    51A     -0.437819  
      52A     -0.348279  

    Virtual:                                                              

      53A     -0.081537    54A      0.006810    55A      0.012531  
      56A      0.014164    57A      0.023169    58A      0.023495  
      59A      0.024734    60A      0.030430    61A      0.033455  
      62A      0.034592    63A      0.036257    64A      0.037841  
      65A      0.041908    66A      0.042929    67A      0.043076  
      68A      0.043371    69A      0.047264    70A      0.049696  
      71A      0.051723    72A      0.052530    73A      0.053662  
      74A      0.055335    75A      0.057684    76A      0.057858  
      77A      0.058257    78A      0.060108    79A      0.061139  
      80A      0.063547    81A      0.064660    82A      0.066973  
      83A      0.068107    84A      0.069572    85A      0.071426  
      86A      0.071524    87A      0.072742    88A      0.076207  
      89A      0.078463    90A      0.079853    91A      0.081461  
      92A      0.081653    93A      0.083190    94A      0.083580  
      95A      0.087131    96A      0.087857    97A      0.088806  
      98A      0.090765    99A      0.094252   100A      0.096208  
     101A      0.096603   102A      0.098653   103A      0.101780  
     104A      0.102062   105A      0.102595   106A      0.103627  
     107A      0.105763   108A      0.107639   109A      0.108323  
     110A      0.108542   111A      0.112855   112A      0.114347  
     113A      0.114878   114A      0.115086   115A      0.117984  
     116A      0.118385   117A      0.119659   118A      0.120604  
     119A      0.122669   120A      0.123054   121A      0.124045  
     122A      0.124312   123A      0.127319   124A      0.127459  
     125A      0.129528   126A      0.132931   127A      0.133734  
     128A      0.134104   129A      0.134327   130A      0.134617  
     131A      0.136879   132A      0.138921   133A      0.139969  
     134A      0.140020   135A      0.141272   136A      0.141985  
     137A      0.144850   138A      0.145044   139A      0.146037  
     140A      0.147184   141A      0.149356   142A      0.152049  
     143A      0.153354   144A      0.153549   145A      0.155942  
     146A      0.156936   147A      0.157089   148A      0.158790  
     149A      0.159967   150A      0.160470   151A      0.161738  
     152A      0.162044   153A      0.162224   154A      0.164730  
     155A      0.165978   156A      0.166828   157A      0.167598  
     158A      0.168443   159A      0.169065   160A      0.171701  
     161A      0.172802   162A      0.174225   163A      0.175089  
     164A      0.176608   165A      0.178356   166A      0.178964  
     167A      0.179269   168A      0.180144   169A      0.180772  
     170A      0.182673   171A      0.182969   172A      0.184176  
     173A      0.185320   174A      0.188273   175A      0.188868  
     176A      0.189630   177A      0.190439   178A      0.193093  
     179A      0.194139   180A      0.194908   181A      0.195400  
     182A      0.195927   183A      0.197864   184A      0.199572  
     185A      0.200376   186A      0.202999   187A      0.203412  
     188A      0.203983   189A      0.205777   190A      0.205947  
     191A      0.207526   192A      0.208527   193A      0.210400  
     194A      0.211727   195A      0.212923   196A      0.213390  
     197A      0.215348   198A      0.216706   199A      0.217565  
     200A      0.219359   201A      0.220893   202A      0.222045  
     203A      0.223351   204A      0.223683   205A      0.223932  
     206A      0.224792   207A      0.225565   208A      0.226156  
     209A      0.227728   210A      0.229374   211A      0.230562  
     212A      0.232165   213A      0.234950   214A      0.235476  
     215A      0.235553   216A      0.236367   217A      0.236851  
     218A      0.238180   219A      0.240408   220A      0.240454  
     221A      0.241205   222A      0.243164   223A      0.244302  
     224A      0.246787   225A      0.247150   226A      0.247957  
     227A      0.251011   228A      0.251750   229A      0.252170  
     230A      0.253667   231A      0.253791   232A      0.255749  
     233A      0.256620   234A      0.258000   235A      0.260430  
     236A      0.261631   237A      0.261746   238A      0.262162  
     239A      0.263588   240A      0.264144   241A      0.265220  
     242A      0.265557   243A      0.268192   244A      0.268303  
     245A      0.268854   246A      0.269709   247A      0.270453  
     248A      0.270485   249A      0.272619   250A      0.275309  
     251A      0.275769   252A      0.275863   253A      0.277656  
     254A      0.279114   255A      0.280396   256A      0.281618  
     257A      0.282624   258A      0.284467   259A      0.286153  
     260A      0.287173   261A      0.287926   262A      0.288782  
     263A      0.291682   264A      0.292374   265A      0.293999  
     266A      0.294847   267A      0.295028   268A      0.296124  
     269A      0.296464   270A      0.297737   271A      0.297976  
     272A      0.298817   273A      0.300253   274A      0.301823  
     275A      0.302726   276A      0.303444   277A      0.306022  
     278A      0.306509   279A      0.307737   280A      0.308429  
     281A      0.310911   282A      0.311873   283A      0.312658  
     284A      0.314105   285A      0.315401   286A      0.315876  
     287A      0.317735   288A      0.318494   289A      0.319265  
     290A      0.321602   291A      0.323202   292A      0.323993  
     293A      0.325982   294A      0.327550   295A      0.328016  
     296A      0.328552   297A      0.332644   298A      0.333596  
     299A      0.334140   300A      0.335218   301A      0.336377  
     302A      0.337525   303A      0.338618   304A      0.339975  
     305A      0.342081   306A      0.343573   307A      0.344650  
     308A      0.346384   309A      0.346489   310A      0.347700  
     311A      0.349005   312A      0.350822   313A      0.352094  
     314A      0.352982   315A      0.353303   316A      0.354412  
     317A      0.356106   318A      0.357337   319A      0.357652  
     320A      0.362383   321A      0.362743   322A      0.363720  
     323A      0.366068   324A      0.366461   325A      0.368683  
     326A      0.369713   327A      0.370849   328A      0.372441  
     329A      0.373240   330A      0.374137   331A      0.378121  
     332A      0.378801   333A      0.382804   334A      0.384621  
     335A      0.384908   336A      0.386686   337A      0.386737  
     338A      0.387633   339A      0.388188   340A      0.390489  
     341A      0.392223   342A      0.393954   343A      0.395920  
     344A      0.397170   345A      0.398358   346A      0.398486  
     347A      0.399960   348A      0.401878   349A      0.403360  
     350A      0.404341   351A      0.406880   352A      0.408656  
     353A      0.409709   354A      0.411448   355A      0.411660  
     356A      0.412917   357A      0.414310   358A      0.416974  
     359A      0.418228   360A      0.419075   361A      0.421827  
     362A      0.423766   363A      0.424524   364A      0.425472  
     365A      0.426357   366A      0.427634   367A      0.428108  
     368A      0.429157   369A      0.432381   370A      0.432672  
     371A      0.432759   372A      0.434655   373A      0.435528  
     374A      0.437448   375A      0.437738   376A      0.441915  
     377A      0.443202   378A      0.443882   379A      0.445245  
     380A      0.446460   381A      0.446927   382A      0.448944  
     383A      0.449753   384A      0.451094   385A      0.451467  
     386A      0.452440   387A      0.453606   388A      0.454735  
     389A      0.455292   390A      0.456843   391A      0.459190  
     392A      0.459468   393A      0.459951   394A      0.460840  
     395A      0.462206   396A      0.462951   397A      0.464267  
     398A      0.466551   399A      0.468193   400A      0.470510  
     401A      0.470809   402A      0.473174   403A      0.473336  
     404A      0.474525   405A      0.476620   406A      0.477604  
     407A      0.478229   408A      0.479198   409A      0.481228  
     410A      0.482412   411A      0.483624   412A      0.484486  
     413A      0.486457   414A      0.488255   415A      0.490000  
     416A      0.490536   417A      0.493189   418A      0.495351  
     419A      0.495737   420A      0.498270   421A      0.498633  
     422A      0.500188   423A      0.501341   424A      0.502065  
     425A      0.502184   426A      0.504625   427A      0.504658  
     428A      0.506083   429A      0.509787   430A      0.509901  
     431A      0.510265   432A      0.512016   433A      0.512972  
     434A      0.513324   435A      0.513906   436A      0.515574  
     437A      0.516303   438A      0.517454   439A      0.518779  
     440A      0.519853   441A      0.520396   442A      0.521402  
     443A      0.523937   444A      0.525654   445A      0.527278  
     446A      0.529641   447A      0.530450   448A      0.531824  
     449A      0.533338   450A      0.534806   451A      0.535355  
     452A      0.535889   453A      0.538390   454A      0.538540  
     455A      0.540099   456A      0.540318   457A      0.542801  
     458A      0.543240   459A      0.544833   460A      0.546465  
     461A      0.547201   462A      0.547579   463A      0.549523  
     464A      0.551922   465A      0.553981   466A      0.554301  
     467A      0.555705   468A      0.556432   469A      0.557247  
     470A      0.560139   471A      0.561391   472A      0.563088  
     473A      0.563949   474A      0.564584   475A      0.564755  
     476A      0.567379   477A      0.567845   478A      0.568753  
     479A      0.569633   480A      0.569889   481A      0.572044  
     482A      0.574173   483A      0.575863   484A      0.577964  
     485A      0.579210   486A      0.580186   487A      0.580308  
     488A      0.581616   489A      0.585037   490A      0.586901  
     491A      0.587127   492A      0.590427   493A      0.591591  
     494A      0.592141   495A      0.593028   496A      0.595763  
     497A      0.596172   498A      0.597625   499A      0.600054  
     500A      0.600608   501A      0.602071   502A      0.603189  
     503A      0.603687   504A      0.603821   505A      0.605917  
     506A      0.608669   507A      0.609419   508A      0.609794  
     509A      0.610388   510A      0.611697   511A      0.612205  
     512A      0.614142   513A      0.614717   514A      0.617052  
     515A      0.621130   516A      0.621270   517A      0.623019  
     518A      0.623119   519A      0.625420   520A      0.626143  
     521A      0.628330   522A      0.628734   523A      0.630651  
     524A      0.631019   525A      0.633309   526A      0.633642  
     527A      0.635949   528A      0.636454   529A      0.637410  
     530A      0.638681   531A      0.639894   532A      0.640776  
     533A      0.642079   534A      0.643578   535A      0.644949  
     536A      0.645335   537A      0.646419   538A      0.649964  
     539A      0.650688   540A      0.654289   541A      0.655575  
     542A      0.656275   543A      0.657769   544A      0.658917  
     545A      0.661763   546A      0.662136   547A      0.663457  
     548A      0.666359   549A      0.667627   550A      0.667692  
     551A      0.669891   552A      0.670377   553A      0.673200  
     554A      0.675301   555A      0.675500   556A      0.676910  
     557A      0.678465   558A      0.681252   559A      0.681450  
     560A      0.683006   561A      0.683519   562A      0.684318  
     563A      0.686896   564A      0.689547   565A      0.691029  
     566A      0.691451   567A      0.694544   568A      0.695118  
     569A      0.696979   570A      0.698848   571A      0.699598  
     572A      0.699739   573A      0.699970   574A      0.701099  
     575A      0.702668   576A      0.703067   577A      0.705826  
     578A      0.708379   579A      0.708541   580A      0.708961  
     581A      0.710123   582A      0.710954   583A      0.711350  
     584A      0.713363   585A      0.714815   586A      0.715548  
     587A      0.717413   588A      0.718076   589A      0.719006  
     590A      0.720892   591A      0.722599   592A      0.724683  
     593A      0.725241   594A      0.726066   595A      0.726677  
     596A      0.727035   597A      0.728534   598A      0.729544  
     599A      0.732323   600A      0.734135   601A      0.735018  
     602A      0.737031   603A      0.740064   604A      0.741144  
     605A      0.741545   606A      0.742797   607A      0.743657  
     608A      0.745910   609A      0.745975   610A      0.746744  
     611A      0.748495   612A      0.750224   613A      0.752688  
     614A      0.753949   615A      0.755693   616A      0.756715  
     617A      0.757585   618A      0.758477   619A      0.758645  
     620A      0.762473   621A      0.762597   622A      0.764238  
     623A      0.764579   624A      0.766567   625A      0.767722  
     626A      0.768046   627A      0.769972   628A      0.772001  
     629A      0.772704   630A      0.774257   631A      0.775086  
     632A      0.775444   633A      0.775924   634A      0.776405  
     635A      0.779723   636A      0.781671   637A      0.782701  
     638A      0.783771   639A      0.783942   640A      0.784442  
     641A      0.785447   642A      0.787737   643A      0.790220  
     644A      0.793097   645A      0.793805   646A      0.795707  
     647A      0.796276   648A      0.798412   649A      0.798690  
     650A      0.801003   651A      0.802892   652A      0.804443  
     653A      0.805376   654A      0.806428   655A      0.807638  
     656A      0.808522   657A      0.810029   658A      0.811985  
     659A      0.815064   660A      0.816127   661A      0.816169  
     662A      0.816677   663A      0.818889   664A      0.821743  
     665A      0.822302   666A      0.823214   667A      0.825091  
     668A      0.826119   669A      0.827751   670A      0.828376  
     671A      0.828643   672A      0.830341   673A      0.832385  
     674A      0.832741   675A      0.833536   676A      0.836327  
     677A      0.837013   678A      0.840319   679A      0.841566  
     680A      0.845280   681A      0.845375   682A      0.845943  
     683A      0.846904   684A      0.851122   685A      0.851253  
     686A      0.852370   687A      0.853263   688A      0.855143  
     689A      0.855479   690A      0.855981   691A      0.858111  
     692A      0.859104   693A      0.860075   694A      0.862436  
     695A      0.864541   696A      0.867361   697A      0.868369  
     698A      0.869176   699A      0.869918   700A      0.872049  
     701A      0.873335   702A      0.875766   703A      0.876230  
     704A      0.878226   705A      0.880800   706A      0.882941  
     707A      0.883443   708A      0.883943   709A      0.885980  
     710A      0.886155   711A      0.888107   712A      0.889394  
     713A      0.890214   714A      0.891438   715A      0.893048  
     716A      0.893510   717A      0.896458   718A      0.897183  
     719A      0.899604   720A      0.900359   721A      0.902112  
     722A      0.903030   723A      0.904058   724A      0.905545  
     725A      0.908733   726A      0.910017   727A      0.911758  
     728A      0.912847   729A      0.914378   730A      0.915243  
     731A      0.916302   732A      0.916551   733A      0.917546  
     734A      0.921287   735A      0.922437   736A      0.923337  
     737A      0.926887   738A      0.927466   739A      0.928305  
     740A      0.931143   741A      0.932239   742A      0.932886  
     743A      0.934903   744A      0.935863   745A      0.937338  
     746A      0.939328   747A      0.939498   748A      0.941085  
     749A      0.942440   750A      0.944151   751A      0.944536  
     752A      0.946058   753A      0.948463   754A      0.949448  
     755A      0.950410   756A      0.951891   757A      0.952643  
     758A      0.954291   759A      0.955026   760A      0.957743  
     761A      0.959292   762A      0.959647   763A      0.961131  
     764A      0.963149   765A      0.966482   766A      0.967756  
     767A      0.968419   768A      0.969889   769A      0.972735  
     770A      0.974786   771A      0.974914   772A      0.976356  
     773A      0.976970   774A      0.979035   775A      0.979603  
     776A      0.979710   777A      0.982370   778A      0.983367  
     779A      0.985493   780A      0.986249   781A      0.987538  
     782A      0.989891   783A      0.990321   784A      0.991955  
     785A      0.994554   786A      0.996030   787A      0.997417  
     788A      0.998995   789A      1.001260   790A      1.002770  
     791A      1.003774   792A      1.005473   793A      1.006486  
     794A      1.007396   795A      1.008172   796A      1.008343  
     797A      1.009334   798A      1.011300   799A      1.012714  
     800A      1.016927   801A      1.017423   802A      1.018905  
     803A      1.020042   804A      1.022716   805A      1.022975  
     806A      1.024272   807A      1.026273   808A      1.026731  
     809A      1.027468   810A      1.028858   811A      1.030081  
     812A      1.030614   813A      1.035924   814A      1.037294  
     815A      1.038798   816A      1.040203   817A      1.040396  
     818A      1.042251   819A      1.042783   820A      1.045296  
     821A      1.047083   822A      1.049098   823A      1.051718  
     824A      1.052254   825A      1.053729   826A      1.055245  
     827A      1.057031   828A      1.059409   829A      1.061201  
     830A      1.061873   831A      1.062488   832A      1.062979  
     833A      1.065421   834A      1.066627   835A      1.069351  
     836A      1.070713   837A      1.072076   838A      1.075243  
     839A      1.077119   840A      1.077262   841A      1.079281  
     842A      1.080082   843A      1.081407   844A      1.082298  
     845A      1.083793   846A      1.085164   847A      1.087138  
     848A      1.088239   849A      1.089976   850A      1.090385  
     851A      1.091830   852A      1.092087   853A      1.093773  
     854A      1.095523   855A      1.097929   856A      1.099523  
     857A      1.101469   858A      1.103525   859A      1.104875  
     860A      1.106435   861A      1.106747   862A      1.109483  
     863A      1.110332   864A      1.111825   865A      1.111926  
     866A      1.112967   867A      1.115767   868A      1.117654  
     869A      1.120639   870A      1.122220   871A      1.122966  
     872A      1.123060   873A      1.123793   874A      1.124435  
     875A      1.125785   876A      1.130091   877A      1.130846  
     878A      1.132870   879A      1.136016   880A      1.136536  
     881A      1.139235   882A      1.140696   883A      1.141238  
     884A      1.142036   885A      1.142602   886A      1.145502  
     887A      1.148999   888A      1.149665   889A      1.151075  
     890A      1.152013   891A      1.153106   892A      1.153459  
     893A      1.157120   894A      1.157958   895A      1.161108  
     896A      1.162213   897A      1.163974   898A      1.165283  
     899A      1.165978   900A      1.166936   901A      1.167525  
     902A      1.169353   903A      1.169852   904A      1.171488  
     905A      1.174525   906A      1.175414   907A      1.176923  
     908A      1.180904   909A      1.182226   910A      1.183079  
     911A      1.185272   912A      1.186512   913A      1.187747  
     914A      1.188386   915A      1.190245   916A      1.192222  
     917A      1.195538   918A      1.196201   919A      1.197159  
     920A      1.197664   921A      1.199407   922A      1.200728  
     923A      1.202942   924A      1.204191   925A      1.208203  
     926A      1.211286   927A      1.212048   928A      1.213290  
     929A      1.214183   930A      1.214479   931A      1.216149  
     932A      1.216944   933A      1.219032   934A      1.220201  
     935A      1.220557   936A      1.225864   937A      1.226192  
     938A      1.229131   939A      1.230657   940A      1.230941  
     941A      1.235201   942A      1.235664   943A      1.236255  
     944A      1.238771   945A      1.241770   946A      1.243286  
     947A      1.243588   948A      1.246798   949A      1.247555  
     950A      1.250303   951A      1.252216   952A      1.253692  
     953A      1.255665   954A      1.256049   955A      1.256282  
     956A      1.258797   957A      1.260614   958A      1.261124  
     959A      1.262915   960A      1.265619   961A      1.266751  
     962A      1.267451   963A      1.268013   964A      1.268481  
     965A      1.268701   966A      1.274200   967A      1.275479  
     968A      1.279230   969A      1.280148   970A      1.282463  
     971A      1.283318   972A      1.283449   973A      1.286239  
     974A      1.288640   975A      1.289215   976A      1.291715  
     977A      1.293065   978A      1.294394   979A      1.294637  
     980A      1.295333   981A      1.295569   982A      1.299592  
     983A      1.300651   984A      1.300987   985A      1.302677  
     986A      1.303533   987A      1.305689   988A      1.306301  
     989A      1.306709   990A      1.309767   991A      1.312071  
     992A      1.312418   993A      1.313908   994A      1.315772  
     995A      1.319518   996A      1.321454   997A      1.323363  
     998A      1.324280   999A      1.324818  1000A      1.325616  
    1001A      1.329431  1002A      1.329607  1003A      1.333717  
    1004A      1.335090  1005A      1.335802  1006A      1.336119  
    1007A      1.336330  1008A      1.338162  1009A      1.340366  
    1010A      1.341522  1011A      1.342968  1012A      1.343825  
    1013A      1.347643  1014A      1.348063  1015A      1.348932  
    1016A      1.350277  1017A      1.351580  1018A      1.354620  
    1019A      1.356717  1020A      1.357380  1021A      1.359605  
    1022A      1.359922  1023A      1.360792  1024A      1.366431  
    1025A      1.366761  1026A      1.367023  1027A      1.370682  
    1028A      1.372481  1029A      1.374345  1030A      1.376345  
    1031A      1.377689  1032A      1.379159  1033A      1.380003  
    1034A      1.381699  1035A      1.382125  1036A      1.383597  
    1037A      1.384883  1038A      1.386742  1039A      1.387972  
    1040A      1.390231  1041A      1.391834  1042A      1.393829  
    1043A      1.396215  1044A      1.396480  1045A      1.397772  
    1046A      1.400492  1047A      1.401228  1048A      1.403331  
    1049A      1.405937  1050A      1.407050  1051A      1.407501  
    1052A      1.407735  1053A      1.408500  1054A      1.410825  
    1055A      1.412007  1056A      1.414893  1057A      1.417482  
    1058A      1.418101  1059A      1.419001  1060A      1.419338  
    1061A      1.424460  1062A      1.426170  1063A      1.426672  
    1064A      1.428484  1065A      1.430791  1066A      1.431281  
    1067A      1.432175  1068A      1.432615  1069A      1.434092  
    1070A      1.436117  1071A      1.439640  1072A      1.441603  
    1073A      1.442694  1074A      1.444625  1075A      1.445304  
    1076A      1.447563  1077A      1.448885  1078A      1.451204  
    1079A      1.452346  1080A      1.452994  1081A      1.456153  
    1082A      1.456496  1083A      1.456911  1084A      1.459386  
    1085A      1.460330  1086A      1.460905  1087A      1.462403  
    1088A      1.463814  1089A      1.466597  1090A      1.468120  
    1091A      1.470005  1092A      1.472680  1093A      1.473761  
    1094A      1.474825  1095A      1.475274  1096A      1.477893  
    1097A      1.481346  1098A      1.481467  1099A      1.484189  
    1100A      1.484643  1101A      1.486051  1102A      1.487471  
    1103A      1.489707  1104A      1.490516  1105A      1.491545  
    1106A      1.494025  1107A      1.494929  1108A      1.495703  
    1109A      1.498048  1110A      1.500403  1111A      1.500902  
    1112A      1.501956  1113A      1.502859  1114A      1.505006  
    1115A      1.505766  1116A      1.507307  1117A      1.507689  
    1118A      1.512040  1119A      1.513106  1120A      1.514734  
    1121A      1.515355  1122A      1.517860  1123A      1.518636  
    1124A      1.519494  1125A      1.520611  1126A      1.521723  
    1127A      1.522877  1128A      1.524381  1129A      1.526146  
    1130A      1.527785  1131A      1.528933  1132A      1.531208  
    1133A      1.531800  1134A      1.534305  1135A      1.534776  
    1136A      1.536666  1137A      1.539124  1138A      1.540397  
    1139A      1.541408  1140A      1.543963  1141A      1.544899  
    1142A      1.545310  1143A      1.546319  1144A      1.548315  
    1145A      1.549466  1146A      1.550767  1147A      1.553039  
    1148A      1.555510  1149A      1.555888  1150A      1.558199  
    1151A      1.559166  1152A      1.560630  1153A      1.561260  
    1154A      1.562644  1155A      1.566751  1156A      1.567095  
    1157A      1.568279  1158A      1.570976  1159A      1.572320  
    1160A      1.573702  1161A      1.574004  1162A      1.574401  
    1163A      1.575345  1164A      1.579254  1165A      1.579867  
    1166A      1.580423  1167A      1.582620  1168A      1.586147  
    1169A      1.588813  1170A      1.590948  1171A      1.592873  
    1172A      1.594219  1173A      1.595411  1174A      1.597450  
    1175A      1.597784  1176A      1.598929  1177A      1.599269  
    1178A      1.600336  1179A      1.601579  1180A      1.603309  
    1181A      1.604655  1182A      1.605280  1183A      1.605900  
    1184A      1.607400  1185A      1.607907  1186A      1.609561  
    1187A      1.612685  1188A      1.613680  1189A      1.616283  
    1190A      1.617443  1191A      1.619140  1192A      1.620256  
    1193A      1.621363  1194A      1.622858  1195A      1.623678  
    1196A      1.624500  1197A      1.626792  1198A      1.628205  
    1199A      1.629198  1200A      1.631638  1201A      1.632299  
    1202A      1.635130  1203A      1.635609  1204A      1.636175  
    1205A      1.638472  1206A      1.642399  1207A      1.642969  
    1208A      1.644604  1209A      1.645365  1210A      1.645717  
    1211A      1.647641  1212A      1.648657  1213A      1.649284  
    1214A      1.650073  1215A      1.650947  1216A      1.652558  
    1217A      1.655109  1218A      1.656571  1219A      1.659755  
    1220A      1.661463  1221A      1.662481  1222A      1.663711  
    1223A      1.664111  1224A      1.665146  1225A      1.666381  
    1226A      1.669109  1227A      1.669713  1228A      1.670029  
    1229A      1.673352  1230A      1.674611  1231A      1.677306  
    1232A      1.678223  1233A      1.678626  1234A      1.680993  
    1235A      1.682268  1236A      1.685024  1237A      1.686150  
    1238A      1.686912  1239A      1.689085  1240A      1.690035  
    1241A      1.691197  1242A      1.692241  1243A      1.695306  
    1244A      1.696083  1245A      1.697174  1246A      1.697831  
    1247A      1.699531  1248A      1.703833  1249A      1.704145  
    1250A      1.704806  1251A      1.706147  1252A      1.707235  
    1253A      1.709981  1254A      1.711629  1255A      1.713522  
    1256A      1.714377  1257A      1.714701  1258A      1.716217  
    1259A      1.717459  1260A      1.719261  1261A      1.719705  
    1262A      1.722127  1263A      1.722667  1264A      1.725041  
    1265A      1.725210  1266A      1.725702  1267A      1.726760  
    1268A      1.728074  1269A      1.731405  1270A      1.732604  
    1271A      1.733127  1272A      1.735583  1273A      1.737428  
    1274A      1.738476  1275A      1.739405  1276A      1.741792  
    1277A      1.742853  1278A      1.743756  1279A      1.746547  
    1280A      1.748258  1281A      1.750002  1282A      1.750673  
    1283A      1.752737  1284A      1.754213  1285A      1.756784  
    1286A      1.757690  1287A      1.758555  1288A      1.759226  
    1289A      1.760805  1290A      1.763252  1291A      1.764245  
    1292A      1.766339  1293A      1.767821  1294A      1.769810  
    1295A      1.770693  1296A      1.771541  1297A      1.773016  
    1298A      1.776188  1299A      1.777822  1300A      1.778895  
    1301A      1.781093  1302A      1.781339  1303A      1.783646  
    1304A      1.786466  1305A      1.788804  1306A      1.790350  
    1307A      1.791167  1308A      1.794052  1309A      1.795087  
    1310A      1.795868  1311A      1.796462  1312A      1.797819  
    1313A      1.798607  1314A      1.799183  1315A      1.800853  
    1316A      1.801771  1317A      1.803339  1318A      1.806224  
    1319A      1.806497  1320A      1.808052  1321A      1.811184  
    1322A      1.812344  1323A      1.813781  1324A      1.814763  
    1325A      1.817031  1326A      1.818366  1327A      1.820511  
    1328A      1.824856  1329A      1.825395  1330A      1.826506  
    1331A      1.830265  1332A      1.830628  1333A      1.831175  
    1334A      1.832117  1335A      1.835243  1336A      1.836367  
    1337A      1.836959  1338A      1.838013  1339A      1.840279  
    1340A      1.842147  1341A      1.842330  1342A      1.843481  
    1343A      1.846216  1344A      1.847123  1345A      1.848668  
    1346A      1.850838  1347A      1.852316  1348A      1.853115  
    1349A      1.854114  1350A      1.857769  1351A      1.859076  
    1352A      1.860650  1353A      1.861462  1354A      1.863856  
    1355A      1.864543  1356A      1.867413  1357A      1.870579  
    1358A      1.870685  1359A      1.871333  1360A      1.871796  
    1361A      1.875355  1362A      1.876248  1363A      1.878042  
    1364A      1.878903  1365A      1.880495  1366A      1.882904  
    1367A      1.883255  1368A      1.887590  1369A      1.891311  
    1370A      1.891968  1371A      1.895862  1372A      1.896602  
    1373A      1.897075  1374A      1.898171  1375A      1.900821  
    1376A      1.901656  1377A      1.903650  1378A      1.906182  
    1379A      1.907300  1380A      1.908505  1381A      1.910806  
    1382A      1.911990  1383A      1.914178  1384A      1.915670  
    1385A      1.917922  1386A      1.919538  1387A      1.920886  
    1388A      1.922670  1389A      1.922957  1390A      1.923469  
    1391A      1.926448  1392A      1.929099  1393A      1.930026  
    1394A      1.933742  1395A      1.934351  1396A      1.934881  
    1397A      1.936306  1398A      1.937650  1399A      1.940416  
    1400A      1.940678  1401A      1.943629  1402A      1.945015  
    1403A      1.948716  1404A      1.949320  1405A      1.951409  
    1406A      1.952462  1407A      1.953941  1408A      1.958543  
    1409A      1.960247  1410A      1.960891  1411A      1.961141  
    1412A      1.961917  1413A      1.964806  1414A      1.967023  
    1415A      1.968957  1416A      1.970655  1417A      1.971440  
    1418A      1.971753  1419A      1.972280  1420A      1.973756  
    1421A      1.975123  1422A      1.978451  1423A      1.979904  
    1424A      1.981882  1425A      1.983926  1426A      1.985258  
    1427A      1.986776  1428A      1.989420  1429A      1.990362  
    1430A      1.991879  1431A      1.992550  1432A      1.995598  
    1433A      1.995942  1434A      1.998888  1435A      2.000260  
    1436A      2.001480  1437A      2.003042  1438A      2.005513  
    1439A      2.005581  1440A      2.007472  1441A      2.008691  
    1442A      2.010373  1443A      2.011057  1444A      2.011990  
    1445A      2.013446  1446A      2.014927  1447A      2.015829  
    1448A      2.016020  1449A      2.019985  1450A      2.021667  
    1451A      2.024839  1452A      2.025796  1453A      2.026082  
    1454A      2.030817  1455A      2.031798  1456A      2.032773  
    1457A      2.035076  1458A      2.037580  1459A      2.039229  
    1460A      2.040324  1461A      2.040754  1462A      2.040996  
    1463A      2.042253  1464A      2.045512  1465A      2.047723  
    1466A      2.048799  1467A      2.049622  1468A      2.051617  
    1469A      2.053743  1470A      2.055557  1471A      2.056812  
    1472A      2.058983  1473A      2.059601  1474A      2.062358  
    1475A      2.063497  1476A      2.066363  1477A      2.067885  
    1478A      2.068817  1479A      2.070062  1480A      2.075884  
    1481A      2.076833  1482A      2.077217  1483A      2.079902  
    1484A      2.082995  1485A      2.084227  1486A      2.084494  
    1487A      2.084850  1488A      2.088335  1489A      2.090378  
    1490A      2.093434  1491A      2.095776  1492A      2.097713  
    1493A      2.098608  1494A      2.099990  1495A      2.103645  
    1496A      2.104983  1497A      2.105792  1498A      2.107942  
    1499A      2.110268  1500A      2.110624  1501A      2.113478  
    1502A      2.114761  1503A      2.118451  1504A      2.118979  
    1505A      2.119941  1506A      2.121733  1507A      2.122354  
    1508A      2.123961  1509A      2.125509  1510A      2.128775  
    1511A      2.130279  1512A      2.131429  1513A      2.135166  
    1514A      2.136860  1515A      2.140547  1516A      2.141074  
    1517A      2.142386  1518A      2.144750  1519A      2.147437  
    1520A      2.147589  1521A      2.152576  1522A      2.152899  
    1523A      2.155816  1524A      2.157597  1525A      2.158467  
    1526A      2.160445  1527A      2.161972  1528A      2.163852  
    1529A      2.164627  1530A      2.168079  1531A      2.169311  
    1532A      2.172901  1533A      2.175085  1534A      2.175202  
    1535A      2.176927  1536A      2.177801  1537A      2.181984  
    1538A      2.182724  1539A      2.184790  1540A      2.185981  
    1541A      2.187202  1542A      2.188641  1543A      2.191594  
    1544A      2.192452  1545A      2.196450  1546A      2.196600  
    1547A      2.199661  1548A      2.199822  1549A      2.202348  
    1550A      2.205276  1551A      2.205962  1552A      2.208122  
    1553A      2.208968  1554A      2.212437  1555A      2.213750  
    1556A      2.214562  1557A      2.216388  1558A      2.218061  
    1559A      2.220879  1560A      2.223145  1561A      2.224106  
    1562A      2.224589  1563A      2.226502  1564A      2.227218  
    1565A      2.228713  1566A      2.234638  1567A      2.236000  
    1568A      2.236506  1569A      2.239208  1570A      2.241028  
    1571A      2.243031  1572A      2.244757  1573A      2.246137  
    1574A      2.248140  1575A      2.249242  1576A      2.255571  
    1577A      2.257899  1578A      2.258622  1579A      2.259851  
    1580A      2.262307  1581A      2.263524  1582A      2.265157  
    1583A      2.267692  1584A      2.269162  1585A      2.271695  
    1586A      2.273102  1587A      2.273882  1588A      2.276199  
    1589A      2.276763  1590A      2.281386  1591A      2.283930  
    1592A      2.285156  1593A      2.285285  1594A      2.287840  
    1595A      2.291865  1596A      2.292516  1597A      2.292956  
    1598A      2.293980  1599A      2.297170  1600A      2.298095  
    1601A      2.301133  1602A      2.303733  1603A      2.304738  
    1604A      2.306700  1605A      2.308165  1606A      2.309493  
    1607A      2.312172  1608A      2.316868  1609A      2.317279  
    1610A      2.319726  1611A      2.321731  1612A      2.323865  
    1613A      2.326758  1614A      2.330028  1615A      2.332972  
    1616A      2.334983  1617A      2.335852  1618A      2.338527  
    1619A      2.340629  1620A      2.341089  1621A      2.343606  
    1622A      2.344158  1623A      2.346115  1624A      2.346500  
    1625A      2.350122  1626A      2.351790  1627A      2.354497  
    1628A      2.356513  1629A      2.357919  1630A      2.360582  
    1631A      2.364530  1632A      2.365276  1633A      2.367788  
    1634A      2.370796  1635A      2.371579  1636A      2.371828  
    1637A      2.374825  1638A      2.377417  1639A      2.378831  
    1640A      2.382378  1641A      2.387180  1642A      2.389800  
    1643A      2.391594  1644A      2.395841  1645A      2.397487  
    1646A      2.398763  1647A      2.399815  1648A      2.402250  
    1649A      2.404226  1650A      2.404795  1651A      2.406832  
    1652A      2.409984  1653A      2.412297  1654A      2.413385  
    1655A      2.419221  1656A      2.420041  1657A      2.422114  
    1658A      2.423771  1659A      2.424369  1660A      2.427110  
    1661A      2.429099  1662A      2.430938  1663A      2.433950  
    1664A      2.435535  1665A      2.437700  1666A      2.438218  
    1667A      2.441573  1668A      2.442519  1669A      2.444380  
    1670A      2.446630  1671A      2.448205  1672A      2.449171  
    1673A      2.453944  1674A      2.456443  1675A      2.456835  
    1676A      2.459271  1677A      2.461999  1678A      2.464124  
    1679A      2.465431  1680A      2.466876  1681A      2.468389  
    1682A      2.470351  1683A      2.472048  1684A      2.474087  
    1685A      2.477247  1686A      2.478049  1687A      2.478308  
    1688A      2.480801  1689A      2.482245  1690A      2.486116  
    1691A      2.487109  1692A      2.490532  1693A      2.494208  
    1694A      2.495577  1695A      2.497442  1696A      2.497927  
    1697A      2.503823  1698A      2.503946  1699A      2.506819  
    1700A      2.507687  1701A      2.509989  1702A      2.511516  
    1703A      2.512790  1704A      2.517765  1705A      2.520334  
    1706A      2.522118  1707A      2.526188  1708A      2.527998  
    1709A      2.528682  1710A      2.532131  1711A      2.533354  
    1712A      2.535270  1713A      2.536706  1714A      2.539875  
    1715A      2.541954  1716A      2.543915  1717A      2.548653  
    1718A      2.548916  1719A      2.550433  1720A      2.551153  
    1721A      2.551681  1722A      2.553074  1723A      2.557349  
    1724A      2.558615  1725A      2.562383  1726A      2.563697  
    1727A      2.565861  1728A      2.567088  1729A      2.569859  
    1730A      2.570655  1731A      2.573108  1732A      2.573871  
    1733A      2.575924  1734A      2.578939  1735A      2.579646  
    1736A      2.581392  1737A      2.582445  1738A      2.583789  
    1739A      2.586006  1740A      2.587509  1741A      2.589775  
    1742A      2.591850  1743A      2.594210  1744A      2.595348  
    1745A      2.598291  1746A      2.598807  1747A      2.599543  
    1748A      2.601255  1749A      2.601931  1750A      2.602795  
    1751A      2.604129  1752A      2.605961  1753A      2.610065  
    1754A      2.610557  1755A      2.614573  1756A      2.618284  
    1757A      2.619304  1758A      2.621658  1759A      2.622018  
    1760A      2.623977  1761A      2.627662  1762A      2.629131  
    1763A      2.629512  1764A      2.629789  1765A      2.636896  
    1766A      2.637894  1767A      2.639493  1768A      2.640166  
    1769A      2.641764  1770A      2.642082  1771A      2.642459  
    1772A      2.646011  1773A      2.646621  1774A      2.650198  
    1775A      2.651365  1776A      2.653058  1777A      2.653460  
    1778A      2.657429  1779A      2.659855  1780A      2.660920  
    1781A      2.663676  1782A      2.667832  1783A      2.668812  
    1784A      2.668983  1785A      2.670550  1786A      2.673435  
    1787A      2.674550  1788A      2.677241  1789A      2.677975  
    1790A      2.681059  1791A      2.682005  1792A      2.684371  
    1793A      2.685452  1794A      2.686857  1795A      2.689862  
    1796A      2.693679  1797A      2.694862  1798A      2.696959  
    1799A      2.698568  1800A      2.702547  1801A      2.703989  
    1802A      2.705254  1803A      2.705638  1804A      2.707432  
    1805A      2.709816  1806A      2.711122  1807A      2.712931  
    1808A      2.714782  1809A      2.720255  1810A      2.721126  
    1811A      2.723040  1812A      2.724669  1813A      2.725763  
    1814A      2.728357  1815A      2.732426  1816A      2.735949  
    1817A      2.736570  1818A      2.737623  1819A      2.740138  
    1820A      2.740736  1821A      2.743014  1822A      2.746044  
    1823A      2.747553  1824A      2.749405  1825A      2.750317  
    1826A      2.751441  1827A      2.753336  1828A      2.754905  
    1829A      2.758031  1830A      2.761572  1831A      2.762458  
    1832A      2.768472  1833A      2.769526  1834A      2.771396  
    1835A      2.772642  1836A      2.776463  1837A      2.777356  
    1838A      2.781082  1839A      2.781610  1840A      2.782848  
    1841A      2.787421  1842A      2.792261  1843A      2.793189  
    1844A      2.795730  1845A      2.796589  1846A      2.797247  
    1847A      2.798379  1848A      2.798590  1849A      2.802719  
    1850A      2.805663  1851A      2.806192  1852A      2.809669  
    1853A      2.811437  1854A      2.813511  1855A      2.816260  
    1856A      2.819754  1857A      2.822495  1858A      2.823431  
    1859A      2.826232  1860A      2.827191  1861A      2.829015  
    1862A      2.833945  1863A      2.834744  1864A      2.836663  
    1865A      2.837639  1866A      2.838419  1867A      2.841237  
    1868A      2.844017  1869A      2.847451  1870A      2.851000  
    1871A      2.852413  1872A      2.854196  1873A      2.858293  
    1874A      2.858792  1875A      2.860982  1876A      2.863875  
    1877A      2.865143  1878A      2.868162  1879A      2.870201  
    1880A      2.871087  1881A      2.876145  1882A      2.877645  
    1883A      2.879912  1884A      2.881719  1885A      2.883739  
    1886A      2.885860  1887A      2.887035  1888A      2.893212  
    1889A      2.895300  1890A      2.897765  1891A      2.899234  
    1892A      2.903574  1893A      2.905367  1894A      2.906048  
    1895A      2.910271  1896A      2.913299  1897A      2.913935  
    1898A      2.916218  1899A      2.918123  1900A      2.919626  
    1901A      2.923279  1902A      2.923358  1903A      2.926773  
    1904A      2.930209  1905A      2.932995  1906A      2.933662  
    1907A      2.938327  1908A      2.938434  1909A      2.942797  
    1910A      2.942863  1911A      2.946701  1912A      2.950577  
    1913A      2.951097  1914A      2.953021  1915A      2.954391  
    1916A      2.960164  1917A      2.964952  1918A      2.967002  
    1919A      2.967612  1920A      2.968697  1921A      2.972180  
    1922A      2.972552  1923A      2.978574  1924A      2.979804  
    1925A      2.984252  1926A      2.985369  1927A      2.989658  
    1928A      2.993279  1929A      2.994594  1930A      2.996453  
    1931A      2.999384  1932A      2.999953  1933A      3.000624  
    1934A      3.003091  1935A      3.007048  1936A      3.008054  
    1937A      3.012775  1938A      3.014577  1939A      3.016034  
    1940A      3.018733  1941A      3.024803  1942A      3.027805  
    1943A      3.033518  1944A      3.039740  1945A      3.040485  
    1946A      3.042155  1947A      3.043660  1948A      3.044147  
    1949A      3.049622  1950A      3.050139  1951A      3.053445  
    1952A      3.058053  1953A      3.059009  1954A      3.060221  
    1955A      3.064115  1956A      3.068658  1957A      3.069704  
    1958A      3.074590  1959A      3.076058  1960A      3.079572  
    1961A      3.081263  1962A      3.086267  1963A      3.087357  
    1964A      3.091152  1965A      3.092662  1966A      3.101256  
    1967A      3.103702  1968A      3.105943  1969A      3.108597  
    1970A      3.110512  1971A      3.112902  1972A      3.117320  
    1973A      3.123214  1974A      3.127216  1975A      3.128168  
    1976A      3.130147  1977A      3.135962  1978A      3.138935  
    1979A      3.140382  1980A      3.144701  1981A      3.148078  
    1982A      3.151111  1983A      3.151809  1984A      3.154146  
    1985A      3.163119  1986A      3.166898  1987A      3.172077  
    1988A      3.173174  1989A      3.179254  1990A      3.182660  
    1991A      3.183374  1992A      3.183589  1993A      3.184108  
    1994A      3.188956  1995A      3.189290  1996A      3.193650  
    1997A      3.203112  1998A      3.204199  1999A      3.207789  
    2000A      3.215161  2001A      3.216196  2002A      3.219193  
    2003A      3.220105  2004A      3.224586  2005A      3.228319  
    2006A      3.232492  2007A      3.233997  2008A      3.238938  
    2009A      3.241915  2010A      3.242112  2011A      3.246503  
    2012A      3.249322  2013A      3.252475  2014A      3.253562  
    2015A      3.259385  2016A      3.262079  2017A      3.266273  
    2018A      3.274339  2019A      3.281456  2020A      3.282452  
    2021A      3.289142  2022A      3.293951  2023A      3.294906  
    2024A      3.302118  2025A      3.305894  2026A      3.306409  
    2027A      3.314142  2028A      3.314632  2029A      3.318732  
    2030A      3.321077  2031A      3.322126  2032A      3.327454  
    2033A      3.338826  2034A      3.344506  2035A      3.346726  
    2036A      3.351959  2037A      3.353544  2038A      3.353787  
    2039A      3.358546  2040A      3.366885  2041A      3.369418  
    2042A      3.370639  2043A      3.378751  2044A      3.381373  
    2045A      3.387198  2046A      3.388841  2047A      3.390885  
    2048A      3.400911  2049A      3.402028  2050A      3.403126  
    2051A      3.410084  2052A      3.413099  2053A      3.415784  
    2054A      3.419959  2055A      3.427327  2056A      3.431419  
    2057A      3.434585  2058A      3.439323  2059A      3.444796  
    2060A      3.447189  2061A      3.448218  2062A      3.457271  
    2063A      3.457588  2064A      3.457777  2065A      3.460104  
    2066A      3.465639  2067A      3.466015  2068A      3.473696  
    2069A      3.476322  2070A      3.478529  2071A      3.481404  
    2072A      3.483599  2073A      3.484192  2074A      3.487806  
    2075A      3.510535  2076A      3.515854  2077A      3.517122  
    2078A      3.517568  2079A      3.534912  2080A      3.535372  
    2081A      3.537267  2082A      3.540181  2083A      3.544636  
    2084A      3.549217  2085A      3.549448  2086A      3.555499  
    2087A      3.556679  2088A      3.558818  2089A      3.566283  
    2090A      3.570657  2091A      3.571244  2092A      3.581010  
    2093A      3.584460  2094A      3.587155  2095A      3.592715  
    2096A      3.600307  2097A      3.608537  2098A      3.616241  
    2099A      3.616779  2100A      3.620387  2101A      3.621086  
    2102A      3.631013  2103A      3.639568  2104A      3.639772  
    2105A      3.644772  2106A      3.651779  2107A      3.653436  
    2108A      3.657168  2109A      3.659833  2110A      3.665769  
    2111A      3.671756  2112A      3.675877  2113A      3.679546  
    2114A      3.684242  2115A      3.689967  2116A      3.695192  
    2117A      3.708969  2118A      3.709296  2119A      3.712940  
    2120A      3.714404  2121A      3.717493  2122A      3.723525  
    2123A      3.726346  2124A      3.728860  2125A      3.735011  
    2126A      3.740362  2127A      3.741257  2128A      3.744188  
    2129A      3.749504  2130A      3.755469  2131A      3.757342  
    2132A      3.762445  2133A      3.767733  2134A      3.770245  
    2135A      3.772931  2136A      3.777919  2137A      3.780856  
    2138A      3.783697  2139A      3.789088  2140A      3.791649  
    2141A      3.796542  2142A      3.797704  2143A      3.800072  
    2144A      3.806983  2145A      3.811080  2146A      3.817467  
    2147A      3.817799  2148A      3.822150  2149A      3.827696  
    2150A      3.829365  2151A      3.830048  2152A      3.836288  
    2153A      3.842876  2154A      3.852390  2155A      3.855769  
    2156A      3.861015  2157A      3.865083  2158A      3.867537  
    2159A      3.872472  2160A      3.873227  2161A      3.874264  
    2162A      3.877397  2163A      3.877753  2164A      3.890052  
    2165A      3.893342  2166A      3.893817  2167A      3.898021  
    2168A      3.899273  2169A      3.911313  2170A      3.915051  
    2171A      3.918567  2172A      3.919461  2173A      3.932150  
    2174A      3.932345  2175A      3.944766  2176A      3.945983  
    2177A      3.951336  2178A      3.953983  2179A      3.959858  
    2180A      3.965083  2181A      3.965600  2182A      3.970196  
    2183A      3.976748  2184A      3.978351  2185A      3.983139  
    2186A      3.985841  2187A      3.989987  2188A      3.992898  
    2189A      3.995704  2190A      3.996167  2191A      4.000802  
    2192A      4.003963  2193A      4.004735  2194A      4.015498  
    2195A      4.015810  2196A      4.021822  2197A      4.032415  
    2198A      4.035237  2199A      4.035845  2200A      4.044570  
    2201A      4.048306  2202A      4.053336  2203A      4.053969  
    2204A      4.062444  2205A      4.063291  2206A      4.066333  
    2207A      4.067387  2208A      4.079970  2209A      4.087070  
    2210A      4.088719  2211A      4.089938  2212A      4.097933  
    2213A      4.102205  2214A      4.103323  2215A      4.109968  
    2216A      4.112061  2217A      4.117457  2218A      4.126417  
    2219A      4.129915  2220A      4.130569  2221A      4.135132  
    2222A      4.136554  2223A      4.142870  2224A      4.144112  
    2225A      4.147409  2226A      4.151380  2227A      4.152977  
    2228A      4.156457  2229A      4.158022  2230A      4.160120  
    2231A      4.169311  2232A      4.171701  2233A      4.174163  
    2234A      4.177190  2235A      4.179057  2236A      4.184437  
    2237A      4.192491  2238A      4.199793  2239A      4.202905  
    2240A      4.207897  2241A      4.208330  2242A      4.210477  
    2243A      4.212135  2244A      4.215298  2245A      4.216374  
    2246A      4.218997  2247A      4.223397  2248A      4.226295  
    2249A      4.232081  2250A      4.238857  2251A      4.241492  
    2252A      4.242388  2253A      4.247085  2254A      4.248264  
    2255A      4.251484  2256A      4.254326  2257A      4.255421  
    2258A      4.258323  2259A      4.266557  2260A      4.268271  
    2261A      4.269514  2262A      4.269914  2263A      4.275804  
    2264A      4.280919  2265A      4.282688  2266A      4.284368  
    2267A      4.286370  2268A      4.289444  2269A      4.291918  
    2270A      4.292247  2271A      4.292783  2272A      4.297645  
    2273A      4.304229  2274A      4.308311  2275A      4.310540  
    2276A      4.311320  2277A      4.312097  2278A      4.316299  
    2279A      4.317045  2280A      4.319020  2281A      4.322822  
    2282A      4.326666  2283A      4.327371  2284A      4.330405  
    2285A      4.333395  2286A      4.336574  2287A      4.338335  
    2288A      4.340241  2289A      4.341838  2290A      4.347460  
    2291A      4.349990  2292A      4.351514  2293A      4.353193  
    2294A      4.358449  2295A      4.360502  2296A      4.364249  
    2297A      4.364803  2298A      4.366649  2299A      4.369806  
    2300A      4.373095  2301A      4.376925  2302A      4.379059  
    2303A      4.380668  2304A      4.384485  2305A      4.385277  
    2306A      4.385946  2307A      4.391079  2308A      4.395146  
    2309A      4.398006  2310A      4.399269  2311A      4.402361  
    2312A      4.403281  2313A      4.404810  2314A      4.413193  
    2315A      4.414391  2316A      4.415817  2317A      4.417716  
    2318A      4.419705  2319A      4.419843  2320A      4.424466  
    2321A      4.425508  2322A      4.427386  2323A      4.431493  
    2324A      4.432042  2325A      4.436960  2326A      4.437677  
    2327A      4.440543  2328A      4.441002  2329A      4.444687  
    2330A      4.448905  2331A      4.450354  2332A      4.450550  
    2333A      4.454720  2334A      4.457927  2335A      4.460308  
    2336A      4.461471  2337A      4.465977  2338A      4.467028  
    2339A      4.470480  2340A      4.472425  2341A      4.479999  
    2342A      4.481476  2343A      4.482330  2344A      4.485833  
    2345A      4.486099  2346A      4.487946  2347A      4.490334  
    2348A      4.490989  2349A      4.492267  2350A      4.495399  
    2351A      4.495932  2352A      4.499854  2353A      4.504157  
    2354A      4.504872  2355A      4.505854  2356A      4.506198  
    2357A      4.515353  2358A      4.515775  2359A      4.519498  
    2360A      4.520437  2361A      4.521846  2362A      4.524512  
    2363A      4.525916  2364A      4.526218  2365A      4.528048  
    2366A      4.535241  2367A      4.537361  2368A      4.539599  
    2369A      4.540844  2370A      4.542503  2371A      4.544605  
    2372A      4.550751  2373A      4.551420  2374A      4.552784  
    2375A      4.555170  2376A      4.555742  2377A      4.560263  
    2378A      4.562506  2379A      4.565004  2380A      4.567816  
    2381A      4.569896  2382A      4.573089  2383A      4.574828  
    2384A      4.575299  2385A      4.576792  2386A      4.579783  
    2387A      4.582443  2388A      4.587846  2389A      4.591054  
    2390A      4.592159  2391A      4.594696  2392A      4.596002  
    2393A      4.597813  2394A      4.599641  2395A      4.603338  
    2396A      4.607919  2397A      4.609700  2398A      4.610684  
    2399A      4.611041  2400A      4.616807  2401A      4.619868  
    2402A      4.621304  2403A      4.622293  2404A      4.627370  
    2405A      4.627847  2406A      4.631429  2407A      4.632771  
    2408A      4.637259  2409A      4.640347  2410A      4.643452  
    2411A      4.644190  2412A      4.646164  2413A      4.650103  
    2414A      4.653723  2415A      4.654942  2416A      4.658926  
    2417A      4.660610  2418A      4.664947  2419A      4.666251  
    2420A      4.668130  2421A      4.671784  2422A      4.672658  
    2423A      4.674793  2424A      4.677307  2425A      4.679273  
    2426A      4.680896  2427A      4.683642  2428A      4.688081  
    2429A      4.692113  2430A      4.695657  2431A      4.697070  
    2432A      4.698809  2433A      4.700066  2434A      4.704640  
    2435A      4.705948  2436A      4.708976  2437A      4.710877  
    2438A      4.711046  2439A      4.712881  2440A      4.714845  
    2441A      4.719024  2442A      4.719856  2443A      4.726513  
    2444A      4.729788  2445A      4.730277  2446A      4.733851  
    2447A      4.734252  2448A      4.737479  2449A      4.741116  
    2450A      4.745638  2451A      4.746309  2452A      4.748018  
    2453A      4.748558  2454A      4.756325  2455A      4.756907  
    2456A      4.757781  2457A      4.761626  2458A      4.763517  
    2459A      4.771733  2460A      4.773024  2461A      4.774765  
    2462A      4.776355  2463A      4.778864  2464A      4.780315  
    2465A      4.783396  2466A      4.784276  2467A      4.786392  
    2468A      4.792095  2469A      4.792833  2470A      4.796039  
    2471A      4.799319  2472A      4.800554  2473A      4.804056  
    2474A      4.806532  2475A      4.809038  2476A      4.810300  
    2477A      4.810707  2478A      4.814481  2479A      4.815989  
    2480A      4.816410  2481A      4.819851  2482A      4.823846  
    2483A      4.824919  2484A      4.827120  2485A      4.828546  
    2486A      4.831764  2487A      4.832085  2488A      4.835127  
    2489A      4.836596  2490A      4.840649  2491A      4.843004  
    2492A      4.848147  2493A      4.848748  2494A      4.851122  
    2495A      4.851867  2496A      4.853118  2497A      4.857886  
    2498A      4.858247  2499A      4.864532  2500A      4.865806  
    2501A      4.866532  2502A      4.867956  2503A      4.870129  
    2504A      4.875689  2505A      4.877668  2506A      4.880519  
    2507A      4.885369  2508A      4.887818  2509A      4.888365  
    2510A      4.892337  2511A      4.893736  2512A      4.896217  
    2513A      4.896381  2514A      4.898728  2515A      4.902218  
    2516A      4.904604  2517A      4.910374  2518A      4.912044  
    2519A      4.913988  2520A      4.919416  2521A      4.925377  
    2522A      4.925679  2523A      4.930714  2524A      4.931315  
    2525A      4.934032  2526A      4.937364  2527A      4.940460  
    2528A      4.941976  2529A      4.943371  2530A      4.945397  
    2531A      4.949019  2532A      4.949085  2533A      4.951711  
    2534A      4.952190  2535A      4.957908  2536A      4.964618  
    2537A      4.965028  2538A      4.966952  2539A      4.968222  
    2540A      4.968588  2541A      4.972462  2542A      4.973562  
    2543A      4.978103  2544A      4.980145  2545A      4.980647  
    2546A      4.986619  2547A      4.993276  2548A      4.994683  
    2549A      4.996441  2550A      4.997028  2551A      4.998203  
    2552A      5.004640  2553A      5.006073  2554A      5.006268  
    2555A      5.011154  2556A      5.015036  2557A      5.017519  
    2558A      5.019062  2559A      5.023539  2560A      5.024635  
    2561A      5.028243  2562A      5.031591  2563A      5.035230  
    2564A      5.036054  2565A      5.041187  2566A      5.043085  
    2567A      5.045127  2568A      5.051528  2569A      5.054600  
    2570A      5.055087  2571A      5.057379  2572A      5.060285  
    2573A      5.061597  2574A      5.066607  2575A      5.067508  
    2576A      5.069189  2577A      5.071090  2578A      5.075931  
    2579A      5.080050  2580A      5.081005  2581A      5.083552  
    2582A      5.086958  2583A      5.088014  2584A      5.092301  
    2585A      5.093109  2586A      5.098146  2587A      5.099303  
    2588A      5.102279  2589A      5.103515  2590A      5.103962  
    2591A      5.107421  2592A      5.110302  2593A      5.110652  
    2594A      5.113797  2595A      5.114554  2596A      5.119942  
    2597A      5.121254  2598A      5.124440  2599A      5.125562  
    2600A      5.126293  2601A      5.126964  2602A      5.129704  
    2603A      5.134956  2604A      5.135630  2605A      5.139063  
    2606A      5.139434  2607A      5.144510  2608A      5.145970  
    2609A      5.146283  2610A      5.149533  2611A      5.149696  
    2612A      5.150587  2613A      5.151941  2614A      5.156458  
    2615A      5.159615  2616A      5.160939  2617A      5.163520  
    2618A      5.164682  2619A      5.165986  2620A      5.168791  
    2621A      5.171054  2622A      5.172494  2623A      5.172914  
    2624A      5.175614  2625A      5.181059  2626A      5.184292  
    2627A      5.187993  2628A      5.188491  2629A      5.189759  
    2630A      5.193942  2631A      5.194346  2632A      5.197500  
    2633A      5.198278  2634A      5.200792  2635A      5.201610  
    2636A      5.202087  2637A      5.209087  2638A      5.209829  
    2639A      5.211876  2640A      5.212847  2641A      5.215029  
    2642A      5.215390  2643A      5.217001  2644A      5.223032  
    2645A      5.225257  2646A      5.228195  2647A      5.231009  
    2648A      5.233618  2649A      5.236434  2650A      5.238206  
    2651A      5.241678  2652A      5.244728  2653A      5.246740  
    2654A      5.248441  2655A      5.249748  2656A      5.251832  
    2657A      5.253239  2658A      5.254932  2659A      5.259972  
    2660A      5.261419  2661A      5.263703  2662A      5.265542  
    2663A      5.270510  2664A      5.271664  2665A      5.273814  
    2666A      5.276878  2667A      5.277376  2668A      5.281640  
    2669A      5.283859  2670A      5.286407  2671A      5.288175  
    2672A      5.290098  2673A      5.291287  2674A      5.293834  
    2675A      5.294821  2676A      5.296203  2677A      5.302093  
    2678A      5.304643  2679A      5.309326  2680A      5.309923  
    2681A      5.313061  2682A      5.318428  2683A      5.318924  
    2684A      5.322010  2685A      5.323906  2686A      5.324897  
    2687A      5.332139  2688A      5.332501  2689A      5.335198  
    2690A      5.335942  2691A      5.344778  2692A      5.348524  
    2693A      5.349734  2694A      5.350008  2695A      5.354263  
    2696A      5.354429  2697A      5.360305  2698A      5.360996  
    2699A      5.365571  2700A      5.368401  2701A      5.371251  
    2702A      5.375835  2703A      5.376331  2704A      5.377305  
    2705A      5.382948  2706A      5.383186  2707A      5.386447  
    2708A      5.392557  2709A      5.393865  2710A      5.394996  
    2711A      5.400641  2712A      5.408039  2713A      5.410746  
    2714A      5.411275  2715A      5.419015  2716A      5.423924  
    2717A      5.426133  2718A      5.430337  2719A      5.431833  
    2720A      5.432567  2721A      5.439809  2722A      5.440572  
    2723A      5.443940  2724A      5.449740  2725A      5.450514  
    2726A      5.451596  2727A      5.453109  2728A      5.459123  
    2729A      5.461346  2730A      5.464558  2731A      5.464941  
    2732A      5.468543  2733A      5.473468  2734A      5.475367  
    2735A      5.478244  2736A      5.480616  2737A      5.485866  
    2738A      5.488236  2739A      5.489250  2740A      5.492517  
    2741A      5.494377  2742A      5.495481  2743A      5.496963  
    2744A      5.502596  2745A      5.503344  2746A      5.506976  
    2747A      5.509086  2748A      5.512834  2749A      5.515024  
    2750A      5.516823  2751A      5.520093  2752A      5.522073  
    2753A      5.524173  2754A      5.524741  2755A      5.526535  
    2756A      5.527381  2757A      5.531074  2758A      5.531643  
    2759A      5.535971  2760A      5.537197  2761A      5.540620  
    2762A      5.544143  2763A      5.544536  2764A      5.548175  
    2765A      5.549919  2766A      5.553026  2767A      5.553903  
    2768A      5.554944  2769A      5.555958  2770A      5.558895  
    2771A      5.566590  2772A      5.570128  2773A      5.571811  
    2774A      5.580334  2775A      5.583248  2776A      5.583681  
    2777A      5.586750  2778A      5.592113  2779A      5.592341  
    2780A      5.596235  2781A      5.597643  2782A      5.607283  
    2783A      5.610020  2784A      5.613150  2785A      5.616714  
    2786A      5.621626  2787A      5.625437  2788A      5.629164  
    2789A      5.630525  2790A      5.637917  2791A      5.640218  
    2792A      5.641734  2793A      5.645088  2794A      5.646233  
    2795A      5.646737  2796A      5.648953  2797A      5.652393  
    2798A      5.655108  2799A      5.655838  2800A      5.657874  
    2801A      5.661076  2802A      5.664577  2803A      5.665204  
    2804A      5.667733  2805A      5.670952  2806A      5.673689  
    2807A      5.675186  2808A      5.677220  2809A      5.680534  
    2810A      5.684527  2811A      5.689070  2812A      5.690996  
    2813A      5.691102  2814A      5.692561  2815A      5.697118  
    2816A      5.700576  2817A      5.703700  2818A      5.706517  
    2819A      5.707355  2820A      5.710796  2821A      5.713380  
    2822A      5.715446  2823A      5.720105  2824A      5.721067  
    2825A      5.725474  2826A      5.726719  2827A      5.732698  
    2828A      5.734217  2829A      5.737082  2830A      5.738803  
    2831A      5.741583  2832A      5.746173  2833A      5.747803  
    2834A      5.750238  2835A      5.751187  2836A      5.755764  
    2837A      5.757278  2838A      5.766607  2839A      5.773061  
    2840A      5.775036  2841A      5.775312  2842A      5.779351  
    2843A      5.781300  2844A      5.783376  2845A      5.784231  
    2846A      5.786831  2847A      5.789698  2848A      5.792652  
    2849A      5.795541  2850A      5.795986  2851A      5.797014  
    2852A      5.799215  2853A      5.801003  2854A      5.803417  
    2855A      5.814533  2856A      5.816161  2857A      5.817762  
    2858A      5.823470  2859A      5.825688  2860A      5.828193  
    2861A      5.830515  2862A      5.832421  2863A      5.836955  
    2864A      5.837242  2865A      5.840975  2866A      5.842744  
    2867A      5.846712  2868A      5.847931  2869A      5.855029  
    2870A      5.861324  2871A      5.863391  2872A      5.867320  
    2873A      5.867620  2874A      5.872937  2875A      5.874406  
    2876A      5.874961  2877A      5.879459  2878A      5.880704  
    2879A      5.881997  2880A      5.886484  2881A      5.887406  
    2882A      5.892050  2883A      5.892428  2884A      5.896542  
    2885A      5.897349  2886A      5.902209  2887A      5.907021  
    2888A      5.912950  2889A      5.917212  2890A      5.920466  
    2891A      5.925071  2892A      5.926100  2893A      5.930591  
    2894A      5.931577  2895A      5.936126  2896A      5.936757  
    2897A      5.941266  2898A      5.941945  2899A      5.944078  
    2900A      5.944784  2901A      5.949123  2902A      5.952301  
    2903A      5.955805  2904A      5.961431  2905A      5.962209  
    2906A      5.964533  2907A      5.968902  2908A      5.971303  
    2909A      5.975530  2910A      5.976537  2911A      5.978183  
    2912A      5.984354  2913A      5.985906  2914A      5.987708  
    2915A      5.993789  2916A      5.996179  2917A      5.998158  
    2918A      6.002314  2919A      6.004933  2920A      6.006158  
    2921A      6.013707  2922A      6.013960  2923A      6.017596  
    2924A      6.019620  2925A      6.025291  2926A      6.029583  
    2927A      6.029925  2928A      6.032753  2929A      6.036263  
    2930A      6.038280  2931A      6.045051  2932A      6.047090  
    2933A      6.050561  2934A      6.051974  2935A      6.054611  
    2936A      6.056727  2937A      6.062272  2938A      6.063319  
    2939A      6.066093  2940A      6.066826  2941A      6.073035  
    2942A      6.077015  2943A      6.079561  2944A      6.082960  
    2945A      6.086642  2946A      6.089767  2947A      6.093297  
    2948A      6.093591  2949A      6.097231  2950A      6.102216  
    2951A      6.102832  2952A      6.104380  2953A      6.109798  
    2954A      6.115846  2955A      6.116222  2956A      6.119977  
    2957A      6.124135  2958A      6.127374  2959A      6.130972  
    2960A      6.134530  2961A      6.138448  2962A      6.143260  
    2963A      6.146760  2964A      6.147143  2965A      6.148856  
    2966A      6.150786  2967A      6.152321  2968A      6.153689  
    2969A      6.163552  2970A      6.164491  2971A      6.173419  
    2972A      6.173664  2973A      6.177256  2974A      6.178892  
    2975A      6.184629  2976A      6.188793  2977A      6.193740  
    2978A      6.198987  2979A      6.202317  2980A      6.209217  
    2981A      6.213940  2982A      6.214472  2983A      6.219910  
    2984A      6.221324  2985A      6.224546  2986A      6.227050  
    2987A      6.227461  2988A      6.232204  2989A      6.237433  
    2990A      6.240211  2991A      6.245662  2992A      6.247665  
    2993A      6.248906  2994A      6.252612  2995A      6.254661  
    2996A      6.258824  2997A      6.262652  2998A      6.263222  
    2999A      6.266742  3000A      6.274301  3001A      6.281215  
    3002A      6.284270  3003A      6.287037  3004A      6.292861  
    3005A      6.294232  3006A      6.295073  3007A      6.299014  
    3008A      6.304469  3009A      6.307549  3010A      6.310773  
    3011A      6.323787  3012A      6.329906  3013A      6.330594  
    3014A      6.337365  3015A      6.341790  3016A      6.343109  
    3017A      6.344277  3018A      6.350730  3019A      6.351896  
    3020A      6.358549  3021A      6.363849  3022A      6.368216  
    3023A      6.374261  3024A      6.379037  3025A      6.385218  
    3026A      6.389688  3027A      6.395127  3028A      6.397284  
    3029A      6.401172  3030A      6.411075  3031A      6.418375  
    3032A      6.421306  3033A      6.421685  3034A      6.434254  
    3035A      6.437228  3036A      6.440868  3037A      6.443458  
    3038A      6.446456  3039A      6.451976  3040A      6.453707  
    3041A      6.458551  3042A      6.462753  3043A      6.463865  
    3044A      6.470023  3045A      6.481015  3046A      6.481690  
    3047A      6.487083  3048A      6.494968  3049A      6.503184  
    3050A      6.513604  3051A      6.516940  3052A      6.526587  
    3053A      6.537124  3054A      6.541996  3055A      6.553466  
    3056A      6.557652  3057A      6.568801  3058A      6.592097  
    3059A      6.598958  3060A      6.636458  3061A      6.637589  
    3062A      6.644938  3063A      6.649859  3064A      6.652510  
    3065A      6.656291  3066A      6.675564  3067A      6.676465  
    3068A      6.684462  3069A      6.693433  3070A      6.693909  
    3071A      6.695917  3072A      6.700620  3073A      6.703311  
    3074A      6.707455  3075A      6.724277  3076A      6.726794  
    3077A      6.732287  3078A      6.732743  3079A      6.736551  
    3080A      6.741814  3081A      6.744938  3082A      6.749655  
    3083A      6.760128  3084A      6.766354  3085A      6.774625  
    3086A      6.782072  3087A      6.786181  3088A      6.797994  
    3089A      6.804062  3090A      6.804664  3091A      6.808797  
    3092A      6.829058  3093A      6.835164  3094A      6.840667  
    3095A      6.843436  3096A      6.846123  3097A      6.855200  
    3098A      6.873737  3099A      6.889317  3100A      6.894898  
    3101A      6.916060  3102A      6.927222  3103A      6.935517  
    3104A      6.938963  3105A      6.940227  3106A      6.956501  
    3107A      6.958804  3108A      6.967527  3109A      6.973635  
    3110A      6.986728  3111A      6.995532  3112A      7.010929  
    3113A      7.022729  3114A      7.028235  3115A      7.042539  
    3116A      7.043195  3117A      7.065269  3118A      7.078165  
    3119A      7.085919  3120A      7.092693  3121A      7.113338  
    3122A      7.131715  3123A      7.134033  3124A      7.144343  
    3125A      7.155637  3126A      7.175414  3127A      7.186796  
    3128A      7.188917  3129A      7.199960  3130A      7.204564  
    3131A      7.216792  3132A      7.227829  3133A      7.229325  
    3134A      7.243900  3135A      7.250132  3136A      7.260325  
    3137A      7.263426  3138A      7.274125  3139A      7.279192  
    3140A      7.290182  3141A      7.307681  3142A      7.311490  
    3143A      7.323364  3144A      7.329511  3145A      7.339645  
    3146A      7.358105  3147A      7.366004  3148A      7.370598  
    3149A      7.377883  3150A      7.382053  3151A      7.382732  
    3152A      7.395574  3153A      7.398501  3154A      7.415804  
    3155A      7.419656  3156A      7.420648  3157A      7.422907  
    3158A      7.436403  3159A      7.447535  3160A      7.458032  
    3161A      7.479551  3162A      7.479891  3163A      7.492096  
    3164A      7.496059  3165A      7.507880  3166A      7.543023  
    3167A      7.552536  3168A      7.572053  3169A      7.576457  
    3170A      7.577939  3171A      7.587115  3172A      7.594485  
    3173A      7.608488  3174A      7.612983  3175A      7.619077  
    3176A      7.622714  3177A      7.641921  3178A      7.645248  
    3179A      7.658743  3180A      7.673972  3181A      7.676914  
    3182A      7.690121  3183A      7.697712  3184A      7.715949  
    3185A      7.718114  3186A      7.726481  3187A      7.731135  
    3188A      7.745323  3189A      7.747245  3190A      7.757427  
    3191A      7.767969  3192A      7.775555  3193A      7.781194  
    3194A      7.785439  3195A      7.802538  3196A      7.815663  
    3197A      7.817297  3198A      7.827648  3199A      7.849650  
    3200A      7.855923  3201A      7.865182  3202A      7.872890  
    3203A      7.883023  3204A      7.888101  3205A      7.889600  
    3206A      7.923350  3207A      7.923794  3208A      7.927416  
    3209A      7.933711  3210A      7.939143  3211A      7.949295  
    3212A      7.959299  3213A      7.962117  3214A      7.968961  
    3215A      7.981351  3216A      7.987867  3217A      8.008092  
    3218A      8.013925  3219A      8.016187  3220A      8.016676  
    3221A      8.041705  3222A      8.043137  3223A      8.072911  
    3224A      8.074225  3225A      8.086617  3226A      8.102251  
    3227A      8.106767  3228A      8.126053  3229A      8.141772  
    3230A      8.149137  3231A      8.185264  3232A      8.193750  
    3233A      8.205030  3234A      8.206905  3235A      8.227741  
    3236A      8.238086  3237A      8.258786  3238A      8.289808  
    3239A      8.304670  3240A      8.327253  3241A      8.331210  
    3242A      8.351148  3243A      8.363226  3244A      8.384064  
    3245A      8.395539  3246A      8.396209  3247A      8.423915  
    3248A      8.439186  3249A      8.448872  3250A      8.457173  
    3251A      8.472283  3252A      8.501326  3253A      8.513327  
    3254A      8.527789  3255A      8.545223  3256A      8.568176  
    3257A      8.587155  3258A      8.745148  3259A      8.763358  
    3260A      8.774672  3261A      8.801180  3262A      8.801752  
    3263A      8.805398  3264A      8.826277  3265A      8.841916  
    3266A      8.850571  3267A      8.862277  3268A      8.879264  
    3269A      8.897649  3270A      8.913822  3271A      8.935989  
    3272A      8.964302  3273A      9.071336  3274A      9.081155  
    3275A      9.098790  3276A      9.141777  3277A      9.145200  
    3278A      9.195484  3279A      9.256477  3280A      9.273961  
    3281A      9.283231  3282A      9.311733  3283A      9.322227  
    3284A      9.356355  3285A      9.401407  3286A      9.428608  
    3287A      9.438277  3288A      9.444759  3289A      9.447289  
    3290A      9.463257  3291A      9.478098  3292A      9.566088  
    3293A      9.617152  3294A      9.693061  3295A      9.810906  
    3296A      9.860943  3297A      9.886122  3298A      9.906497  
    3299A      9.935760  3300A      9.942109  3301A     10.001301  
    3302A     10.027629  3303A     10.057199  3304A     10.074309  
    3305A     10.090556  3306A     10.119915  3307A     10.148016  
    3308A     10.187432  3309A     10.187875  3310A     10.196118  
    3311A     10.203292  3312A     10.241784  3313A     10.277249  
    3314A     10.279812  3315A     10.347735  3316A     10.352933  
    3317A     10.388643  3318A     10.463596  3319A     10.469893  
    3320A     10.478254  3321A     10.488330  3322A     10.779562  
    3323A     10.828242  3324A     10.838021  3325A     10.843908  
    3326A     10.850255  3327A     10.883807  3328A     10.898686  
    3329A     10.943091  3330A     11.016624  3331A     11.129987  
    3332A     11.157637  3333A     11.220434  3334A     11.232674  
    3335A     11.238529  3336A     11.305983  3337A     11.318790  
    3338A     11.333022  3339A     11.374963  3340A     11.433255  
    3341A     11.501650  3342A     11.522051  3343A     11.700853  
    3344A     11.706376  3345A     11.738782  3346A     11.770370  
    3347A     11.785462  3348A     11.832784  3349A     11.944878  
    3350A     11.965297  3351A     11.988314  3352A     12.030324  
    3353A     12.058452  3354A     12.074173  3355A     12.089342  
    3356A     12.120062  3357A     12.140350  3358A     12.218443  
    3359A     12.240084  3360A     12.300906  3361A     12.388537  
    3362A     16.753103  3363A     17.200479  3364A     17.415476  
    3365A     17.871335  3366A     18.919579  3367A     19.100738  
    3368A     19.283039  3369A     20.871246  3370A     21.055319  
    3371A     21.165972  3372A     21.466901  3373A     22.487418  
    3374A     22.881538  3375A     22.912986  3376A     23.789431  
    3377A     23.955805  3378A     50.776589  3379A     50.883048  
    3380A     51.475851  3381A     51.626681  3382A     51.926595  
    3383A     52.419247  3384A     52.538335  3385A     54.261386  
    3386A     54.553444  3387A     54.821416  3388A     54.991607  
    3389A     55.326466  3390A     55.373914  3391A     55.515803  
    3392A     55.645550  3393A     55.862263  3394A     56.140998  
    3395A     56.175418  3396A     56.678362  3397A     57.261654  
    3398A     58.036601  3399A     58.112326  3400A     58.802212  
    3401A     59.010758  3402A     59.637482  3403A     60.017234  
    3404A     60.394143  3405A     60.534214  3406A     60.687489  
    3407A     60.756319  3408A     60.878771  3409A     60.911742  
    3410A     61.087301  3411A     61.137998  3412A     61.278357  
    3413A     61.321337  3414A     61.464401  3415A     61.612109  
    3416A     61.748648  3417A     62.493010  3418A     62.662466  
    3419A     63.093314  

    Final Occupation by Irrep:
              A 
    DOCC [    52 ]
    NA   [    52 ]
    NB   [    52 ]

  @DF-RHF Final Energy:  -674.67089039327811

   => Energetics <=

    Nuclear Repulsion Energy =            836.8830872626610926
    One-Electron Energy =               -2570.9211706511773627
    Two-Electron Energy =                1059.3671929952381561
    Total Energy =                       -674.6708903932781141

Computation Completed


Properties will be evaluated at   0.000000,   0.000000,   0.000000 [a0]

Properties computed using the SCF density matrix


 Multipole Moments:

 ------------------------------------------------------------------------------------
     Multipole            Electronic (a.u.)      Nuclear  (a.u.)        Total (a.u.)
 ------------------------------------------------------------------------------------

 L = 1.  Multiply by 2.5417464519 to convert [e a0] to [Debye]
 Dipole X            :        -47.3004192           47.2403186           -0.0601006
 Dipole Y            :         82.8133850          -83.0305255           -0.2171405
 Dipole Z            :          1.3499266           -1.3544535           -0.0045269
 Magnitude           :                                                    0.2253499

 ------------------------------------------------------------------------------------

*** tstop() called on atl1-1-02-003-29-2.pace.gatech.edu at Sat Jun 13 10:47:14 2026
Module time:
	user time   =   29865.62 seconds =     497.76 minutes
	system time =    2308.25 seconds =      38.47 minutes
	total time  =       5110 seconds =      85.17 minutes
Total time:
	user time   =   29865.62 seconds =     497.76 minutes
	system time =    2308.25 seconds =      38.47 minutes
	total time  =       5110 seconds =      85.17 minutes

    Psi4 stopped on: Saturday, 13 June 2026 10:47AM
    Psi4 wall time for execution: 1:25:18.76

*** Psi4 exiting successfully. Buy a developer a beer!
