
    -----------------------------------------------------------------------
          Psi4: An Open-Source Ab Initio Electronic Structure Package
                               Psi4 1.9.1 release

                         Git: Rev {} zzzzzzz 


    D. G. A. Smith, L. A. Burns, A. C. Simmonett, R. M. Parrish,
    M. C. Schieber, R. Galvelis, P. Kraus, H. Kruse, R. Di Remigio,
    A. Alenaizan, A. M. James, S. Lehtola, J. P. Misiewicz, M. Scheurer,
    R. A. Shaw, J. B. Schriber, Y. Xie, Z. L. Glick, D. A. Sirianni,
    J. S. O'Brien, J. M. Waldrop, A. Kumar, E. G. Hohenstein,
    B. P. Pritchard, B. R. Brooks, H. F. Schaefer III, A. Yu. Sokolov,
    K. Patkowski, A. E. DePrince III, U. Bozkaya, R. A. King,
    F. A. Evangelista, J. M. Turney, T. D. Crawford, C. D. Sherrill,
    J. Chem. Phys. 152(18) 184108 (2020). https://doi.org/10.1063/5.0006002

                            Additional Code Authors
    E. T. Seidl, C. L. Janssen, E. F. Valeev, M. L. Leininger,
    J. F. Gonthier, R. M. Richard, H. R. McAlexander, M. Saitow, X. Wang,
    P. Verma, M. H. Lechner, A. Jiang, S. Behnle, A. G. Heide,
    M. F. Herbst, and D. L. Poole

             Previous Authors, Complete List of Code Contributors,
                       and Citations for Specific Modules
    https://github.com/psi4/psi4/blob/master/codemeta.json
    https://github.com/psi4/psi4/graphs/contributors
    http://psicode.org/psi4manual/master/introduction.html#citing-psifour

    -----------------------------------------------------------------------


    Psi4 started on: Saturday, 13 June 2026 10:53AM

    Process ID: 3274292
    Host:       atl1-1-03-004-11-1.pace.gatech.edu
    PSIDATADIR: /storage/home/hcoda1/5/vlita3/.conda/envs/p4_qcml/share/psi4
    Memory:     250.0 GiB
    Threads:    10
    
  ==> Input QCSchema <==

--------------------------------------------------------------------------
{'driver': 'energy',
 'extras': {},
 'id': '206',
 'keywords': {},
 'model': {'basis': 'aug-cc-pvtz', 'method': 'hf'},
 'molecule': {'extras': {},
              'fix_com': True,
              'fix_orientation': True,
              'fragment_charges': [0.0, 0.0],
              'fragment_multiplicities': [1, 1],
              'fragments': [[0, 1, 2, 3, 4, 5, 6, 7, 8, 9, 10, 11, 12, 13, 14, 15, 16, 17, 18, 19, 20, 21, 22, 23, 24,
                             25, 26, 27, 28, 29, 30, 31, 32, 33, 34, 35, 36, 37, 38, 39, 40, 41, 42, 43, 44, 45, 46, 47,
                             48, 49, 50, 51, 52, 53, 54, 55, 56, 57, 58, 59, 60, 61, 62, 63, 64, 65, 66, 67],
                            [68, 69, 70, 71, 72, 73, 74, 75, 76, 77, 78, 79, 80, 81, 82, 83]],
              'geometry': [-5.34620642, -4.85206741, -0.42040662, -6.29696543, -3.97249137, -2.73196591, -7.16652857,
                           -1.39360971, -2.91024059, -7.07225732, 0.1478346, -0.75712917, -6.06055521, -0.70522859,
                           1.52779916, -5.14660825, -3.28275871, 1.6937689, -8.00940954, -0.47795161, -5.29622845,
                           -8.00389532, -2.01265111, -7.39175445, -7.1739962, -4.55869367, -7.20967896, -6.3482405,
                           -5.51081404, -4.93971915, -5.79174545, 0.94432733, 3.66064233, -4.5983628, 0.0799819,
                           5.76970066, -3.62293398, -2.4551662, 5.90550866, -3.92400421, -4.11631993, 3.96419018,
                           -2.16569152, -2.61945029, 8.3885177, 0.07636213, -0.84617571, 7.95116799, -0.9078112,
                           1.61784783, 7.8674416, -3.76570071, 1.39135281, 8.20497635, -3.85671125, -0.88804523,
                           10.06281411, 2.58001171, -1.3655127, 7.31184057, 4.1057488, 0.7110172, 6.7716308, 3.12911434,
                           3.1826792, 6.68292857, 0.58226752, 3.66820181, 7.1546987, 5.22477035, 4.85680231, 5.5947568,
                           5.45773257, 3.95265056, 2.86034162, 6.48712479, 1.44012834, 2.99187034, 6.82098554,
                           0.8515344, 5.79382301, 7.56885523, 3.52377684, 6.77238443, 6.80325367, 0.01007923,
                           0.87853632, 6.01230407, 0.99764822, -1.51581981, 4.9476594, 3.51769873, -1.64633715,
                           4.72513697, 4.9862546, 0.62058001, 6.12205861, -0.46131862, -3.71310038, 5.15756848,
                           0.40687221, -6.02295948, 4.08395781, 2.91056166, -6.14884699, 4.05329983, 4.41018879,
                           -3.96462935, 5.13306837, -1.12454068, -8.23614739, 4.07851898, -0.25961114, -10.44460058,
                           2.99478619, 2.19392857, -10.56107574, 3.00851807, 3.73807424, -8.47334713, 3.50361025,
                           -3.823107, 7.21233591, -0.52564981, 6.01194181, 6.93361699, 5.05829719, 6.89567715,
                           5.87089814, 8.0356414, -0.74107273, 6.26352729, 7.58901842, 3.63875572, 8.83518962,
                           9.35421802, 4.19783591, 5.97522954, -5.76611566, -1.64188193, 10.31542343, -2.98864212,
                           -0.45542891, 11.88758146, -4.77253092, 3.11242428, 8.71181923, -1.70891184, -4.50721847,
                           9.0671295, 7.55489696, -1.89976737, 0.96862939, 3.89947197, 6.86430373, 0.5027639,
                           -6.46680418, 2.87873678, 3.51311765, -3.18323648, -6.03153223, 4.04964208, 3.22722344,
                           6.29110633, -4.05969977, 6.91726822, -2.35617478, -3.61337858, 2.17488807, 5.6139636,
                           -8.5558299, 2.15939666, 2.84829877, -12.31851423, 4.06363758, -1.45295543, -12.11512622,
                           5.94772646, -3.00842661, -8.1365677, -4.65219392, -6.78410677, -0.29846731, -7.72607119,
                           2.09308409, -0.89347536, -5.69192784, -7.45269585, -4.79824367, -8.63836085, 1.47325902,
                           -5.4323305, -8.64382367, -1.28398557, -9.20131008, -7.19028923, -5.75067773, -8.88116704,
                           0.69471926, 7.16657411, 6.19908801, 3.21943853, -4.43255237, 5.4924338, -1.01804176,
                           -2.06721752, -6.41424693, -0.04006805, -3.69463605, -4.59993014, 0.29508244, -2.88730801,
                           -2.09508758, -0.32679714, -0.42272984, -1.41690966, -1.32071561, 1.15392876, -3.24915277,
                           -1.68814035, 0.37514049, -5.74325186, 0.62349756, -6.02367305, -5.33266218, 1.25684872,
                           -4.55988854, -0.10878832, -2.01790096, 3.74535177, -2.52671085, -2.46962752, 1.68011751,
                           -7.10722613, -0.06092458, 0.2181685, 0.50639917, -1.23619836, -2.74752497, -8.33105453,
                           2.06085935, -3.52195874, 1.83306118, 1.18336559, -6.86024705, -0.44470452, -2.90698951,
                           5.11929396, -4.19647021, -1.67462389, 4.39177019, -0.3135118],
              'id': 18,
              'identifiers': {'molecular_formula': 'C46FH29N2O6',
                              'molecule_hash': '8bccfcee32ad0571285e1e50b558eedd7c431b17'},
              'masses': [12.0, 12.0, 12.0, 12.0, 12.0, 12.0, 12.0, 12.0, 12.0, 12.0, 12.0, 12.0, 12.0, 12.0, 12.0, 12.0,
                         12.0, 12.0, 12.0, 12.0, 12.0, 12.0, 12.0, 12.0, 12.0, 12.0, 12.0, 12.0, 12.0, 12.0, 12.0, 12.0,
                         12.0, 12.0, 12.0, 12.0, 12.0, 12.0, 12.0, 12.0, 15.99491461957, 15.99491461957, 1.00782503223,
                         1.00782503223, 1.00782503223, 1.00782503223, 1.00782503223, 1.00782503223, 1.00782503223,
                         1.00782503223, 1.00782503223, 1.00782503223, 1.00782503223, 1.00782503223, 1.00782503223,
                         1.00782503223, 1.00782503223, 1.00782503223, 1.00782503223, 1.00782503223, 1.00782503223,
                         1.00782503223, 1.00782503223, 1.00782503223, 1.00782503223, 1.00782503223, 1.00782503223,
                         1.00782503223, 12.0, 12.0, 12.0, 12.0, 12.0, 12.0, 18.99840316273, 14.00307400443,
                         14.00307400443, 1.00782503223, 1.00782503223, 1.00782503223, 15.99491461957, 15.99491461957,
                         15.99491461957, 15.99491461957],
              'molecular_charge': 0.0,
              'molecular_multiplicity': 1,
              'name': 'C46FH29N2O6 ([0],[1])',
              'provenance': {'creator': 'QCElemental',
                             'routine': 'qcelemental.molparse.from_schema',
                             'version': '0.29.0'},
              'real': [True, True, True, True, True, True, True, True, True, True, True, True, True, True, True, True,
                       True, True, True, True, True, True, True, True, True, True, True, True, True, True, True, True,
                       True, True, True, True, True, True, True, True, True, True, True, True, True, True, True, True,
                       True, True, True, True, True, True, True, True, True, True, True, True, True, True, True, True,
                       True, True, True, True, False, False, False, False, False, False, False, False, False, False,
                       False, False, False, False, False, False],
              'schema_name': 'qcschema_molecule',
              'schema_version': 2,
              'symbols': ['C', 'C', 'C', 'C', 'C', 'C', 'C', 'C', 'C', 'C', 'C', 'C', 'C', 'C', 'C', 'C', 'C', 'C', 'C',
                          'C', 'C', 'C', 'C', 'C', 'C', 'C', 'C', 'C', 'C', 'C', 'C', 'C', 'C', 'C', 'C', 'C', 'C', 'C',
                          'C', 'C', 'O', 'O', 'H', 'H', 'H', 'H', 'H', 'H', 'H', 'H', 'H', 'H', 'H', 'H', 'H', 'H', 'H',
                          'H', 'H', 'H', 'H', 'H', 'H', 'H', 'H', 'H', 'H', 'H', 'C', 'C', 'C', 'C', 'C', 'C', 'F', 'N',
                          'N', 'H', 'H', 'H', 'O', 'O', 'O', 'O'],
              'validated': True},
 'protocols': {},
 'provenance': {'creator': 'QCElemental', 'routine': 'qcelemental.models.results', 'version': '0.29.0'},
 'schema_name': 'qcschema_input',
 'schema_version': 1}
--------------------------------------------------------------------------

Scratch directory: /tmp/tmpgf5wt9ww_psi_scratch/
   => Libint2 <=

    Primary   basis highest AM E, G, H:  6, 6, 3
    Auxiliary basis highest AM E, G, H:  7, 7, 4
    Onebody   basis highest AM E, G, H:  -, -, -
    Solid Harmonics ordering:            Gaussian

*** tstart() called on atl1-1-03-004-11-1.pace.gatech.edu
*** at Sat Jun 13 10:53:03 2026

   => Loading Basis Set <=

    Name: AUG-CC-PVTZ
    Role: ORBITAL
    Keyword: BASIS
    atoms 1-40, 69-74  entry C          line   239 file /storage/home/hcoda1/5/vlita3/.conda/envs/p4_qcml/share/psi4/basis/aug-cc-pvtz.gbs 
    atoms 41-42, 81-84 entry O          line   331 file /storage/home/hcoda1/5/vlita3/.conda/envs/p4_qcml/share/psi4/basis/aug-cc-pvtz.gbs 
    atoms 43-68, 78-80 entry H          line    40 file /storage/home/hcoda1/5/vlita3/.conda/envs/p4_qcml/share/psi4/basis/aug-cc-pvtz.gbs 
    atoms 75           entry F          line   377 file /storage/home/hcoda1/5/vlita3/.conda/envs/p4_qcml/share/psi4/basis/aug-cc-pvtz.gbs 
    atoms 76-77        entry N          line   285 file /storage/home/hcoda1/5/vlita3/.conda/envs/p4_qcml/share/psi4/basis/aug-cc-pvtz.gbs 


         ---------------------------------------------------------
                                   SCF
               by Justin Turney, Rob Parrish, Andy Simmonett
                          and Daniel G. A. Smith
                              RHF Reference
                       10 Threads, 256000 MiB Core
         ---------------------------------------------------------

  ==> Geometry <==

    Molecular point group: c1
    Full point group: C1

    Geometry (in Bohr), charge = 0, multiplicity = 1:

       Center              X                  Y                   Z               Mass       
    ------------   -----------------  -----------------  -----------------  -----------------
         C           -5.346206420000    -4.852067410000    -0.420406620000    12.000000000000
         C           -6.296965430000    -3.972491370000    -2.731965910000    12.000000000000
         C           -7.166528570000    -1.393609710000    -2.910240590000    12.000000000000
         C           -7.072257320000     0.147834600000    -0.757129170000    12.000000000000
         C           -6.060555210000    -0.705228590000     1.527799160000    12.000000000000
         C           -5.146608250000    -3.282758710000     1.693768900000    12.000000000000
         C           -8.009409540000    -0.477951610000    -5.296228450000    12.000000000000
         C           -8.003895320000    -2.012651110000    -7.391754450000    12.000000000000
         C           -7.173996200000    -4.558693670000    -7.209678960000    12.000000000000
         C           -6.348240500000    -5.510814040000    -4.939719150000    12.000000000000
         C           -5.791745450000     0.944327330000     3.660642330000    12.000000000000
         C           -4.598362800000     0.079981900000     5.769700660000    12.000000000000
         C           -3.622933980000    -2.455166200000     5.905508660000    12.000000000000
         C           -3.924004210000    -4.116319930000     3.964190180000    12.000000000000
         C           -2.165691520000    -2.619450290000     8.388517700000    12.000000000000
         C            0.076362130000    -0.846175710000     7.951167990000    12.000000000000
         C           -0.907811200000     1.617847830000     7.867441600000    12.000000000000
         C           -3.765700710000     1.391352810000     8.204976350000    12.000000000000
         C           -3.856711250000    -0.888045230000    10.062814110000    12.000000000000
         C            2.580011710000    -1.365512700000     7.311840570000    12.000000000000
         C            4.105748800000     0.711017200000     6.771630800000    12.000000000000
         C            3.129114340000     3.182679200000     6.682928570000    12.000000000000
         C            0.582267520000     3.668201810000     7.154698700000    12.000000000000
         C            5.224770350000     4.856802310000     5.594756800000    12.000000000000
         C            5.457732570000     3.952650560000     2.860341620000    12.000000000000
         C            6.487124790000     1.440128340000     2.991870340000    12.000000000000
         C            6.820985540000     0.851534400000     5.793823010000    12.000000000000
         C            7.568855230000     3.523776840000     6.772384430000    12.000000000000
         C            6.803253670000     0.010079230000     0.878536320000    12.000000000000
         C            6.012304070000     0.997648220000    -1.515819810000    12.000000000000
         C            4.947659400000     3.517698730000    -1.646337150000    12.000000000000
         C            4.725136970000     4.986254600000     0.620580010000    12.000000000000
         C            6.122058610000    -0.461318620000    -3.713100380000    12.000000000000
         C            5.157568480000     0.406872210000    -6.022959480000    12.000000000000
         C            4.083957810000     2.910561660000    -6.148846990000    12.000000000000
         C            4.053299830000     4.410188790000    -3.964629350000    12.000000000000
         C            5.133068370000    -1.124540680000    -8.236147390000    12.000000000000
         C            4.078518980000    -0.259611140000   -10.444600580000    12.000000000000
         C            2.994786190000     2.193928570000   -10.561075740000    12.000000000000
         C            3.008518070000     3.738074240000    -8.473347130000    12.000000000000
         O            3.503610250000    -3.823107000000     7.212335910000    15.994914619570
         O           -0.525649810000     6.011941810000     6.933616990000    15.994914619570
         H            5.058297190000     6.895677150000     5.870898140000     1.007825032230
         H            8.035641400000    -0.741072730000     6.263527290000     1.007825032230
         H            7.589018420000     3.638755720000     8.835189620000     1.007825032230
         H            9.354218020000     4.197835910000     5.975229540000     1.007825032230
         H           -5.766115660000    -1.641881930000    10.315423430000     1.007825032230
         H           -2.988642120000    -0.455428910000    11.887581460000     1.007825032230
         H           -4.772530920000     3.112424280000     8.711819230000     1.007825032230
         H           -1.708911840000    -4.507218470000     9.067129500000     1.007825032230
         H            7.554896960000    -1.899767370000     0.968629390000     1.007825032230
         H            3.899471970000     6.864303730000     0.502763900000     1.007825032230
         H           -6.466804180000     2.878736780000     3.513117650000     1.007825032230
         H           -3.183236480000    -6.031532230000     4.049642080000     1.007825032230
         H            3.227223440000     6.291106330000    -4.059699770000     1.007825032230
         H            6.917268220000    -2.356174780000    -3.613378580000     1.007825032230
         H            2.174888070000     5.613963600000    -8.555829900000     1.007825032230
         H            2.159396660000     2.848298770000   -12.318514230000     1.007825032230
         H            4.063637580000    -1.452955430000   -12.115126220000     1.007825032230
         H            5.947726460000    -3.008426610000    -8.136567700000     1.007825032230
         H           -4.652193920000    -6.784106770000    -0.298467310000     1.007825032230
         H           -7.726071190000     2.093084090000    -0.893475360000     1.007825032230
         H           -5.691927840000    -7.452695850000    -4.798243670000     1.007825032230
         H           -8.638360850000     1.473259020000    -5.432330500000     1.007825032230
         H           -8.643823670000    -1.283985570000    -9.201310080000     1.007825032230
         H           -7.190289230000    -5.750677730000    -8.881167040000     1.007825032230
         H            0.694719260000     7.166574110000     6.199088010000     1.007825032230
         H            3.219438530000    -4.432552370000     5.492433800000     1.007825032230
      Gh(C)          -1.018041760000    -2.067217520000    -6.414246930000    12.000000000000
      Gh(C)          -0.040068050000    -3.694636050000    -4.599930140000    12.000000000000
      Gh(C)           0.295082440000    -2.887308010000    -2.095087580000    12.000000000000
      Gh(C)          -0.326797140000    -0.422729840000    -1.416909660000    12.000000000000
      Gh(C)          -1.320715610000     1.153928760000    -3.249152770000    12.000000000000
      Gh(C)          -1.688140350000     0.375140490000    -5.743251860000    12.000000000000
      Gh(F)           0.623497560000    -6.023673050000    -5.332662180000    18.998403162730
      Gh(N)           1.256848720000    -4.559888540000    -0.108788320000    14.003074004430
      Gh(N)          -2.017900960000     3.745351770000    -2.526710850000    14.003074004430
      Gh(H)          -2.469627520000     1.680117510000    -7.107226130000     1.007825032230
      Gh(H)          -0.060924580000     0.218168500000     0.506399170000     1.007825032230
      Gh(H)          -1.236198360000    -2.747524970000    -8.331054530000     1.007825032230
      Gh(O)           2.060859350000    -3.521958740000     1.833061180000    15.994914619570
      Gh(O)           1.183365590000    -6.860247050000    -0.444704520000    15.994914619570
      Gh(O)          -2.906989510000     5.119293960000    -4.196470210000    15.994914619570
      Gh(O)          -1.674623890000     4.391770190000    -0.313511800000    15.994914619570

  Running in c1 symmetry.

  Rotational constants: A =      0.00269  B =      0.00202  C =      0.00154 [cm^-1]
  Rotational constants: A =     80.53073  B =     60.67005  C =     46.28054 [MHz]
  Nuclear repulsion = 4517.267906260053678

  Charge       = 0
  Multiplicity = 1
  Electrons    = 282
  Nalpha       = 141
  Nbeta        = 141

  ==> Algorithm <==

  SCF Algorithm Type is DF.
  DIIS enabled.
  MOM disabled.
  Fractional occupation disabled.
  Guess Type is SAD.
  Energy threshold   = 1.00e-06
  Density threshold  = 1.00e-06
  Integral threshold = 1.00e-12

  ==> Primary Basis <==

  Basis Set: AUG-CC-PVTZ
    Blend: AUG-CC-PVTZ
    Number of shells: 1031
    Number of basis functions: 3197
    Number of Cartesian functions: 3750
    Spherical Harmonics?: true
    Max angular momentum: 3

   => Loading Basis Set <=

    Name: (AUG-CC-PVTZ AUX)
    Role: JKFIT
    Keyword: DF_BASIS_SCF
    atoms 1-40, 69-74  entry C          line   162 file /storage/home/hcoda1/5/vlita3/.conda/envs/p4_qcml/share/psi4/basis/aug-cc-pvtz-jkfit.gbs 
    atoms 41-42, 81-84 entry O          line   286 file /storage/home/hcoda1/5/vlita3/.conda/envs/p4_qcml/share/psi4/basis/aug-cc-pvtz-jkfit.gbs 
    atoms 43-68, 78-80 entry H          line    70 file /storage/home/hcoda1/5/vlita3/.conda/envs/p4_qcml/share/psi4/basis/aug-cc-pvtz-jkfit.gbs 
    atoms 75           entry F          line   348 file /storage/home/hcoda1/5/vlita3/.conda/envs/p4_qcml/share/psi4/basis/aug-cc-pvtz-jkfit.gbs 
    atoms 76-77        entry N          line   224 file /storage/home/hcoda1/5/vlita3/.conda/envs/p4_qcml/share/psi4/basis/aug-cc-pvtz-jkfit.gbs 

  ==> Integral Setup <==

  ==> DiskDFJK: Density-Fitted J/K Matrices <==

    J tasked:                  Yes
    K tasked:                  Yes
    wK tasked:                  No
    OpenMP threads:             10
    Integrals threads:          10
    Memory [MiB]:           192000
    Algorithm:                Disk
    Integral Cache:           NONE
    Schwarz Cutoff:          1E-12
    Fitting Condition:       1E-10

   => Auxiliary Basis Set <=

  Basis Set: (AUG-CC-PVTZ AUX)
    Blend: AUG-CC-PVTZ-JKFIT
    Number of shells: 2056
    Number of basis functions: 7054
    Number of Cartesian functions: 8800
    Spherical Harmonics?: true
    Max angular momentum: 4

  Minimum eigenvalue in the overlap matrix is 8.4696743678E-09.
  Reciprocal condition number of the overlap matrix is 2.5542464085E-10.
    Using canonical orthogonalization.
  Overall, 16 of 3197 possible MOs eliminated.


  ==> Pre-Iterations <==

  SCF Guess: Superposition of Atomic Densities via on-the-fly atomic UHF (no occupation information).

   -------------------------
    Irrep   Nso     Nmo    
   -------------------------
     A       3197    3181 
   -------------------------
    Total    3197    3181
   -------------------------

  ==> Iterations <==

                           Total Energy        Delta E     RMS |[F,P]|

   @DF-RHF iter SAD: -1682.62484600151015   -1.68262e+03   0.00000e+00 
   @DF-RHF iter   1: -1679.11316109322229    3.51168e+00   4.00672e-04 ADIIS/DIIS
   @DF-RHF iter   2: -1679.92828699775646   -8.15126e-01   1.96553e-04 ADIIS/DIIS
   @DF-RHF iter   3: -1680.11124565366845   -1.82959e-01   5.44445e-05 DIIS
   @DF-RHF iter   4: -1680.12790188005079   -1.66562e-02   2.22839e-05 DIIS
   @DF-RHF iter   5: -1680.13074430056122   -2.84242e-03   5.31295e-06 DIIS
   @DF-RHF iter   6: -1680.13095949614490   -2.15196e-04   1.87974e-06 DIIS
   @DF-RHF iter   7: -1680.13100724297237   -4.77468e-05   6.81612e-07 DIIS
   @DF-RHF iter   8: -1680.13101736111230   -1.01181e-05   3.53054e-07 DIIS
   @DF-RHF iter   9: -1680.13101974810684   -2.38699e-06   1.31688e-07 DIIS
   @DF-RHF iter  10: -1680.13102012299464   -3.74888e-07   5.65500e-08 DIIS
  Energy and wave function converged.


  ==> Post-Iterations <==

    Orbital Energies [Eh]
    ---------------------

    Doubly Occupied:                                                      

       1A    -20.594195     2A    -20.581424     3A    -11.302458  
       4A    -11.289542     5A    -11.261537     6A    -11.253800  
       7A    -11.249501     8A    -11.248276     9A    -11.247979  
      10A    -11.247026    11A    -11.246710    12A    -11.244996  
      13A    -11.244133    14A    -11.243663    15A    -11.243181  
      16A    -11.242555    17A    -11.242400    18A    -11.242306  
      19A    -11.240861    20A    -11.240590    21A    -11.240287  
      22A    -11.239791    23A    -11.239745    24A    -11.239615  
      25A    -11.238756    26A    -11.238189    27A    -11.236971  
      28A    -11.236853    29A    -11.236746    30A    -11.236620  
      31A    -11.235421    32A    -11.235036    33A    -11.234745  
      34A    -11.234609    35A    -11.234056    36A    -11.233848  
      37A    -11.233600    38A    -11.233007    39A    -11.232718  
      40A    -11.232598    41A    -11.231920    42A    -11.231765  
      43A     -1.402164    44A     -1.385001    45A     -1.220450  
      46A     -1.208836    47A     -1.179104    48A     -1.174457  
      49A     -1.140753    50A     -1.130798    51A     -1.100609  
      52A     -1.068855    53A     -1.065860    54A     -1.061254  
      55A     -1.053109    56A     -1.036931    57A     -1.029642  
      58A     -1.011088    59A     -0.999186    60A     -0.987801  
      61A     -0.985979    62A     -0.964642    63A     -0.961605  
      64A     -0.939688    65A     -0.913873    66A     -0.881915  
      67A     -0.876617    68A     -0.845997    69A     -0.832442  
      70A     -0.822802    71A     -0.819132    72A     -0.813540  
      73A     -0.811683    74A     -0.808991    75A     -0.793242  
      76A     -0.779292    77A     -0.776216    78A     -0.736855  
      79A     -0.722735    80A     -0.716851    81A     -0.715959  
      82A     -0.707562    83A     -0.705077    84A     -0.689910  
      85A     -0.675347    86A     -0.668863    87A     -0.659793  
      88A     -0.650751    89A     -0.637604    90A     -0.632300  
      91A     -0.627863    92A     -0.626783    93A     -0.622739  
      94A     -0.614739    95A     -0.604860    96A     -0.599769  
      97A     -0.593772    98A     -0.586867    99A     -0.586048  
     100A     -0.582856   101A     -0.581422   102A     -0.580188  
     103A     -0.577640   104A     -0.574345   105A     -0.573180  
     106A     -0.558819   107A     -0.554303   108A     -0.550378  
     109A     -0.542218   110A     -0.535407   111A     -0.533394  
     112A     -0.530022   113A     -0.529085   114A     -0.526678  
     115A     -0.513086   116A     -0.506390   117A     -0.503166  
     118A     -0.498064   119A     -0.490791   120A     -0.488702  
     121A     -0.480672   122A     -0.480345   123A     -0.478095  
     124A     -0.475117   125A     -0.473003   126A     -0.469867  
     127A     -0.464677   128A     -0.461420   129A     -0.442100  
     130A     -0.405152   131A     -0.401853   132A     -0.400855  
     133A     -0.397578   134A     -0.347558   135A     -0.342617  
     136A     -0.323637   137A     -0.310228   138A     -0.299858  
     139A     -0.283701   140A     -0.257030   141A     -0.252818  

    Virtual:                                                              

     142A      0.020805   143A      0.022846   144A      0.025208  
     145A      0.029552   146A      0.032392   147A      0.032772  
     148A      0.034707   149A      0.035607   150A      0.041753  
     151A      0.043649   152A      0.044060   153A      0.045219  
     154A      0.045679   155A      0.050829   156A      0.053697  
     157A      0.055405   158A      0.056783   159A      0.057172  
     160A      0.057668   161A      0.060164   162A      0.061495  
     163A      0.062324   164A      0.068150   165A      0.068958  
     166A      0.073665   167A      0.074148   168A      0.074705  
     169A      0.079865   170A      0.081917   171A      0.083299  
     172A      0.086019   173A      0.087832   174A      0.090029  
     175A      0.090912   176A      0.092968   177A      0.093518  
     178A      0.096993   179A      0.098504   180A      0.100194  
     181A      0.100523   182A      0.100956   183A      0.103405  
     184A      0.104139   185A      0.105025   186A      0.106192  
     187A      0.108010   188A      0.109405   189A      0.111287  
     190A      0.112199   191A      0.114237   192A      0.115511  
     193A      0.117724   194A      0.118466   195A      0.119060  
     196A      0.120272   197A      0.120742   198A      0.121513  
     199A      0.122610   200A      0.124102   201A      0.125105  
     202A      0.128290   203A      0.129232   204A      0.131155  
     205A      0.131845   206A      0.132903   207A      0.135523  
     208A      0.137045   209A      0.137513   210A      0.137934  
     211A      0.138391   212A      0.139315   213A      0.139576  
     214A      0.140126   215A      0.143726   216A      0.146179  
     217A      0.147200   218A      0.150583   219A      0.151779  
     220A      0.152028   221A      0.153419   222A      0.154257  
     223A      0.155444   224A      0.156814   225A      0.157426  
     226A      0.158244   227A      0.160023   228A      0.161026  
     229A      0.162529   230A      0.163334   231A      0.166158  
     232A      0.168000   233A      0.169345   234A      0.171769  
     235A      0.172925   236A      0.174215   237A      0.175290  
     238A      0.178026   239A      0.179061   240A      0.179579  
     241A      0.181798   242A      0.183247   243A      0.185329  
     244A      0.186504   245A      0.187460   246A      0.189305  
     247A      0.190184   248A      0.191823   249A      0.193897  
     250A      0.194972   251A      0.195305   252A      0.196868  
     253A      0.198505   254A      0.200019   255A      0.202291  
     256A      0.204040   257A      0.205899   258A      0.207358  
     259A      0.208422   260A      0.210192   261A      0.211929  
     262A      0.213178   263A      0.214695   264A      0.216155  
     265A      0.216929   266A      0.217267   267A      0.217740  
     268A      0.220231   269A      0.221024   270A      0.224993  
     271A      0.225552   272A      0.227222   273A      0.228396  
     274A      0.228537   275A      0.229914   276A      0.230317  
     277A      0.232125   278A      0.232915   279A      0.234784  
     280A      0.236596   281A      0.238992   282A      0.240001  
     283A      0.240858   284A      0.242774   285A      0.243789  
     286A      0.244321   287A      0.248416   288A      0.248888  
     289A      0.250084   290A      0.250962   291A      0.251706  
     292A      0.252073   293A      0.253262   294A      0.253683  
     295A      0.254306   296A      0.256942   297A      0.257408  
     298A      0.258331   299A      0.259412   300A      0.259437  
     301A      0.261147   302A      0.262421   303A      0.263649  
     304A      0.264724   305A      0.266500   306A      0.267105  
     307A      0.268440   308A      0.269096   309A      0.269471  
     310A      0.270390   311A      0.271423   312A      0.272031  
     313A      0.272495   314A      0.273380   315A      0.274767  
     316A      0.275813   317A      0.277722   318A      0.278436  
     319A      0.280647   320A      0.282797   321A      0.282975  
     322A      0.284945   323A      0.285565   324A      0.286786  
     325A      0.287249   326A      0.289712   327A      0.290683  
     328A      0.292066   329A      0.293337   330A      0.294671  
     331A      0.295726   332A      0.296113   333A      0.298178  
     334A      0.300261   335A      0.301388   336A      0.301996  
     337A      0.302540   338A      0.303865   339A      0.306724  
     340A      0.308079   341A      0.308355   342A      0.310223  
     343A      0.311236   344A      0.312555   345A      0.313573  
     346A      0.314298   347A      0.316872   348A      0.319073  
     349A      0.319480   350A      0.320495   351A      0.321563  
     352A      0.324841   353A      0.328077   354A      0.328902  
     355A      0.329550   356A      0.330801   357A      0.331682  
     358A      0.331884   359A      0.332569   360A      0.333517  
     361A      0.335121   362A      0.335297   363A      0.337457  
     364A      0.338274   365A      0.339819   366A      0.341004  
     367A      0.342372   368A      0.344754   369A      0.345759  
     370A      0.345934   371A      0.347468   372A      0.351148  
     373A      0.352133   374A      0.354781   375A      0.355611  
     376A      0.357095   377A      0.360169   378A      0.360849  
     379A      0.361261   380A      0.362392   381A      0.366050  
     382A      0.366963   383A      0.368884   384A      0.370368  
     385A      0.373223   386A      0.375121   387A      0.375551  
     388A      0.376747   389A      0.378938   390A      0.379774  
     391A      0.381527   392A      0.383414   393A      0.385354  
     394A      0.387320   395A      0.387574   396A      0.389244  
     397A      0.391264   398A      0.392381   399A      0.393416  
     400A      0.394621   401A      0.395920   402A      0.396682  
     403A      0.397783   404A      0.399796   405A      0.400528  
     406A      0.403267   407A      0.404110   408A      0.405004  
     409A      0.406159   410A      0.408651   411A      0.410687  
     412A      0.411486   413A      0.414442   414A      0.415313  
     415A      0.416757   416A      0.420458   417A      0.421107  
     418A      0.421763   419A      0.422577   420A      0.423027  
     421A      0.425261   422A      0.426993   423A      0.429015  
     424A      0.431537   425A      0.431641   426A      0.432517  
     427A      0.434414   428A      0.435053   429A      0.435642  
     430A      0.438099   431A      0.439141   432A      0.440085  
     433A      0.440328   434A      0.442168   435A      0.442887  
     436A      0.444175   437A      0.445627   438A      0.447582  
     439A      0.448707   440A      0.450566   441A      0.453078  
     442A      0.454455   443A      0.455167   444A      0.456324  
     445A      0.457643   446A      0.459671   447A      0.460205  
     448A      0.463248   449A      0.463939   450A      0.464665  
     451A      0.466271   452A      0.467662   453A      0.469074  
     454A      0.470105   455A      0.471570   456A      0.472612  
     457A      0.475283   458A      0.476660   459A      0.478666  
     460A      0.479716   461A      0.480509   462A      0.481549  
     463A      0.482493   464A      0.483226   465A      0.484013  
     466A      0.485100   467A      0.486492   468A      0.488289  
     469A      0.488868   470A      0.490136   471A      0.491226  
     472A      0.492127   473A      0.492773   474A      0.495245  
     475A      0.497314   476A      0.497718   477A      0.499207  
     478A      0.500462   479A      0.501248   480A      0.502424  
     481A      0.503209   482A      0.504966   483A      0.505348  
     484A      0.506380   485A      0.507428   486A      0.508176  
     487A      0.509237   488A      0.511690   489A      0.512666  
     490A      0.513436   491A      0.514808   492A      0.516111  
     493A      0.516633   494A      0.517319   495A      0.518581  
     496A      0.520022   497A      0.521672   498A      0.521850  
     499A      0.522596   500A      0.523394   501A      0.524884  
     502A      0.526117   503A      0.527494   504A      0.528789  
     505A      0.529547   506A      0.532066   507A      0.533859  
     508A      0.534278   509A      0.534363   510A      0.535017  
     511A      0.536372   512A      0.537667   513A      0.538324  
     514A      0.540063   515A      0.542547   516A      0.542745  
     517A      0.543867   518A      0.544910   519A      0.546186  
     520A      0.548446   521A      0.550079   522A      0.550920  
     523A      0.552495   524A      0.553149   525A      0.554847  
     526A      0.555679   527A      0.556947   528A      0.557317  
     529A      0.558772   530A      0.559627   531A      0.561452  
     532A      0.563204   533A      0.563855   534A      0.564152  
     535A      0.564718   536A      0.565659   537A      0.567199  
     538A      0.569579   539A      0.569615   540A      0.571007  
     541A      0.571973   542A      0.572386   543A      0.574406  
     544A      0.575778   545A      0.577428   546A      0.577837  
     547A      0.579101   548A      0.581052   549A      0.582026  
     550A      0.584890   551A      0.585091   552A      0.586268  
     553A      0.588762   554A      0.590183   555A      0.590837  
     556A      0.593558   557A      0.594038   558A      0.595739  
     559A      0.595881   560A      0.596911   561A      0.598107  
     562A      0.599576   563A      0.602561   564A      0.604253  
     565A      0.605188   566A      0.605632   567A      0.606469  
     568A      0.608354   569A      0.611194   570A      0.612856  
     571A      0.613824   572A      0.614303   573A      0.615122  
     574A      0.615959   575A      0.617217   576A      0.618059  
     577A      0.620092   578A      0.620382   579A      0.622298  
     580A      0.623267   581A      0.625157   582A      0.626261  
     583A      0.629481   584A      0.629684   585A      0.630498  
     586A      0.632078   587A      0.633325   588A      0.633856  
     589A      0.634304   590A      0.635887   591A      0.636260  
     592A      0.640148   593A      0.641000   594A      0.641984  
     595A      0.642594   596A      0.643810   597A      0.646741  
     598A      0.647235   599A      0.650223   600A      0.652513  
     601A      0.652945   602A      0.654195   603A      0.654845  
     604A      0.656131   605A      0.658225   606A      0.659895  
     607A      0.660569   608A      0.661399   609A      0.663323  
     610A      0.663645   611A      0.666524   612A      0.669118  
     613A      0.669930   614A      0.671224   615A      0.672771  
     616A      0.673868   617A      0.676630   618A      0.676780  
     619A      0.678375   620A      0.679468   621A      0.680820  
     622A      0.682987   623A      0.684070   624A      0.685401  
     625A      0.687842   626A      0.690161   627A      0.692707  
     628A      0.693867   629A      0.695170   630A      0.697013  
     631A      0.698001   632A      0.700382   633A      0.701827  
     634A      0.703174   635A      0.704992   636A      0.705487  
     637A      0.708143   638A      0.710710   639A      0.713293  
     640A      0.714079   641A      0.716187   642A      0.717588  
     643A      0.718306   644A      0.719800   645A      0.720385  
     646A      0.722127   647A      0.722937   648A      0.725459  
     649A      0.727369   650A      0.729202   651A      0.730416  
     652A      0.732131   653A      0.733586   654A      0.735179  
     655A      0.736859   656A      0.739016   657A      0.739767  
     658A      0.740712   659A      0.741284   660A      0.744010  
     661A      0.746056   662A      0.747423   663A      0.748374  
     664A      0.749759   665A      0.753252   666A      0.755573  
     667A      0.756678   668A      0.757045   669A      0.759209  
     670A      0.761072   671A      0.763012   672A      0.763359  
     673A      0.765033   674A      0.769179   675A      0.770346  
     676A      0.771876   677A      0.774139   678A      0.774994  
     679A      0.775743   680A      0.776870   681A      0.780123  
     682A      0.780447   683A      0.782386   684A      0.784018  
     685A      0.786224   686A      0.786772   687A      0.789130  
     688A      0.790577   689A      0.791821   690A      0.794221  
     691A      0.796936   692A      0.797044   693A      0.798837  
     694A      0.800270   695A      0.801231   696A      0.804134  
     697A      0.804811   698A      0.805615   699A      0.808169  
     700A      0.811153   701A      0.811608   702A      0.812376  
     703A      0.813531   704A      0.814953   705A      0.816524  
     706A      0.817592   707A      0.820618   708A      0.822312  
     709A      0.823766   710A      0.826216   711A      0.827068  
     712A      0.828272   713A      0.829509   714A      0.830534  
     715A      0.833279   716A      0.834310   717A      0.834639  
     718A      0.836852   719A      0.839518   720A      0.840158  
     721A      0.841877   722A      0.842892   723A      0.844606  
     724A      0.845784   725A      0.847417   726A      0.849125  
     727A      0.849858   728A      0.855544   729A      0.856179  
     730A      0.858809   731A      0.860626   732A      0.861025  
     733A      0.862584   734A      0.864209   735A      0.865149  
     736A      0.866517   737A      0.867416   738A      0.869067  
     739A      0.871149   740A      0.872373   741A      0.873786  
     742A      0.874577   743A      0.879565   744A      0.879914  
     745A      0.881062   746A      0.882381   747A      0.884675  
     748A      0.885426   749A      0.888066   750A      0.889099  
     751A      0.890356   752A      0.892719   753A      0.894344  
     754A      0.895110   755A      0.896982   756A      0.898029  
     757A      0.900205   758A      0.901515   759A      0.902118  
     760A      0.903951   761A      0.905840   762A      0.907930  
     763A      0.908613   764A      0.911162   765A      0.911528  
     766A      0.912028   767A      0.913416   768A      0.915397  
     769A      0.918236   770A      0.918631   771A      0.919570  
     772A      0.920688   773A      0.921764   774A      0.922053  
     775A      0.926287   776A      0.927453   777A      0.928580  
     778A      0.929395   779A      0.932513   780A      0.932865  
     781A      0.935084   782A      0.937315   783A      0.939110  
     784A      0.940553   785A      0.942405   786A      0.943229  
     787A      0.945626   788A      0.946987   789A      0.948647  
     790A      0.950300   791A      0.950796   792A      0.951016  
     793A      0.953393   794A      0.954028   795A      0.956791  
     796A      0.959264   797A      0.960022   798A      0.960613  
     799A      0.962655   800A      0.963474   801A      0.964377  
     802A      0.966919   803A      0.967444   804A      0.968219  
     805A      0.969615   806A      0.971790   807A      0.972993  
     808A      0.973717   809A      0.975480   810A      0.977787  
     811A      0.978374   812A      0.980698   813A      0.981657  
     814A      0.982456   815A      0.984267   816A      0.985799  
     817A      0.988014   818A      0.989120   819A      0.990347  
     820A      0.991762   821A      0.994155   822A      0.994598  
     823A      0.996726   824A      0.996961   825A      0.998979  
     826A      0.999741   827A      1.001484   828A      1.002517  
     829A      1.003527   830A      1.005488   831A      1.006537  
     832A      1.007598   833A      1.008615   834A      1.010227  
     835A      1.011423   836A      1.013882   837A      1.015017  
     838A      1.016474   839A      1.018195   840A      1.018559  
     841A      1.019647   842A      1.022136   843A      1.023291  
     844A      1.023829   845A      1.024772   846A      1.029571  
     847A      1.029773   848A      1.030459   849A      1.033007  
     850A      1.033699   851A      1.034794   852A      1.036196  
     853A      1.037459   854A      1.038506   855A      1.040652  
     856A      1.041520   857A      1.042252   858A      1.044526  
     859A      1.045848   860A      1.046326   861A      1.049483  
     862A      1.052624   863A      1.053944   864A      1.054055  
     865A      1.055053   866A      1.056824   867A      1.058094  
     868A      1.060040   869A      1.063336   870A      1.064495  
     871A      1.065553   872A      1.067377   873A      1.068364  
     874A      1.069525   875A      1.071177   876A      1.072499  
     877A      1.073378   878A      1.074173   879A      1.075669  
     880A      1.077867   881A      1.080712   882A      1.082804  
     883A      1.083712   884A      1.086457   885A      1.087907  
     886A      1.089135   887A      1.090705   888A      1.091529  
     889A      1.094870   890A      1.095420   891A      1.095988  
     892A      1.097149   893A      1.100002   894A      1.102815  
     895A      1.103563   896A      1.106848   897A      1.108606  
     898A      1.110292   899A      1.111162   900A      1.112711  
     901A      1.114249   902A      1.115159   903A      1.117270  
     904A      1.118466   905A      1.119911   906A      1.121196  
     907A      1.123039   908A      1.125470   909A      1.128585  
     910A      1.129083   911A      1.130117   912A      1.131274  
     913A      1.132715   914A      1.134939   915A      1.135853  
     916A      1.136411   917A      1.137905   918A      1.139611  
     919A      1.141740   920A      1.142865   921A      1.144528  
     922A      1.145941   923A      1.147337   924A      1.149771  
     925A      1.151324   926A      1.151843   927A      1.152699  
     928A      1.153962   929A      1.154091   930A      1.159091  
     931A      1.159982   932A      1.161843   933A      1.162377  
     934A      1.163756   935A      1.164362   936A      1.166664  
     937A      1.169117   938A      1.169844   939A      1.171315  
     940A      1.172451   941A      1.173526   942A      1.174922  
     943A      1.175974   944A      1.177277   945A      1.178974  
     946A      1.181244   947A      1.183487   948A      1.183828  
     949A      1.186083   950A      1.187912   951A      1.189192  
     952A      1.191628   953A      1.193285   954A      1.194956  
     955A      1.196221   956A      1.197528   957A      1.199225  
     958A      1.201487   959A      1.202822   960A      1.205466  
     961A      1.206218   962A      1.207621   963A      1.208026  
     964A      1.210658   965A      1.211739   966A      1.212959  
     967A      1.215196   968A      1.215752   969A      1.217208  
     970A      1.219242   971A      1.219419   972A      1.221901  
     973A      1.223051   974A      1.223923   975A      1.225091  
     976A      1.228634   977A      1.228973   978A      1.230707  
     979A      1.231590   980A      1.234381   981A      1.235821  
     982A      1.237522   983A      1.238253   984A      1.241170  
     985A      1.242096   986A      1.243373   987A      1.245997  
     988A      1.247456   989A      1.248869   990A      1.249338  
     991A      1.251685   992A      1.253379   993A      1.255674  
     994A      1.256964   995A      1.258112   996A      1.260280  
     997A      1.261433   998A      1.262226   999A      1.263481  
    1000A      1.264506  1001A      1.265460  1002A      1.267106  
    1003A      1.271475  1004A      1.272938  1005A      1.273923  
    1006A      1.276735  1007A      1.277400  1008A      1.279235  
    1009A      1.280790  1010A      1.282023  1011A      1.282383  
    1012A      1.285691  1013A      1.287678  1014A      1.290994  
    1015A      1.292173  1016A      1.293360  1017A      1.294213  
    1018A      1.296681  1019A      1.297628  1020A      1.298681  
    1021A      1.300353  1022A      1.301201  1023A      1.303287  
    1024A      1.305339  1025A      1.305711  1026A      1.308214  
    1027A      1.310119  1028A      1.312135  1029A      1.313172  
    1030A      1.315014  1031A      1.316789  1032A      1.319789  
    1033A      1.321130  1034A      1.322403  1035A      1.323010  
    1036A      1.324538  1037A      1.325918  1038A      1.327254  
    1039A      1.328938  1040A      1.330475  1041A      1.331905  
    1042A      1.334028  1043A      1.337371  1044A      1.338384  
    1045A      1.338992  1046A      1.341402  1047A      1.342410  
    1048A      1.344282  1049A      1.345569  1050A      1.347292  
    1051A      1.349099  1052A      1.351214  1053A      1.353396  
    1054A      1.354351  1055A      1.354628  1056A      1.355664  
    1057A      1.356572  1058A      1.359457  1059A      1.359954  
    1060A      1.360865  1061A      1.363010  1062A      1.364540  
    1063A      1.368288  1064A      1.369316  1065A      1.373566  
    1066A      1.374349  1067A      1.374724  1068A      1.377433  
    1069A      1.378097  1070A      1.378648  1071A      1.381246  
    1072A      1.383363  1073A      1.385434  1074A      1.385787  
    1075A      1.386536  1076A      1.387882  1077A      1.391668  
    1078A      1.394050  1079A      1.395336  1080A      1.397707  
    1081A      1.399677  1082A      1.401886  1083A      1.403193  
    1084A      1.404450  1085A      1.405376  1086A      1.407809  
    1087A      1.410283  1088A      1.411561  1089A      1.412276  
    1090A      1.413716  1091A      1.416515  1092A      1.418576  
    1093A      1.419165  1094A      1.422882  1095A      1.423446  
    1096A      1.426350  1097A      1.426600  1098A      1.428624  
    1099A      1.429811  1100A      1.432507  1101A      1.432702  
    1102A      1.434266  1103A      1.437843  1104A      1.438643  
    1105A      1.440930  1106A      1.441579  1107A      1.445120  
    1108A      1.446713  1109A      1.448193  1110A      1.449510  
    1111A      1.451356  1112A      1.454406  1113A      1.455407  
    1114A      1.457381  1115A      1.458300  1116A      1.459464  
    1117A      1.460772  1118A      1.463382  1119A      1.465514  
    1120A      1.467190  1121A      1.468604  1122A      1.469909  
    1123A      1.471431  1124A      1.473236  1125A      1.475151  
    1126A      1.475733  1127A      1.478817  1128A      1.479352  
    1129A      1.481057  1130A      1.482605  1131A      1.483178  
    1132A      1.484045  1133A      1.487282  1134A      1.489201  
    1135A      1.490303  1136A      1.491882  1137A      1.493718  
    1138A      1.494937  1139A      1.496170  1140A      1.498251  
    1141A      1.498654  1142A      1.500613  1143A      1.501938  
    1144A      1.504370  1145A      1.505994  1146A      1.506473  
    1147A      1.509556  1148A      1.513615  1149A      1.514575  
    1150A      1.517142  1151A      1.518668  1152A      1.520650  
    1153A      1.521075  1154A      1.522555  1155A      1.524395  
    1156A      1.525184  1157A      1.525826  1158A      1.527068  
    1159A      1.529163  1160A      1.530906  1161A      1.531397  
    1162A      1.532440  1163A      1.534502  1164A      1.536938  
    1165A      1.539047  1166A      1.540532  1167A      1.544393  
    1168A      1.545345  1169A      1.546484  1170A      1.548958  
    1171A      1.551864  1172A      1.553430  1173A      1.553718  
    1174A      1.555108  1175A      1.556687  1176A      1.557879  
    1177A      1.559849  1178A      1.561200  1179A      1.563015  
    1180A      1.566650  1181A      1.568357  1182A      1.568878  
    1183A      1.570224  1184A      1.571804  1185A      1.572787  
    1186A      1.577216  1187A      1.577569  1188A      1.578643  
    1189A      1.580543  1190A      1.581980  1191A      1.584792  
    1192A      1.585282  1193A      1.587848  1194A      1.588555  
    1195A      1.592812  1196A      1.594481  1197A      1.594845  
    1198A      1.597080  1199A      1.600241  1200A      1.600871  
    1201A      1.602177  1202A      1.604961  1203A      1.606391  
    1204A      1.608749  1205A      1.609233  1206A      1.610545  
    1207A      1.612585  1208A      1.615580  1209A      1.617952  
    1210A      1.619469  1211A      1.620389  1212A      1.622182  
    1213A      1.623844  1214A      1.625464  1215A      1.627929  
    1216A      1.628642  1217A      1.630759  1218A      1.633856  
    1219A      1.635983  1220A      1.636361  1221A      1.638568  
    1222A      1.641355  1223A      1.644290  1224A      1.644892  
    1225A      1.648420  1226A      1.649467  1227A      1.650039  
    1228A      1.652281  1229A      1.654477  1230A      1.656074  
    1231A      1.658172  1232A      1.659562  1233A      1.661175  
    1234A      1.663882  1235A      1.665025  1236A      1.666299  
    1237A      1.667598  1238A      1.668936  1239A      1.670185  
    1240A      1.671009  1241A      1.674817  1242A      1.675155  
    1243A      1.678265  1244A      1.679021  1245A      1.680895  
    1246A      1.682637  1247A      1.685092  1248A      1.687579  
    1249A      1.687691  1250A      1.690098  1251A      1.690769  
    1252A      1.693407  1253A      1.694653  1254A      1.695157  
    1255A      1.697590  1256A      1.698019  1257A      1.700632  
    1258A      1.701878  1259A      1.702993  1260A      1.704410  
    1261A      1.705428  1262A      1.708739  1263A      1.710056  
    1264A      1.712765  1265A      1.713811  1266A      1.715179  
    1267A      1.715656  1268A      1.718428  1269A      1.719675  
    1270A      1.722615  1271A      1.723381  1272A      1.724412  
    1273A      1.725853  1274A      1.726847  1275A      1.728995  
    1276A      1.731095  1277A      1.731406  1278A      1.733795  
    1279A      1.736093  1280A      1.738270  1281A      1.739200  
    1282A      1.740553  1283A      1.743250  1284A      1.745015  
    1285A      1.746195  1286A      1.747752  1287A      1.749869  
    1288A      1.751327  1289A      1.754694  1290A      1.757512  
    1291A      1.758647  1292A      1.760107  1293A      1.760878  
    1294A      1.764629  1295A      1.767157  1296A      1.768049  
    1297A      1.768368  1298A      1.770539  1299A      1.771542  
    1300A      1.773101  1301A      1.775463  1302A      1.776570  
    1303A      1.778167  1304A      1.780153  1305A      1.781440  
    1306A      1.782626  1307A      1.784023  1308A      1.788226  
    1309A      1.789518  1310A      1.792065  1311A      1.793639  
    1312A      1.796041  1313A      1.797819  1314A      1.800505  
    1315A      1.802775  1316A      1.803798  1317A      1.804192  
    1318A      1.806007  1319A      1.808570  1320A      1.809903  
    1321A      1.812009  1322A      1.813846  1323A      1.814330  
    1324A      1.816139  1325A      1.820124  1326A      1.821922  
    1327A      1.823879  1328A      1.825698  1329A      1.828206  
    1330A      1.829546  1331A      1.830087  1332A      1.832790  
    1333A      1.835224  1334A      1.839440  1335A      1.840446  
    1336A      1.841221  1337A      1.843770  1338A      1.845765  
    1339A      1.847535  1340A      1.848370  1341A      1.850225  
    1342A      1.852068  1343A      1.854287  1344A      1.856113  
    1345A      1.857736  1346A      1.859906  1347A      1.860808  
    1348A      1.862083  1349A      1.862832  1350A      1.864858  
    1351A      1.866462  1352A      1.868376  1353A      1.870724  
    1354A      1.872386  1355A      1.873231  1356A      1.875866  
    1357A      1.876845  1358A      1.879997  1359A      1.881343  
    1360A      1.882610  1361A      1.884899  1362A      1.885624  
    1363A      1.888981  1364A      1.892120  1365A      1.892687  
    1366A      1.894323  1367A      1.895962  1368A      1.900852  
    1369A      1.901595  1370A      1.902700  1371A      1.905192  
    1372A      1.905690  1373A      1.908280  1374A      1.908491  
    1375A      1.910952  1376A      1.913803  1377A      1.917168  
    1378A      1.917637  1379A      1.919565  1380A      1.920880  
    1381A      1.924058  1382A      1.925178  1383A      1.926240  
    1384A      1.927962  1385A      1.929949  1386A      1.930774  
    1387A      1.934764  1388A      1.936790  1389A      1.939021  
    1390A      1.939872  1391A      1.941504  1392A      1.945729  
    1393A      1.947592  1394A      1.949711  1395A      1.951157  
    1396A      1.951989  1397A      1.955435  1398A      1.956855  
    1399A      1.959043  1400A      1.961362  1401A      1.963030  
    1402A      1.964874  1403A      1.966948  1404A      1.967343  
    1405A      1.971769  1406A      1.972732  1407A      1.976624  
    1408A      1.977394  1409A      1.978647  1410A      1.982839  
    1411A      1.985653  1412A      1.986332  1413A      1.987776  
    1414A      1.989152  1415A      1.990028  1416A      1.991423  
    1417A      1.992453  1418A      1.994822  1419A      1.995155  
    1420A      1.997935  1421A      2.000175  1422A      2.003508  
    1423A      2.005286  1424A      2.006603  1425A      2.007917  
    1426A      2.010475  1427A      2.012136  1428A      2.013302  
    1429A      2.014368  1430A      2.017975  1431A      2.019237  
    1432A      2.022068  1433A      2.023711  1434A      2.026554  
    1435A      2.027744  1436A      2.028896  1437A      2.034388  
    1438A      2.035205  1439A      2.038638  1440A      2.040864  
    1441A      2.042348  1442A      2.043268  1443A      2.044253  
    1444A      2.046548  1445A      2.047851  1446A      2.049706  
    1447A      2.051999  1448A      2.054698  1449A      2.056552  
    1450A      2.057818  1451A      2.059366  1452A      2.062925  
    1453A      2.063403  1454A      2.069885  1455A      2.070925  
    1456A      2.073392  1457A      2.075749  1458A      2.077937  
    1459A      2.079142  1460A      2.081000  1461A      2.083630  
    1462A      2.084502  1463A      2.085683  1464A      2.089014  
    1465A      2.089361  1466A      2.091363  1467A      2.094120  
    1468A      2.096168  1469A      2.097541  1470A      2.100225  
    1471A      2.101186  1472A      2.103366  1473A      2.104853  
    1474A      2.107865  1475A      2.108739  1476A      2.112524  
    1477A      2.115347  1478A      2.115983  1479A      2.117328  
    1480A      2.118580  1481A      2.120900  1482A      2.122767  
    1483A      2.127326  1484A      2.127909  1485A      2.128314  
    1486A      2.131298  1487A      2.131825  1488A      2.134098  
    1489A      2.136641  1490A      2.139459  1491A      2.140893  
    1492A      2.142208  1493A      2.145312  1494A      2.147261  
    1495A      2.148078  1496A      2.149736  1497A      2.150410  
    1498A      2.152157  1499A      2.153788  1500A      2.157793  
    1501A      2.159803  1502A      2.161713  1503A      2.162967  
    1504A      2.163915  1505A      2.167124  1506A      2.168874  
    1507A      2.174002  1508A      2.174850  1509A      2.176274  
    1510A      2.177578  1511A      2.179550  1512A      2.182999  
    1513A      2.184914  1514A      2.186218  1515A      2.190305  
    1516A      2.192279  1517A      2.193887  1518A      2.194454  
    1519A      2.198743  1520A      2.201105  1521A      2.202290  
    1522A      2.203663  1523A      2.205625  1524A      2.209482  
    1525A      2.210111  1526A      2.210864  1527A      2.215129  
    1528A      2.216606  1529A      2.218969  1530A      2.221549  
    1531A      2.222843  1532A      2.224276  1533A      2.228250  
    1534A      2.228914  1535A      2.232891  1536A      2.233305  
    1537A      2.236172  1538A      2.236892  1539A      2.239731  
    1540A      2.242807  1541A      2.243740  1542A      2.247045  
    1543A      2.247546  1544A      2.251929  1545A      2.253457  
    1546A      2.257233  1547A      2.258671  1548A      2.259148  
    1549A      2.261223  1550A      2.262695  1551A      2.264214  
    1552A      2.266319  1553A      2.269425  1554A      2.271553  
    1555A      2.274294  1556A      2.275202  1557A      2.279547  
    1558A      2.281054  1559A      2.283887  1560A      2.285361  
    1561A      2.285961  1562A      2.289379  1563A      2.290481  
    1564A      2.294345  1565A      2.296185  1566A      2.298522  
    1567A      2.299510  1568A      2.300759  1569A      2.305023  
    1570A      2.306635  1571A      2.309031  1572A      2.312017  
    1573A      2.313771  1574A      2.316672  1575A      2.319680  
    1576A      2.320909  1577A      2.322600  1578A      2.325547  
    1579A      2.327316  1580A      2.327683  1581A      2.329457  
    1582A      2.329925  1583A      2.334010  1584A      2.335713  
    1585A      2.340687  1586A      2.343710  1587A      2.344714  
    1588A      2.345293  1589A      2.346233  1590A      2.350682  
    1591A      2.352386  1592A      2.354332  1593A      2.355812  
    1594A      2.356608  1595A      2.359930  1596A      2.363629  
    1597A      2.364280  1598A      2.365958  1599A      2.368095  
    1600A      2.369775  1601A      2.371666  1602A      2.376548  
    1603A      2.376769  1604A      2.380523  1605A      2.381043  
    1606A      2.385025  1607A      2.387853  1608A      2.388892  
    1609A      2.391813  1610A      2.392377  1611A      2.395540  
    1612A      2.397701  1613A      2.398704  1614A      2.399008  
    1615A      2.401372  1616A      2.403984  1617A      2.406966  
    1618A      2.409374  1619A      2.410761  1620A      2.413543  
    1621A      2.416221  1622A      2.420046  1623A      2.421546  
    1624A      2.423289  1625A      2.426927  1626A      2.428480  
    1627A      2.430325  1628A      2.431673  1629A      2.434721  
    1630A      2.437635  1631A      2.440396  1632A      2.441023  
    1633A      2.442234  1634A      2.446338  1635A      2.447938  
    1636A      2.449790  1637A      2.451793  1638A      2.452026  
    1639A      2.456023  1640A      2.458036  1641A      2.458489  
    1642A      2.462861  1643A      2.464128  1644A      2.466958  
    1645A      2.468677  1646A      2.471055  1647A      2.472932  
    1648A      2.474996  1649A      2.476099  1650A      2.479696  
    1651A      2.480751  1652A      2.482138  1653A      2.483599  
    1654A      2.488472  1655A      2.491174  1656A      2.494851  
    1657A      2.496142  1658A      2.497686  1659A      2.498151  
    1660A      2.502963  1661A      2.505585  1662A      2.505951  
    1663A      2.507403  1664A      2.512055  1665A      2.514701  
    1666A      2.516308  1667A      2.519271  1668A      2.520002  
    1669A      2.524599  1670A      2.526918  1671A      2.527807  
    1672A      2.529470  1673A      2.530960  1674A      2.532701  
    1675A      2.539003  1676A      2.542060  1677A      2.542714  
    1678A      2.545516  1679A      2.546507  1680A      2.548341  
    1681A      2.550044  1682A      2.552287  1683A      2.559528  
    1684A      2.559720  1685A      2.562316  1686A      2.564037  
    1687A      2.566634  1688A      2.569363  1689A      2.571361  
    1690A      2.572486  1691A      2.573776  1692A      2.574997  
    1693A      2.579790  1694A      2.582602  1695A      2.583667  
    1696A      2.584668  1697A      2.590144  1698A      2.591180  
    1699A      2.594551  1700A      2.598109  1701A      2.602423  
    1702A      2.604295  1703A      2.605788  1704A      2.607490  
    1705A      2.609934  1706A      2.611731  1707A      2.614579  
    1708A      2.616660  1709A      2.617887  1710A      2.620477  
    1711A      2.626413  1712A      2.628153  1713A      2.632142  
    1714A      2.633915  1715A      2.635045  1716A      2.639101  
    1717A      2.641390  1718A      2.644897  1719A      2.649052  
    1720A      2.650494  1721A      2.653474  1722A      2.654406  
    1723A      2.658430  1724A      2.659693  1725A      2.662401  
    1726A      2.664112  1727A      2.666201  1728A      2.671183  
    1729A      2.676294  1730A      2.677823  1731A      2.678795  
    1732A      2.680638  1733A      2.685010  1734A      2.686761  
    1735A      2.689043  1736A      2.690223  1737A      2.693682  
    1738A      2.697088  1739A      2.699379  1740A      2.702567  
    1741A      2.703553  1742A      2.707984  1743A      2.710074  
    1744A      2.712140  1745A      2.713208  1746A      2.716917  
    1747A      2.721072  1748A      2.725253  1749A      2.726096  
    1750A      2.726552  1751A      2.729407  1752A      2.730953  
    1753A      2.733160  1754A      2.739181  1755A      2.741152  
    1756A      2.743227  1757A      2.744157  1758A      2.750533  
    1759A      2.752973  1760A      2.754976  1761A      2.757809  
    1762A      2.762495  1763A      2.764576  1764A      2.767757  
    1765A      2.769560  1766A      2.772622  1767A      2.774903  
    1768A      2.776876  1769A      2.781654  1770A      2.783317  
    1771A      2.785747  1772A      2.791359  1773A      2.793115  
    1774A      2.794917  1775A      2.797692  1776A      2.799280  
    1777A      2.802108  1778A      2.804033  1779A      2.804978  
    1780A      2.810945  1781A      2.813556  1782A      2.815570  
    1783A      2.816637  1784A      2.818263  1785A      2.820041  
    1786A      2.823460  1787A      2.825319  1788A      2.830939  
    1789A      2.835310  1790A      2.836221  1791A      2.838638  
    1792A      2.841483  1793A      2.844711  1794A      2.845980  
    1795A      2.849566  1796A      2.851744  1797A      2.855426  
    1798A      2.857305  1799A      2.861690  1800A      2.863289  
    1801A      2.864214  1802A      2.871789  1803A      2.873260  
    1804A      2.877220  1805A      2.881889  1806A      2.884415  
    1807A      2.886799  1808A      2.889584  1809A      2.890916  
    1810A      2.892251  1811A      2.897014  1812A      2.901029  
    1813A      2.904169  1814A      2.905926  1815A      2.909077  
    1816A      2.910556  1817A      2.912464  1818A      2.915878  
    1819A      2.918197  1820A      2.920086  1821A      2.922834  
    1822A      2.927983  1823A      2.930057  1824A      2.931921  
    1825A      2.935144  1826A      2.937786  1827A      2.937955  
    1828A      2.939795  1829A      2.944124  1830A      2.947154  
    1831A      2.950784  1832A      2.954487  1833A      2.956061  
    1834A      2.959780  1835A      2.961663  1836A      2.964912  
    1837A      2.966843  1838A      2.971557  1839A      2.974662  
    1840A      2.978197  1841A      2.981228  1842A      2.984442  
    1843A      2.990807  1844A      2.993648  1845A      2.997957  
    1846A      3.000931  1847A      3.004104  1848A      3.004652  
    1849A      3.008064  1850A      3.011751  1851A      3.015975  
    1852A      3.022446  1853A      3.023509  1854A      3.026337  
    1855A      3.029333  1856A      3.036127  1857A      3.039388  
    1858A      3.045144  1859A      3.047061  1860A      3.048557  
    1861A      3.051972  1862A      3.057303  1863A      3.061800  
    1864A      3.065211  1865A      3.068989  1866A      3.073641  
    1867A      3.077796  1868A      3.080244  1869A      3.084278  
    1870A      3.086802  1871A      3.089096  1872A      3.092740  
    1873A      3.095247  1874A      3.098769  1875A      3.104771  
    1876A      3.105575  1877A      3.116105  1878A      3.116863  
    1879A      3.118883  1880A      3.127012  1881A      3.127422  
    1882A      3.131085  1883A      3.134919  1884A      3.139012  
    1885A      3.141743  1886A      3.143799  1887A      3.144252  
    1888A      3.152218  1889A      3.154713  1890A      3.162908  
    1891A      3.166117  1892A      3.173475  1893A      3.174741  
    1894A      3.178601  1895A      3.186758  1896A      3.187993  
    1897A      3.194275  1898A      3.199549  1899A      3.201045  
    1900A      3.207376  1901A      3.215007  1902A      3.221616  
    1903A      3.222388  1904A      3.225805  1905A      3.229851  
    1906A      3.233748  1907A      3.235654  1908A      3.239697  
    1909A      3.242172  1910A      3.244325  1911A      3.250222  
    1912A      3.254155  1913A      3.256405  1914A      3.262521  
    1915A      3.267816  1916A      3.271344  1917A      3.273077  
    1918A      3.278562  1919A      3.282194  1920A      3.283888  
    1921A      3.288406  1922A      3.293689  1923A      3.299512  
    1924A      3.302984  1925A      3.312184  1926A      3.314790  
    1927A      3.318981  1928A      3.326740  1929A      3.329711  
    1930A      3.333894  1931A      3.338941  1932A      3.346713  
    1933A      3.350657  1934A      3.360598  1935A      3.363264  
    1936A      3.366247  1937A      3.369860  1938A      3.378950  
    1939A      3.379440  1940A      3.385498  1941A      3.394742  
    1942A      3.399099  1943A      3.403581  1944A      3.403957  
    1945A      3.406890  1946A      3.409298  1947A      3.414423  
    1948A      3.418415  1949A      3.422599  1950A      3.425347  
    1951A      3.426377  1952A      3.427748  1953A      3.429420  
    1954A      3.438291  1955A      3.438873  1956A      3.445620  
    1957A      3.449448  1958A      3.453081  1959A      3.457891  
    1960A      3.462122  1961A      3.464340  1962A      3.467618  
    1963A      3.469830  1964A      3.473336  1965A      3.479997  
    1966A      3.480789  1967A      3.484875  1968A      3.490350  
    1969A      3.495134  1970A      3.497881  1971A      3.499999  
    1972A      3.503612  1973A      3.506043  1974A      3.509259  
    1975A      3.511605  1976A      3.514516  1977A      3.518275  
    1978A      3.521916  1979A      3.522761  1980A      3.524236  
    1981A      3.531699  1982A      3.533152  1983A      3.535019  
    1984A      3.539884  1985A      3.540641  1986A      3.543327  
    1987A      3.549855  1988A      3.550714  1989A      3.552940  
    1990A      3.557432  1991A      3.558464  1992A      3.559876  
    1993A      3.565480  1994A      3.565973  1995A      3.568477  
    1996A      3.571360  1997A      3.573891  1998A      3.576203  
    1999A      3.579549  2000A      3.580459  2001A      3.585721  
    2002A      3.589040  2003A      3.591341  2004A      3.593305  
    2005A      3.594534  2006A      3.597798  2007A      3.598840  
    2008A      3.602145  2009A      3.607387  2010A      3.609995  
    2011A      3.611511  2012A      3.614725  2013A      3.618950  
    2014A      3.623595  2015A      3.624292  2016A      3.627582  
    2017A      3.631099  2018A      3.634602  2019A      3.636569  
    2020A      3.637705  2021A      3.645021  2022A      3.645771  
    2023A      3.646228  2024A      3.648418  2025A      3.652750  
    2026A      3.655157  2027A      3.656236  2028A      3.658201  
    2029A      3.665778  2030A      3.666321  2031A      3.668879  
    2032A      3.673402  2033A      3.675176  2034A      3.676227  
    2035A      3.679217  2036A      3.683167  2037A      3.684364  
    2038A      3.685517  2039A      3.688394  2040A      3.689209  
    2041A      3.693235  2042A      3.698144  2043A      3.700263  
    2044A      3.703705  2045A      3.704596  2046A      3.706137  
    2047A      3.706450  2048A      3.710315  2049A      3.712320  
    2050A      3.714655  2051A      3.715472  2052A      3.716445  
    2053A      3.718124  2054A      3.721479  2055A      3.723627  
    2056A      3.726222  2057A      3.729684  2058A      3.733574  
    2059A      3.735290  2060A      3.737829  2061A      3.739399  
    2062A      3.745225  2063A      3.747495  2064A      3.749519  
    2065A      3.750174  2066A      3.754616  2067A      3.756149  
    2068A      3.757990  2069A      3.759904  2070A      3.762250  
    2071A      3.764711  2072A      3.767219  2073A      3.772626  
    2074A      3.775888  2075A      3.776550  2076A      3.778320  
    2077A      3.780867  2078A      3.783570  2079A      3.784300  
    2080A      3.787340  2081A      3.788263  2082A      3.789959  
    2083A      3.791040  2084A      3.796390  2085A      3.798744  
    2086A      3.802094  2087A      3.805558  2088A      3.807991  
    2089A      3.810017  2090A      3.814891  2091A      3.816705  
    2092A      3.818241  2093A      3.819590  2094A      3.821769  
    2095A      3.824468  2096A      3.826917  2097A      3.828126  
    2098A      3.829314  2099A      3.830471  2100A      3.833953  
    2101A      3.835449  2102A      3.840161  2103A      3.842226  
    2104A      3.846301  2105A      3.847208  2106A      3.849008  
    2107A      3.855000  2108A      3.857101  2109A      3.859125  
    2110A      3.860296  2111A      3.864127  2112A      3.866356  
    2113A      3.866984  2114A      3.871302  2115A      3.874625  
    2116A      3.875449  2117A      3.876574  2118A      3.880261  
    2119A      3.884553  2120A      3.887579  2121A      3.888214  
    2122A      3.891323  2123A      3.893385  2124A      3.895538  
    2125A      3.896889  2126A      3.899841  2127A      3.901335  
    2128A      3.902475  2129A      3.906357  2130A      3.907073  
    2131A      3.908546  2132A      3.911323  2133A      3.915217  
    2134A      3.917470  2135A      3.917874  2136A      3.920861  
    2137A      3.923007  2138A      3.923897  2139A      3.926141  
    2140A      3.929437  2141A      3.933189  2142A      3.934192  
    2143A      3.935161  2144A      3.937841  2145A      3.940306  
    2146A      3.941640  2147A      3.945365  2148A      3.947603  
    2149A      3.948952  2150A      3.950770  2151A      3.951561  
    2152A      3.953087  2153A      3.958697  2154A      3.961447  
    2155A      3.963199  2156A      3.964380  2157A      3.967943  
    2158A      3.969710  2159A      3.972437  2160A      3.974176  
    2161A      3.975760  2162A      3.977709  2163A      3.979922  
    2164A      3.982278  2165A      3.984687  2166A      3.986209  
    2167A      3.988788  2168A      3.992780  2169A      3.996128  
    2170A      3.997613  2171A      3.999521  2172A      4.000745  
    2173A      4.004364  2174A      4.006485  2175A      4.006765  
    2176A      4.009450  2177A      4.012083  2178A      4.013302  
    2179A      4.017387  2180A      4.019079  2181A      4.021436  
    2182A      4.026545  2183A      4.028000  2184A      4.032459  
    2185A      4.035068  2186A      4.038305  2187A      4.038823  
    2188A      4.040831  2189A      4.044007  2190A      4.046040  
    2191A      4.047678  2192A      4.049779  2193A      4.052145  
    2194A      4.053854  2195A      4.057523  2196A      4.058351  
    2197A      4.060211  2198A      4.061599  2199A      4.065506  
    2200A      4.066969  2201A      4.069369  2202A      4.071677  
    2203A      4.072701  2204A      4.074948  2205A      4.079039  
    2206A      4.080345  2207A      4.082402  2208A      4.085368  
    2209A      4.087183  2210A      4.089014  2211A      4.090976  
    2212A      4.095855  2213A      4.099559  2214A      4.100815  
    2215A      4.101753  2216A      4.103703  2217A      4.105824  
    2218A      4.107783  2219A      4.111320  2220A      4.114510  
    2221A      4.116942  2222A      4.117524  2223A      4.118451  
    2224A      4.120386  2225A      4.122492  2226A      4.124394  
    2227A      4.126266  2228A      4.129091  2229A      4.132479  
    2230A      4.133024  2231A      4.134586  2232A      4.138021  
    2233A      4.142977  2234A      4.145953  2235A      4.147594  
    2236A      4.148327  2237A      4.151659  2238A      4.154765  
    2239A      4.156537  2240A      4.157178  2241A      4.158574  
    2242A      4.161607  2243A      4.163866  2244A      4.165403  
    2245A      4.167830  2246A      4.169565  2247A      4.171663  
    2248A      4.176920  2249A      4.178553  2250A      4.179546  
    2251A      4.181595  2252A      4.183334  2253A      4.184488  
    2254A      4.189551  2255A      4.190512  2256A      4.193291  
    2257A      4.194675  2258A      4.199619  2259A      4.199906  
    2260A      4.202620  2261A      4.206187  2262A      4.207829  
    2263A      4.210740  2264A      4.212092  2265A      4.216629  
    2266A      4.218577  2267A      4.222726  2268A      4.225241  
    2269A      4.227572  2270A      4.228825  2271A      4.229878  
    2272A      4.233522  2273A      4.235256  2274A      4.236933  
    2275A      4.239177  2276A      4.242079  2277A      4.244213  
    2278A      4.247058  2279A      4.251051  2280A      4.252273  
    2281A      4.254584  2282A      4.255354  2283A      4.257080  
    2284A      4.258783  2285A      4.263590  2286A      4.267882  
    2287A      4.268936  2288A      4.270422  2289A      4.271462  
    2290A      4.273635  2291A      4.278622  2292A      4.280379  
    2293A      4.281464  2294A      4.282702  2295A      4.284364  
    2296A      4.288383  2297A      4.289432  2298A      4.292326  
    2299A      4.297864  2300A      4.298847  2301A      4.301267  
    2302A      4.304340  2303A      4.304866  2304A      4.307884  
    2305A      4.311290  2306A      4.315531  2307A      4.316096  
    2308A      4.317946  2309A      4.319134  2310A      4.323450  
    2311A      4.324363  2312A      4.329386  2313A      4.330975  
    2314A      4.334177  2315A      4.335147  2316A      4.337569  
    2317A      4.339102  2318A      4.342800  2319A      4.344673  
    2320A      4.346252  2321A      4.348126  2322A      4.351788  
    2323A      4.354419  2324A      4.355581  2325A      4.360619  
    2326A      4.362412  2327A      4.364839  2328A      4.366644  
    2329A      4.368542  2330A      4.375063  2331A      4.375445  
    2332A      4.377665  2333A      4.382208  2334A      4.384813  
    2335A      4.385798  2336A      4.389020  2337A      4.390359  
    2338A      4.391603  2339A      4.395207  2340A      4.395974  
    2341A      4.397914  2342A      4.403179  2343A      4.404591  
    2344A      4.405563  2345A      4.408046  2346A      4.409924  
    2347A      4.411851  2348A      4.414415  2349A      4.414933  
    2350A      4.416975  2351A      4.418783  2352A      4.420020  
    2353A      4.422927  2354A      4.424179  2355A      4.427563  
    2356A      4.430435  2357A      4.432306  2358A      4.434186  
    2359A      4.435588  2360A      4.438259  2361A      4.439127  
    2362A      4.441174  2363A      4.442568  2364A      4.446616  
    2365A      4.446944  2366A      4.450519  2367A      4.452993  
    2368A      4.455568  2369A      4.458468  2370A      4.461654  
    2371A      4.464107  2372A      4.464637  2373A      4.467029  
    2374A      4.470219  2375A      4.471382  2376A      4.473251  
    2377A      4.479549  2378A      4.481059  2379A      4.481669  
    2380A      4.484643  2381A      4.485529  2382A      4.486588  
    2383A      4.489702  2384A      4.490628  2385A      4.494472  
    2386A      4.498083  2387A      4.501790  2388A      4.504022  
    2389A      4.506134  2390A      4.507738  2391A      4.509063  
    2392A      4.513746  2393A      4.517439  2394A      4.518273  
    2395A      4.520206  2396A      4.522272  2397A      4.522495  
    2398A      4.528006  2399A      4.529460  2400A      4.531128  
    2401A      4.534685  2402A      4.536849  2403A      4.540607  
    2404A      4.543426  2405A      4.544291  2406A      4.545538  
    2407A      4.548568  2408A      4.550317  2409A      4.554241  
    2410A      4.555207  2411A      4.557592  2412A      4.562486  
    2413A      4.563593  2414A      4.566769  2415A      4.568853  
    2416A      4.572388  2417A      4.574380  2418A      4.576006  
    2419A      4.579655  2420A      4.580242  2421A      4.582269  
    2422A      4.585027  2423A      4.586823  2424A      4.591245  
    2425A      4.594932  2426A      4.596059  2427A      4.597646  
    2428A      4.598560  2429A      4.601257  2430A      4.601884  
    2431A      4.604761  2432A      4.606299  2433A      4.611236  
    2434A      4.614661  2435A      4.615878  2436A      4.621039  
    2437A      4.622079  2438A      4.625908  2439A      4.627714  
    2440A      4.630636  2441A      4.632674  2442A      4.635921  
    2443A      4.638720  2444A      4.645190  2445A      4.649637  
    2446A      4.652441  2447A      4.654154  2448A      4.657454  
    2449A      4.660852  2450A      4.662220  2451A      4.663350  
    2452A      4.666060  2453A      4.669826  2454A      4.671305  
    2455A      4.673087  2456A      4.675973  2457A      4.678033  
    2458A      4.680813  2459A      4.682344  2460A      4.684315  
    2461A      4.686469  2462A      4.690634  2463A      4.692936  
    2464A      4.694327  2465A      4.696304  2466A      4.699242  
    2467A      4.700889  2468A      4.705510  2469A      4.709072  
    2470A      4.709503  2471A      4.710445  2472A      4.713831  
    2473A      4.714721  2474A      4.716733  2475A      4.717236  
    2476A      4.720597  2477A      4.725305  2478A      4.727017  
    2479A      4.729362  2480A      4.733036  2481A      4.734840  
    2482A      4.739617  2483A      4.741389  2484A      4.745465  
    2485A      4.746162  2486A      4.747373  2487A      4.748733  
    2488A      4.752092  2489A      4.752381  2490A      4.758270  
    2491A      4.762248  2492A      4.763389  2493A      4.764780  
    2494A      4.768537  2495A      4.769804  2496A      4.774626  
    2497A      4.776932  2498A      4.777812  2499A      4.778458  
    2500A      4.782458  2501A      4.784059  2502A      4.786142  
    2503A      4.789973  2504A      4.791351  2505A      4.797422  
    2506A      4.799670  2507A      4.800673  2508A      4.802946  
    2509A      4.807441  2510A      4.811141  2511A      4.813853  
    2512A      4.817994  2513A      4.818938  2514A      4.821179  
    2515A      4.824451  2516A      4.826825  2517A      4.830297  
    2518A      4.833045  2519A      4.833458  2520A      4.837306  
    2521A      4.841568  2522A      4.843195  2523A      4.844491  
    2524A      4.848934  2525A      4.852585  2526A      4.856679  
    2527A      4.858266  2528A      4.861235  2529A      4.865494  
    2530A      4.868080  2531A      4.870152  2532A      4.873257  
    2533A      4.876071  2534A      4.879591  2535A      4.881304  
    2536A      4.885437  2537A      4.886719  2538A      4.890862  
    2539A      4.893891  2540A      4.894350  2541A      4.900672  
    2542A      4.901653  2543A      4.905596  2544A      4.905845  
    2545A      4.907257  2546A      4.912770  2547A      4.917568  
    2548A      4.920432  2549A      4.926928  2550A      4.928190  
    2551A      4.934562  2552A      4.935899  2553A      4.936638  
    2554A      4.939845  2555A      4.942314  2556A      4.945319  
    2557A      4.950215  2558A      4.952076  2559A      4.956628  
    2560A      4.960133  2561A      4.961362  2562A      4.963282  
    2563A      4.965768  2564A      4.966341  2565A      4.966859  
    2566A      4.976600  2567A      4.977746  2568A      4.980510  
    2569A      4.982057  2570A      4.985684  2571A      4.986238  
    2572A      4.991107  2573A      4.994974  2574A      4.998464  
    2575A      4.999625  2576A      5.003569  2577A      5.005567  
    2578A      5.008452  2579A      5.011741  2580A      5.015899  
    2581A      5.018864  2582A      5.022002  2583A      5.025355  
    2584A      5.028463  2585A      5.033168  2586A      5.035122  
    2587A      5.037447  2588A      5.039519  2589A      5.043330  
    2590A      5.044046  2591A      5.047612  2592A      5.052085  
    2593A      5.053422  2594A      5.057924  2595A      5.058890  
    2596A      5.063246  2597A      5.069365  2598A      5.071656  
    2599A      5.073151  2600A      5.075073  2601A      5.079886  
    2602A      5.083715  2603A      5.086983  2604A      5.089191  
    2605A      5.091432  2606A      5.094873  2607A      5.098213  
    2608A      5.099839  2609A      5.101142  2610A      5.105401  
    2611A      5.110500  2612A      5.113097  2613A      5.114225  
    2614A      5.116130  2615A      5.119713  2616A      5.120589  
    2617A      5.123785  2618A      5.124994  2619A      5.128852  
    2620A      5.129281  2621A      5.134747  2622A      5.135077  
    2623A      5.141109  2624A      5.143204  2625A      5.145170  
    2626A      5.149047  2627A      5.151243  2628A      5.159889  
    2629A      5.164094  2630A      5.167810  2631A      5.174627  
    2632A      5.178807  2633A      5.181502  2634A      5.184170  
    2635A      5.186088  2636A      5.190906  2637A      5.194678  
    2638A      5.199219  2639A      5.200988  2640A      5.206761  
    2641A      5.207821  2642A      5.210019  2643A      5.213540  
    2644A      5.216649  2645A      5.221563  2646A      5.221786  
    2647A      5.224066  2648A      5.227777  2649A      5.231229  
    2650A      5.231692  2651A      5.236791  2652A      5.238909  
    2653A      5.243366  2654A      5.246190  2655A      5.246704  
    2656A      5.250577  2657A      5.254698  2658A      5.259255  
    2659A      5.261945  2660A      5.263547  2661A      5.269001  
    2662A      5.272154  2663A      5.275865  2664A      5.276277  
    2665A      5.279130  2666A      5.281309  2667A      5.283974  
    2668A      5.287264  2669A      5.292515  2670A      5.294376  
    2671A      5.298008  2672A      5.299647  2673A      5.302313  
    2674A      5.307516  2675A      5.310219  2676A      5.313705  
    2677A      5.314210  2678A      5.316718  2679A      5.321120  
    2680A      5.325929  2681A      5.327424  2682A      5.329646  
    2683A      5.334393  2684A      5.339947  2685A      5.344168  
    2686A      5.347779  2687A      5.355214  2688A      5.359416  
    2689A      5.361637  2690A      5.365492  2691A      5.367100  
    2692A      5.369778  2693A      5.373715  2694A      5.374999  
    2695A      5.376098  2696A      5.380605  2697A      5.383982  
    2698A      5.388198  2699A      5.389197  2700A      5.389995  
    2701A      5.395948  2702A      5.400213  2703A      5.404643  
    2704A      5.410518  2705A      5.412157  2706A      5.415446  
    2707A      5.417245  2708A      5.423341  2709A      5.425073  
    2710A      5.428270  2711A      5.432297  2712A      5.434330  
    2713A      5.435534  2714A      5.440875  2715A      5.444394  
    2716A      5.447792  2717A      5.451731  2718A      5.452873  
    2719A      5.455633  2720A      5.459858  2721A      5.461583  
    2722A      5.465846  2723A      5.468808  2724A      5.471030  
    2725A      5.476950  2726A      5.479679  2727A      5.487079  
    2728A      5.487820  2729A      5.490075  2730A      5.496195  
    2731A      5.499191  2732A      5.502951  2733A      5.505684  
    2734A      5.510105  2735A      5.513589  2736A      5.521423  
    2737A      5.528515  2738A      5.533360  2739A      5.534482  
    2740A      5.537261  2741A      5.538242  2742A      5.540728  
    2743A      5.548355  2744A      5.551217  2745A      5.557253  
    2746A      5.561221  2747A      5.570473  2748A      5.571370  
    2749A      5.576480  2750A      5.582920  2751A      5.587850  
    2752A      5.589547  2753A      5.593121  2754A      5.594667  
    2755A      5.595761  2756A      5.604109  2757A      5.604355  
    2758A      5.609177  2759A      5.611234  2760A      5.622328  
    2761A      5.623482  2762A      5.629237  2763A      5.629935  
    2764A      5.633952  2765A      5.638053  2766A      5.643705  
    2767A      5.654758  2768A      5.667842  2769A      5.670189  
    2770A      5.674608  2771A      5.679223  2772A      5.682359  
    2773A      5.684123  2774A      5.690291  2775A      5.693234  
    2776A      5.694380  2777A      5.702673  2778A      5.708637  
    2779A      5.710765  2780A      5.714345  2781A      5.720381  
    2782A      5.723598  2783A      5.728220  2784A      5.730768  
    2785A      5.733438  2786A      5.738912  2787A      5.740264  
    2788A      5.742691  2789A      5.748055  2790A      5.749625  
    2791A      5.752454  2792A      5.757792  2793A      5.763724  
    2794A      5.769770  2795A      5.773284  2796A      5.776429  
    2797A      5.780285  2798A      5.782086  2799A      5.787137  
    2800A      5.790332  2801A      5.794815  2802A      5.797776  
    2803A      5.803769  2804A      5.809315  2805A      5.810391  
    2806A      5.819776  2807A      5.825407  2808A      5.832630  
    2809A      5.836808  2810A      5.841331  2811A      5.845381  
    2812A      5.849856  2813A      5.855339  2814A      5.864128  
    2815A      5.870931  2816A      5.876983  2817A      5.882428  
    2818A      5.887346  2819A      5.897923  2820A      5.900639  
    2821A      5.909432  2822A      5.919036  2823A      5.926087  
    2824A      5.930673  2825A      5.937803  2826A      5.955202  
    2827A      5.955615  2828A      5.959950  2829A      5.969325  
    2830A      5.976023  2831A      5.980312  2832A      5.986389  
    2833A      5.998369  2834A      6.001100  2835A      6.005912  
    2836A      6.012218  2837A      6.017575  2838A      6.026170  
    2839A      6.027162  2840A      6.030786  2841A      6.031690  
    2842A      6.035664  2843A      6.048319  2844A      6.051920  
    2845A      6.061995  2846A      6.069632  2847A      6.077795  
    2848A      6.084175  2849A      6.091949  2850A      6.100123  
    2851A      6.111448  2852A      6.122421  2853A      6.128746  
    2854A      6.130899  2855A      6.136556  2856A      6.148857  
    2857A      6.161682  2858A      6.183040  2859A      6.188116  
    2860A      6.191184  2861A      6.195775  2862A      6.208842  
    2863A      6.210361  2864A      6.216574  2865A      6.232670  
    2866A      6.269559  2867A      6.280827  2868A      6.288726  
    2869A      6.289458  2870A      6.296233  2871A      6.300577  
    2872A      6.305304  2873A      6.311643  2874A      6.314861  
    2875A      6.318281  2876A      6.326460  2877A      6.336405  
    2878A      6.341016  2879A      6.351275  2880A      6.363248  
    2881A      6.376843  2882A      6.391457  2883A      6.395774  
    2884A      6.408035  2885A      6.413489  2886A      6.421884  
    2887A      6.437274  2888A      6.460370  2889A      6.470044  
    2890A      6.483586  2891A      6.489046  2892A      6.495397  
    2893A      6.503131  2894A      6.519706  2895A      6.525063  
    2896A      6.531633  2897A      6.551549  2898A      6.559981  
    2899A      6.562900  2900A      6.565194  2901A      6.577374  
    2902A      6.584729  2903A      6.588459  2904A      6.590466  
    2905A      6.614212  2906A      6.634995  2907A      6.642879  
    2908A      6.644682  2909A      6.651224  2910A      6.653137  
    2911A      6.654647  2912A      6.659314  2913A      6.663984  
    2914A      6.671575  2915A      6.674089  2916A      6.679030  
    2917A      6.691265  2918A      6.702660  2919A      6.705039  
    2920A      6.713487  2921A      6.727288  2922A      6.731354  
    2923A      6.734899  2924A      6.740235  2925A      6.749790  
    2926A      6.768610  2927A      6.781381  2928A      6.808156  
    2929A      6.814312  2930A      6.820858  2931A      6.829284  
    2932A      6.836280  2933A      6.844212  2934A      6.847939  
    2935A      6.873066  2936A      6.876460  2937A      6.900506  
    2938A      6.925250  2939A      6.943027  2940A      6.951027  
    2941A      6.957507  2942A      6.964063  2943A      6.967563  
    2944A      6.976721  2945A      6.983514  2946A      6.988687  
    2947A      6.999015  2948A      7.009079  2949A      7.014811  
    2950A      7.042634  2951A      7.048955  2952A      7.054540  
    2953A      7.061106  2954A      7.084642  2955A      7.094242  
    2956A      7.096334  2957A      7.105872  2958A      7.113193  
    2959A      7.117884  2960A      7.129303  2961A      7.132991  
    2962A      7.147155  2963A      7.153642  2964A      7.164262  
    2965A      7.180678  2966A      7.197198  2967A      7.205467  
    2968A      7.217230  2969A      7.224691  2970A      7.234903  
    2971A      7.238380  2972A      7.257404  2973A      7.260857  
    2974A      7.323039  2975A      7.339458  2976A      7.343796  
    2977A      7.361432  2978A      7.362404  2979A      7.369403  
    2980A      7.389229  2981A      7.391894  2982A      7.418297  
    2983A      7.431698  2984A      7.456962  2985A      7.460929  
    2986A      7.477164  2987A      7.482575  2988A      7.494045  
    2989A      7.502949  2990A      7.509823  2991A      7.549706  
    2992A      7.563443  2993A      7.573438  2994A      7.585883  
    2995A      7.599652  2996A      7.627671  2997A      7.633964  
    2998A      7.650380  2999A      7.680023  3000A      7.709235  
    3001A      7.713984  3002A      7.728164  3003A      7.740207  
    3004A      7.753950  3005A      7.780355  3006A      7.793982  
    3007A      7.802382  3008A      7.817695  3009A      7.826050  
    3010A      7.833931  3011A      7.841598  3012A      7.855417  
    3013A      7.867067  3014A      7.879988  3015A      7.900936  
    3016A      7.943123  3017A      7.954887  3018A      7.963067  
    3019A      7.981557  3020A      7.987708  3021A      8.011869  
    3022A      8.024317  3023A      8.035689  3024A      8.047633  
    3025A      8.066285  3026A      8.096110  3027A      8.101414  
    3028A      8.125543  3029A      8.152720  3030A      8.160354  
    3031A      8.169015  3032A      8.226932  3033A      8.269485  
    3034A      8.288372  3035A      8.365397  3036A      8.404719  
    3037A      8.442079  3038A      8.464815  3039A      8.489140  
    3040A      8.538687  3041A      8.559443  3042A      8.585063  
    3043A      8.700123  3044A      8.711630  3045A      8.754582  
    3046A      8.768404  3047A      8.781346  3048A      8.831337  
    3049A      8.999802  3050A      9.039009  3051A      9.136720  
    3052A      9.159039  3053A      9.294169  3054A      9.397629  
    3055A      9.519359  3056A      9.580161  3057A      9.697639  
    3058A      9.980472  3059A     10.027310  3060A     10.032325  
    3061A     10.039637  3062A     10.059778  3063A     10.101227  
    3064A     10.130841  3065A     10.136334  3066A     10.162755  
    3067A     10.189579  3068A     10.221428  3069A     10.226016  
    3070A     10.258865  3071A     10.325806  3072A     10.376198  
    3073A     10.387526  3074A     10.402507  3075A     10.405827  
    3076A     10.426879  3077A     10.507238  3078A     10.545494  
    3079A     10.571698  3080A     10.607121  3081A     10.638230  
    3082A     10.695061  3083A     10.761329  3084A     10.771152  
    3085A     10.780079  3086A     10.798847  3087A     10.828904  
    3088A     10.982332  3089A     11.007125  3090A     11.099936  
    3091A     11.158302  3092A     11.327341  3093A     11.356664  
    3094A     11.439287  3095A     11.457696  3096A     11.481966  
    3097A     11.956864  3098A     12.141861  3099A     12.232925  
    3100A     12.280625  3101A     12.353743  3102A     12.354115  
    3103A     12.395252  3104A     12.406416  3105A     12.435198  
    3106A     12.486849  3107A     12.591035  3108A     12.645540  
    3109A     12.728275  3110A     13.268142  3111A     13.355407  
    3112A     13.438165  3113A     13.463240  3114A     13.501783  
    3115A     13.527013  3116A     13.734271  3117A     14.693118  
    3118A     14.727003  3119A     14.790791  3120A     15.168805  
    3121A     15.187606  3122A     15.203531  3123A     15.355501  
    3124A     15.411610  3125A     15.496090  3126A     16.156812  
    3127A     16.204542  3128A     16.820323  3129A     16.860779  
    3130A     17.036270  3131A     17.085035  3132A     17.145865  
    3133A     17.189654  3134A     17.635254  3135A     18.131175  
    3136A     18.403232  3137A     18.411760  3138A     18.477123  
    3139A     18.702072  3140A     18.797249  3141A     18.917934  
    3142A     19.088396  3143A     19.152177  3144A     19.711432  
    3145A     19.902750  3146A     19.925558  3147A     20.223498  
    3148A     20.505316  3149A     20.509949  3150A     21.246912  
    3151A     21.515558  3152A     21.556240  3153A     21.696961  
    3154A     21.840430  3155A     22.164704  3156A     22.181049  
    3157A     22.202224  3158A     22.317835  3159A     22.383153  
    3160A     22.498819  3161A     22.627596  3162A     22.699380  
    3163A     22.793005  3164A     22.868622  3165A     23.120848  
    3166A     23.210636  3167A     23.526896  3168A     23.538901  
    3169A     52.026392  3170A     52.756026  3171A     58.021998  
    3172A     60.151880  3173A     61.238173  3174A     62.235656  
    3175A     65.070212  3176A     65.224528  3177A     69.158334  
    3178A     69.707219  3179A     76.159943  3180A     76.286083  
    3181A     81.653561  

    Final Occupation by Irrep:
              A 
    DOCC [   141 ]
    NA   [   141 ]
    NB   [   141 ]

  @DF-RHF Final Energy: -1680.13102012299464

   => Energetics <=

    Nuclear Repulsion Energy =           4517.2679062600536781
    One-Electron Energy =              -11275.3197076732503774
    Two-Electron Energy =                5077.9207812902022852
    Total Energy =                      -1680.1310201229944141

Computation Completed


Properties will be evaluated at   0.000000,   0.000000,   0.000000 [a0]

Properties computed using the SCF density matrix


 Multipole Moments:

 ------------------------------------------------------------------------------------
     Multipole            Electronic (a.u.)      Nuclear  (a.u.)        Total (a.u.)
 ------------------------------------------------------------------------------------

 L = 1.  Multiply by 2.5417464519 to convert [e a0] to [Debye]
 Dipole X            :        -49.2276178           49.6634951            0.4358773
 Dipole Y            :        -74.2255363           74.6084292            0.3828929
 Dipole Z            :       -278.9301062          278.7915749           -0.1385313
 Magnitude           :                                                    0.5964788

 ------------------------------------------------------------------------------------

*** tstop() called on atl1-1-03-004-11-1.pace.gatech.edu at Sat Jun 13 12:10:30 2026
Module time:
	user time   =   28586.90 seconds =     476.45 minutes
	system time =    2015.08 seconds =      33.58 minutes
	total time  =       4647 seconds =      77.45 minutes
Total time:
	user time   =   28586.90 seconds =     476.45 minutes
	system time =    2015.08 seconds =      33.58 minutes
	total time  =       4647 seconds =      77.45 minutes

    Psi4 stopped on: Saturday, 13 June 2026 12:10PM
    Psi4 wall time for execution: 1:17:36.13

*** Psi4 exiting successfully. Buy a developer a beer!
