
    -----------------------------------------------------------------------
          Psi4: An Open-Source Ab Initio Electronic Structure Package
                               Psi4 1.9.1 release

                         Git: Rev {} zzzzzzz 


    D. G. A. Smith, L. A. Burns, A. C. Simmonett, R. M. Parrish,
    M. C. Schieber, R. Galvelis, P. Kraus, H. Kruse, R. Di Remigio,
    A. Alenaizan, A. M. James, S. Lehtola, J. P. Misiewicz, M. Scheurer,
    R. A. Shaw, J. B. Schriber, Y. Xie, Z. L. Glick, D. A. Sirianni,
    J. S. O'Brien, J. M. Waldrop, A. Kumar, E. G. Hohenstein,
    B. P. Pritchard, B. R. Brooks, H. F. Schaefer III, A. Yu. Sokolov,
    K. Patkowski, A. E. DePrince III, U. Bozkaya, R. A. King,
    F. A. Evangelista, J. M. Turney, T. D. Crawford, C. D. Sherrill,
    J. Chem. Phys. 152(18) 184108 (2020). https://doi.org/10.1063/5.0006002

                            Additional Code Authors
    E. T. Seidl, C. L. Janssen, E. F. Valeev, M. L. Leininger,
    J. F. Gonthier, R. M. Richard, H. R. McAlexander, M. Saitow, X. Wang,
    P. Verma, M. H. Lechner, A. Jiang, S. Behnle, A. G. Heide,
    M. F. Herbst, and D. L. Poole

             Previous Authors, Complete List of Code Contributors,
                       and Citations for Specific Modules
    https://github.com/psi4/psi4/blob/master/codemeta.json
    https://github.com/psi4/psi4/graphs/contributors
    http://psicode.org/psi4manual/master/introduction.html#citing-psifour

    -----------------------------------------------------------------------


    Psi4 started on: Saturday, 13 June 2026 10:47AM

    Process ID: 364029
    Host:       atl1-1-02-003-29-2.pace.gatech.edu
    PSIDATADIR: /storage/home/hcoda1/5/vlita3/.conda/envs/p4_qcml/share/psi4
    Memory:     250.0 GiB
    Threads:    10
    
  ==> Input QCSchema <==

--------------------------------------------------------------------------
{'driver': 'energy',
 'extras': {},
 'id': '203',
 'keywords': {},
 'model': {'basis': 'aug-cc-pvtz', 'method': 'hf'},
 'molecule': {'extras': {},
              'fix_com': True,
              'fix_orientation': True,
              'fragment_charges': [0.0, 0.0],
              'fragment_multiplicities': [1, 1],
              'fragments': [[0, 1, 2, 3, 4, 5, 6, 7, 8, 9, 10, 11, 12, 13, 14, 15, 16, 17, 18, 19, 20, 21, 22, 23, 24,
                             25, 26, 27, 28, 29, 30, 31, 32, 33, 34, 35, 36, 37, 38, 39, 40, 41, 42, 43],
                            [44, 45, 46, 47, 48, 49, 50, 51, 52, 53, 54, 55, 56, 57, 58, 59, 60, 61, 62, 63, 64, 65, 66,
                             67, 68, 69, 70, 71, 72, 73, 74, 75, 76, 77, 78, 79, 80, 81, 82, 83, 84, 85, 86, 87]],
              'geometry': [25.47963781, 23.08351049, 43.1296896, 24.89690954, 20.52012331, 43.887087, 25.07057198,
                           18.48699404, 42.07353641, 25.8424877, 19.04880944, 39.52013663, 26.46903607, 21.61452675,
                           38.85199593, 26.30318821, 23.59330066, 40.54460103, 24.46577176, 15.9279092, 42.77036087,
                           23.76811717, 15.37695629, 45.40838081, 23.59859476, 17.38880058, 47.22265844, 24.1081018,
                           20.02007671, 46.44346413, 22.96694077, 16.77267612, 49.77192758, 22.51062738, 14.29130626,
                           50.58597185, 22.67427055, 12.32177999, 48.76231557, 23.27971306, 12.86309326, 46.25226043,
                           25.97467497, 17.0727052, 37.71068154, 25.34789586, 14.59123463, 38.39437083, 24.59969708,
                           14.0277518, 40.88784347, 25.20039992, 25.0588727, 44.92111126, 24.35321071, 24.59525103,
                           47.39946073, 23.84084877, 22.08099208, 48.12795237, 21.86046838, 13.69556932, 53.32235171,
                           24.04555383, 26.76370654, 49.27889773, 26.50915633, 27.41178979, 50.73375129, 26.93108599,
                           26.27094839, 39.72356046, 27.10311578, 21.98163565, 36.89906984, 22.32265299, 10.34583799,
                           49.33666834, 23.39372081, 11.28300305, 44.90489504, 26.57612038, 17.51973959, 35.76596134,
                           25.43664936, 13.06203906, 36.97800898, 24.12002947, 12.05854919, 41.3527408, 25.62817825,
                           27.01761767, 44.36171793, 23.18724332, 21.75219607, 50.07608394, 23.27013145, 12.38510294,
                           54.17857328, 21.79629273, 15.42803966, 54.50687769, 19.98705402, 12.74487252, 53.47527914,
                           22.53167906, 26.28198386, 50.6619148, 23.38069793, 28.48102898, 48.25612267, 27.19569266,
                           25.7565067, 51.83310019, 28.04156267, 27.96965392, 49.40821263, 28.39145441, 27.1428651,
                           40.95513515, 25.23456206, 27.51897461, 39.79892028, 27.66207922, 26.29954115, 37.75755015,
                           26.2022166, 29.00071195, 52.0780899, 22.83611537, 18.29134925, 51.1881473, 30.81342193,
                           18.71017989, 45.99359029, 31.5788239, 19.74555973, 43.58027113, 32.18922921, 22.39746574,
                           43.36009841, 32.04731473, 23.98056161, 45.57578145, 31.25562095, 22.88485355, 47.94186375,
                           30.64065655, 20.36296812, 48.19759324, 32.96098858, 23.46875558, 40.98068543, 32.9776879,
                           21.8498177, 38.71563215, 32.39688051, 19.20754673, 38.92783428, 31.75108262, 18.1119644,
                           41.41040042, 32.38510148, 17.70859001, 36.6883681, 32.89884869, 18.70388423, 34.28627015,
                           33.46045747, 21.32787429, 34.10603582, 33.50020544, 22.84413785, 36.26471359, 32.71084168,
                           26.57519902, 45.39430813, 33.51746054, 27.59229626, 43.0833912, 33.64071365, 26.05933156,
                           40.9078722, 30.26834315, 16.09166271, 46.16720061, 30.49746548, 14.47431826, 44.06910385,
                           31.23964841, 15.50757785, 41.72580743, 32.85245858, 17.05660123, 31.93007182, 30.0352396,
                           11.64386798, 44.33912194, 32.45644731, 10.16276856, 45.08627623, 29.83741229, 19.30937345,
                           50.74453249, 31.15944353, 24.13692378, 49.60598037, 33.86115259, 22.17547238, 32.24063318,
                           33.92403613, 24.86828461, 36.03931452, 32.60693264, 27.77144276, 47.1004289, 34.05705016,
                           29.60331272, 42.95688301, 34.27807476, 26.92308174, 39.12655219, 29.64722791, 15.28713696,
                           47.98302787, 31.38145507, 14.21615321, 40.10268471, 34.735737, 17.01308892, 30.98680081,
                           32.31443775, 15.0754773, 32.37170495, 31.48589123, 17.79122297, 30.50534659, 29.28049933,
                           10.88478084, 42.52649407, 28.54357618, 11.31799443, 45.78690148, 33.97269455, 10.41059171,
                           43.64975571, 33.2192207, 10.84125701, 46.92494523, 31.18221652, 17.84465276, 51.44063809,
                           27.94896357, 18.39273342, 50.64394079, 29.74125873, 20.82714016, 52.19033882, 32.06613232,
                           8.10297733, 45.26704002, 31.91846208, 15.68652669, 36.81860417],
              'id': 16,
              'identifiers': {'molecular_formula': 'C48H40',
                              'molecule_hash': 'c7032f6b2da4c5ceb2b85b46228cc9bc6b33b25c'},
              'masses': [12.0, 12.0, 12.0, 12.0, 12.0, 12.0, 12.0, 12.0, 12.0, 12.0, 12.0, 12.0, 12.0, 12.0, 12.0, 12.0,
                         12.0, 12.0, 12.0, 12.0, 12.0, 12.0, 12.0, 12.0, 1.00782503223, 1.00782503223, 1.00782503223,
                         1.00782503223, 1.00782503223, 1.00782503223, 1.00782503223, 1.00782503223, 1.00782503223,
                         1.00782503223, 1.00782503223, 1.00782503223, 1.00782503223, 1.00782503223, 1.00782503223,
                         1.00782503223, 1.00782503223, 1.00782503223, 1.00782503223, 1.00782503223, 12.0, 12.0, 12.0,
                         12.0, 12.0, 12.0, 12.0, 12.0, 12.0, 12.0, 12.0, 12.0, 12.0, 12.0, 12.0, 12.0, 12.0, 12.0, 12.0,
                         12.0, 12.0, 12.0, 12.0, 12.0, 1.00782503223, 1.00782503223, 1.00782503223, 1.00782503223,
                         1.00782503223, 1.00782503223, 1.00782503223, 1.00782503223, 1.00782503223, 1.00782503223,
                         1.00782503223, 1.00782503223, 1.00782503223, 1.00782503223, 1.00782503223, 1.00782503223,
                         1.00782503223, 1.00782503223, 1.00782503223, 1.00782503223],
              'molecular_charge': 0.0,
              'molecular_multiplicity': 1,
              'name': 'C48H40 ([0],[1])',
              'provenance': {'creator': 'QCElemental',
                             'routine': 'qcelemental.molparse.from_schema',
                             'version': '0.29.0'},
              'real': [True, True, True, True, True, True, True, True, True, True, True, True, True, True, True, True,
                       True, True, True, True, True, True, True, True, True, True, True, True, True, True, True, True,
                       True, True, True, True, True, True, True, True, True, True, True, True, False, False, False,
                       False, False, False, False, False, False, False, False, False, False, False, False, False, False,
                       False, False, False, False, False, False, False, False, False, False, False, False, False, False,
                       False, False, False, False, False, False, False, False, False, False, False, False, False],
              'schema_name': 'qcschema_molecule',
              'schema_version': 2,
              'symbols': ['C', 'C', 'C', 'C', 'C', 'C', 'C', 'C', 'C', 'C', 'C', 'C', 'C', 'C', 'C', 'C', 'C', 'C', 'C',
                          'C', 'C', 'C', 'C', 'C', 'H', 'H', 'H', 'H', 'H', 'H', 'H', 'H', 'H', 'H', 'H', 'H', 'H', 'H',
                          'H', 'H', 'H', 'H', 'H', 'H', 'C', 'C', 'C', 'C', 'C', 'C', 'C', 'C', 'C', 'C', 'C', 'C', 'C',
                          'C', 'C', 'C', 'C', 'C', 'C', 'C', 'C', 'C', 'C', 'C', 'H', 'H', 'H', 'H', 'H', 'H', 'H', 'H',
                          'H', 'H', 'H', 'H', 'H', 'H', 'H', 'H', 'H', 'H', 'H', 'H'],
              'validated': True},
 'protocols': {},
 'provenance': {'creator': 'QCElemental', 'routine': 'qcelemental.models.results', 'version': '0.29.0'},
 'schema_name': 'qcschema_input',
 'schema_version': 1}
--------------------------------------------------------------------------

Scratch directory: /tmp/tmpuhoj3gr7_psi_scratch/
   => Libint2 <=

    Primary   basis highest AM E, G, H:  6, 6, 3
    Auxiliary basis highest AM E, G, H:  7, 7, 4
    Onebody   basis highest AM E, G, H:  -, -, -
    Solid Harmonics ordering:            Gaussian

*** tstart() called on atl1-1-02-003-29-2.pace.gatech.edu
*** at Sat Jun 13 10:47:27 2026

   => Loading Basis Set <=

    Name: AUG-CC-PVTZ
    Role: ORBITAL
    Keyword: BASIS
    atoms 1-24, 45-68  entry C          line   239 file /storage/home/hcoda1/5/vlita3/.conda/envs/p4_qcml/share/psi4/basis/aug-cc-pvtz.gbs 
    atoms 25-44, 69-88 entry H          line    40 file /storage/home/hcoda1/5/vlita3/.conda/envs/p4_qcml/share/psi4/basis/aug-cc-pvtz.gbs 


         ---------------------------------------------------------
                                   SCF
               by Justin Turney, Rob Parrish, Andy Simmonett
                          and Daniel G. A. Smith
                              RHF Reference
                       10 Threads, 256000 MiB Core
         ---------------------------------------------------------

  ==> Geometry <==

    Molecular point group: c1
    Full point group: C1

    Geometry (in Bohr), charge = 0, multiplicity = 1:

       Center              X                  Y                   Z               Mass       
    ------------   -----------------  -----------------  -----------------  -----------------
         C           25.479637810000    23.083510490000    43.129689600000    12.000000000000
         C           24.896909540000    20.520123310000    43.887087000000    12.000000000000
         C           25.070571980000    18.486994040000    42.073536410000    12.000000000000
         C           25.842487700000    19.048809440000    39.520136630000    12.000000000000
         C           26.469036070000    21.614526750000    38.851995930000    12.000000000000
         C           26.303188210000    23.593300660000    40.544601030000    12.000000000000
         C           24.465771760000    15.927909200000    42.770360870000    12.000000000000
         C           23.768117170000    15.376956290000    45.408380810000    12.000000000000
         C           23.598594760000    17.388800580000    47.222658440000    12.000000000000
         C           24.108101800000    20.020076710000    46.443464130000    12.000000000000
         C           22.966940770000    16.772676120000    49.771927580000    12.000000000000
         C           22.510627380000    14.291306260000    50.585971850000    12.000000000000
         C           22.674270550000    12.321779990000    48.762315570000    12.000000000000
         C           23.279713060000    12.863093260000    46.252260430000    12.000000000000
         C           25.974674970000    17.072705200000    37.710681540000    12.000000000000
         C           25.347895860000    14.591234630000    38.394370830000    12.000000000000
         C           24.599697080000    14.027751800000    40.887843470000    12.000000000000
         C           25.200399920000    25.058872700000    44.921111260000    12.000000000000
         C           24.353210710000    24.595251030000    47.399460730000    12.000000000000
         C           23.840848770000    22.080992080000    48.127952370000    12.000000000000
         C           21.860468380000    13.695569320000    53.322351710000    12.000000000000
         C           24.045553830000    26.763706540000    49.278897730000    12.000000000000
         C           26.509156330000    27.411789790000    50.733751290000    12.000000000000
         C           26.931085990000    26.270948390000    39.723560460000    12.000000000000
         H           27.103115780000    21.981635650000    36.899069840000     1.007825032230
         H           22.322652990000    10.345837990000    49.336668340000     1.007825032230
         H           23.393720810000    11.283003050000    44.904895040000     1.007825032230
         H           26.576120380000    17.519739590000    35.765961340000     1.007825032230
         H           25.436649360000    13.062039060000    36.978008980000     1.007825032230
         H           24.120029470000    12.058549190000    41.352740800000     1.007825032230
         H           25.628178250000    27.017617670000    44.361717930000     1.007825032230
         H           23.187243320000    21.752196070000    50.076083940000     1.007825032230
         H           23.270131450000    12.385102940000    54.178573280000     1.007825032230
         H           21.796292730000    15.428039660000    54.506877690000     1.007825032230
         H           19.987054020000    12.744872520000    53.475279140000     1.007825032230
         H           22.531679060000    26.281983860000    50.661914800000     1.007825032230
         H           23.380697930000    28.481028980000    48.256122670000     1.007825032230
         H           27.195692660000    25.756506700000    51.833100190000     1.007825032230
         H           28.041562670000    27.969653920000    49.408212630000     1.007825032230
         H           28.391454410000    27.142865100000    40.955135150000     1.007825032230
         H           25.234562060000    27.518974610000    39.798920280000     1.007825032230
         H           27.662079220000    26.299541150000    37.757550150000     1.007825032230
         H           26.202216600000    29.000711950000    52.078089900000     1.007825032230
         H           22.836115370000    18.291349250000    51.188147300000     1.007825032230
      Gh(C)          30.813421930000    18.710179890000    45.993590290000    12.000000000000
      Gh(C)          31.578823900000    19.745559730000    43.580271130000    12.000000000000
      Gh(C)          32.189229210000    22.397465740000    43.360098410000    12.000000000000
      Gh(C)          32.047314730000    23.980561610000    45.575781450000    12.000000000000
      Gh(C)          31.255620950000    22.884853550000    47.941863750000    12.000000000000
      Gh(C)          30.640656550000    20.362968120000    48.197593240000    12.000000000000
      Gh(C)          32.960988580000    23.468755580000    40.980685430000    12.000000000000
      Gh(C)          32.977687900000    21.849817700000    38.715632150000    12.000000000000
      Gh(C)          32.396880510000    19.207546730000    38.927834280000    12.000000000000
      Gh(C)          31.751082620000    18.111964400000    41.410400420000    12.000000000000
      Gh(C)          32.385101480000    17.708590010000    36.688368100000    12.000000000000
      Gh(C)          32.898848690000    18.703884230000    34.286270150000    12.000000000000
      Gh(C)          33.460457470000    21.327874290000    34.106035820000    12.000000000000
      Gh(C)          33.500205440000    22.844137850000    36.264713590000    12.000000000000
      Gh(C)          32.710841680000    26.575199020000    45.394308130000    12.000000000000
      Gh(C)          33.517460540000    27.592296260000    43.083391200000    12.000000000000
      Gh(C)          33.640713650000    26.059331560000    40.907872200000    12.000000000000
      Gh(C)          30.268343150000    16.091662710000    46.167200610000    12.000000000000
      Gh(C)          30.497465480000    14.474318260000    44.069103850000    12.000000000000
      Gh(C)          31.239648410000    15.507577850000    41.725807430000    12.000000000000
      Gh(C)          32.852458580000    17.056601230000    31.930071820000    12.000000000000
      Gh(C)          30.035239600000    11.643867980000    44.339121940000    12.000000000000
      Gh(C)          32.456447310000    10.162768560000    45.086276230000    12.000000000000
      Gh(C)          29.837412290000    19.309373450000    50.744532490000    12.000000000000
      Gh(H)          31.159443530000    24.136923780000    49.605980370000     1.007825032230
      Gh(H)          33.861152590000    22.175472380000    32.240633180000     1.007825032230
      Gh(H)          33.924036130000    24.868284610000    36.039314520000     1.007825032230
      Gh(H)          32.606932640000    27.771442760000    47.100428900000     1.007825032230
      Gh(H)          34.057050160000    29.603312720000    42.956883010000     1.007825032230
      Gh(H)          34.278074760000    26.923081740000    39.126552190000     1.007825032230
      Gh(H)          29.647227910000    15.287136960000    47.983027870000     1.007825032230
      Gh(H)          31.381455070000    14.216153210000    40.102684710000     1.007825032230
      Gh(H)          34.735737000000    17.013088920000    30.986800810000     1.007825032230
      Gh(H)          32.314437750000    15.075477300000    32.371704950000     1.007825032230
      Gh(H)          31.485891230000    17.791222970000    30.505346590000     1.007825032230
      Gh(H)          29.280499330000    10.884780840000    42.526494070000     1.007825032230
      Gh(H)          28.543576180000    11.317994430000    45.786901480000     1.007825032230
      Gh(H)          33.972694550000    10.410591710000    43.649755710000     1.007825032230
      Gh(H)          33.219220700000    10.841257010000    46.924945230000     1.007825032230
      Gh(H)          31.182216520000    17.844652760000    51.440638090000     1.007825032230
      Gh(H)          27.948963570000    18.392733420000    50.643940790000     1.007825032230
      Gh(H)          29.741258730000    20.827140160000    52.190338820000     1.007825032230
      Gh(H)          32.066132320000     8.102977330000    45.267040020000     1.007825032230
      Gh(H)          31.918462080000    15.686526690000    36.818604170000     1.007825032230

  Running in c1 symmetry.

  Rotational constants: A =      0.00210  B =      0.00003  C =      0.00003 [cm^-1]
  Rotational constants: A =     62.96897  B =      0.94325  C =      0.93874 [MHz]
  Nuclear repulsion = 1863.800486968835230

  Charge       = 0
  Multiplicity = 1
  Electrons    = 164
  Nalpha       = 82
  Nbeta        = 82

  ==> Algorithm <==

  SCF Algorithm Type is DF.
  DIIS enabled.
  MOM disabled.
  Fractional occupation disabled.
  Guess Type is SAD.
  Energy threshold   = 1.00e-06
  Density threshold  = 1.00e-06
  Integral threshold = 1.00e-12

  ==> Primary Basis <==

  Basis Set: AUG-CC-PVTZ
    Blend: AUG-CC-PVTZ
    Number of shells: 1032
    Number of basis functions: 3128
    Number of Cartesian functions: 3640
    Spherical Harmonics?: true
    Max angular momentum: 3

   => Loading Basis Set <=

    Name: (AUG-CC-PVTZ AUX)
    Role: JKFIT
    Keyword: DF_BASIS_SCF
    atoms 1-24, 45-68  entry C          line   162 file /storage/home/hcoda1/5/vlita3/.conda/envs/p4_qcml/share/psi4/basis/aug-cc-pvtz-jkfit.gbs 
    atoms 25-44, 69-88 entry H          line    70 file /storage/home/hcoda1/5/vlita3/.conda/envs/p4_qcml/share/psi4/basis/aug-cc-pvtz-jkfit.gbs 

  ==> Integral Setup <==

  ==> DiskDFJK: Density-Fitted J/K Matrices <==

    J tasked:                  Yes
    K tasked:                  Yes
    wK tasked:                  No
    OpenMP threads:             10
    Integrals threads:          10
    Memory [MiB]:           192000
    Algorithm:                Disk
    Integral Cache:           NONE
    Schwarz Cutoff:          1E-12
    Fitting Condition:       1E-10

   => Auxiliary Basis Set <=

  Basis Set: (AUG-CC-PVTZ AUX)
    Blend: AUG-CC-PVTZ-JKFIT
    Number of shells: 2000
    Number of basis functions: 6832
    Number of Cartesian functions: 8488
    Spherical Harmonics?: true
    Max angular momentum: 4

  Minimum eigenvalue in the overlap matrix is 6.3711160731E-10.
  Reciprocal condition number of the overlap matrix is 1.7895063395E-11.
    Using canonical orthogonalization.
  Overall, 29 of 3128 possible MOs eliminated.


  ==> Pre-Iterations <==

  SCF Guess: Superposition of Atomic Densities via on-the-fly atomic UHF (no occupation information).

   -------------------------
    Irrep   Nso     Nmo    
   -------------------------
     A       3128    3099 
   -------------------------
    Total    3128    3099
   -------------------------

  ==> Iterations <==

                           Total Energy        Delta E     RMS |[F,P]|

   @DF-RHF iter SAD:  -920.64409306474101   -9.20644e+02   0.00000e+00 
   @DF-RHF iter   1:  -920.21657454703279    4.27519e-01   3.04539e-04 DIIS/ADIIS
   @DF-RHF iter   2:  -920.74209021854426   -5.25516e-01   1.18457e-04 DIIS/ADIIS
   @DF-RHF iter   3:  -920.81685137331397   -7.47612e-02   2.90534e-05 DIIS
   @DF-RHF iter   4:  -920.82341242529105   -6.56105e-03   1.14874e-05 DIIS
   @DF-RHF iter   5:  -920.82415726613658   -7.44841e-04   3.02290e-06 DIIS
   @DF-RHF iter   6:  -920.82422835231125   -7.10862e-05   1.09713e-06 DIIS
   @DF-RHF iter   7:  -920.82424061110896   -1.22588e-05   3.87427e-07 DIIS
   @DF-RHF iter   8:  -920.82424315983189   -2.54872e-06   1.73133e-07 DIIS
   @DF-RHF iter   9:  -920.82424380277700   -6.42945e-07   7.90188e-08 DIIS
  Energy and wave function converged.


  ==> Post-Iterations <==

    Orbital Energies [Eh]
    ---------------------

    Doubly Occupied:                                                      

       1A    -11.256705     2A    -11.255921     3A    -11.254910  
       4A    -11.252734     5A    -11.252578     6A    -11.251914  
       7A    -11.251320     8A    -11.251100     9A    -11.250019  
      10A    -11.249081    11A    -11.247758    12A    -11.243674  
      13A    -11.242367    14A    -11.240247    15A    -11.240246  
      16A    -11.239856    17A    -11.239559    18A    -11.238654  
      19A    -11.238614    20A    -11.238172    21A    -11.237342  
      22A    -11.236240    23A    -11.234912    24A    -11.227999  
      25A     -1.189776    26A     -1.149108    27A     -1.139300  
      28A     -1.100631    29A     -1.078510    30A     -1.052487  
      31A     -1.029504    32A     -1.024741    33A     -1.004718  
      34A     -0.974584    35A     -0.967481    36A     -0.928897  
      37A     -0.927103    38A     -0.868563    39A     -0.855047  
      40A     -0.833638    41A     -0.825019    42A     -0.815244  
      43A     -0.784067    44A     -0.741011    45A     -0.718816  
      46A     -0.706929    47A     -0.678843    48A     -0.669706  
      49A     -0.639153    50A     -0.635874    51A     -0.630791  
      52A     -0.614137    53A     -0.610600    54A     -0.593033  
      55A     -0.582925    56A     -0.576576    57A     -0.576295  
      58A     -0.572468    59A     -0.570839    60A     -0.563543  
      61A     -0.553779    62A     -0.544874    63A     -0.538869  
      64A     -0.535341    65A     -0.527839    66A     -0.522197  
      67A     -0.512722    68A     -0.510735    69A     -0.495824  
      70A     -0.489620    71A     -0.488421    72A     -0.483461  
      73A     -0.478223    74A     -0.456739    75A     -0.455433  
      76A     -0.414982    77A     -0.382594    78A     -0.375950  
      79A     -0.321361    80A     -0.319784    81A     -0.278149  
      82A     -0.257585  

    Virtual:                                                              

      83A      0.016721    84A      0.021094    85A      0.021592  
      86A      0.026671    87A      0.029243    88A      0.029666  
      89A      0.033727    90A      0.034800    91A      0.039014  
      92A      0.039610    93A      0.041480    94A      0.044778  
      95A      0.045848    96A      0.049002    97A      0.050826  
      98A      0.053297    99A      0.053690   100A      0.054281  
     101A      0.056819   102A      0.060058   103A      0.061204  
     104A      0.061925   105A      0.063689   106A      0.065498  
     107A      0.067800   108A      0.068862   109A      0.070418  
     110A      0.071531   111A      0.074640   112A      0.075990  
     113A      0.077107   114A      0.079998   115A      0.080727  
     116A      0.081297   117A      0.083043   118A      0.085403  
     119A      0.087659   120A      0.089337   121A      0.090211  
     122A      0.091740   123A      0.092995   124A      0.094381  
     125A      0.096285   126A      0.099368   127A      0.099810  
     128A      0.100505   129A      0.101610   130A      0.104436  
     131A      0.104792   132A      0.107003   133A      0.108441  
     134A      0.110087   135A      0.110860   136A      0.113314  
     137A      0.114295   138A      0.115011   139A      0.115517  
     140A      0.116707   141A      0.118566   142A      0.121273  
     143A      0.121966   144A      0.123631   145A      0.124991  
     146A      0.125460   147A      0.129107   148A      0.130467  
     149A      0.131352   150A      0.132795   151A      0.136346  
     152A      0.136673   153A      0.137468   154A      0.139102  
     155A      0.140453   156A      0.141021   157A      0.142981  
     158A      0.144623   159A      0.144887   160A      0.146190  
     161A      0.147554   162A      0.149353   163A      0.149730  
     164A      0.151699   165A      0.153390   166A      0.154139  
     167A      0.156498   168A      0.157739   169A      0.159796  
     170A      0.160230   171A      0.162460   172A      0.163849  
     173A      0.165063   174A      0.165645   175A      0.167355  
     176A      0.167738   177A      0.169407   178A      0.170805  
     179A      0.171084   180A      0.172892   181A      0.175410  
     182A      0.176543   183A      0.177334   184A      0.179774  
     185A      0.179940   186A      0.180899   187A      0.183369  
     188A      0.184280   189A      0.185568   190A      0.186588  
     191A      0.187459   192A      0.189107   193A      0.190865  
     194A      0.192602   195A      0.194000   196A      0.194850  
     197A      0.196685   198A      0.197094   199A      0.198658  
     200A      0.201428   201A      0.202007   202A      0.203093  
     203A      0.203998   204A      0.205264   205A      0.206634  
     206A      0.207653   207A      0.209325   208A      0.211215  
     209A      0.212342   210A      0.214848   211A      0.216371  
     212A      0.217867   213A      0.218690   214A      0.220740  
     215A      0.221296   216A      0.223001   217A      0.224646  
     218A      0.226717   219A      0.228042   220A      0.229059  
     221A      0.229979   222A      0.231404   223A      0.233005  
     224A      0.234623   225A      0.235272   226A      0.236773  
     227A      0.237906   228A      0.239266   229A      0.239823  
     230A      0.242476   231A      0.242709   232A      0.243106  
     233A      0.246478   234A      0.246937   235A      0.249421  
     236A      0.253290   237A      0.253640   238A      0.254187  
     239A      0.255628   240A      0.257984   241A      0.258340  
     242A      0.259343   243A      0.259885   244A      0.261697  
     245A      0.263387   246A      0.264455   247A      0.266665  
     248A      0.269024   249A      0.269239   250A      0.270878  
     251A      0.271844   252A      0.272592   253A      0.273311  
     254A      0.276099   255A      0.278026   256A      0.278675  
     257A      0.279933   258A      0.281791   259A      0.283439  
     260A      0.283635   261A      0.286208   262A      0.287292  
     263A      0.288037   264A      0.289690   265A      0.290785  
     266A      0.291472   267A      0.292022   268A      0.292621  
     269A      0.294802   270A      0.295520   271A      0.297409  
     272A      0.298291   273A      0.300153   274A      0.300565  
     275A      0.302618   276A      0.303551   277A      0.306740  
     278A      0.307223   279A      0.307625   280A      0.309983  
     281A      0.311809   282A      0.312419   283A      0.313582  
     284A      0.315390   285A      0.316356   286A      0.317255  
     287A      0.317935   288A      0.318356   289A      0.322381  
     290A      0.323221   291A      0.324563   292A      0.326134  
     293A      0.328619   294A      0.330671   295A      0.331420  
     296A      0.332903   297A      0.333733   298A      0.334716  
     299A      0.337807   300A      0.338748   301A      0.339164  
     302A      0.340537   303A      0.341445   304A      0.343775  
     305A      0.344396   306A      0.346272   307A      0.346870  
     308A      0.348721   309A      0.349863   310A      0.352086  
     311A      0.353781   312A      0.354148   313A      0.355774  
     314A      0.357887   315A      0.358940   316A      0.361310  
     317A      0.361790   318A      0.363585   319A      0.363705  
     320A      0.365439   321A      0.366229   322A      0.367518  
     323A      0.369237   324A      0.370299   325A      0.371354  
     326A      0.373602   327A      0.375674   328A      0.377364  
     329A      0.378639   330A      0.378881   331A      0.380875  
     332A      0.383062   333A      0.384342   334A      0.385243  
     335A      0.387841   336A      0.388725   337A      0.389622  
     338A      0.391075   339A      0.394005   340A      0.394341  
     341A      0.395354   342A      0.396819   343A      0.397684  
     344A      0.399980   345A      0.400743   346A      0.402254  
     347A      0.402664   348A      0.404741   349A      0.405534  
     350A      0.405984   351A      0.408686   352A      0.409809  
     353A      0.410693   354A      0.413272   355A      0.413979  
     356A      0.414408   357A      0.415667   358A      0.417930  
     359A      0.418355   360A      0.419467   361A      0.420122  
     362A      0.421634   363A      0.423284   364A      0.425323  
     365A      0.425881   366A      0.426682   367A      0.428897  
     368A      0.429928   369A      0.431685   370A      0.431908  
     371A      0.432837   372A      0.434078   373A      0.435302  
     374A      0.435978   375A      0.437214   376A      0.438563  
     377A      0.441416   378A      0.443053   379A      0.444375  
     380A      0.445573   381A      0.445926   382A      0.448240  
     383A      0.449918   384A      0.450273   385A      0.452689  
     386A      0.453129   387A      0.455952   388A      0.457126  
     389A      0.457542   390A      0.458012   391A      0.459506  
     392A      0.462061   393A      0.463032   394A      0.465295  
     395A      0.465927   396A      0.468566   397A      0.469084  
     398A      0.471282   399A      0.472107   400A      0.473778  
     401A      0.475187   402A      0.476486   403A      0.477500  
     404A      0.479979   405A      0.480599   406A      0.482396  
     407A      0.484036   408A      0.486158   409A      0.486718  
     410A      0.487230   411A      0.488779   412A      0.490801  
     413A      0.492053   414A      0.493807   415A      0.495013  
     416A      0.495839   417A      0.497066   418A      0.499039  
     419A      0.499703   420A      0.500675   421A      0.501080  
     422A      0.503625   423A      0.504489   424A      0.505145  
     425A      0.505718   426A      0.507470   427A      0.508586  
     428A      0.509963   429A      0.510534   430A      0.511481  
     431A      0.512774   432A      0.515085   433A      0.515858  
     434A      0.516220   435A      0.517943   436A      0.518541  
     437A      0.519683   438A      0.519978   439A      0.522252  
     440A      0.523216   441A      0.525237   442A      0.526331  
     443A      0.527295   444A      0.528342   445A      0.529746  
     446A      0.530977   447A      0.532084   448A      0.533044  
     449A      0.534126   450A      0.536404   451A      0.537261  
     452A      0.538932   453A      0.539790   454A      0.540594  
     455A      0.543052   456A      0.544214   457A      0.545096  
     458A      0.546201   459A      0.546811   460A      0.548154  
     461A      0.551140   462A      0.551623   463A      0.553011  
     464A      0.554923   465A      0.555395   466A      0.557272  
     467A      0.557809   468A      0.558411   469A      0.559936  
     470A      0.560703   471A      0.561958   472A      0.562390  
     473A      0.563922   474A      0.565666   475A      0.566173  
     476A      0.568863   477A      0.569622   478A      0.571339  
     479A      0.572773   480A      0.573168   481A      0.575381  
     482A      0.576230   483A      0.578121   484A      0.579026  
     485A      0.581408   486A      0.582481   487A      0.583552  
     488A      0.584542   489A      0.585633   490A      0.587103  
     491A      0.589505   492A      0.590234   493A      0.591375  
     494A      0.593009   495A      0.593375   496A      0.594391  
     497A      0.594881   498A      0.597521   499A      0.599207  
     500A      0.599742   501A      0.601461   502A      0.601910  
     503A      0.603068   504A      0.604143   505A      0.605361  
     506A      0.609641   507A      0.610733   508A      0.611383  
     509A      0.613855   510A      0.615220   511A      0.617108  
     512A      0.617699   513A      0.617951   514A      0.619225  
     515A      0.621664   516A      0.621990   517A      0.623456  
     518A      0.623783   519A      0.626157   520A      0.630326  
     521A      0.631296   522A      0.631814   523A      0.632182  
     524A      0.633946   525A      0.635480   526A      0.637122  
     527A      0.638007   528A      0.638860   529A      0.641333  
     530A      0.641708   531A      0.644091   532A      0.645395  
     533A      0.647357   534A      0.648142   535A      0.649460  
     536A      0.650557   537A      0.652668   538A      0.653549  
     539A      0.655403   540A      0.657003   541A      0.658015  
     542A      0.659509   543A      0.660369   544A      0.662862  
     545A      0.663573   546A      0.666115   547A      0.668236  
     548A      0.669428   549A      0.670289   550A      0.672841  
     551A      0.675832   552A      0.676559   553A      0.677558  
     554A      0.678782   555A      0.680622   556A      0.680777  
     557A      0.683417   558A      0.684260   559A      0.686709  
     560A      0.686932   561A      0.689061   562A      0.690447  
     563A      0.692286   564A      0.693599   565A      0.694451  
     566A      0.696154   567A      0.698669   568A      0.699252  
     569A      0.700804   570A      0.703026   571A      0.704457  
     572A      0.705766   573A      0.707524   574A      0.708708  
     575A      0.711081   576A      0.712375   577A      0.713375  
     578A      0.716104   579A      0.717825   580A      0.720508  
     581A      0.721591   582A      0.721862   583A      0.723605  
     584A      0.726168   585A      0.726362   586A      0.728119  
     587A      0.728966   588A      0.729745   589A      0.732478  
     590A      0.732858   591A      0.733649   592A      0.735091  
     593A      0.736043   594A      0.739151   595A      0.741031  
     596A      0.741420   597A      0.743286   598A      0.746232  
     599A      0.747421   600A      0.748009   601A      0.751522  
     602A      0.752882   603A      0.753476   604A      0.757077  
     605A      0.757352   606A      0.757867   607A      0.759618  
     608A      0.761010   609A      0.762518   610A      0.763687  
     611A      0.764927   612A      0.766917   613A      0.771118  
     614A      0.772138   615A      0.773682   616A      0.775608  
     617A      0.776242   618A      0.778260   619A      0.779856  
     620A      0.780014   621A      0.781437   622A      0.783938  
     623A      0.785382   624A      0.788037   625A      0.788469  
     626A      0.790612   627A      0.791886   628A      0.792839  
     629A      0.793317   630A      0.795026   631A      0.797531  
     632A      0.799209   633A      0.801934   634A      0.802727  
     635A      0.804234   636A      0.805155   637A      0.805759  
     638A      0.807439   639A      0.809417   640A      0.810411  
     641A      0.811440   642A      0.813646   643A      0.816817  
     644A      0.817490   645A      0.818867   646A      0.820184  
     647A      0.821595   648A      0.823484   649A      0.825393  
     650A      0.826227   651A      0.827157   652A      0.828706  
     653A      0.830277   654A      0.832137   655A      0.832915  
     656A      0.833882   657A      0.835202   658A      0.837554  
     659A      0.839690   660A      0.841387   661A      0.842850  
     662A      0.844212   663A      0.845647   664A      0.848095  
     665A      0.849427   666A      0.850598   667A      0.852573  
     668A      0.855391   669A      0.856766   670A      0.857238  
     671A      0.859754   672A      0.862091   673A      0.862573  
     674A      0.864731   675A      0.866552   676A      0.868229  
     677A      0.869680   678A      0.870211   679A      0.871779  
     680A      0.873187   681A      0.874863   682A      0.875878  
     683A      0.878591   684A      0.880343   685A      0.881406  
     686A      0.883811   687A      0.884544   688A      0.887303  
     689A      0.888826   690A      0.889853   691A      0.891454  
     692A      0.893085   693A      0.894959   694A      0.896095  
     695A      0.897142   696A      0.898679   697A      0.899592  
     698A      0.901217   699A      0.903928   700A      0.904249  
     701A      0.906383   702A      0.906901   703A      0.908423  
     704A      0.912221   705A      0.912526   706A      0.913308  
     707A      0.915903   708A      0.918301   709A      0.919585  
     710A      0.921851   711A      0.922366   712A      0.925245  
     713A      0.927012   714A      0.929643   715A      0.929991  
     716A      0.930663   717A      0.931674   718A      0.933188  
     719A      0.934903   720A      0.937397   721A      0.938109  
     722A      0.940359   723A      0.941410   724A      0.942815  
     725A      0.945817   726A      0.946814   727A      0.947866  
     728A      0.948774   729A      0.949396   730A      0.950846  
     731A      0.953137   732A      0.954259   733A      0.955707  
     734A      0.957137   735A      0.958617   736A      0.960435  
     737A      0.961114   738A      0.964552   739A      0.965655  
     740A      0.967529   741A      0.969142   742A      0.970840  
     743A      0.971891   744A      0.974425   745A      0.975219  
     746A      0.976742   747A      0.977538   748A      0.979073  
     749A      0.979969   750A      0.981512   751A      0.982779  
     752A      0.984192   753A      0.984978   754A      0.987499  
     755A      0.988225   756A      0.990161   757A      0.991809  
     758A      0.992739   759A      0.993994   760A      0.996395  
     761A      0.998760   762A      1.000001   763A      1.001290  
     764A      1.001968   765A      1.003510   766A      1.005419  
     767A      1.006627   768A      1.006793   769A      1.010154  
     770A      1.010712   771A      1.013547   772A      1.013871  
     773A      1.015325   774A      1.015795   775A      1.018390  
     776A      1.021043   777A      1.022276   778A      1.024765  
     779A      1.024908   780A      1.027002   781A      1.027939  
     782A      1.028971   783A      1.030180   784A      1.032460  
     785A      1.033806   786A      1.035348   787A      1.035974  
     788A      1.038650   789A      1.039625   790A      1.040436  
     791A      1.042846   792A      1.043797   793A      1.044449  
     794A      1.045357   795A      1.047419   796A      1.048553  
     797A      1.050924   798A      1.053042   799A      1.054441  
     800A      1.056026   801A      1.056799   802A      1.058098  
     803A      1.060660   804A      1.061035   805A      1.062580  
     806A      1.064684   807A      1.066825   808A      1.069074  
     809A      1.071172   810A      1.072061   811A      1.072566  
     812A      1.074622   813A      1.076119   814A      1.078004  
     815A      1.078605   816A      1.080100   817A      1.082847  
     818A      1.085338   819A      1.085539   820A      1.087989  
     821A      1.089327   822A      1.091846   823A      1.092264  
     824A      1.093537   825A      1.095448   826A      1.096157  
     827A      1.098376   828A      1.098932   829A      1.101800  
     830A      1.103163   831A      1.104125   832A      1.105461  
     833A      1.107210   834A      1.109218   835A      1.109325  
     836A      1.112143   837A      1.113796   838A      1.115722  
     839A      1.116278   840A      1.118432   841A      1.119081  
     842A      1.120352   843A      1.121452   844A      1.124316  
     845A      1.125280   846A      1.126451   847A      1.128976  
     848A      1.130319   849A      1.131571   850A      1.132158  
     851A      1.135788   852A      1.136192   853A      1.137716  
     854A      1.138897   855A      1.141197   856A      1.141860  
     857A      1.142828   858A      1.143761   859A      1.145175  
     860A      1.147305   861A      1.149060   862A      1.150790  
     863A      1.152188   864A      1.153327   865A      1.155813  
     866A      1.156945   867A      1.157753   868A      1.159109  
     869A      1.160715   870A      1.162490   871A      1.164119  
     872A      1.165731   873A      1.168584   874A      1.170352  
     875A      1.172538   876A      1.172875   877A      1.173255  
     878A      1.175882   879A      1.177240   880A      1.177721  
     881A      1.179732   882A      1.181787   883A      1.182682  
     884A      1.183989   885A      1.186219   886A      1.187095  
     887A      1.189735   888A      1.191067   889A      1.193034  
     890A      1.193960   891A      1.195294   892A      1.196230  
     893A      1.198016   894A      1.199598   895A      1.200276  
     896A      1.202982   897A      1.205071   898A      1.206447  
     899A      1.207009   900A      1.209153   901A      1.211082  
     902A      1.212329   903A      1.214233   904A      1.216072  
     905A      1.216893   906A      1.218133   907A      1.220232  
     908A      1.221258   909A      1.221814   910A      1.222763  
     911A      1.225679   912A      1.226967   913A      1.228528  
     914A      1.230338   915A      1.232326   916A      1.233379  
     917A      1.234257   918A      1.236530   919A      1.238487  
     920A      1.239461   921A      1.241462   922A      1.242709  
     923A      1.244040   924A      1.246057   925A      1.247122  
     926A      1.248507   927A      1.249437   928A      1.252220  
     929A      1.255035   930A      1.256572   931A      1.257637  
     932A      1.259223   933A      1.261422   934A      1.262371  
     935A      1.266218   936A      1.267610   937A      1.267996  
     938A      1.270173   939A      1.272117   940A      1.272633  
     941A      1.273941   942A      1.274457   943A      1.278106  
     944A      1.280029   945A      1.280658   946A      1.283244  
     947A      1.284982   948A      1.285813   949A      1.286408  
     950A      1.287944   951A      1.289931   952A      1.292846  
     953A      1.293366   954A      1.294059   955A      1.295546  
     956A      1.297099   957A      1.297899   958A      1.299438  
     959A      1.303180   960A      1.304239   961A      1.304776  
     962A      1.307234   963A      1.308869   964A      1.310841  
     965A      1.312935   966A      1.314705   967A      1.315675  
     968A      1.316569   969A      1.320445   970A      1.323482  
     971A      1.324377   972A      1.325515   973A      1.326581  
     974A      1.327937   975A      1.328839   976A      1.330635  
     977A      1.331139   978A      1.332182   979A      1.333312  
     980A      1.336291   981A      1.337798   982A      1.340661  
     983A      1.341643   984A      1.342335   985A      1.345335  
     986A      1.348242   987A      1.349499   988A      1.349557  
     989A      1.351321   990A      1.352781   991A      1.355040  
     992A      1.356998   993A      1.358289   994A      1.360193  
     995A      1.361571   996A      1.363053   997A      1.363831  
     998A      1.364756   999A      1.366217  1000A      1.367029  
    1001A      1.369158  1002A      1.370439  1003A      1.372374  
    1004A      1.374384  1005A      1.375785  1006A      1.378988  
    1007A      1.380595  1008A      1.381078  1009A      1.381414  
    1010A      1.383853  1011A      1.384766  1012A      1.386464  
    1013A      1.387867  1014A      1.390214  1015A      1.391591  
    1016A      1.392412  1017A      1.394915  1018A      1.395518  
    1019A      1.397935  1020A      1.399816  1021A      1.401041  
    1022A      1.404298  1023A      1.405070  1024A      1.406745  
    1025A      1.408552  1026A      1.410471  1027A      1.413003  
    1028A      1.413849  1029A      1.416247  1030A      1.417282  
    1031A      1.420740  1032A      1.421462  1033A      1.422475  
    1034A      1.424417  1035A      1.424943  1036A      1.425348  
    1037A      1.427897  1038A      1.430224  1039A      1.432030  
    1040A      1.434074  1041A      1.436960  1042A      1.437139  
    1043A      1.439536  1044A      1.440942  1045A      1.443443  
    1046A      1.443997  1047A      1.444612  1048A      1.448043  
    1049A      1.448331  1050A      1.450145  1051A      1.451527  
    1052A      1.452418  1053A      1.455027  1054A      1.458252  
    1055A      1.458678  1056A      1.459819  1057A      1.462202  
    1058A      1.464600  1059A      1.467322  1060A      1.469051  
    1061A      1.469938  1062A      1.471702  1063A      1.472285  
    1064A      1.473958  1065A      1.475268  1066A      1.476844  
    1067A      1.478557  1068A      1.479019  1069A      1.480628  
    1070A      1.483225  1071A      1.485884  1072A      1.486455  
    1073A      1.488064  1074A      1.489894  1075A      1.491934  
    1076A      1.494071  1077A      1.494487  1078A      1.495869  
    1079A      1.498134  1080A      1.500316  1081A      1.501893  
    1082A      1.505256  1083A      1.505726  1084A      1.507001  
    1085A      1.509132  1086A      1.510617  1087A      1.512154  
    1088A      1.514393  1089A      1.515057  1090A      1.516042  
    1091A      1.517350  1092A      1.518298  1093A      1.520198  
    1094A      1.521143  1095A      1.523862  1096A      1.526271  
    1097A      1.527923  1098A      1.528957  1099A      1.530636  
    1100A      1.531618  1101A      1.532934  1102A      1.535308  
    1103A      1.535805  1104A      1.537155  1105A      1.538558  
    1106A      1.542155  1107A      1.543637  1108A      1.544320  
    1109A      1.545910  1110A      1.548947  1111A      1.549403  
    1112A      1.551991  1113A      1.554174  1114A      1.555316  
    1115A      1.557143  1116A      1.559150  1117A      1.561739  
    1118A      1.563926  1119A      1.564740  1120A      1.566248  
    1121A      1.568080  1122A      1.569794  1123A      1.571943  
    1124A      1.574712  1125A      1.575380  1126A      1.576922  
    1127A      1.577934  1128A      1.578912  1129A      1.581920  
    1130A      1.582321  1131A      1.582861  1132A      1.585538  
    1133A      1.587560  1134A      1.589346  1135A      1.590751  
    1136A      1.591551  1137A      1.594555  1138A      1.595031  
    1139A      1.596436  1140A      1.599431  1141A      1.600300  
    1142A      1.601303  1143A      1.602168  1144A      1.605111  
    1145A      1.606455  1146A      1.608682  1147A      1.611046  
    1148A      1.611724  1149A      1.613670  1150A      1.614353  
    1151A      1.617234  1152A      1.619480  1153A      1.619801  
    1154A      1.621738  1155A      1.622508  1156A      1.626425  
    1157A      1.627897  1158A      1.628778  1159A      1.631040  
    1160A      1.632574  1161A      1.633307  1162A      1.635501  
    1163A      1.635931  1164A      1.637140  1165A      1.638206  
    1166A      1.640004  1167A      1.642649  1168A      1.643370  
    1169A      1.645636  1170A      1.648885  1171A      1.650676  
    1172A      1.652187  1173A      1.653890  1174A      1.656394  
    1175A      1.658814  1176A      1.659951  1177A      1.659994  
    1178A      1.662283  1179A      1.665446  1180A      1.666398  
    1181A      1.667798  1182A      1.669957  1183A      1.672133  
    1184A      1.673899  1185A      1.675990  1186A      1.676242  
    1187A      1.678255  1188A      1.679021  1189A      1.680110  
    1190A      1.683479  1191A      1.683914  1192A      1.686347  
    1193A      1.688156  1194A      1.690319  1195A      1.691261  
    1196A      1.692844  1197A      1.693617  1198A      1.695504  
    1199A      1.697761  1200A      1.700195  1201A      1.701674  
    1202A      1.702025  1203A      1.703541  1204A      1.704914  
    1205A      1.706582  1206A      1.707637  1207A      1.710013  
    1208A      1.711256  1209A      1.712562  1210A      1.714121  
    1211A      1.715623  1212A      1.716412  1213A      1.718257  
    1214A      1.719233  1215A      1.722028  1216A      1.724888  
    1217A      1.725866  1218A      1.727904  1219A      1.729176  
    1220A      1.730519  1221A      1.731477  1222A      1.734585  
    1223A      1.736075  1224A      1.737449  1225A      1.739339  
    1226A      1.741633  1227A      1.742620  1228A      1.743484  
    1229A      1.744838  1230A      1.747638  1231A      1.748751  
    1232A      1.749680  1233A      1.751700  1234A      1.755225  
    1235A      1.755402  1236A      1.757802  1237A      1.758762  
    1238A      1.759673  1239A      1.761134  1240A      1.763462  
    1241A      1.766019  1242A      1.766798  1243A      1.768183  
    1244A      1.771055  1245A      1.772143  1246A      1.773204  
    1247A      1.776346  1248A      1.778326  1249A      1.779441  
    1250A      1.781267  1251A      1.782573  1252A      1.783865  
    1253A      1.784164  1254A      1.785594  1255A      1.790247  
    1256A      1.792035  1257A      1.794652  1258A      1.796776  
    1259A      1.799071  1260A      1.799755  1261A      1.800133  
    1262A      1.802575  1263A      1.803665  1264A      1.805374  
    1265A      1.805731  1266A      1.807415  1267A      1.810071  
    1268A      1.812984  1269A      1.814393  1270A      1.816242  
    1271A      1.817504  1272A      1.819770  1273A      1.820572  
    1274A      1.823165  1275A      1.824693  1276A      1.827286  
    1277A      1.827818  1278A      1.829347  1279A      1.831338  
    1280A      1.831613  1281A      1.834226  1282A      1.836796  
    1283A      1.837304  1284A      1.839276  1285A      1.841617  
    1286A      1.844513  1287A      1.845276  1288A      1.848716  
    1289A      1.850490  1290A      1.851316  1291A      1.852215  
    1292A      1.852946  1293A      1.854292  1294A      1.855652  
    1295A      1.858715  1296A      1.860612  1297A      1.861883  
    1298A      1.862131  1299A      1.865354  1300A      1.867162  
    1301A      1.868882  1302A      1.872700  1303A      1.874191  
    1304A      1.874446  1305A      1.875469  1306A      1.876808  
    1307A      1.878226  1308A      1.880081  1309A      1.880489  
    1310A      1.883186  1311A      1.885714  1312A      1.886781  
    1313A      1.887999  1314A      1.889787  1315A      1.892511  
    1316A      1.897818  1317A      1.899535  1318A      1.900894  
    1319A      1.903164  1320A      1.905212  1321A      1.907003  
    1322A      1.907298  1323A      1.909400  1324A      1.910737  
    1325A      1.912736  1326A      1.913251  1327A      1.914107  
    1328A      1.916112  1329A      1.916909  1330A      1.919302  
    1331A      1.922234  1332A      1.923284  1333A      1.924187  
    1334A      1.926460  1335A      1.927542  1336A      1.931067  
    1337A      1.931804  1338A      1.933942  1339A      1.936698  
    1340A      1.937869  1341A      1.938226  1342A      1.940280  
    1343A      1.942667  1344A      1.946380  1345A      1.947497  
    1346A      1.948906  1347A      1.949948  1348A      1.951291  
    1349A      1.954348  1350A      1.955802  1351A      1.956811  
    1352A      1.959201  1353A      1.962577  1354A      1.963188  
    1355A      1.966154  1356A      1.967483  1357A      1.967893  
    1358A      1.970005  1359A      1.970209  1360A      1.973598  
    1361A      1.974846  1362A      1.976426  1363A      1.978725  
    1364A      1.979539  1365A      1.983586  1366A      1.984138  
    1367A      1.985895  1368A      1.986793  1369A      1.989231  
    1370A      1.990615  1371A      1.992375  1372A      1.992602  
    1373A      1.997697  1374A      1.999306  1375A      2.002090  
    1376A      2.004804  1377A      2.005587  1378A      2.007522  
    1379A      2.008898  1380A      2.012977  1381A      2.015165  
    1382A      2.016551  1383A      2.018899  1384A      2.019493  
    1385A      2.020636  1386A      2.022331  1387A      2.025194  
    1388A      2.027354  1389A      2.029453  1390A      2.031531  
    1391A      2.033259  1392A      2.035246  1393A      2.036317  
    1394A      2.037298  1395A      2.040127  1396A      2.043162  
    1397A      2.043770  1398A      2.046008  1399A      2.048930  
    1400A      2.049818  1401A      2.052327  1402A      2.054737  
    1403A      2.056136  1404A      2.057057  1405A      2.059683  
    1406A      2.063410  1407A      2.065350  1408A      2.067057  
    1409A      2.067666  1410A      2.069447  1411A      2.070523  
    1412A      2.072131  1413A      2.073813  1414A      2.076142  
    1415A      2.077464  1416A      2.080048  1417A      2.081036  
    1418A      2.083523  1419A      2.085020  1420A      2.085683  
    1421A      2.087574  1422A      2.089383  1423A      2.092943  
    1424A      2.094098  1425A      2.095448  1426A      2.097654  
    1427A      2.098343  1428A      2.100263  1429A      2.104145  
    1430A      2.104269  1431A      2.105428  1432A      2.107390  
    1433A      2.108857  1434A      2.109680  1435A      2.114591  
    1436A      2.116652  1437A      2.118768  1438A      2.121438  
    1439A      2.121759  1440A      2.124872  1441A      2.128073  
    1442A      2.128647  1443A      2.130491  1444A      2.133830  
    1445A      2.135306  1446A      2.135977  1447A      2.137551  
    1448A      2.139682  1449A      2.141461  1450A      2.143419  
    1451A      2.145730  1452A      2.148979  1453A      2.150274  
    1454A      2.153302  1455A      2.154457  1456A      2.157391  
    1457A      2.159072  1458A      2.161813  1459A      2.162753  
    1460A      2.164540  1461A      2.165857  1462A      2.170422  
    1463A      2.172293  1464A      2.176373  1465A      2.178751  
    1466A      2.179348  1467A      2.181578  1468A      2.182486  
    1469A      2.184068  1470A      2.188085  1471A      2.190021  
    1472A      2.191974  1473A      2.193058  1474A      2.195431  
    1475A      2.197052  1476A      2.199427  1477A      2.204300  
    1478A      2.206875  1479A      2.208025  1480A      2.209213  
    1481A      2.210512  1482A      2.210936  1483A      2.215326  
    1484A      2.216550  1485A      2.217989  1486A      2.219144  
    1487A      2.221689  1488A      2.223024  1489A      2.225641  
    1490A      2.230676  1491A      2.232122  1492A      2.233312  
    1493A      2.234259  1494A      2.237520  1495A      2.239904  
    1496A      2.241298  1497A      2.243330  1498A      2.246332  
    1499A      2.247363  1500A      2.252337  1501A      2.256783  
    1502A      2.257791  1503A      2.259030  1504A      2.260312  
    1505A      2.265352  1506A      2.267312  1507A      2.268910  
    1508A      2.269567  1509A      2.271759  1510A      2.273490  
    1511A      2.274017  1512A      2.277289  1513A      2.279538  
    1514A      2.282562  1515A      2.284793  1516A      2.285908  
    1517A      2.287755  1518A      2.289380  1519A      2.291191  
    1520A      2.294713  1521A      2.295434  1522A      2.297807  
    1523A      2.300424  1524A      2.301509  1525A      2.302826  
    1526A      2.307672  1527A      2.308256  1528A      2.313570  
    1529A      2.313937  1530A      2.316616  1531A      2.317226  
    1532A      2.318372  1533A      2.320113  1534A      2.321151  
    1535A      2.325789  1536A      2.327237  1537A      2.331737  
    1538A      2.332999  1539A      2.333888  1540A      2.336421  
    1541A      2.338367  1542A      2.340837  1543A      2.342718  
    1544A      2.345395  1545A      2.347940  1546A      2.350030  
    1547A      2.350811  1548A      2.353358  1549A      2.354893  
    1550A      2.356308  1551A      2.358602  1552A      2.360438  
    1553A      2.363582  1554A      2.364634  1555A      2.367830  
    1556A      2.370058  1557A      2.374523  1558A      2.375414  
    1559A      2.376242  1560A      2.379030  1561A      2.380960  
    1562A      2.386254  1563A      2.388128  1564A      2.390756  
    1565A      2.394135  1566A      2.394761  1567A      2.395814  
    1568A      2.399189  1569A      2.399554  1570A      2.404263  
    1571A      2.405993  1572A      2.407078  1573A      2.408527  
    1574A      2.412101  1575A      2.413889  1576A      2.415724  
    1577A      2.418688  1578A      2.422894  1579A      2.423728  
    1580A      2.424173  1581A      2.428169  1582A      2.431591  
    1583A      2.434636  1584A      2.437521  1585A      2.437698  
    1586A      2.441200  1587A      2.442070  1588A      2.443005  
    1589A      2.445662  1590A      2.450550  1591A      2.452055  
    1592A      2.454984  1593A      2.456006  1594A      2.458167  
    1595A      2.460375  1596A      2.462309  1597A      2.464244  
    1598A      2.466788  1599A      2.468040  1600A      2.469818  
    1601A      2.472969  1602A      2.474330  1603A      2.476765  
    1604A      2.480447  1605A      2.481653  1606A      2.484980  
    1607A      2.485687  1608A      2.487483  1609A      2.491620  
    1610A      2.494739  1611A      2.496332  1612A      2.498593  
    1613A      2.501901  1614A      2.502244  1615A      2.503648  
    1616A      2.506173  1617A      2.507309  1618A      2.509760  
    1619A      2.513575  1620A      2.514655  1621A      2.519122  
    1622A      2.522444  1623A      2.525000  1624A      2.528513  
    1625A      2.529912  1626A      2.532485  1627A      2.533213  
    1628A      2.536798  1629A      2.537205  1630A      2.542528  
    1631A      2.544455  1632A      2.547408  1633A      2.547638  
    1634A      2.552267  1635A      2.553048  1636A      2.555753  
    1637A      2.556455  1638A      2.558619  1639A      2.562483  
    1640A      2.563745  1641A      2.564511  1642A      2.567109  
    1643A      2.569033  1644A      2.572932  1645A      2.575979  
    1646A      2.578918  1647A      2.579688  1648A      2.586332  
    1649A      2.586979  1650A      2.589797  1651A      2.590784  
    1652A      2.593646  1653A      2.595344  1654A      2.598332  
    1655A      2.600603  1656A      2.604106  1657A      2.604593  
    1658A      2.606629  1659A      2.609746  1660A      2.613947  
    1661A      2.615903  1662A      2.618083  1663A      2.619837  
    1664A      2.624155  1665A      2.626723  1666A      2.629565  
    1667A      2.630143  1668A      2.634512  1669A      2.637125  
    1670A      2.640154  1671A      2.640969  1672A      2.643437  
    1673A      2.645751  1674A      2.648484  1675A      2.653841  
    1676A      2.656028  1677A      2.661410  1678A      2.662376  
    1679A      2.663120  1680A      2.667095  1681A      2.669365  
    1682A      2.669663  1683A      2.673051  1684A      2.674268  
    1685A      2.676190  1686A      2.677771  1687A      2.678902  
    1688A      2.681888  1689A      2.684914  1690A      2.685725  
    1691A      2.688027  1692A      2.691614  1693A      2.693664  
    1694A      2.698344  1695A      2.702025  1696A      2.703187  
    1697A      2.706896  1698A      2.707864  1699A      2.709190  
    1700A      2.711770  1701A      2.715201  1702A      2.716375  
    1703A      2.717148  1704A      2.724221  1705A      2.726502  
    1706A      2.729189  1707A      2.731798  1708A      2.734948  
    1709A      2.736969  1710A      2.740691  1711A      2.741662  
    1712A      2.747343  1713A      2.750110  1714A      2.753215  
    1715A      2.755504  1716A      2.757357  1717A      2.761498  
    1718A      2.762628  1719A      2.765560  1720A      2.766753  
    1721A      2.770581  1722A      2.772228  1723A      2.774536  
    1724A      2.778425  1725A      2.779956  1726A      2.782296  
    1727A      2.784351  1728A      2.786171  1729A      2.789889  
    1730A      2.796128  1731A      2.796512  1732A      2.799933  
    1733A      2.802935  1734A      2.803759  1735A      2.804955  
    1736A      2.810671  1737A      2.811908  1738A      2.813821  
    1739A      2.816540  1740A      2.819638  1741A      2.823671  
    1742A      2.824034  1743A      2.826820  1744A      2.829608  
    1745A      2.831406  1746A      2.835286  1747A      2.837515  
    1748A      2.838567  1749A      2.841889  1750A      2.843204  
    1751A      2.847338  1752A      2.848835  1753A      2.853192  
    1754A      2.854558  1755A      2.856353  1756A      2.861681  
    1757A      2.864946  1758A      2.870322  1759A      2.871151  
    1760A      2.874912  1761A      2.875980  1762A      2.877401  
    1763A      2.885517  1764A      2.887629  1765A      2.891154  
    1766A      2.893955  1767A      2.896032  1768A      2.898466  
    1769A      2.900891  1770A      2.904598  1771A      2.905545  
    1772A      2.910031  1773A      2.912029  1774A      2.915522  
    1775A      2.916254  1776A      2.921840  1777A      2.924086  
    1778A      2.928309  1779A      2.929632  1780A      2.934030  
    1781A      2.936319  1782A      2.939293  1783A      2.942369  
    1784A      2.946375  1785A      2.949566  1786A      2.953792  
    1787A      2.955582  1788A      2.959991  1789A      2.963193  
    1790A      2.964700  1791A      2.967309  1792A      2.970077  
    1793A      2.974112  1794A      2.976696  1795A      2.981758  
    1796A      2.987583  1797A      2.992721  1798A      2.996132  
    1799A      2.996299  1800A      2.999329  1801A      3.004314  
    1802A      3.006138  1803A      3.012418  1804A      3.016159  
    1805A      3.019149  1806A      3.024226  1807A      3.027478  
    1808A      3.027968  1809A      3.029780  1810A      3.034215  
    1811A      3.038691  1812A      3.043442  1813A      3.048888  
    1814A      3.051349  1815A      3.054822  1816A      3.056273  
    1817A      3.059222  1818A      3.066636  1819A      3.069980  
    1820A      3.076221  1821A      3.081376  1822A      3.085014  
    1823A      3.094886  1824A      3.096247  1825A      3.101019  
    1826A      3.103545  1827A      3.108443  1828A      3.113209  
    1829A      3.122294  1830A      3.123060  1831A      3.126527  
    1832A      3.132581  1833A      3.134209  1834A      3.138973  
    1835A      3.141241  1836A      3.142957  1837A      3.155088  
    1838A      3.156781  1839A      3.159710  1840A      3.162884  
    1841A      3.164958  1842A      3.175520  1843A      3.177378  
    1844A      3.186574  1845A      3.186914  1846A      3.195510  
    1847A      3.197957  1848A      3.202301  1849A      3.207195  
    1850A      3.207940  1851A      3.216776  1852A      3.220523  
    1853A      3.221016  1854A      3.227129  1855A      3.231906  
    1856A      3.239903  1857A      3.245853  1858A      3.250480  
    1859A      3.255092  1860A      3.262106  1861A      3.268698  
    1862A      3.277208  1863A      3.277754  1864A      3.280970  
    1865A      3.288933  1866A      3.290710  1867A      3.298246  
    1868A      3.307690  1869A      3.312964  1870A      3.320231  
    1871A      3.328302  1872A      3.331245  1873A      3.337980  
    1874A      3.344598  1875A      3.346888  1876A      3.349787  
    1877A      3.355741  1878A      3.368441  1879A      3.370053  
    1880A      3.373153  1881A      3.375651  1882A      3.378884  
    1883A      3.387621  1884A      3.390235  1885A      3.398660  
    1886A      3.405204  1887A      3.408065  1888A      3.411932  
    1889A      3.416697  1890A      3.423550  1891A      3.426612  
    1892A      3.436501  1893A      3.437924  1894A      3.443150  
    1895A      3.449557  1896A      3.451851  1897A      3.459365  
    1898A      3.465938  1899A      3.468074  1900A      3.474365  
    1901A      3.478083  1902A      3.480672  1903A      3.490309  
    1904A      3.498369  1905A      3.499857  1906A      3.502587  
    1907A      3.508102  1908A      3.513429  1909A      3.517842  
    1910A      3.522600  1911A      3.524678  1912A      3.528134  
    1913A      3.529387  1914A      3.535397  1915A      3.537001  
    1916A      3.542623  1917A      3.547463  1918A      3.555601  
    1919A      3.556828  1920A      3.559070  1921A      3.564945  
    1922A      3.569036  1923A      3.572710  1924A      3.577010  
    1925A      3.581113  1926A      3.587649  1927A      3.590246  
    1928A      3.595102  1929A      3.598369  1930A      3.606840  
    1931A      3.609633  1932A      3.611719  1933A      3.615162  
    1934A      3.618975  1935A      3.620996  1936A      3.621275  
    1937A      3.630209  1938A      3.634930  1939A      3.639582  
    1940A      3.643186  1941A      3.647763  1942A      3.650759  
    1943A      3.653419  1944A      3.656614  1945A      3.658610  
    1946A      3.662328  1947A      3.664269  1948A      3.668876  
    1949A      3.673056  1950A      3.676437  1951A      3.679049  
    1952A      3.683522  1953A      3.686755  1954A      3.689184  
    1955A      3.695296  1956A      3.700306  1957A      3.700327  
    1958A      3.706597  1959A      3.708195  1960A      3.711841  
    1961A      3.712693  1962A      3.719350  1963A      3.722703  
    1964A      3.725490  1965A      3.726540  1966A      3.729400  
    1967A      3.729949  1968A      3.734619  1969A      3.738096  
    1970A      3.743945  1971A      3.746152  1972A      3.749249  
    1973A      3.751373  1974A      3.752385  1975A      3.755974  
    1976A      3.758680  1977A      3.764197  1978A      3.767536  
    1979A      3.768126  1980A      3.773139  1981A      3.774821  
    1982A      3.777541  1983A      3.780185  1984A      3.786392  
    1985A      3.787473  1986A      3.790746  1987A      3.794136  
    1988A      3.796759  1989A      3.798945  1990A      3.802473  
    1991A      3.807026  1992A      3.809615  1993A      3.811901  
    1994A      3.815866  1995A      3.818370  1996A      3.824514  
    1997A      3.827261  1998A      3.828353  1999A      3.829024  
    2000A      3.836972  2001A      3.839367  2002A      3.844185  
    2003A      3.847505  2004A      3.849506  2005A      3.853480  
    2006A      3.856837  2007A      3.857481  2008A      3.862968  
    2009A      3.866843  2010A      3.868722  2011A      3.872172  
    2012A      3.874517  2013A      3.878423  2014A      3.881532  
    2015A      3.882108  2016A      3.888307  2017A      3.891248  
    2018A      3.893702  2019A      3.896826  2020A      3.898326  
    2021A      3.901741  2022A      3.908654  2023A      3.911136  
    2024A      3.911771  2025A      3.914497  2026A      3.915933  
    2027A      3.923201  2028A      3.924393  2029A      3.926214  
    2030A      3.931726  2031A      3.934008  2032A      3.937706  
    2033A      3.944014  2034A      3.945950  2035A      3.950375  
    2036A      3.957557  2037A      3.959530  2038A      3.963162  
    2039A      3.967717  2040A      3.968019  2041A      3.972017  
    2042A      3.973829  2043A      3.976997  2044A      3.979395  
    2045A      3.982884  2046A      3.987471  2047A      3.991233  
    2048A      3.991718  2049A      3.996541  2050A      4.001592  
    2051A      4.004002  2052A      4.005573  2053A      4.012117  
    2054A      4.015695  2055A      4.017330  2056A      4.018645  
    2057A      4.021151  2058A      4.024520  2059A      4.031503  
    2060A      4.035771  2061A      4.039158  2062A      4.041189  
    2063A      4.044653  2064A      4.046983  2065A      4.048590  
    2066A      4.050467  2067A      4.056339  2068A      4.058332  
    2069A      4.058969  2070A      4.064910  2071A      4.065281  
    2072A      4.070543  2073A      4.072806  2074A      4.074905  
    2075A      4.078217  2076A      4.081352  2077A      4.082421  
    2078A      4.087239  2079A      4.089354  2080A      4.094714  
    2081A      4.095524  2082A      4.097681  2083A      4.100310  
    2084A      4.104047  2085A      4.105967  2086A      4.108505  
    2087A      4.110419  2088A      4.112633  2089A      4.115558  
    2090A      4.118725  2091A      4.123097  2092A      4.126044  
    2093A      4.127648  2094A      4.132683  2095A      4.134176  
    2096A      4.135421  2097A      4.137592  2098A      4.139679  
    2099A      4.140934  2100A      4.143894  2101A      4.144241  
    2102A      4.148492  2103A      4.151004  2104A      4.156085  
    2105A      4.158033  2106A      4.160754  2107A      4.161226  
    2108A      4.164789  2109A      4.166666  2110A      4.167295  
    2111A      4.174223  2112A      4.176349  2113A      4.178093  
    2114A      4.181341  2115A      4.182804  2116A      4.188102  
    2117A      4.191147  2118A      4.194676  2119A      4.197691  
    2120A      4.199583  2121A      4.200283  2122A      4.203375  
    2123A      4.205918  2124A      4.207973  2125A      4.210372  
    2126A      4.211671  2127A      4.212553  2128A      4.214962  
    2129A      4.218639  2130A      4.220519  2131A      4.224466  
    2132A      4.226884  2133A      4.228902  2134A      4.231271  
    2135A      4.235588  2136A      4.238357  2137A      4.239013  
    2138A      4.241489  2139A      4.244415  2140A      4.246317  
    2141A      4.250221  2142A      4.252182  2143A      4.255051  
    2144A      4.257595  2145A      4.259383  2146A      4.261581  
    2147A      4.265538  2148A      4.266513  2149A      4.271899  
    2150A      4.273535  2151A      4.274304  2152A      4.275933  
    2153A      4.277256  2154A      4.279060  2155A      4.284329  
    2156A      4.285402  2157A      4.287688  2158A      4.290693  
    2159A      4.293734  2160A      4.294788  2161A      4.296951  
    2162A      4.299503  2163A      4.303380  2164A      4.305664  
    2165A      4.306695  2166A      4.309743  2167A      4.312112  
    2168A      4.315087  2169A      4.316507  2170A      4.318703  
    2171A      4.319918  2172A      4.322192  2173A      4.323425  
    2174A      4.324608  2175A      4.326595  2176A      4.329638  
    2177A      4.331519  2178A      4.336242  2179A      4.336521  
    2180A      4.340839  2181A      4.343711  2182A      4.348578  
    2183A      4.349629  2184A      4.352934  2185A      4.354462  
    2186A      4.356632  2187A      4.357032  2188A      4.359905  
    2189A      4.364450  2190A      4.367562  2191A      4.369539  
    2192A      4.371989  2193A      4.373684  2194A      4.376079  
    2195A      4.376594  2196A      4.380569  2197A      4.383126  
    2198A      4.384021  2199A      4.385460  2200A      4.392801  
    2201A      4.393466  2202A      4.395964  2203A      4.397548  
    2204A      4.399734  2205A      4.401610  2206A      4.404647  
    2207A      4.407051  2208A      4.408742  2209A      4.409607  
    2210A      4.413276  2211A      4.416626  2212A      4.416999  
    2213A      4.418786  2214A      4.420006  2215A      4.423242  
    2216A      4.423731  2217A      4.425988  2218A      4.430201  
    2219A      4.431574  2220A      4.432456  2221A      4.438493  
    2222A      4.441910  2223A      4.444551  2224A      4.445564  
    2225A      4.450291  2226A      4.452615  2227A      4.456009  
    2228A      4.457002  2229A      4.457714  2230A      4.459926  
    2231A      4.463381  2232A      4.465674  2233A      4.467724  
    2234A      4.470015  2235A      4.471281  2236A      4.472254  
    2237A      4.475492  2238A      4.479032  2239A      4.483462  
    2240A      4.483708  2241A      4.486068  2242A      4.488412  
    2243A      4.489716  2244A      4.492906  2245A      4.495078  
    2246A      4.495801  2247A      4.497795  2248A      4.499420  
    2249A      4.501435  2250A      4.506207  2251A      4.509694  
    2252A      4.510601  2253A      4.513625  2254A      4.516196  
    2255A      4.518390  2256A      4.519826  2257A      4.521623  
    2258A      4.524557  2259A      4.527048  2260A      4.533679  
    2261A      4.534916  2262A      4.537068  2263A      4.537722  
    2264A      4.539509  2265A      4.543258  2266A      4.544360  
    2267A      4.545598  2268A      4.547647  2269A      4.550619  
    2270A      4.551569  2271A      4.557598  2272A      4.558751  
    2273A      4.560144  2274A      4.561687  2275A      4.564514  
    2276A      4.566861  2277A      4.567897  2278A      4.571032  
    2279A      4.574262  2280A      4.575201  2281A      4.576920  
    2282A      4.581698  2283A      4.583608  2284A      4.586444  
    2285A      4.586649  2286A      4.589185  2287A      4.592528  
    2288A      4.594303  2289A      4.597693  2290A      4.602487  
    2291A      4.603206  2292A      4.605442  2293A      4.605889  
    2294A      4.607330  2295A      4.613637  2296A      4.614828  
    2297A      4.617318  2298A      4.619808  2299A      4.623631  
    2300A      4.625093  2301A      4.630322  2302A      4.632944  
    2303A      4.633610  2304A      4.637911  2305A      4.639675  
    2306A      4.641189  2307A      4.645500  2308A      4.647193  
    2309A      4.647872  2310A      4.651695  2311A      4.655593  
    2312A      4.657518  2313A      4.660528  2314A      4.662082  
    2315A      4.665566  2316A      4.665940  2317A      4.670960  
    2318A      4.672538  2319A      4.674647  2320A      4.676131  
    2321A      4.676805  2322A      4.680849  2323A      4.684758  
    2324A      4.686209  2325A      4.688558  2326A      4.691137  
    2327A      4.693230  2328A      4.695161  2329A      4.700273  
    2330A      4.704050  2331A      4.705184  2332A      4.706955  
    2333A      4.708338  2334A      4.709956  2335A      4.712395  
    2336A      4.713395  2337A      4.715614  2338A      4.717775  
    2339A      4.720550  2340A      4.723317  2341A      4.727261  
    2342A      4.727600  2343A      4.729887  2344A      4.732921  
    2345A      4.734733  2346A      4.737861  2347A      4.739470  
    2348A      4.740351  2349A      4.744174  2350A      4.744979  
    2351A      4.747068  2352A      4.750032  2353A      4.754255  
    2354A      4.754923  2355A      4.756466  2356A      4.757900  
    2357A      4.763875  2358A      4.766576  2359A      4.770607  
    2360A      4.772639  2361A      4.773362  2362A      4.776474  
    2363A      4.778498  2364A      4.780715  2365A      4.785377  
    2366A      4.789447  2367A      4.790908  2368A      4.793315  
    2369A      4.794347  2370A      4.795856  2371A      4.799288  
    2372A      4.801450  2373A      4.803141  2374A      4.806260  
    2375A      4.811594  2376A      4.814819  2377A      4.817084  
    2378A      4.820001  2379A      4.820730  2380A      4.822585  
    2381A      4.826632  2382A      4.827127  2383A      4.829058  
    2384A      4.834105  2385A      4.838736  2386A      4.841349  
    2387A      4.842464  2388A      4.845569  2389A      4.848509  
    2390A      4.850718  2391A      4.851965  2392A      4.854389  
    2393A      4.856302  2394A      4.858469  2395A      4.863410  
    2396A      4.866295  2397A      4.867714  2398A      4.869380  
    2399A      4.873624  2400A      4.875780  2401A      4.879054  
    2402A      4.880250  2403A      4.881685  2404A      4.882104  
    2405A      4.886217  2406A      4.887276  2407A      4.888747  
    2408A      4.894390  2409A      4.896762  2410A      4.898168  
    2411A      4.903936  2412A      4.905180  2413A      4.906898  
    2414A      4.910813  2415A      4.912143  2416A      4.916691  
    2417A      4.917990  2418A      4.918914  2419A      4.921353  
    2420A      4.922962  2421A      4.924350  2422A      4.926891  
    2423A      4.932163  2424A      4.935947  2425A      4.936510  
    2426A      4.940994  2427A      4.941501  2428A      4.943461  
    2429A      4.946216  2430A      4.949042  2431A      4.952468  
    2432A      4.955093  2433A      4.957619  2434A      4.959170  
    2435A      4.963304  2436A      4.963787  2437A      4.968000  
    2438A      4.973010  2439A      4.975079  2440A      4.977394  
    2441A      4.979509  2442A      4.983145  2443A      4.984880  
    2444A      4.989177  2445A      4.989521  2446A      4.992087  
    2447A      4.995082  2448A      4.999995  2449A      5.000644  
    2450A      5.005600  2451A      5.007704  2452A      5.009338  
    2453A      5.014077  2454A      5.018247  2455A      5.021614  
    2456A      5.028076  2457A      5.030773  2458A      5.032446  
    2459A      5.033514  2460A      5.035991  2461A      5.042042  
    2462A      5.042300  2463A      5.043048  2464A      5.045039  
    2465A      5.048878  2466A      5.052373  2467A      5.053562  
    2468A      5.056874  2469A      5.057767  2470A      5.059053  
    2471A      5.061385  2472A      5.062288  2473A      5.067415  
    2474A      5.071225  2475A      5.072285  2476A      5.074569  
    2477A      5.076771  2478A      5.078177  2479A      5.081661  
    2480A      5.083911  2481A      5.086210  2482A      5.089504  
    2483A      5.089908  2484A      5.094945  2485A      5.096144  
    2486A      5.097158  2487A      5.099591  2488A      5.103772  
    2489A      5.104610  2490A      5.108662  2491A      5.111779  
    2492A      5.113507  2493A      5.114969  2494A      5.117965  
    2495A      5.120334  2496A      5.124438  2497A      5.127377  
    2498A      5.130165  2499A      5.134937  2500A      5.137688  
    2501A      5.138773  2502A      5.139778  2503A      5.144523  
    2504A      5.147764  2505A      5.151409  2506A      5.154062  
    2507A      5.155943  2508A      5.159604  2509A      5.163224  
    2510A      5.165909  2511A      5.167688  2512A      5.172483  
    2513A      5.173520  2514A      5.175501  2515A      5.176958  
    2516A      5.178917  2517A      5.183899  2518A      5.185324  
    2519A      5.187177  2520A      5.191948  2521A      5.192479  
    2522A      5.198848  2523A      5.199453  2524A      5.203993  
    2525A      5.206760  2526A      5.211268  2527A      5.213369  
    2528A      5.213979  2529A      5.217000  2530A      5.221382  
    2531A      5.223559  2532A      5.226528  2533A      5.231146  
    2534A      5.232499  2535A      5.235862  2536A      5.238582  
    2537A      5.244766  2538A      5.247452  2539A      5.247842  
    2540A      5.253668  2541A      5.254031  2542A      5.255920  
    2543A      5.257999  2544A      5.262318  2545A      5.264882  
    2546A      5.267293  2547A      5.268521  2548A      5.273957  
    2549A      5.276959  2550A      5.277457  2551A      5.279988  
    2552A      5.284347  2553A      5.285189  2554A      5.288686  
    2555A      5.294122  2556A      5.295786  2557A      5.297892  
    2558A      5.302309  2559A      5.304377  2560A      5.305566  
    2561A      5.309291  2562A      5.314997  2563A      5.316832  
    2564A      5.318367  2565A      5.320589  2566A      5.323564  
    2567A      5.328610  2568A      5.334922  2569A      5.336548  
    2570A      5.337486  2571A      5.338587  2572A      5.344207  
    2573A      5.349948  2574A      5.351652  2575A      5.357431  
    2576A      5.360134  2577A      5.361233  2578A      5.363486  
    2579A      5.367928  2580A      5.368419  2581A      5.371739  
    2582A      5.378374  2583A      5.378573  2584A      5.381074  
    2585A      5.384106  2586A      5.387605  2587A      5.389749  
    2588A      5.391607  2589A      5.394002  2590A      5.402115  
    2591A      5.405098  2592A      5.410077  2593A      5.412421  
    2594A      5.414755  2595A      5.415694  2596A      5.418810  
    2597A      5.423883  2598A      5.425661  2599A      5.427090  
    2600A      5.432551  2601A      5.436790  2602A      5.437502  
    2603A      5.440167  2604A      5.444779  2605A      5.448330  
    2606A      5.450709  2607A      5.453241  2608A      5.455833  
    2609A      5.457750  2610A      5.462882  2611A      5.464998  
    2612A      5.469693  2613A      5.471304  2614A      5.472607  
    2615A      5.478219  2616A      5.480994  2617A      5.486182  
    2618A      5.487678  2619A      5.489604  2620A      5.490666  
    2621A      5.495500  2622A      5.499259  2623A      5.501299  
    2624A      5.506868  2625A      5.508282  2626A      5.514170  
    2627A      5.518995  2628A      5.519617  2629A      5.521542  
    2630A      5.525512  2631A      5.531402  2632A      5.533391  
    2633A      5.535064  2634A      5.535947  2635A      5.541618  
    2636A      5.543575  2637A      5.544685  2638A      5.549121  
    2639A      5.550291  2640A      5.551437  2641A      5.552946  
    2642A      5.558559  2643A      5.560985  2644A      5.562875  
    2645A      5.566593  2646A      5.569325  2647A      5.575078  
    2648A      5.577600  2649A      5.580570  2650A      5.581598  
    2651A      5.584122  2652A      5.586632  2653A      5.590375  
    2654A      5.595493  2655A      5.597342  2656A      5.601251  
    2657A      5.603984  2658A      5.604663  2659A      5.608946  
    2660A      5.611055  2661A      5.616275  2662A      5.618075  
    2663A      5.620329  2664A      5.622732  2665A      5.627426  
    2666A      5.627910  2667A      5.630678  2668A      5.632115  
    2669A      5.639780  2670A      5.641326  2671A      5.649447  
    2672A      5.653540  2673A      5.658085  2674A      5.661942  
    2675A      5.663772  2676A      5.667034  2677A      5.670422  
    2678A      5.672532  2679A      5.676078  2680A      5.676257  
    2681A      5.681970  2682A      5.687696  2683A      5.688729  
    2684A      5.691834  2685A      5.694718  2686A      5.697283  
    2687A      5.698194  2688A      5.703869  2689A      5.704975  
    2690A      5.706779  2691A      5.713466  2692A      5.717081  
    2693A      5.718706  2694A      5.723467  2695A      5.727746  
    2696A      5.733791  2697A      5.737705  2698A      5.738324  
    2699A      5.739114  2700A      5.741163  2701A      5.745272  
    2702A      5.749903  2703A      5.752151  2704A      5.756096  
    2705A      5.758494  2706A      5.766564  2707A      5.767836  
    2708A      5.776591  2709A      5.777006  2710A      5.782744  
    2711A      5.786678  2712A      5.788291  2713A      5.794952  
    2714A      5.797685  2715A      5.802792  2716A      5.805860  
    2717A      5.809241  2718A      5.813315  2719A      5.816764  
    2720A      5.822318  2721A      5.824179  2722A      5.829443  
    2723A      5.835397  2724A      5.838670  2725A      5.841393  
    2726A      5.846836  2727A      5.849243  2728A      5.854836  
    2729A      5.860900  2730A      5.864123  2731A      5.868986  
    2732A      5.874306  2733A      5.876364  2734A      5.885660  
    2735A      5.891055  2736A      5.892037  2737A      5.894880  
    2738A      5.898246  2739A      5.907198  2740A      5.911131  
    2741A      5.912653  2742A      5.918176  2743A      5.922511  
    2744A      5.931301  2745A      5.936257  2746A      5.940222  
    2747A      5.942501  2748A      5.946225  2749A      5.947095  
    2750A      5.950396  2751A      5.958379  2752A      5.964369  
    2753A      5.965127  2754A      5.967424  2755A      5.974867  
    2756A      5.979073  2757A      5.984323  2758A      5.990843  
    2759A      6.000603  2760A      6.003980  2761A      6.006181  
    2762A      6.010359  2763A      6.013141  2764A      6.023341  
    2765A      6.026637  2766A      6.032808  2767A      6.038109  
    2768A      6.040830  2769A      6.042690  2770A      6.051956  
    2771A      6.057859  2772A      6.059751  2773A      6.061652  
    2774A      6.066851  2775A      6.076063  2776A      6.078975  
    2777A      6.084791  2778A      6.089574  2779A      6.093671  
    2780A      6.098176  2781A      6.101966  2782A      6.107639  
    2783A      6.110563  2784A      6.116568  2785A      6.120014  
    2786A      6.124602  2787A      6.127839  2788A      6.130868  
    2789A      6.135552  2790A      6.146798  2791A      6.159433  
    2792A      6.165945  2793A      6.168768  2794A      6.173715  
    2795A      6.174789  2796A      6.178857  2797A      6.183160  
    2798A      6.192639  2799A      6.193184  2800A      6.202279  
    2801A      6.207314  2802A      6.212691  2803A      6.217556  
    2804A      6.226133  2805A      6.229948  2806A      6.234359  
    2807A      6.244321  2808A      6.248150  2809A      6.253666  
    2810A      6.256728  2811A      6.259936  2812A      6.264729  
    2813A      6.268960  2814A      6.272339  2815A      6.282058  
    2816A      6.286294  2817A      6.287915  2818A      6.294579  
    2819A      6.297702  2820A      6.301701  2821A      6.313455  
    2822A      6.322431  2823A      6.329866  2824A      6.334879  
    2825A      6.335909  2826A      6.341611  2827A      6.345863  
    2828A      6.354324  2829A      6.357713  2830A      6.362321  
    2831A      6.365581  2832A      6.390992  2833A      6.408308  
    2834A      6.413726  2835A      6.422139  2836A      6.424969  
    2837A      6.431704  2838A      6.441489  2839A      6.442745  
    2840A      6.454599  2841A      6.457297  2842A      6.473414  
    2843A      6.475844  2844A      6.487563  2845A      6.511004  
    2846A      6.535242  2847A      6.546770  2848A      6.553935  
    2849A      6.566569  2850A      6.572639  2851A      6.580977  
    2852A      6.594394  2853A      6.599177  2854A      6.615139  
    2855A      6.617415  2856A      6.628043  2857A      6.639341  
    2858A      6.641598  2859A      6.657853  2860A      6.661743  
    2861A      6.667190  2862A      6.671435  2863A      6.683805  
    2864A      6.692085  2865A      6.706213  2866A      6.725472  
    2867A      6.736658  2868A      6.741790  2869A      6.748865  
    2870A      6.754358  2871A      6.760057  2872A      6.785746  
    2873A      6.796407  2874A      6.800461  2875A      6.816984  
    2876A      6.824621  2877A      6.829966  2878A      6.833187  
    2879A      6.843224  2880A      6.853138  2881A      6.857212  
    2882A      6.858894  2883A      6.871608  2884A      6.877735  
    2885A      6.882114  2886A      6.899576  2887A      6.907673  
    2888A      6.913384  2889A      6.917943  2890A      6.928023  
    2891A      6.942160  2892A      6.944932  2893A      6.955351  
    2894A      6.961276  2895A      6.971270  2896A      6.985993  
    2897A      6.993914  2898A      7.007057  2899A      7.011491  
    2900A      7.021521  2901A      7.030895  2902A      7.033275  
    2903A      7.039769  2904A      7.045955  2905A      7.056004  
    2906A      7.058531  2907A      7.064730  2908A      7.066526  
    2909A      7.080724  2910A      7.093254  2911A      7.099721  
    2912A      7.108983  2913A      7.116151  2914A      7.126352  
    2915A      7.139288  2916A      7.142301  2917A      7.144929  
    2918A      7.157634  2919A      7.169150  2920A      7.186399  
    2921A      7.194965  2922A      7.213708  2923A      7.220503  
    2924A      7.239147  2925A      7.243960  2926A      7.251456  
    2927A      7.264230  2928A      7.278847  2929A      7.302742  
    2930A      7.316841  2931A      7.325701  2932A      7.354162  
    2933A      7.360018  2934A      7.373461  2935A      7.394130  
    2936A      7.401651  2937A      7.431642  2938A      7.445354  
    2939A      7.464928  2940A      7.474234  2941A      7.489481  
    2942A      7.503712  2943A      7.510051  2944A      7.528210  
    2945A      7.551057  2946A      7.554372  2947A      7.569570  
    2948A      7.600618  2949A      7.602538  2950A      7.630153  
    2951A      7.643686  2952A      7.668907  2953A      7.692019  
    2954A      7.695172  2955A      7.710319  2956A      7.727575  
    2957A      7.750675  2958A      7.760542  2959A      7.767925  
    2960A      7.776897  2961A      7.783674  2962A      7.787780  
    2963A      7.797372  2964A      7.802452  2965A      7.815507  
    2966A      7.828031  2967A      7.851193  2968A      7.863164  
    2969A      7.893694  2970A      7.905928  2971A      7.917140  
    2972A      7.932682  2973A      7.959105  2974A      7.984512  
    2975A      7.990616  2976A      8.018679  2977A      8.073127  
    2978A      8.102378  2979A      8.142009  2980A      8.170958  
    2981A      8.198842  2982A      8.229858  2983A      8.254909  
    2984A      8.263911  2985A      8.291456  2986A      8.304742  
    2987A      8.322451  2988A      8.340869  2989A      8.380537  
    2990A      8.399439  2991A      8.412744  2992A      8.447156  
    2993A      8.471598  2994A      8.506153  2995A      8.592089  
    2996A      8.610429  2997A      8.655067  2998A      8.675832  
    2999A      8.696142  3000A      8.745117  3001A      8.851388  
    3002A      8.888142  3003A      8.922648  3004A      9.005362  
    3005A      9.027279  3006A      9.094605  3007A      9.225281  
    3008A      9.313520  3009A      9.412452  3010A      9.427108  
    3011A      9.575824  3012A      9.642903  3013A      9.667221  
    3014A      9.732544  3015A      9.766334  3016A      9.824665  
    3017A      9.926684  3018A      9.979108  3019A      9.999562  
    3020A     10.040169  3021A     10.053774  3022A     10.128115  
    3023A     10.154961  3024A     10.245903  3025A     10.292995  
    3026A     10.375527  3027A     10.429838  3028A     10.502972  
    3029A     10.579789  3030A     10.698235  3031A     10.755724  
    3032A     10.830990  3033A     10.990488  3034A     11.068825  
    3035A     11.179840  3036A     11.211708  3037A     11.287209  
    3038A     11.390178  3039A     11.397641  3040A     11.456638  
    3041A     11.661123  3042A     11.851469  3043A     11.860901  
    3044A     11.975777  3045A     12.170554  3046A     12.219291  
    3047A     12.267442  3048A     12.317419  3049A     12.538076  
    3050A     12.652620  3051A     12.702923  3052A     15.940063  
    3053A     16.377421  3054A     16.764857  3055A     17.211690  
    3056A     17.507244  3057A     17.815004  3058A     18.101665  
    3059A     18.393710  3060A     18.821044  3061A     19.132581  
    3062A     19.618098  3063A     19.965039  3064A     20.368259  
    3065A     21.017204  3066A     21.570546  3067A     22.003521  
    3068A     22.149367  3069A     22.569253  3070A     22.632768  
    3071A     22.894049  3072A     23.085099  3073A     23.641892  
    3074A     23.825524  3075A     23.995238  3076A     49.740491  
    3077A     50.620970  3078A     51.398046  3079A     52.248358  
    3080A     52.936709  3081A     53.189332  3082A     53.481698  
    3083A     54.254610  3084A     55.162111  3085A     55.953232  
    3086A     56.700008  3087A     57.571941  3088A     58.116851  
    3089A     58.557261  3090A     59.595418  3091A     60.638646  
    3092A     61.368855  3093A     61.534595  3094A     61.772909  
    3095A     62.392854  3096A     62.637258  3097A     63.544524  
    3098A     64.126037  3099A     64.330451  

    Final Occupation by Irrep:
              A 
    DOCC [    82 ]
    NA   [    82 ]
    NB   [    82 ]

  @DF-RHF Final Energy:  -920.82424380277700

   => Energetics <=

    Nuclear Repulsion Energy =           1863.8004869688352301
    One-Electron Energy =               -4951.1577836132000812
    Two-Electron Energy =                2166.5330528415879598
    Total Energy =                       -920.8242438027768912

Computation Completed


Properties will be evaluated at   0.000000,   0.000000,   0.000000 [a0]

Properties computed using the SCF density matrix


 Multipole Moments:

 ------------------------------------------------------------------------------------
     Multipole            Electronic (a.u.)      Nuclear  (a.u.)        Total (a.u.)
 ------------------------------------------------------------------------------------

 L = 1.  Multiply by 2.5417464519 to convert [e a0] to [Debye]
 Dipole X            :      -4034.9008122         4034.8790109           -0.0218012
 Dipole Y            :      -3189.3604979         3189.5933564            0.2328585
 Dipole Z            :      -7377.8122341         7378.1192754            0.3070413
 Magnitude           :                                                    0.3859698

 ------------------------------------------------------------------------------------

*** tstop() called on atl1-1-02-003-29-2.pace.gatech.edu at Sat Jun 13 11:48:17 2026
Module time:
	user time   =   21179.08 seconds =     352.98 minutes
	system time =    1701.68 seconds =      28.36 minutes
	total time  =       3650 seconds =      60.83 minutes
Total time:
	user time   =   21179.08 seconds =     352.98 minutes
	system time =    1701.68 seconds =      28.36 minutes
	total time  =       3650 seconds =      60.83 minutes

    Psi4 stopped on: Saturday, 13 June 2026 11:48AM
    Psi4 wall time for execution: 1:00:58.06

*** Psi4 exiting successfully. Buy a developer a beer!
