
    -----------------------------------------------------------------------
          Psi4: An Open-Source Ab Initio Electronic Structure Package
                               Psi4 1.9.1 release

                         Git: Rev {} zzzzzzz 


    D. G. A. Smith, L. A. Burns, A. C. Simmonett, R. M. Parrish,
    M. C. Schieber, R. Galvelis, P. Kraus, H. Kruse, R. Di Remigio,
    A. Alenaizan, A. M. James, S. Lehtola, J. P. Misiewicz, M. Scheurer,
    R. A. Shaw, J. B. Schriber, Y. Xie, Z. L. Glick, D. A. Sirianni,
    J. S. O'Brien, J. M. Waldrop, A. Kumar, E. G. Hohenstein,
    B. P. Pritchard, B. R. Brooks, H. F. Schaefer III, A. Yu. Sokolov,
    K. Patkowski, A. E. DePrince III, U. Bozkaya, R. A. King,
    F. A. Evangelista, J. M. Turney, T. D. Crawford, C. D. Sherrill,
    J. Chem. Phys. 152(18) 184108 (2020). https://doi.org/10.1063/5.0006002

                            Additional Code Authors
    E. T. Seidl, C. L. Janssen, E. F. Valeev, M. L. Leininger,
    J. F. Gonthier, R. M. Richard, H. R. McAlexander, M. Saitow, X. Wang,
    P. Verma, M. H. Lechner, A. Jiang, S. Behnle, A. G. Heide,
    M. F. Herbst, and D. L. Poole

             Previous Authors, Complete List of Code Contributors,
                       and Citations for Specific Modules
    https://github.com/psi4/psi4/blob/master/codemeta.json
    https://github.com/psi4/psi4/graphs/contributors
    http://psicode.org/psi4manual/master/introduction.html#citing-psifour

    -----------------------------------------------------------------------


    Psi4 started on: Saturday, 13 June 2026 10:53AM

    Process ID: 4030181
    Host:       atl1-1-03-004-7-1.pace.gatech.edu
    PSIDATADIR: /storage/home/hcoda1/5/vlita3/.conda/envs/p4_qcml/share/psi4
    Memory:     250.0 GiB
    Threads:    10
    
  ==> Input QCSchema <==

--------------------------------------------------------------------------
{'driver': 'energy',
 'extras': {},
 'id': '205',
 'keywords': {},
 'model': {'basis': 'aug-cc-pvtz', 'method': 'hf'},
 'molecule': {'extras': {},
              'fix_com': True,
              'fix_orientation': True,
              'fragment_charges': [0.0, 0.0],
              'fragment_multiplicities': [1, 1],
              'fragments': [[0, 1, 2, 3, 4, 5, 6, 7, 8, 9, 10, 11, 12, 13, 14, 15, 16, 17, 18, 19, 20, 21, 22, 23, 24,
                             25, 26, 27, 28, 29, 30, 31, 32, 33, 34, 35, 36, 37, 38, 39, 40, 41, 42, 43],
                            [44, 45, 46, 47, 48, 49, 50, 51, 52, 53, 54, 55, 56, 57, 58, 59, 60, 61, 62, 63, 64, 65, 66,
                             67, 68, 69, 70, 71, 72, 73, 74, 75, 76, 77, 78, 79, 80, 81, 82, 83, 84, 85, 86, 87]],
              'geometry': [25.47963781, 23.08351049, 43.1296896, 24.89690954, 20.52012331, 43.887087, 25.07057198,
                           18.48699404, 42.07353641, 25.8424877, 19.04880944, 39.52013663, 26.46903607, 21.61452675,
                           38.85199593, 26.30318821, 23.59330066, 40.54460103, 24.46577176, 15.9279092, 42.77036087,
                           23.76811717, 15.37695629, 45.40838081, 23.59859476, 17.38880058, 47.22265844, 24.1081018,
                           20.02007671, 46.44346413, 22.96694077, 16.77267612, 49.77192758, 22.51062738, 14.29130626,
                           50.58597185, 22.67427055, 12.32177999, 48.76231557, 23.27971306, 12.86309326, 46.25226043,
                           25.97467497, 17.0727052, 37.71068154, 25.34789586, 14.59123463, 38.39437083, 24.59969708,
                           14.0277518, 40.88784347, 25.20039992, 25.0588727, 44.92111126, 24.35321071, 24.59525103,
                           47.39946073, 23.84084877, 22.08099208, 48.12795237, 21.86046838, 13.69556932, 53.32235171,
                           24.04555383, 26.76370654, 49.27889773, 26.50915633, 27.41178979, 50.73375129, 26.93108599,
                           26.27094839, 39.72356046, 27.10311578, 21.98163565, 36.89906984, 22.32265299, 10.34583799,
                           49.33666834, 23.39372081, 11.28300305, 44.90489504, 26.57612038, 17.51973959, 35.76596134,
                           25.43664936, 13.06203906, 36.97800898, 24.12002947, 12.05854919, 41.3527408, 25.62817825,
                           27.01761767, 44.36171793, 23.18724332, 21.75219607, 50.07608394, 23.27013145, 12.38510294,
                           54.17857328, 21.79629273, 15.42803966, 54.50687769, 19.98705402, 12.74487252, 53.47527914,
                           22.53167906, 26.28198386, 50.6619148, 23.38069793, 28.48102898, 48.25612267, 27.19569266,
                           25.7565067, 51.83310019, 28.04156267, 27.96965392, 49.40821263, 28.39145441, 27.1428651,
                           40.95513515, 25.23456206, 27.51897461, 39.79892028, 27.66207922, 26.29954115, 37.75755015,
                           26.2022166, 29.00071195, 52.0780899, 22.83611537, 18.29134925, 51.1881473, 30.81342193,
                           18.71017989, 45.99359029, 31.5788239, 19.74555973, 43.58027113, 32.18922921, 22.39746574,
                           43.36009841, 32.04731473, 23.98056161, 45.57578145, 31.25562095, 22.88485355, 47.94186375,
                           30.64065655, 20.36296812, 48.19759324, 32.96098858, 23.46875558, 40.98068543, 32.9776879,
                           21.8498177, 38.71563215, 32.39688051, 19.20754673, 38.92783428, 31.75108262, 18.1119644,
                           41.41040042, 32.38510148, 17.70859001, 36.6883681, 32.89884869, 18.70388423, 34.28627015,
                           33.46045747, 21.32787429, 34.10603582, 33.50020544, 22.84413785, 36.26471359, 32.71084168,
                           26.57519902, 45.39430813, 33.51746054, 27.59229626, 43.0833912, 33.64071365, 26.05933156,
                           40.9078722, 30.26834315, 16.09166271, 46.16720061, 30.49746548, 14.47431826, 44.06910385,
                           31.23964841, 15.50757785, 41.72580743, 32.85245858, 17.05660123, 31.93007182, 30.0352396,
                           11.64386798, 44.33912194, 32.45644731, 10.16276856, 45.08627623, 29.83741229, 19.30937345,
                           50.74453249, 31.15944353, 24.13692378, 49.60598037, 33.86115259, 22.17547238, 32.24063318,
                           33.92403613, 24.86828461, 36.03931452, 32.60693264, 27.77144276, 47.1004289, 34.05705016,
                           29.60331272, 42.95688301, 34.27807476, 26.92308174, 39.12655219, 29.64722791, 15.28713696,
                           47.98302787, 31.38145507, 14.21615321, 40.10268471, 34.735737, 17.01308892, 30.98680081,
                           32.31443775, 15.0754773, 32.37170495, 31.48589123, 17.79122297, 30.50534659, 29.28049933,
                           10.88478084, 42.52649407, 28.54357618, 11.31799443, 45.78690148, 33.97269455, 10.41059171,
                           43.64975571, 33.2192207, 10.84125701, 46.92494523, 31.18221652, 17.84465276, 51.44063809,
                           27.94896357, 18.39273342, 50.64394079, 29.74125873, 20.82714016, 52.19033882, 32.06613232,
                           8.10297733, 45.26704002, 31.91846208, 15.68652669, 36.81860417],
              'id': 15,
              'identifiers': {'molecular_formula': 'C48H40',
                              'molecule_hash': '5e3296bad3c72e10e864464b8bcfe4a1199407a4'},
              'masses': [12.0, 12.0, 12.0, 12.0, 12.0, 12.0, 12.0, 12.0, 12.0, 12.0, 12.0, 12.0, 12.0, 12.0, 12.0, 12.0,
                         12.0, 12.0, 12.0, 12.0, 12.0, 12.0, 12.0, 12.0, 1.00782503223, 1.00782503223, 1.00782503223,
                         1.00782503223, 1.00782503223, 1.00782503223, 1.00782503223, 1.00782503223, 1.00782503223,
                         1.00782503223, 1.00782503223, 1.00782503223, 1.00782503223, 1.00782503223, 1.00782503223,
                         1.00782503223, 1.00782503223, 1.00782503223, 1.00782503223, 1.00782503223, 12.0, 12.0, 12.0,
                         12.0, 12.0, 12.0, 12.0, 12.0, 12.0, 12.0, 12.0, 12.0, 12.0, 12.0, 12.0, 12.0, 12.0, 12.0, 12.0,
                         12.0, 12.0, 12.0, 12.0, 12.0, 1.00782503223, 1.00782503223, 1.00782503223, 1.00782503223,
                         1.00782503223, 1.00782503223, 1.00782503223, 1.00782503223, 1.00782503223, 1.00782503223,
                         1.00782503223, 1.00782503223, 1.00782503223, 1.00782503223, 1.00782503223, 1.00782503223,
                         1.00782503223, 1.00782503223, 1.00782503223, 1.00782503223],
              'molecular_charge': 0.0,
              'molecular_multiplicity': 1,
              'name': 'C48H40 ([1],[0])',
              'provenance': {'creator': 'QCElemental',
                             'routine': 'qcelemental.molparse.from_schema',
                             'version': '0.29.0'},
              'real': [False, False, False, False, False, False, False, False, False, False, False, False, False, False,
                       False, False, False, False, False, False, False, False, False, False, False, False, False, False,
                       False, False, False, False, False, False, False, False, False, False, False, False, False, False,
                       False, False, True, True, True, True, True, True, True, True, True, True, True, True, True, True,
                       True, True, True, True, True, True, True, True, True, True, True, True, True, True, True, True,
                       True, True, True, True, True, True, True, True, True, True, True, True, True, True],
              'schema_name': 'qcschema_molecule',
              'schema_version': 2,
              'symbols': ['C', 'C', 'C', 'C', 'C', 'C', 'C', 'C', 'C', 'C', 'C', 'C', 'C', 'C', 'C', 'C', 'C', 'C', 'C',
                          'C', 'C', 'C', 'C', 'C', 'H', 'H', 'H', 'H', 'H', 'H', 'H', 'H', 'H', 'H', 'H', 'H', 'H', 'H',
                          'H', 'H', 'H', 'H', 'H', 'H', 'C', 'C', 'C', 'C', 'C', 'C', 'C', 'C', 'C', 'C', 'C', 'C', 'C',
                          'C', 'C', 'C', 'C', 'C', 'C', 'C', 'C', 'C', 'C', 'C', 'H', 'H', 'H', 'H', 'H', 'H', 'H', 'H',
                          'H', 'H', 'H', 'H', 'H', 'H', 'H', 'H', 'H', 'H', 'H', 'H'],
              'validated': True},
 'protocols': {},
 'provenance': {'creator': 'QCElemental', 'routine': 'qcelemental.models.results', 'version': '0.29.0'},
 'schema_name': 'qcschema_input',
 'schema_version': 1}
--------------------------------------------------------------------------

Scratch directory: /tmp/tmpe9yb6127_psi_scratch/
   => Libint2 <=

    Primary   basis highest AM E, G, H:  6, 6, 3
    Auxiliary basis highest AM E, G, H:  7, 7, 4
    Onebody   basis highest AM E, G, H:  -, -, -
    Solid Harmonics ordering:            Gaussian

*** tstart() called on atl1-1-03-004-7-1.pace.gatech.edu
*** at Sat Jun 13 10:53:03 2026

   => Loading Basis Set <=

    Name: AUG-CC-PVTZ
    Role: ORBITAL
    Keyword: BASIS
    atoms 1-24, 45-68  entry C          line   239 file /storage/home/hcoda1/5/vlita3/.conda/envs/p4_qcml/share/psi4/basis/aug-cc-pvtz.gbs 
    atoms 25-44, 69-88 entry H          line    40 file /storage/home/hcoda1/5/vlita3/.conda/envs/p4_qcml/share/psi4/basis/aug-cc-pvtz.gbs 


         ---------------------------------------------------------
                                   SCF
               by Justin Turney, Rob Parrish, Andy Simmonett
                          and Daniel G. A. Smith
                              RHF Reference
                       10 Threads, 256000 MiB Core
         ---------------------------------------------------------

  ==> Geometry <==

    Molecular point group: c1
    Full point group: C1

    Geometry (in Bohr), charge = 0, multiplicity = 1:

       Center              X                  Y                   Z               Mass       
    ------------   -----------------  -----------------  -----------------  -----------------
      Gh(C)          25.479637810000    23.083510490000    43.129689600000    12.000000000000
      Gh(C)          24.896909540000    20.520123310000    43.887087000000    12.000000000000
      Gh(C)          25.070571980000    18.486994040000    42.073536410000    12.000000000000
      Gh(C)          25.842487700000    19.048809440000    39.520136630000    12.000000000000
      Gh(C)          26.469036070000    21.614526750000    38.851995930000    12.000000000000
      Gh(C)          26.303188210000    23.593300660000    40.544601030000    12.000000000000
      Gh(C)          24.465771760000    15.927909200000    42.770360870000    12.000000000000
      Gh(C)          23.768117170000    15.376956290000    45.408380810000    12.000000000000
      Gh(C)          23.598594760000    17.388800580000    47.222658440000    12.000000000000
      Gh(C)          24.108101800000    20.020076710000    46.443464130000    12.000000000000
      Gh(C)          22.966940770000    16.772676120000    49.771927580000    12.000000000000
      Gh(C)          22.510627380000    14.291306260000    50.585971850000    12.000000000000
      Gh(C)          22.674270550000    12.321779990000    48.762315570000    12.000000000000
      Gh(C)          23.279713060000    12.863093260000    46.252260430000    12.000000000000
      Gh(C)          25.974674970000    17.072705200000    37.710681540000    12.000000000000
      Gh(C)          25.347895860000    14.591234630000    38.394370830000    12.000000000000
      Gh(C)          24.599697080000    14.027751800000    40.887843470000    12.000000000000
      Gh(C)          25.200399920000    25.058872700000    44.921111260000    12.000000000000
      Gh(C)          24.353210710000    24.595251030000    47.399460730000    12.000000000000
      Gh(C)          23.840848770000    22.080992080000    48.127952370000    12.000000000000
      Gh(C)          21.860468380000    13.695569320000    53.322351710000    12.000000000000
      Gh(C)          24.045553830000    26.763706540000    49.278897730000    12.000000000000
      Gh(C)          26.509156330000    27.411789790000    50.733751290000    12.000000000000
      Gh(C)          26.931085990000    26.270948390000    39.723560460000    12.000000000000
      Gh(H)          27.103115780000    21.981635650000    36.899069840000     1.007825032230
      Gh(H)          22.322652990000    10.345837990000    49.336668340000     1.007825032230
      Gh(H)          23.393720810000    11.283003050000    44.904895040000     1.007825032230
      Gh(H)          26.576120380000    17.519739590000    35.765961340000     1.007825032230
      Gh(H)          25.436649360000    13.062039060000    36.978008980000     1.007825032230
      Gh(H)          24.120029470000    12.058549190000    41.352740800000     1.007825032230
      Gh(H)          25.628178250000    27.017617670000    44.361717930000     1.007825032230
      Gh(H)          23.187243320000    21.752196070000    50.076083940000     1.007825032230
      Gh(H)          23.270131450000    12.385102940000    54.178573280000     1.007825032230
      Gh(H)          21.796292730000    15.428039660000    54.506877690000     1.007825032230
      Gh(H)          19.987054020000    12.744872520000    53.475279140000     1.007825032230
      Gh(H)          22.531679060000    26.281983860000    50.661914800000     1.007825032230
      Gh(H)          23.380697930000    28.481028980000    48.256122670000     1.007825032230
      Gh(H)          27.195692660000    25.756506700000    51.833100190000     1.007825032230
      Gh(H)          28.041562670000    27.969653920000    49.408212630000     1.007825032230
      Gh(H)          28.391454410000    27.142865100000    40.955135150000     1.007825032230
      Gh(H)          25.234562060000    27.518974610000    39.798920280000     1.007825032230
      Gh(H)          27.662079220000    26.299541150000    37.757550150000     1.007825032230
      Gh(H)          26.202216600000    29.000711950000    52.078089900000     1.007825032230
      Gh(H)          22.836115370000    18.291349250000    51.188147300000     1.007825032230
         C           30.813421930000    18.710179890000    45.993590290000    12.000000000000
         C           31.578823900000    19.745559730000    43.580271130000    12.000000000000
         C           32.189229210000    22.397465740000    43.360098410000    12.000000000000
         C           32.047314730000    23.980561610000    45.575781450000    12.000000000000
         C           31.255620950000    22.884853550000    47.941863750000    12.000000000000
         C           30.640656550000    20.362968120000    48.197593240000    12.000000000000
         C           32.960988580000    23.468755580000    40.980685430000    12.000000000000
         C           32.977687900000    21.849817700000    38.715632150000    12.000000000000
         C           32.396880510000    19.207546730000    38.927834280000    12.000000000000
         C           31.751082620000    18.111964400000    41.410400420000    12.000000000000
         C           32.385101480000    17.708590010000    36.688368100000    12.000000000000
         C           32.898848690000    18.703884230000    34.286270150000    12.000000000000
         C           33.460457470000    21.327874290000    34.106035820000    12.000000000000
         C           33.500205440000    22.844137850000    36.264713590000    12.000000000000
         C           32.710841680000    26.575199020000    45.394308130000    12.000000000000
         C           33.517460540000    27.592296260000    43.083391200000    12.000000000000
         C           33.640713650000    26.059331560000    40.907872200000    12.000000000000
         C           30.268343150000    16.091662710000    46.167200610000    12.000000000000
         C           30.497465480000    14.474318260000    44.069103850000    12.000000000000
         C           31.239648410000    15.507577850000    41.725807430000    12.000000000000
         C           32.852458580000    17.056601230000    31.930071820000    12.000000000000
         C           30.035239600000    11.643867980000    44.339121940000    12.000000000000
         C           32.456447310000    10.162768560000    45.086276230000    12.000000000000
         C           29.837412290000    19.309373450000    50.744532490000    12.000000000000
         H           31.159443530000    24.136923780000    49.605980370000     1.007825032230
         H           33.861152590000    22.175472380000    32.240633180000     1.007825032230
         H           33.924036130000    24.868284610000    36.039314520000     1.007825032230
         H           32.606932640000    27.771442760000    47.100428900000     1.007825032230
         H           34.057050160000    29.603312720000    42.956883010000     1.007825032230
         H           34.278074760000    26.923081740000    39.126552190000     1.007825032230
         H           29.647227910000    15.287136960000    47.983027870000     1.007825032230
         H           31.381455070000    14.216153210000    40.102684710000     1.007825032230
         H           34.735737000000    17.013088920000    30.986800810000     1.007825032230
         H           32.314437750000    15.075477300000    32.371704950000     1.007825032230
         H           31.485891230000    17.791222970000    30.505346590000     1.007825032230
         H           29.280499330000    10.884780840000    42.526494070000     1.007825032230
         H           28.543576180000    11.317994430000    45.786901480000     1.007825032230
         H           33.972694550000    10.410591710000    43.649755710000     1.007825032230
         H           33.219220700000    10.841257010000    46.924945230000     1.007825032230
         H           31.182216520000    17.844652760000    51.440638090000     1.007825032230
         H           27.948963570000    18.392733420000    50.643940790000     1.007825032230
         H           29.741258730000    20.827140160000    52.190338820000     1.007825032230
         H           32.066132320000     8.102977330000    45.267040020000     1.007825032230
         H           31.918462080000    15.686526690000    36.818604170000     1.007825032230

  Running in c1 symmetry.

  Rotational constants: A =      0.00210  B =      0.00003  C =      0.00003 [cm^-1]
  Rotational constants: A =     62.96897  B =      0.94325  C =      0.93874 [MHz]
  Nuclear repulsion = 1864.841208739238255

  Charge       = 0
  Multiplicity = 1
  Electrons    = 164
  Nalpha       = 82
  Nbeta        = 82

  ==> Algorithm <==

  SCF Algorithm Type is DF.
  DIIS enabled.
  MOM disabled.
  Fractional occupation disabled.
  Guess Type is SAD.
  Energy threshold   = 1.00e-06
  Density threshold  = 1.00e-06
  Integral threshold = 1.00e-12

  ==> Primary Basis <==

  Basis Set: AUG-CC-PVTZ
    Blend: AUG-CC-PVTZ
    Number of shells: 1032
    Number of basis functions: 3128
    Number of Cartesian functions: 3640
    Spherical Harmonics?: true
    Max angular momentum: 3

   => Loading Basis Set <=

    Name: (AUG-CC-PVTZ AUX)
    Role: JKFIT
    Keyword: DF_BASIS_SCF
    atoms 1-24, 45-68  entry C          line   162 file /storage/home/hcoda1/5/vlita3/.conda/envs/p4_qcml/share/psi4/basis/aug-cc-pvtz-jkfit.gbs 
    atoms 25-44, 69-88 entry H          line    70 file /storage/home/hcoda1/5/vlita3/.conda/envs/p4_qcml/share/psi4/basis/aug-cc-pvtz-jkfit.gbs 

  ==> Integral Setup <==

  ==> DiskDFJK: Density-Fitted J/K Matrices <==

    J tasked:                  Yes
    K tasked:                  Yes
    wK tasked:                  No
    OpenMP threads:             10
    Integrals threads:          10
    Memory [MiB]:           192000
    Algorithm:                Disk
    Integral Cache:           NONE
    Schwarz Cutoff:          1E-12
    Fitting Condition:       1E-10

   => Auxiliary Basis Set <=

  Basis Set: (AUG-CC-PVTZ AUX)
    Blend: AUG-CC-PVTZ-JKFIT
    Number of shells: 2000
    Number of basis functions: 6832
    Number of Cartesian functions: 8488
    Spherical Harmonics?: true
    Max angular momentum: 4

  Minimum eigenvalue in the overlap matrix is 6.3711160731E-10.
  Reciprocal condition number of the overlap matrix is 1.7895063395E-11.
    Using canonical orthogonalization.
  Overall, 29 of 3128 possible MOs eliminated.


  ==> Pre-Iterations <==

  SCF Guess: Superposition of Atomic Densities via on-the-fly atomic UHF (no occupation information).

   -------------------------
    Irrep   Nso     Nmo    
   -------------------------
     A       3128    3099 
   -------------------------
    Total    3128    3099
   -------------------------

  ==> Iterations <==

                           Total Energy        Delta E     RMS |[F,P]|

   @DF-RHF iter SAD:  -920.65506338537034   -9.20655e+02   0.00000e+00 
   @DF-RHF iter   1:  -920.21638466532283    4.38679e-01   3.04639e-04 ADIIS/DIIS
   @DF-RHF iter   2:  -920.74188422009320   -5.25500e-01   1.18714e-04 ADIIS/DIIS
   @DF-RHF iter   3:  -920.81695048798997   -7.50663e-02   2.91101e-05 DIIS
   @DF-RHF iter   4:  -920.82353722607445   -6.58674e-03   1.14308e-05 DIIS
   @DF-RHF iter   5:  -920.82427686801657   -7.39642e-04   3.03326e-06 DIIS
   @DF-RHF iter   6:  -920.82434800058616   -7.11326e-05   1.10519e-06 DIIS
   @DF-RHF iter   7:  -920.82436038228718   -1.23817e-05   3.92558e-07 DIIS
   @DF-RHF iter   8:  -920.82436295653338   -2.57425e-06   1.75912e-07 DIIS
   @DF-RHF iter   9:  -920.82436361690054   -6.60367e-07   8.00432e-08 DIIS
  Energy and wave function converged.


  ==> Post-Iterations <==

    Orbital Energies [Eh]
    ---------------------

    Doubly Occupied:                                                      

       1A    -11.256381     2A    -11.255612     3A    -11.254954  
       4A    -11.252655     5A    -11.252530     6A    -11.251825  
       7A    -11.251264     8A    -11.250998     9A    -11.250160  
      10A    -11.249210    11A    -11.247235    12A    -11.243749  
      13A    -11.242535    14A    -11.240500    15A    -11.240166  
      16A    -11.239928    17A    -11.239613    18A    -11.238350  
      19A    -11.238086    20A    -11.238047    21A    -11.237080  
      22A    -11.236203    23A    -11.235055    24A    -11.227943  
      25A     -1.189849    26A     -1.149262    27A     -1.139398  
      28A     -1.100704    29A     -1.078771    30A     -1.052533  
      31A     -1.029580    32A     -1.024754    33A     -1.004587  
      34A     -0.974613    35A     -0.967228    36A     -0.928828  
      37A     -0.926988    38A     -0.868660    39A     -0.855253  
      40A     -0.833603    41A     -0.824992    42A     -0.815270  
      43A     -0.784233    44A     -0.741150    45A     -0.718882  
      46A     -0.706754    47A     -0.678977    48A     -0.669795  
      49A     -0.639252    50A     -0.635748    51A     -0.630984  
      52A     -0.614203    53A     -0.610632    54A     -0.593113  
      55A     -0.583263    56A     -0.576489    57A     -0.575919  
      58A     -0.572093    59A     -0.570646    60A     -0.563452  
      61A     -0.554306    62A     -0.544785    63A     -0.539047  
      64A     -0.534594    65A     -0.528121    66A     -0.521629  
      67A     -0.512923    68A     -0.510607    69A     -0.496033  
      70A     -0.489557    71A     -0.488595    72A     -0.483635  
      73A     -0.478323    74A     -0.456657    75A     -0.455627  
      76A     -0.414912    77A     -0.382480    78A     -0.376032  
      79A     -0.321315    80A     -0.319775    81A     -0.278059  
      82A     -0.257694  

    Virtual:                                                              

      83A      0.015678    84A      0.020930    85A      0.022158  
      86A      0.027541    87A      0.028560    88A      0.029998  
      89A      0.034099    90A      0.034577    91A      0.039126  
      92A      0.039213    93A      0.041448    94A      0.044595  
      95A      0.046524    96A      0.047829    97A      0.050245  
      98A      0.051857    99A      0.053900   100A      0.054594  
     101A      0.055596   102A      0.059718   103A      0.060867  
     104A      0.063038   105A      0.065278   106A      0.066146  
     107A      0.067085   108A      0.068423   109A      0.070073  
     110A      0.070690   111A      0.074747   112A      0.075718  
     113A      0.078851   114A      0.079624   115A      0.081786  
     116A      0.082849   117A      0.083810   118A      0.085819  
     119A      0.086361   120A      0.087409   121A      0.089688  
     122A      0.090682   123A      0.091484   124A      0.093318  
     125A      0.097606   126A      0.098110   127A      0.100104  
     128A      0.101190   129A      0.101884   130A      0.104241  
     131A      0.105184   132A      0.107592   133A      0.109304  
     134A      0.109853   135A      0.111048   136A      0.113193  
     137A      0.113695   138A      0.114820   139A      0.117287  
     140A      0.118361   141A      0.119023   142A      0.119205  
     143A      0.121188   144A      0.124257   145A      0.124549  
     146A      0.128037   147A      0.128708   148A      0.129136  
     149A      0.130678   150A      0.130964   151A      0.133787  
     152A      0.137092   153A      0.138168   154A      0.139098  
     155A      0.140287   156A      0.141386   157A      0.142999  
     158A      0.144488   159A      0.145000   160A      0.145176  
     161A      0.146049   162A      0.148115   163A      0.150393  
     164A      0.150555   165A      0.154142   166A      0.154980  
     167A      0.156404   168A      0.158432   169A      0.160035  
     170A      0.160593   171A      0.161887   172A      0.162886  
     173A      0.165180   174A      0.166394   175A      0.167316  
     176A      0.168752   177A      0.169660   178A      0.171319  
     179A      0.172238   180A      0.173165   181A      0.174411  
     182A      0.174951   183A      0.175717   184A      0.177346  
     185A      0.178786   186A      0.179859   187A      0.182401  
     188A      0.184270   189A      0.184765   190A      0.186615  
     191A      0.188385   192A      0.188786   193A      0.191209  
     194A      0.192236   195A      0.193900   196A      0.194871  
     197A      0.195639   198A      0.198323   199A      0.200331  
     200A      0.202305   201A      0.202523   202A      0.203736  
     203A      0.204297   204A      0.206521   205A      0.207350  
     206A      0.209346   207A      0.210015   208A      0.211807  
     209A      0.212911   210A      0.214670   211A      0.215517  
     212A      0.215606   213A      0.217582   214A      0.218212  
     215A      0.219367   216A      0.221454   217A      0.222890  
     218A      0.225462   219A      0.227834   220A      0.229227  
     221A      0.230462   222A      0.232690   223A      0.234740  
     224A      0.235251   225A      0.236338   226A      0.237831  
     227A      0.238599   228A      0.240702   229A      0.241644  
     230A      0.242522   231A      0.244981   232A      0.245140  
     233A      0.246754   234A      0.248609   235A      0.249252  
     236A      0.251668   237A      0.252118   238A      0.253067  
     239A      0.253742   240A      0.255598   241A      0.256557  
     242A      0.258147   243A      0.260375   244A      0.261520  
     245A      0.262798   246A      0.263180   247A      0.264307  
     248A      0.266102   249A      0.268409   250A      0.269264  
     251A      0.271031   252A      0.274077   253A      0.275139  
     254A      0.276650   255A      0.277214   256A      0.278316  
     257A      0.280383   258A      0.281217   259A      0.281932  
     260A      0.283708   261A      0.284689   262A      0.285576  
     263A      0.286839   264A      0.287702   265A      0.289639  
     266A      0.291745   267A      0.292635   268A      0.293652  
     269A      0.295765   270A      0.297161   271A      0.298571  
     272A      0.300484   273A      0.301955   274A      0.302745  
     275A      0.302886   276A      0.304278   277A      0.306396  
     278A      0.307236   279A      0.309750   280A      0.310594  
     281A      0.311003   282A      0.312567   283A      0.314041  
     284A      0.314370   285A      0.315613   286A      0.318264  
     287A      0.320713   288A      0.321418   289A      0.322130  
     290A      0.322993   291A      0.325228   292A      0.325954  
     293A      0.327594   294A      0.329235   295A      0.330719  
     296A      0.332603   297A      0.334237   298A      0.336189  
     299A      0.336646   300A      0.338232   301A      0.339201  
     302A      0.340024   303A      0.341191   304A      0.343381  
     305A      0.344305   306A      0.345320   307A      0.347237  
     308A      0.348780   309A      0.349378   310A      0.350525  
     311A      0.352863   312A      0.354802   313A      0.355193  
     314A      0.356441   315A      0.358386   316A      0.359129  
     317A      0.361384   318A      0.362041   319A      0.363124  
     320A      0.364286   321A      0.366530   322A      0.369332  
     323A      0.369590   324A      0.369647   325A      0.371093  
     326A      0.372957   327A      0.374794   328A      0.376268  
     329A      0.377559   330A      0.379832   331A      0.381305  
     332A      0.382736   333A      0.384157   334A      0.384868  
     335A      0.387115   336A      0.387962   337A      0.390002  
     338A      0.390976   339A      0.393129   340A      0.393442  
     341A      0.395073   342A      0.396190   343A      0.396812  
     344A      0.398518   345A      0.399419   346A      0.400901  
     347A      0.402696   348A      0.403420   349A      0.403941  
     350A      0.406329   351A      0.407206   352A      0.410214  
     353A      0.412744   354A      0.413220   355A      0.413818  
     356A      0.415463   357A      0.417329   358A      0.418023  
     359A      0.418347   360A      0.419515   361A      0.420499  
     362A      0.421606   363A      0.422668   364A      0.422866  
     365A      0.424704   366A      0.427551   367A      0.428174  
     368A      0.429371   369A      0.430813   370A      0.431166  
     371A      0.431825   372A      0.433656   373A      0.434273  
     374A      0.435483   375A      0.438390   376A      0.439109  
     377A      0.440373   378A      0.441925   379A      0.443584  
     380A      0.445640   381A      0.446744   382A      0.448770  
     383A      0.449872   384A      0.451748   385A      0.453324  
     386A      0.453753   387A      0.453990   388A      0.456202  
     389A      0.457121   390A      0.458560   391A      0.459685  
     392A      0.461180   393A      0.462535   394A      0.464928  
     395A      0.466215   396A      0.467141   397A      0.468786  
     398A      0.471042   399A      0.472298   400A      0.473806  
     401A      0.474134   402A      0.477048   403A      0.478374  
     404A      0.479847   405A      0.481232   406A      0.482032  
     407A      0.485267   408A      0.485842   409A      0.487311  
     410A      0.487938   411A      0.488986   412A      0.490954  
     413A      0.491443   414A      0.493838   415A      0.494102  
     416A      0.494583   417A      0.496499   418A      0.498043  
     419A      0.499040   420A      0.499813   421A      0.501432  
     422A      0.501710   423A      0.503427   424A      0.504508  
     425A      0.505341   426A      0.506390   427A      0.507837  
     428A      0.509012   429A      0.511773   430A      0.512393  
     431A      0.513527   432A      0.513810   433A      0.515299  
     434A      0.516199   435A      0.516572   436A      0.518246  
     437A      0.519959   438A      0.521329   439A      0.523345  
     440A      0.523674   441A      0.525043   442A      0.526458  
     443A      0.528137   444A      0.529226   445A      0.530984  
     446A      0.531741   447A      0.532199   448A      0.533469  
     449A      0.533963   450A      0.535773   451A      0.536490  
     452A      0.538378   453A      0.539989   454A      0.540042  
     455A      0.541021   456A      0.541968   457A      0.544267  
     458A      0.546463   459A      0.547674   460A      0.549642  
     461A      0.550691   462A      0.551469   463A      0.552137  
     464A      0.552850   465A      0.555095   466A      0.556104  
     467A      0.557895   468A      0.559764   469A      0.560918  
     470A      0.562396   471A      0.563738   472A      0.564858  
     473A      0.565666   474A      0.566417   475A      0.568016  
     476A      0.569281   477A      0.570116   478A      0.571848  
     479A      0.572814   480A      0.573557   481A      0.574232  
     482A      0.576714   483A      0.578481   484A      0.579246  
     485A      0.581883   486A      0.583095   487A      0.583646  
     488A      0.584700   489A      0.585710   490A      0.587251  
     491A      0.588594   492A      0.588825   493A      0.590569  
     494A      0.591472   495A      0.592067   496A      0.594477  
     497A      0.595486   498A      0.598192   499A      0.598482  
     500A      0.600948   501A      0.601584   502A      0.603082  
     503A      0.604698   504A      0.607083   505A      0.607672  
     506A      0.608393   507A      0.609858   508A      0.610121  
     509A      0.610618   510A      0.614645   511A      0.615269  
     512A      0.616790   513A      0.618318   514A      0.619436  
     515A      0.621370   516A      0.622486   517A      0.622937  
     518A      0.625139   519A      0.626679   520A      0.627455  
     521A      0.630837   522A      0.631329   523A      0.631853  
     524A      0.633865   525A      0.634686   526A      0.635870  
     527A      0.636853   528A      0.637682   529A      0.639148  
     530A      0.640176   531A      0.641762   532A      0.645108  
     533A      0.647269   534A      0.648213   535A      0.650761  
     536A      0.652377   537A      0.652674   538A      0.653766  
     539A      0.654971   540A      0.656069   541A      0.657231  
     542A      0.658017   543A      0.660092   544A      0.661837  
     545A      0.662974   546A      0.664959   547A      0.666534  
     548A      0.667459   549A      0.669852   550A      0.671088  
     551A      0.672644   552A      0.675547   553A      0.676930  
     554A      0.679574   555A      0.681162   556A      0.681503  
     557A      0.683625   558A      0.685622   559A      0.685998  
     560A      0.688208   561A      0.688918   562A      0.691697  
     563A      0.693772   564A      0.694326   565A      0.695041  
     566A      0.697477   567A      0.698618   568A      0.699385  
     569A      0.700412   570A      0.701651   571A      0.704488  
     572A      0.705588   573A      0.708545   574A      0.709138  
     575A      0.709867   576A      0.710930   577A      0.713117  
     578A      0.714770   579A      0.715471   580A      0.718692  
     581A      0.720978   582A      0.721727   583A      0.722337  
     584A      0.723893   585A      0.725436   586A      0.727311  
     587A      0.729073   588A      0.729623   589A      0.732129  
     590A      0.734013   591A      0.735958   592A      0.737121  
     593A      0.738693   594A      0.740869   595A      0.742074  
     596A      0.743212   597A      0.745582   598A      0.746085  
     599A      0.747537   600A      0.750800   601A      0.752453  
     602A      0.753240   603A      0.753981   604A      0.755587  
     605A      0.756788   606A      0.759314   607A      0.759922  
     608A      0.761120   609A      0.762291   610A      0.764520  
     611A      0.765198   612A      0.767729   613A      0.768755  
     614A      0.769961   615A      0.770500   616A      0.771965  
     617A      0.775213   618A      0.776255   619A      0.778956  
     620A      0.779756   621A      0.780856   622A      0.782901  
     623A      0.783216   624A      0.784866   625A      0.787088  
     626A      0.788655   627A      0.790668   628A      0.791772  
     629A      0.793154   630A      0.794870   631A      0.796269  
     632A      0.798206   633A      0.800597   634A      0.801226  
     635A      0.802169   636A      0.805445   637A      0.805696  
     638A      0.808987   639A      0.810597   640A      0.812635  
     641A      0.813737   642A      0.815464   643A      0.815948  
     644A      0.816919   645A      0.818923   646A      0.821784  
     647A      0.823424   648A      0.824158   649A      0.825783  
     650A      0.828963   651A      0.829523   652A      0.831202  
     653A      0.832060   654A      0.832715   655A      0.835592  
     656A      0.836393   657A      0.837505   658A      0.840377  
     659A      0.840970   660A      0.842263   661A      0.844686  
     662A      0.846039   663A      0.847486   664A      0.849798  
     665A      0.851429   666A      0.852233   667A      0.853696  
     668A      0.855809   669A      0.856637   670A      0.858781  
     671A      0.860456   672A      0.863397   673A      0.864233  
     674A      0.864898   675A      0.867547   676A      0.867790  
     677A      0.869973   678A      0.871219   679A      0.872652  
     680A      0.874532   681A      0.875628   682A      0.877107  
     683A      0.878636   684A      0.880704   685A      0.882457  
     686A      0.883206   687A      0.885002   688A      0.885833  
     689A      0.887701   690A      0.888479   691A      0.890035  
     692A      0.891656   693A      0.893572   694A      0.895198  
     695A      0.897843   696A      0.899517   697A      0.899887  
     698A      0.901035   699A      0.903740   700A      0.904851  
     701A      0.906165   702A      0.907573   703A      0.909231  
     704A      0.911218   705A      0.913490   706A      0.914581  
     707A      0.916505   708A      0.917138   709A      0.918516  
     710A      0.920201   711A      0.922106   712A      0.924409  
     713A      0.925663   714A      0.927424   715A      0.928662  
     716A      0.929793   717A      0.932991   718A      0.933503  
     719A      0.934088   720A      0.934964   721A      0.936322  
     722A      0.938194   723A      0.940275   724A      0.941807  
     725A      0.944417   726A      0.946906   727A      0.947388  
     728A      0.948861   729A      0.950107   730A      0.950946  
     731A      0.952246   732A      0.953817   733A      0.955818  
     734A      0.957773   735A      0.958557   736A      0.960517  
     737A      0.963079   738A      0.963710   739A      0.964643  
     740A      0.966925   741A      0.967236   742A      0.969510  
     743A      0.969859   744A      0.971551   745A      0.973454  
     746A      0.974383   747A      0.976015   748A      0.978628  
     749A      0.979709   750A      0.980476   751A      0.982680  
     752A      0.984173   753A      0.985871   754A      0.988658  
     755A      0.988856   756A      0.991539   757A      0.992325  
     758A      0.993262   759A      0.994304   760A      0.995783  
     761A      0.996261   762A      0.997526   763A      0.999150  
     764A      1.000089   765A      1.002149   766A      1.003734  
     767A      1.005173   768A      1.005669   769A      1.009819  
     770A      1.010587   771A      1.011015   772A      1.012592  
     773A      1.015522   774A      1.016097   775A      1.018470  
     776A      1.019482   777A      1.021072   778A      1.021522  
     779A      1.022782   780A      1.025338   781A      1.026762  
     782A      1.027548   783A      1.028907   784A      1.031779  
     785A      1.033715   786A      1.034690   787A      1.034952  
     788A      1.036783   789A      1.038530   790A      1.039860  
     791A      1.040660   792A      1.041296   793A      1.045756  
     794A      1.046925   795A      1.048233   796A      1.049831  
     797A      1.050952   798A      1.051312   799A      1.053166  
     800A      1.055922   801A      1.058514   802A      1.059091  
     803A      1.060931   804A      1.062939   805A      1.063161  
     806A      1.065882   807A      1.066421   808A      1.067871  
     809A      1.068938   810A      1.070706   811A      1.070963  
     812A      1.072831   813A      1.074681   814A      1.075889  
     815A      1.076829   816A      1.077165   817A      1.078988  
     818A      1.080721   819A      1.083899   820A      1.084889  
     821A      1.085652   822A      1.087781   823A      1.089225  
     824A      1.091399   825A      1.092223   826A      1.092770  
     827A      1.094003   828A      1.096977   829A      1.097460  
     830A      1.099433   831A      1.101584   832A      1.103548  
     833A      1.105556   834A      1.107218   835A      1.107340  
     836A      1.108278   837A      1.110389   838A      1.112793  
     839A      1.115572   840A      1.116045   841A      1.119434  
     842A      1.120455   843A      1.121736   844A      1.123962  
     845A      1.125353   846A      1.126940   847A      1.129049  
     848A      1.129976   849A      1.131710   850A      1.133262  
     851A      1.134862   852A      1.136021   853A      1.136880  
     854A      1.138907   855A      1.140970   856A      1.142800  
     857A      1.145261   858A      1.146318   859A      1.148838  
     860A      1.149409   861A      1.150546   862A      1.151785  
     863A      1.153811   864A      1.154820   865A      1.154883  
     866A      1.156524   867A      1.159081   868A      1.159870  
     869A      1.160914   870A      1.163962   871A      1.164513  
     872A      1.166473   873A      1.168133   874A      1.168928  
     875A      1.171750   876A      1.172179   877A      1.175170  
     878A      1.176051   879A      1.177028   880A      1.178846  
     881A      1.179590   882A      1.180666   883A      1.183406  
     884A      1.185710   885A      1.186918   886A      1.188609  
     887A      1.189532   888A      1.189960   889A      1.191757  
     890A      1.192569   891A      1.194599   892A      1.196252  
     893A      1.198289   894A      1.199208   895A      1.201045  
     896A      1.203345   897A      1.204420   898A      1.205080  
     899A      1.207598   900A      1.209175   901A      1.210469  
     902A      1.212648   903A      1.213858   904A      1.215348  
     905A      1.216347   906A      1.217636   907A      1.218867  
     908A      1.221330   909A      1.223545   910A      1.225132  
     911A      1.225832   912A      1.226529   913A      1.229245  
     914A      1.230175   915A      1.231100   916A      1.232586  
     917A      1.233965   918A      1.237184   919A      1.238850  
     920A      1.241179   921A      1.242479   922A      1.243237  
     923A      1.244174   924A      1.245936   925A      1.247159  
     926A      1.249518   927A      1.250801   928A      1.251581  
     929A      1.251761   930A      1.253932   931A      1.256285  
     932A      1.257474   933A      1.259256   934A      1.259903  
     935A      1.261868   936A      1.264472   937A      1.266176  
     938A      1.267561   939A      1.268852   940A      1.270657  
     941A      1.272017   942A      1.272844   943A      1.273442  
     944A      1.277105   945A      1.278498   946A      1.281732  
     947A      1.282098   948A      1.284264   949A      1.285003  
     950A      1.287228   951A      1.288797   952A      1.290260  
     953A      1.290636   954A      1.294411   955A      1.297269  
     956A      1.297369   957A      1.300426   958A      1.301303  
     959A      1.302203   960A      1.303233   961A      1.304924  
     962A      1.307186   963A      1.307917   964A      1.309662  
     965A      1.311138   966A      1.312000   967A      1.315147  
     968A      1.315545   969A      1.317440   970A      1.319387  
     971A      1.320400   972A      1.322273   973A      1.322998  
     974A      1.324254   975A      1.326029   976A      1.328415  
     977A      1.330281   978A      1.331958   979A      1.333649  
     980A      1.335656   981A      1.336805   982A      1.338428  
     983A      1.340695   984A      1.342875   985A      1.343780  
     986A      1.344076   987A      1.344690   988A      1.347059  
     989A      1.349908   990A      1.352061   991A      1.354126  
     992A      1.355279   993A      1.356679   994A      1.357650  
     995A      1.358863   996A      1.361502   997A      1.362397  
     998A      1.364358   999A      1.365398  1000A      1.367750  
    1001A      1.369169  1002A      1.370117  1003A      1.371193  
    1004A      1.373153  1005A      1.376281  1006A      1.378190  
    1007A      1.380428  1008A      1.381476  1009A      1.383890  
    1010A      1.384404  1011A      1.385157  1012A      1.386096  
    1013A      1.388573  1014A      1.388904  1015A      1.392050  
    1016A      1.392587  1017A      1.393129  1018A      1.396812  
    1019A      1.398431  1020A      1.399914  1021A      1.400840  
    1022A      1.404370  1023A      1.406296  1024A      1.407225  
    1025A      1.408616  1026A      1.411977  1027A      1.413260  
    1028A      1.414545  1029A      1.415567  1030A      1.416973  
    1031A      1.419418  1032A      1.420993  1033A      1.421989  
    1034A      1.423248  1035A      1.424538  1036A      1.426583  
    1037A      1.429966  1038A      1.432140  1039A      1.433144  
    1040A      1.435295  1041A      1.435606  1042A      1.435891  
    1043A      1.438931  1044A      1.442230  1045A      1.444226  
    1046A      1.445178  1047A      1.446796  1048A      1.449117  
    1049A      1.449425  1050A      1.450761  1051A      1.453999  
    1052A      1.454439  1053A      1.457353  1054A      1.458798  
    1055A      1.460249  1056A      1.462448  1057A      1.464063  
    1058A      1.465562  1059A      1.467498  1060A      1.469862  
    1061A      1.471398  1062A      1.472727  1063A      1.474487  
    1064A      1.476164  1065A      1.477899  1066A      1.480446  
    1067A      1.481995  1068A      1.482540  1069A      1.483817  
    1070A      1.484482  1071A      1.486518  1072A      1.488405  
    1073A      1.490340  1074A      1.492381  1075A      1.493585  
    1076A      1.497030  1077A      1.498087  1078A      1.498342  
    1079A      1.500706  1080A      1.502498  1081A      1.503815  
    1082A      1.504016  1083A      1.506678  1084A      1.507900  
    1085A      1.509168  1086A      1.510777  1087A      1.512187  
    1088A      1.515467  1089A      1.516379  1090A      1.516874  
    1091A      1.518968  1092A      1.519334  1093A      1.521459  
    1094A      1.523561  1095A      1.523825  1096A      1.525650  
    1097A      1.529143  1098A      1.530002  1099A      1.531175  
    1100A      1.532505  1101A      1.534448  1102A      1.534910  
    1103A      1.536922  1104A      1.537674  1105A      1.539767  
    1106A      1.540328  1107A      1.543389  1108A      1.544877  
    1109A      1.545678  1110A      1.547816  1111A      1.548260  
    1112A      1.550086  1113A      1.551644  1114A      1.552643  
    1115A      1.556064  1116A      1.558101  1117A      1.560347  
    1118A      1.561802  1119A      1.562161  1120A      1.564630  
    1121A      1.565806  1122A      1.566512  1123A      1.570064  
    1124A      1.571824  1125A      1.573478  1126A      1.575667  
    1127A      1.578141  1128A      1.579128  1129A      1.580483  
    1130A      1.581030  1131A      1.582572  1132A      1.585538  
    1133A      1.586525  1134A      1.588620  1135A      1.589831  
    1136A      1.591951  1137A      1.592188  1138A      1.595814  
    1139A      1.597266  1140A      1.599245  1141A      1.600444  
    1142A      1.601297  1143A      1.603188  1144A      1.606168  
    1145A      1.606377  1146A      1.609880  1147A      1.611196  
    1148A      1.612318  1149A      1.615628  1150A      1.617904  
    1151A      1.618085  1152A      1.619368  1153A      1.621687  
    1154A      1.625009  1155A      1.625553  1156A      1.625998  
    1157A      1.628952  1158A      1.630340  1159A      1.632585  
    1160A      1.633681  1161A      1.635304  1162A      1.636227  
    1163A      1.636691  1164A      1.640080  1165A      1.641387  
    1166A      1.642294  1167A      1.645073  1168A      1.646260  
    1169A      1.647746  1170A      1.648370  1171A      1.651414  
    1172A      1.653615  1173A      1.654364  1174A      1.656269  
    1175A      1.659104  1176A      1.659847  1177A      1.661996  
    1178A      1.662346  1179A      1.665114  1180A      1.666414  
    1181A      1.667979  1182A      1.672341  1183A      1.673001  
    1184A      1.673833  1185A      1.674933  1186A      1.675562  
    1187A      1.676307  1188A      1.677244  1189A      1.679599  
    1190A      1.680441  1191A      1.682319  1192A      1.686061  
    1193A      1.687916  1194A      1.688577  1195A      1.691612  
    1196A      1.692152  1197A      1.693753  1198A      1.695068  
    1199A      1.696143  1200A      1.697110  1201A      1.698843  
    1202A      1.701675  1203A      1.703536  1204A      1.704724  
    1205A      1.705852  1206A      1.706598  1207A      1.707537  
    1208A      1.712013  1209A      1.712218  1210A      1.714353  
    1211A      1.715666  1212A      1.717456  1213A      1.718087  
    1214A      1.722573  1215A      1.725036  1216A      1.726706  
    1217A      1.728390  1218A      1.729392  1219A      1.730191  
    1220A      1.732275  1221A      1.735335  1222A      1.736481  
    1223A      1.737476  1224A      1.738517  1225A      1.741184  
    1226A      1.741798  1227A      1.743101  1228A      1.744605  
    1229A      1.745675  1230A      1.747968  1231A      1.748583  
    1232A      1.750199  1233A      1.751332  1234A      1.752828  
    1235A      1.755215  1236A      1.756041  1237A      1.756687  
    1238A      1.762102  1239A      1.763440  1240A      1.763997  
    1241A      1.766997  1242A      1.769314  1243A      1.771377  
    1244A      1.771500  1245A      1.772366  1246A      1.773555  
    1247A      1.774503  1248A      1.777559  1249A      1.778813  
    1250A      1.780224  1251A      1.782231  1252A      1.784264  
    1253A      1.785237  1254A      1.786949  1255A      1.788066  
    1256A      1.788414  1257A      1.790804  1258A      1.794887  
    1259A      1.796570  1260A      1.798195  1261A      1.799617  
    1262A      1.799688  1263A      1.802587  1264A      1.805186  
    1265A      1.805416  1266A      1.806674  1267A      1.808295  
    1268A      1.809039  1269A      1.811713  1270A      1.814383  
    1271A      1.817374  1272A      1.818827  1273A      1.820071  
    1274A      1.821453  1275A      1.824402  1276A      1.825979  
    1277A      1.826660  1278A      1.827173  1279A      1.829803  
    1280A      1.830731  1281A      1.832438  1282A      1.834616  
    1283A      1.835840  1284A      1.837048  1285A      1.840474  
    1286A      1.843788  1287A      1.845650  1288A      1.846882  
    1289A      1.847743  1290A      1.849256  1291A      1.850784  
    1292A      1.852312  1293A      1.855056  1294A      1.855318  
    1295A      1.858136  1296A      1.859707  1297A      1.861402  
    1298A      1.862209  1299A      1.864033  1300A      1.867309  
    1301A      1.869176  1302A      1.869399  1303A      1.872226  
    1304A      1.872621  1305A      1.873538  1306A      1.875011  
    1307A      1.875827  1308A      1.879028  1309A      1.882731  
    1310A      1.884056  1311A      1.885696  1312A      1.888468  
    1313A      1.890274  1314A      1.890805  1315A      1.891083  
    1316A      1.892701  1317A      1.896430  1318A      1.898143  
    1319A      1.899470  1320A      1.900504  1321A      1.903539  
    1322A      1.906649  1323A      1.907766  1324A      1.910245  
    1325A      1.912080  1326A      1.912709  1327A      1.914191  
    1328A      1.916688  1329A      1.916840  1330A      1.918338  
    1331A      1.921055  1332A      1.922385  1333A      1.923246  
    1334A      1.926114  1335A      1.929617  1336A      1.930742  
    1337A      1.932022  1338A      1.933110  1339A      1.935024  
    1340A      1.937823  1341A      1.938717  1342A      1.940693  
    1343A      1.943740  1344A      1.945089  1345A      1.946456  
    1346A      1.947019  1347A      1.948559  1348A      1.949688  
    1349A      1.953677  1350A      1.953862  1351A      1.957251  
    1352A      1.958186  1353A      1.959466  1354A      1.961354  
    1355A      1.963140  1356A      1.964668  1357A      1.967050  
    1358A      1.970411  1359A      1.973843  1360A      1.974396  
    1361A      1.976093  1362A      1.978202  1363A      1.980404  
    1364A      1.981349  1365A      1.982122  1366A      1.985982  
    1367A      1.987245  1368A      1.987732  1369A      1.991879  
    1370A      1.993700  1371A      1.994176  1372A      1.995505  
    1373A      1.996619  1374A      1.998020  1375A      1.998938  
    1376A      2.000024  1377A      2.003785  1378A      2.004432  
    1379A      2.007269  1380A      2.008707  1381A      2.010906  
    1382A      2.012419  1383A      2.014568  1384A      2.016108  
    1385A      2.017420  1386A      2.020325  1387A      2.023777  
    1388A      2.026517  1389A      2.028509  1390A      2.029589  
    1391A      2.031777  1392A      2.033077  1393A      2.036176  
    1394A      2.036216  1395A      2.038846  1396A      2.041177  
    1397A      2.043031  1398A      2.045312  1399A      2.047397  
    1400A      2.048563  1401A      2.052095  1402A      2.053428  
    1403A      2.056648  1404A      2.057785  1405A      2.060100  
    1406A      2.061347  1407A      2.062477  1408A      2.063980  
    1409A      2.065129  1410A      2.066786  1411A      2.070002  
    1412A      2.072714  1413A      2.075691  1414A      2.076087  
    1415A      2.078243  1416A      2.079501  1417A      2.082734  
    1418A      2.085151  1419A      2.087357  1420A      2.088337  
    1421A      2.090673  1422A      2.091408  1423A      2.094238  
    1424A      2.094818  1425A      2.095748  1426A      2.098658  
    1427A      2.101408  1428A      2.101882  1429A      2.103326  
    1430A      2.104540  1431A      2.106513  1432A      2.108646  
    1433A      2.111924  1434A      2.114688  1435A      2.115760  
    1436A      2.118087  1437A      2.120052  1438A      2.121855  
    1439A      2.123803  1440A      2.125700  1441A      2.127345  
    1442A      2.129187  1443A      2.130854  1444A      2.134312  
    1445A      2.135982  1446A      2.136574  1447A      2.138420  
    1448A      2.140008  1449A      2.140756  1450A      2.146515  
    1451A      2.148194  1452A      2.149161  1453A      2.150946  
    1454A      2.153422  1455A      2.158315  1456A      2.159966  
    1457A      2.161311  1458A      2.163088  1459A      2.164327  
    1460A      2.166851  1461A      2.169849  1462A      2.170659  
    1463A      2.172105  1464A      2.173735  1465A      2.175981  
    1466A      2.177693  1467A      2.178910  1468A      2.179894  
    1469A      2.182896  1470A      2.184045  1471A      2.186685  
    1472A      2.188202  1473A      2.190818  1474A      2.193955  
    1475A      2.194382  1476A      2.197380  1477A      2.201290  
    1478A      2.203272  1479A      2.206351  1480A      2.206518  
    1481A      2.210913  1482A      2.211850  1483A      2.213218  
    1484A      2.216014  1485A      2.218595  1486A      2.219377  
    1487A      2.220524  1488A      2.225773  1489A      2.226997  
    1490A      2.227971  1491A      2.229734  1492A      2.231843  
    1493A      2.234032  1494A      2.237875  1495A      2.240807  
    1496A      2.242657  1497A      2.244740  1498A      2.247688  
    1499A      2.250575  1500A      2.251111  1501A      2.252615  
    1502A      2.255601  1503A      2.256382  1504A      2.260660  
    1505A      2.263101  1506A      2.265807  1507A      2.267021  
    1508A      2.267964  1509A      2.269573  1510A      2.272384  
    1511A      2.276581  1512A      2.278812  1513A      2.280655  
    1514A      2.281002  1515A      2.282276  1516A      2.285512  
    1517A      2.287840  1518A      2.289558  1519A      2.293088  
    1520A      2.294047  1521A      2.294822  1522A      2.296439  
    1523A      2.301398  1524A      2.302971  1525A      2.304991  
    1526A      2.307008  1527A      2.309704  1528A      2.312766  
    1529A      2.313444  1530A      2.316452  1531A      2.319293  
    1532A      2.321871  1533A      2.322659  1534A      2.324085  
    1535A      2.325289  1536A      2.326649  1537A      2.327874  
    1538A      2.331440  1539A      2.332424  1540A      2.332743  
    1541A      2.334417  1542A      2.336041  1543A      2.336458  
    1544A      2.340309  1545A      2.343822  1546A      2.345994  
    1547A      2.347768  1548A      2.351133  1549A      2.354345  
    1550A      2.354689  1551A      2.358106  1552A      2.360971  
    1553A      2.362855  1554A      2.366286  1555A      2.367840  
    1556A      2.368932  1557A      2.372995  1558A      2.374767  
    1559A      2.376045  1560A      2.378358  1561A      2.380295  
    1562A      2.382109  1563A      2.384759  1564A      2.387219  
    1565A      2.388580  1566A      2.391603  1567A      2.394299  
    1568A      2.395961  1569A      2.396213  1570A      2.399331  
    1571A      2.402440  1572A      2.405973  1573A      2.408158  
    1574A      2.410684  1575A      2.412113  1576A      2.413098  
    1577A      2.414635  1578A      2.416178  1579A      2.420704  
    1580A      2.424163  1581A      2.425768  1582A      2.427165  
    1583A      2.431067  1584A      2.432830  1585A      2.434740  
    1586A      2.436196  1587A      2.437079  1588A      2.441774  
    1589A      2.442962  1590A      2.446727  1591A      2.450339  
    1592A      2.452383  1593A      2.453047  1594A      2.453422  
    1595A      2.456932  1596A      2.461503  1597A      2.464304  
    1598A      2.465751  1599A      2.470635  1600A      2.471565  
    1601A      2.473739  1602A      2.474895  1603A      2.477479  
    1604A      2.479747  1605A      2.482324  1606A      2.483471  
    1607A      2.484776  1608A      2.485347  1609A      2.491523  
    1610A      2.494288  1611A      2.496471  1612A      2.497884  
    1613A      2.498927  1614A      2.503448  1615A      2.504656  
    1616A      2.506904  1617A      2.508727  1618A      2.512440  
    1619A      2.512911  1620A      2.516287  1621A      2.519531  
    1622A      2.523407  1623A      2.524973  1624A      2.527128  
    1625A      2.532187  1626A      2.532692  1627A      2.535286  
    1628A      2.537004  1629A      2.538982  1630A      2.541581  
    1631A      2.544558  1632A      2.546839  1633A      2.547282  
    1634A      2.551889  1635A      2.552994  1636A      2.554464  
    1637A      2.558491  1638A      2.559785  1639A      2.563281  
    1640A      2.566697  1641A      2.567896  1642A      2.569633  
    1643A      2.573110  1644A      2.574214  1645A      2.577215  
    1646A      2.579241  1647A      2.580836  1648A      2.586630  
    1649A      2.588286  1650A      2.592869  1651A      2.594489  
    1652A      2.596542  1653A      2.598404  1654A      2.602303  
    1655A      2.604339  1656A      2.605524  1657A      2.610256  
    1658A      2.612197  1659A      2.615170  1660A      2.616274  
    1661A      2.617487  1662A      2.618668  1663A      2.624995  
    1664A      2.627417  1665A      2.629607  1666A      2.632597  
    1667A      2.634023  1668A      2.636763  1669A      2.640249  
    1670A      2.642273  1671A      2.646517  1672A      2.647385  
    1673A      2.647654  1674A      2.652471  1675A      2.656843  
    1676A      2.657307  1677A      2.659985  1678A      2.663429  
    1679A      2.665854  1680A      2.666668  1681A      2.671427  
    1682A      2.673850  1683A      2.675255  1684A      2.678168  
    1685A      2.680075  1686A      2.681394  1687A      2.684903  
    1688A      2.685125  1689A      2.688374  1690A      2.689906  
    1691A      2.692081  1692A      2.693332  1693A      2.693984  
    1694A      2.696636  1695A      2.699355  1696A      2.701410  
    1697A      2.709386  1698A      2.710787  1699A      2.711206  
    1700A      2.713067  1701A      2.715614  1702A      2.722745  
    1703A      2.723837  1704A      2.726488  1705A      2.728317  
    1706A      2.732115  1707A      2.735896  1708A      2.737369  
    1709A      2.740483  1710A      2.741693  1711A      2.744812  
    1712A      2.746560  1713A      2.753093  1714A      2.755633  
    1715A      2.756664  1716A      2.759371  1717A      2.760547  
    1718A      2.764940  1719A      2.766892  1720A      2.767726  
    1721A      2.771963  1722A      2.773838  1723A      2.777836  
    1724A      2.779251  1725A      2.780663  1726A      2.784979  
    1727A      2.787888  1728A      2.788529  1729A      2.789969  
    1730A      2.791454  1731A      2.794464  1732A      2.798258  
    1733A      2.799541  1734A      2.802845  1735A      2.804437  
    1736A      2.811112  1737A      2.812617  1738A      2.814400  
    1739A      2.817156  1740A      2.819975  1741A      2.821972  
    1742A      2.826908  1743A      2.829413  1744A      2.830215  
    1745A      2.830997  1746A      2.833009  1747A      2.834784  
    1748A      2.835390  1749A      2.838124  1750A      2.842600  
    1751A      2.847585  1752A      2.849132  1753A      2.853032  
    1754A      2.856369  1755A      2.862000  1756A      2.863600  
    1757A      2.865408  1758A      2.867735  1759A      2.870014  
    1760A      2.874588  1761A      2.875789  1762A      2.880300  
    1763A      2.881181  1764A      2.885640  1765A      2.890078  
    1766A      2.891740  1767A      2.895031  1768A      2.896668  
    1769A      2.897159  1770A      2.901686  1771A      2.904923  
    1772A      2.907335  1773A      2.909311  1774A      2.910465  
    1775A      2.915484  1776A      2.919117  1777A      2.922131  
    1778A      2.924339  1779A      2.925500  1780A      2.932002  
    1781A      2.934649  1782A      2.936796  1783A      2.942831  
    1784A      2.945037  1785A      2.947822  1786A      2.949735  
    1787A      2.955103  1788A      2.957313  1789A      2.962570  
    1790A      2.966164  1791A      2.967973  1792A      2.971675  
    1793A      2.973740  1794A      2.978082  1795A      2.980154  
    1796A      2.983901  1797A      2.986500  1798A      2.988662  
    1799A      2.993135  1800A      2.995717  1801A      3.003934  
    1802A      3.007877  1803A      3.009475  1804A      3.010683  
    1805A      3.013047  1806A      3.022101  1807A      3.024335  
    1808A      3.027254  1809A      3.028459  1810A      3.032475  
    1811A      3.038791  1812A      3.041416  1813A      3.045951  
    1814A      3.049547  1815A      3.055715  1816A      3.060410  
    1817A      3.062805  1818A      3.067667  1819A      3.070891  
    1820A      3.073413  1821A      3.080064  1822A      3.085168  
    1823A      3.093547  1824A      3.095478  1825A      3.097418  
    1826A      3.101411  1827A      3.103719  1828A      3.110474  
    1829A      3.115955  1830A      3.121302  1831A      3.124871  
    1832A      3.126740  1833A      3.133089  1834A      3.134774  
    1835A      3.141414  1836A      3.142335  1837A      3.147071  
    1838A      3.149510  1839A      3.157441  1840A      3.160102  
    1841A      3.162380  1842A      3.170622  1843A      3.173042  
    1844A      3.174677  1845A      3.179293  1846A      3.187779  
    1847A      3.198594  1848A      3.199305  1849A      3.202602  
    1850A      3.204522  1851A      3.209461  1852A      3.218493  
    1853A      3.225795  1854A      3.230648  1855A      3.232299  
    1856A      3.238228  1857A      3.242773  1858A      3.248344  
    1859A      3.250939  1860A      3.252545  1861A      3.260835  
    1862A      3.267634  1863A      3.270906  1864A      3.279623  
    1865A      3.288096  1866A      3.290526  1867A      3.299124  
    1868A      3.305805  1869A      3.313689  1870A      3.316248  
    1871A      3.318871  1872A      3.328491  1873A      3.330220  
    1874A      3.340991  1875A      3.342898  1876A      3.348351  
    1877A      3.352850  1878A      3.360097  1879A      3.366765  
    1880A      3.374024  1881A      3.378369  1882A      3.383781  
    1883A      3.390404  1884A      3.392420  1885A      3.398771  
    1886A      3.404046  1887A      3.411175  1888A      3.415080  
    1889A      3.419714  1890A      3.421212  1891A      3.428146  
    1892A      3.434550  1893A      3.441527  1894A      3.446010  
    1895A      3.449138  1896A      3.451299  1897A      3.456501  
    1898A      3.464022  1899A      3.467308  1900A      3.469681  
    1901A      3.473745  1902A      3.479886  1903A      3.483242  
    1904A      3.491294  1905A      3.494093  1906A      3.495836  
    1907A      3.505756  1908A      3.508032  1909A      3.516820  
    1910A      3.519148  1911A      3.520885  1912A      3.529310  
    1913A      3.530426  1914A      3.535516  1915A      3.538857  
    1916A      3.540796  1917A      3.546398  1918A      3.550675  
    1919A      3.553602  1920A      3.556122  1921A      3.564448  
    1922A      3.571210  1923A      3.572165  1924A      3.574276  
    1925A      3.580304  1926A      3.588195  1927A      3.589529  
    1928A      3.590498  1929A      3.592950  1930A      3.594261  
    1931A      3.600233  1932A      3.607443  1933A      3.610924  
    1934A      3.614931  1935A      3.620437  1936A      3.623978  
    1937A      3.632086  1938A      3.635456  1939A      3.636984  
    1940A      3.640397  1941A      3.647904  1942A      3.648661  
    1943A      3.653034  1944A      3.653827  1945A      3.660322  
    1946A      3.663074  1947A      3.666448  1948A      3.670068  
    1949A      3.674841  1950A      3.677352  1951A      3.678963  
    1952A      3.680669  1953A      3.683934  1954A      3.689516  
    1955A      3.694885  1956A      3.695706  1957A      3.696061  
    1958A      3.703534  1959A      3.704454  1960A      3.706553  
    1961A      3.709856  1962A      3.710370  1963A      3.712266  
    1964A      3.718587  1965A      3.723522  1966A      3.725755  
    1967A      3.727561  1968A      3.731395  1969A      3.732561  
    1970A      3.737303  1971A      3.743471  1972A      3.744028  
    1973A      3.747234  1974A      3.748750  1975A      3.756134  
    1976A      3.758147  1977A      3.758961  1978A      3.763289  
    1979A      3.764761  1980A      3.772270  1981A      3.774658  
    1982A      3.776255  1983A      3.783153  1984A      3.787725  
    1985A      3.788571  1986A      3.792530  1987A      3.794381  
    1988A      3.795815  1989A      3.801344  1990A      3.802598  
    1991A      3.804663  1992A      3.807386  1993A      3.809239  
    1994A      3.813595  1995A      3.815516  1996A      3.819592  
    1997A      3.822766  1998A      3.826408  1999A      3.827637  
    2000A      3.830701  2001A      3.834952  2002A      3.836270  
    2003A      3.842054  2004A      3.844776  2005A      3.851551  
    2006A      3.855507  2007A      3.856512  2008A      3.859257  
    2009A      3.862868  2010A      3.865407  2011A      3.871021  
    2012A      3.872953  2013A      3.877255  2014A      3.882714  
    2015A      3.885040  2016A      3.886268  2017A      3.889595  
    2018A      3.896678  2019A      3.897406  2020A      3.898873  
    2021A      3.904071  2022A      3.907510  2023A      3.912743  
    2024A      3.913251  2025A      3.915064  2026A      3.917516  
    2027A      3.920245  2028A      3.921690  2029A      3.926787  
    2030A      3.929080  2031A      3.933097  2032A      3.935480  
    2033A      3.939557  2034A      3.941458  2035A      3.945530  
    2036A      3.949533  2037A      3.953726  2038A      3.958039  
    2039A      3.958377  2040A      3.961787  2041A      3.966389  
    2042A      3.970648  2043A      3.974445  2044A      3.981263  
    2045A      3.985224  2046A      3.989652  2047A      3.992478  
    2048A      3.994072  2049A      3.995623  2050A      3.998412  
    2051A      4.006917  2052A      4.007735  2053A      4.010648  
    2054A      4.013767  2055A      4.017399  2056A      4.019206  
    2057A      4.022134  2058A      4.024998  2059A      4.025563  
    2060A      4.031101  2061A      4.035928  2062A      4.038106  
    2063A      4.040741  2064A      4.046343  2065A      4.048294  
    2066A      4.051838  2067A      4.053894  2068A      4.055895  
    2069A      4.058345  2070A      4.059992  2071A      4.062923  
    2072A      4.067491  2073A      4.070093  2074A      4.072367  
    2075A      4.074675  2076A      4.078138  2077A      4.078823  
    2078A      4.081431  2079A      4.085714  2080A      4.087582  
    2081A      4.090509  2082A      4.093165  2083A      4.095434  
    2084A      4.101308  2085A      4.103587  2086A      4.106979  
    2087A      4.111934  2088A      4.114026  2089A      4.116287  
    2090A      4.118446  2091A      4.119917  2092A      4.121205  
    2093A      4.126151  2094A      4.131438  2095A      4.135448  
    2096A      4.135585  2097A      4.137824  2098A      4.138627  
    2099A      4.142025  2100A      4.143763  2101A      4.146628  
    2102A      4.148642  2103A      4.149861  2104A      4.155272  
    2105A      4.156729  2106A      4.159908  2107A      4.162524  
    2108A      4.163260  2109A      4.166628  2110A      4.169618  
    2111A      4.170288  2112A      4.175842  2113A      4.178031  
    2114A      4.180047  2115A      4.181812  2116A      4.186443  
    2117A      4.188770  2118A      4.192143  2119A      4.192890  
    2120A      4.194376  2121A      4.199379  2122A      4.199818  
    2123A      4.202198  2124A      4.202781  2125A      4.207157  
    2126A      4.208235  2127A      4.210314  2128A      4.212817  
    2129A      4.219131  2130A      4.221873  2131A      4.224146  
    2132A      4.226097  2133A      4.228302  2134A      4.232647  
    2135A      4.234042  2136A      4.237183  2137A      4.241886  
    2138A      4.244749  2139A      4.245696  2140A      4.246855  
    2141A      4.250560  2142A      4.252109  2143A      4.256594  
    2144A      4.257334  2145A      4.260025  2146A      4.261622  
    2147A      4.265110  2148A      4.267509  2149A      4.270626  
    2150A      4.273615  2151A      4.274850  2152A      4.276852  
    2153A      4.277869  2154A      4.281303  2155A      4.284316  
    2156A      4.287174  2157A      4.288267  2158A      4.290124  
    2159A      4.292369  2160A      4.297586  2161A      4.300090  
    2162A      4.302908  2163A      4.304064  2164A      4.306524  
    2165A      4.309155  2166A      4.314875  2167A      4.316521  
    2168A      4.317665  2169A      4.318398  2170A      4.320563  
    2171A      4.321431  2172A      4.325925  2173A      4.326489  
    2174A      4.330462  2175A      4.333145  2176A      4.335568  
    2177A      4.339387  2178A      4.340775  2179A      4.342630  
    2180A      4.344935  2181A      4.347392  2182A      4.349481  
    2183A      4.352027  2184A      4.353216  2185A      4.354361  
    2186A      4.357641  2187A      4.359152  2188A      4.361938  
    2189A      4.364178  2190A      4.367668  2191A      4.369357  
    2192A      4.370666  2193A      4.373291  2194A      4.376366  
    2195A      4.379558  2196A      4.382225  2197A      4.383884  
    2198A      4.384851  2199A      4.387642  2200A      4.389150  
    2201A      4.393022  2202A      4.395342  2203A      4.398219  
    2204A      4.400204  2205A      4.402546  2206A      4.404186  
    2207A      4.405344  2208A      4.408084  2209A      4.408652  
    2210A      4.413117  2211A      4.414070  2212A      4.415248  
    2213A      4.416823  2214A      4.421250  2215A      4.422855  
    2216A      4.425047  2217A      4.429343  2218A      4.432568  
    2219A      4.433258  2220A      4.437531  2221A      4.438963  
    2222A      4.441655  2223A      4.443605  2224A      4.444043  
    2225A      4.448482  2226A      4.448877  2227A      4.452120  
    2228A      4.452952  2229A      4.455744  2230A      4.459553  
    2231A      4.461293  2232A      4.462792  2233A      4.465967  
    2234A      4.468202  2235A      4.468901  2236A      4.470930  
    2237A      4.473872  2238A      4.476901  2239A      4.477692  
    2240A      4.478605  2241A      4.481388  2242A      4.482169  
    2243A      4.485744  2244A      4.487062  2245A      4.490902  
    2246A      4.491548  2247A      4.493187  2248A      4.495289  
    2249A      4.500127  2250A      4.503052  2251A      4.506573  
    2252A      4.507730  2253A      4.510219  2254A      4.511429  
    2255A      4.512949  2256A      4.517001  2257A      4.518955  
    2258A      4.521485  2259A      4.522569  2260A      4.526528  
    2261A      4.527912  2262A      4.530350  2263A      4.534190  
    2264A      4.537556  2265A      4.538896  2266A      4.541214  
    2267A      4.543466  2268A      4.546780  2269A      4.547606  
    2270A      4.553239  2271A      4.554123  2272A      4.556381  
    2273A      4.558733  2274A      4.560724  2275A      4.562717  
    2276A      4.564322  2277A      4.567250  2278A      4.571637  
    2279A      4.573903  2280A      4.575182  2281A      4.577241  
    2282A      4.581876  2283A      4.584986  2284A      4.586462  
    2285A      4.588878  2286A      4.591828  2287A      4.593362  
    2288A      4.594017  2289A      4.597567  2290A      4.599104  
    2291A      4.600376  2292A      4.604973  2293A      4.606796  
    2294A      4.608713  2295A      4.613043  2296A      4.614273  
    2297A      4.615242  2298A      4.623075  2299A      4.624852  
    2300A      4.627156  2301A      4.629190  2302A      4.633347  
    2303A      4.636065  2304A      4.638946  2305A      4.641175  
    2306A      4.643163  2307A      4.646940  2308A      4.649058  
    2309A      4.651722  2310A      4.652566  2311A      4.653608  
    2312A      4.656410  2313A      4.659037  2314A      4.661019  
    2315A      4.664225  2316A      4.666927  2317A      4.670068  
    2318A      4.673741  2319A      4.674316  2320A      4.676929  
    2321A      4.679150  2322A      4.681028  2323A      4.683230  
    2324A      4.685001  2325A      4.687096  2326A      4.690112  
    2327A      4.692253  2328A      4.693633  2329A      4.695573  
    2330A      4.697434  2331A      4.701666  2332A      4.704591  
    2333A      4.706596  2334A      4.711697  2335A      4.713799  
    2336A      4.716460  2337A      4.718157  2338A      4.721558  
    2339A      4.724800  2340A      4.725657  2341A      4.727577  
    2342A      4.728936  2343A      4.731912  2344A      4.733975  
    2345A      4.738105  2346A      4.740232  2347A      4.742109  
    2348A      4.743342  2349A      4.745973  2350A      4.747516  
    2351A      4.749921  2352A      4.752555  2353A      4.757532  
    2354A      4.758013  2355A      4.759116  2356A      4.763956  
    2357A      4.766292  2358A      4.771622  2359A      4.772858  
    2360A      4.774397  2361A      4.777008  2362A      4.780815  
    2363A      4.782715  2364A      4.783829  2365A      4.788464  
    2366A      4.790605  2367A      4.795882  2368A      4.796208  
    2369A      4.798208  2370A      4.800332  2371A      4.801259  
    2372A      4.803872  2373A      4.806695  2374A      4.809592  
    2375A      4.813996  2376A      4.814895  2377A      4.818245  
    2378A      4.819595  2379A      4.821510  2380A      4.823136  
    2381A      4.827577  2382A      4.830969  2383A      4.833509  
    2384A      4.836564  2385A      4.836749  2386A      4.839931  
    2387A      4.842120  2388A      4.844235  2389A      4.847212  
    2390A      4.850837  2391A      4.851899  2392A      4.854415  
    2393A      4.857857  2394A      4.858602  2395A      4.862235  
    2396A      4.863868  2397A      4.865224  2398A      4.867442  
    2399A      4.869917  2400A      4.872062  2401A      4.877940  
    2402A      4.880556  2403A      4.881101  2404A      4.884998  
    2405A      4.885546  2406A      4.887821  2407A      4.892323  
    2408A      4.896023  2409A      4.899078  2410A      4.901834  
    2411A      4.903021  2412A      4.905274  2413A      4.906520  
    2414A      4.910345  2415A      4.912504  2416A      4.916183  
    2417A      4.916847  2418A      4.920897  2419A      4.924099  
    2420A      4.927305  2421A      4.930663  2422A      4.934123  
    2423A      4.936026  2424A      4.938693  2425A      4.939728  
    2426A      4.943388  2427A      4.945959  2428A      4.947443  
    2429A      4.951594  2430A      4.956717  2431A      4.959309  
    2432A      4.961959  2433A      4.962998  2434A      4.965960  
    2435A      4.968348  2436A      4.971134  2437A      4.972512  
    2438A      4.973988  2439A      4.977891  2440A      4.980104  
    2441A      4.980590  2442A      4.986202  2443A      4.987809  
    2444A      4.990255  2445A      4.992908  2446A      4.993723  
    2447A      4.997984  2448A      5.000206  2449A      5.004382  
    2450A      5.006746  2451A      5.007835  2452A      5.011324  
    2453A      5.016267  2454A      5.020036  2455A      5.022920  
    2456A      5.025916  2457A      5.028073  2458A      5.029422  
    2459A      5.031262  2460A      5.032490  2461A      5.038531  
    2462A      5.042152  2463A      5.042844  2464A      5.045314  
    2465A      5.051495  2466A      5.053351  2467A      5.053632  
    2468A      5.054922  2469A      5.059316  2470A      5.060670  
    2471A      5.063370  2472A      5.064072  2473A      5.066962  
    2474A      5.070698  2475A      5.072059  2476A      5.074251  
    2477A      5.076188  2478A      5.079291  2479A      5.081972  
    2480A      5.083740  2481A      5.087381  2482A      5.090439  
    2483A      5.093024  2484A      5.095596  2485A      5.098525  
    2486A      5.101419  2487A      5.104315  2488A      5.104354  
    2489A      5.105795  2490A      5.109653  2491A      5.113805  
    2492A      5.114830  2493A      5.116925  2494A      5.119854  
    2495A      5.122768  2496A      5.125144  2497A      5.126313  
    2498A      5.131470  2499A      5.131627  2500A      5.136490  
    2501A      5.138164  2502A      5.140901  2503A      5.144702  
    2504A      5.145757  2505A      5.150074  2506A      5.153291  
    2507A      5.156463  2508A      5.159376  2509A      5.161966  
    2510A      5.164502  2511A      5.167239  2512A      5.170318  
    2513A      5.171104  2514A      5.171935  2515A      5.179971  
    2516A      5.182216  2517A      5.184780  2518A      5.185926  
    2519A      5.191246  2520A      5.193673  2521A      5.196954  
    2522A      5.199785  2523A      5.202213  2524A      5.205835  
    2525A      5.207272  2526A      5.210797  2527A      5.214793  
    2528A      5.219075  2529A      5.220107  2530A      5.221559  
    2531A      5.225572  2532A      5.227274  2533A      5.232113  
    2534A      5.233496  2535A      5.236542  2536A      5.240610  
    2537A      5.243307  2538A      5.244977  2539A      5.248951  
    2540A      5.251413  2541A      5.253834  2542A      5.255771  
    2543A      5.260302  2544A      5.264295  2545A      5.266639  
    2546A      5.268663  2547A      5.270044  2548A      5.276431  
    2549A      5.279644  2550A      5.283902  2551A      5.284685  
    2552A      5.285464  2553A      5.289991  2554A      5.293212  
    2555A      5.294953  2556A      5.296517  2557A      5.298089  
    2558A      5.300403  2559A      5.301663  2560A      5.306933  
    2561A      5.308269  2562A      5.314019  2563A      5.316501  
    2564A      5.317522  2565A      5.320718  2566A      5.324766  
    2567A      5.329149  2568A      5.331523  2569A      5.336024  
    2570A      5.338142  2571A      5.342824  2572A      5.346504  
    2573A      5.347514  2574A      5.349241  2575A      5.350799  
    2576A      5.355363  2577A      5.362615  2578A      5.364742  
    2579A      5.365955  2580A      5.369711  2581A      5.370288  
    2582A      5.373171  2583A      5.374334  2584A      5.377917  
    2585A      5.383532  2586A      5.386126  2587A      5.390373  
    2588A      5.391233  2589A      5.394147  2590A      5.394773  
    2591A      5.397614  2592A      5.400364  2593A      5.403179  
    2594A      5.409629  2595A      5.410957  2596A      5.416047  
    2597A      5.417982  2598A      5.424741  2599A      5.425394  
    2600A      5.427164  2601A      5.428532  2602A      5.432394  
    2603A      5.440028  2604A      5.442680  2605A      5.444142  
    2606A      5.446104  2607A      5.449607  2608A      5.451273  
    2609A      5.455778  2610A      5.460334  2611A      5.465692  
    2612A      5.468905  2613A      5.471754  2614A      5.475418  
    2615A      5.479396  2616A      5.482250  2617A      5.485070  
    2618A      5.487319  2619A      5.489445  2620A      5.491869  
    2621A      5.494939  2622A      5.496938  2623A      5.499789  
    2624A      5.503651  2625A      5.506090  2626A      5.509809  
    2627A      5.515521  2628A      5.522582  2629A      5.522908  
    2630A      5.524952  2631A      5.529129  2632A      5.532757  
    2633A      5.535804  2634A      5.539129  2635A      5.542775  
    2636A      5.544439  2637A      5.548827  2638A      5.550795  
    2639A      5.552924  2640A      5.554103  2641A      5.561200  
    2642A      5.566663  2643A      5.569073  2644A      5.571210  
    2645A      5.572707  2646A      5.573858  2647A      5.578879  
    2648A      5.580866  2649A      5.585293  2650A      5.590314  
    2651A      5.593215  2652A      5.594354  2653A      5.598323  
    2654A      5.599514  2655A      5.603577  2656A      5.606379  
    2657A      5.608766  2658A      5.612835  2659A      5.613973  
    2660A      5.616329  2661A      5.618033  2662A      5.621849  
    2663A      5.623236  2664A      5.624124  2665A      5.628251  
    2666A      5.633334  2667A      5.634624  2668A      5.639437  
    2669A      5.644375  2670A      5.648630  2671A      5.652000  
    2672A      5.653919  2673A      5.661466  2674A      5.662948  
    2675A      5.668483  2676A      5.672364  2677A      5.674721  
    2678A      5.678843  2679A      5.680469  2680A      5.683975  
    2681A      5.685178  2682A      5.686409  2683A      5.689239  
    2684A      5.694593  2685A      5.695651  2686A      5.699402  
    2687A      5.701535  2688A      5.704975  2689A      5.708858  
    2690A      5.711650  2691A      5.713498  2692A      5.714923  
    2693A      5.717560  2694A      5.724607  2695A      5.727297  
    2696A      5.730309  2697A      5.733535  2698A      5.739109  
    2699A      5.741108  2700A      5.743623  2701A      5.746370  
    2702A      5.750569  2703A      5.752030  2704A      5.754266  
    2705A      5.758310  2706A      5.760845  2707A      5.765730  
    2708A      5.771089  2709A      5.779688  2710A      5.781884  
    2711A      5.782956  2712A      5.785718  2713A      5.795613  
    2714A      5.796845  2715A      5.799474  2716A      5.803510  
    2717A      5.811817  2718A      5.814917  2719A      5.818840  
    2720A      5.823303  2721A      5.825630  2722A      5.828674  
    2723A      5.833449  2724A      5.834493  2725A      5.838206  
    2726A      5.842156  2727A      5.853295  2728A      5.861755  
    2729A      5.863429  2730A      5.867612  2731A      5.872210  
    2732A      5.876306  2733A      5.879673  2734A      5.882607  
    2735A      5.887160  2736A      5.890917  2737A      5.894628  
    2738A      5.896536  2739A      5.906713  2740A      5.908007  
    2741A      5.919607  2742A      5.922235  2743A      5.925640  
    2744A      5.926699  2745A      5.930455  2746A      5.932386  
    2747A      5.934364  2748A      5.941021  2749A      5.947723  
    2750A      5.952184  2751A      5.961734  2752A      5.963933  
    2753A      5.970078  2754A      5.971645  2755A      5.978625  
    2756A      5.980700  2757A      5.984979  2758A      5.989734  
    2759A      5.994922  2760A      5.998143  2761A      6.007434  
    2762A      6.011945  2763A      6.016403  2764A      6.022159  
    2765A      6.027382  2766A      6.033030  2767A      6.036406  
    2768A      6.039283  2769A      6.040051  2770A      6.045758  
    2771A      6.052371  2772A      6.056895  2773A      6.063934  
    2774A      6.066643  2775A      6.068283  2776A      6.077018  
    2777A      6.079090  2778A      6.084072  2779A      6.089710  
    2780A      6.093871  2781A      6.099691  2782A      6.102187  
    2783A      6.106333  2784A      6.108803  2785A      6.116055  
    2786A      6.121068  2787A      6.124620  2788A      6.129366  
    2789A      6.130566  2790A      6.137343  2791A      6.141061  
    2792A      6.151709  2793A      6.155601  2794A      6.165834  
    2795A      6.169308  2796A      6.173024  2797A      6.178678  
    2798A      6.188024  2799A      6.191644  2800A      6.200482  
    2801A      6.202672  2802A      6.215425  2803A      6.218278  
    2804A      6.220870  2805A      6.223333  2806A      6.231245  
    2807A      6.238731  2808A      6.241820  2809A      6.246189  
    2810A      6.250645  2811A      6.257517  2812A      6.260206  
    2813A      6.264587  2814A      6.266844  2815A      6.270332  
    2816A      6.273324  2817A      6.278759  2818A      6.285188  
    2819A      6.292818  2820A      6.299601  2821A      6.307387  
    2822A      6.310704  2823A      6.313535  2824A      6.327271  
    2825A      6.342049  2826A      6.346521  2827A      6.350746  
    2828A      6.359708  2829A      6.362392  2830A      6.367700  
    2831A      6.368358  2832A      6.380954  2833A      6.392446  
    2834A      6.396123  2835A      6.406133  2836A      6.418453  
    2837A      6.419573  2838A      6.425116  2839A      6.427322  
    2840A      6.441372  2841A      6.450805  2842A      6.467431  
    2843A      6.479643  2844A      6.484630  2845A      6.499546  
    2846A      6.522397  2847A      6.535677  2848A      6.545859  
    2849A      6.550424  2850A      6.571825  2851A      6.586312  
    2852A      6.600555  2853A      6.605100  2854A      6.611268  
    2855A      6.621234  2856A      6.629519  2857A      6.641723  
    2858A      6.647132  2859A      6.654964  2860A      6.666136  
    2861A      6.674907  2862A      6.677548  2863A      6.687145  
    2864A      6.701445  2865A      6.717369  2866A      6.728801  
    2867A      6.730317  2868A      6.739895  2869A      6.743927  
    2870A      6.752267  2871A      6.769948  2872A      6.778680  
    2873A      6.797129  2874A      6.802508  2875A      6.816055  
    2876A      6.820442  2877A      6.826837  2878A      6.840976  
    2879A      6.844387  2880A      6.848672  2881A      6.851807  
    2882A      6.865677  2883A      6.869495  2884A      6.871387  
    2885A      6.891198  2886A      6.899604  2887A      6.908375  
    2888A      6.910593  2889A      6.926453  2890A      6.929107  
    2891A      6.936064  2892A      6.941257  2893A      6.943972  
    2894A      6.957139  2895A      6.962966  2896A      6.976661  
    2897A      6.987420  2898A      7.001881  2899A      7.009196  
    2900A      7.019886  2901A      7.022133  2902A      7.034155  
    2903A      7.036862  2904A      7.050935  2905A      7.057704  
    2906A      7.064294  2907A      7.071321  2908A      7.081015  
    2909A      7.086222  2910A      7.101393  2911A      7.110555  
    2912A      7.112152  2913A      7.124859  2914A      7.136410  
    2915A      7.145843  2916A      7.152026  2917A      7.160362  
    2918A      7.169228  2919A      7.179689  2920A      7.184434  
    2921A      7.201987  2922A      7.206704  2923A      7.226162  
    2924A      7.236826  2925A      7.244013  2926A      7.270484  
    2927A      7.287170  2928A      7.294437  2929A      7.321588  
    2930A      7.343151  2931A      7.354519  2932A      7.367445  
    2933A      7.379834  2934A      7.384977  2935A      7.409393  
    2936A      7.415700  2937A      7.433329  2938A      7.450408  
    2939A      7.466542  2940A      7.475152  2941A      7.482162  
    2942A      7.500521  2943A      7.512882  2944A      7.520315  
    2945A      7.543776  2946A      7.557341  2947A      7.569382  
    2948A      7.593463  2949A      7.614920  2950A      7.636951  
    2951A      7.645536  2952A      7.668155  2953A      7.689135  
    2954A      7.701039  2955A      7.708795  2956A      7.732061  
    2957A      7.738500  2958A      7.744318  2959A      7.766462  
    2960A      7.778826  2961A      7.787222  2962A      7.797736  
    2963A      7.812112  2964A      7.817768  2965A      7.829435  
    2966A      7.839425  2967A      7.854680  2968A      7.872042  
    2969A      7.893935  2970A      7.900917  2971A      7.909833  
    2972A      7.940168  2973A      7.943763  2974A      7.982920  
    2975A      7.997711  2976A      8.014986  2977A      8.084251  
    2978A      8.105677  2979A      8.151950  2980A      8.172485  
    2981A      8.185098  2982A      8.219971  2983A      8.228402  
    2984A      8.245605  2985A      8.283559  2986A      8.288190  
    2987A      8.322768  2988A      8.335334  2989A      8.387583  
    2990A      8.399129  2991A      8.417360  2992A      8.434542  
    2993A      8.460219  2994A      8.489033  2995A      8.594588  
    2996A      8.609099  2997A      8.628908  2998A      8.657943  
    2999A      8.698333  3000A      8.729599  3001A      8.791192  
    3002A      8.859436  3003A      8.894983  3004A      9.007602  
    3005A      9.016195  3006A      9.063757  3007A      9.194830  
    3008A      9.294700  3009A      9.377015  3010A      9.440060  
    3011A      9.576486  3012A      9.605343  3013A      9.665039  
    3014A      9.743423  3015A      9.746756  3016A      9.815332  
    3017A      9.930913  3018A      9.959717  3019A      9.994783  
    3020A     10.034053  3021A     10.040689  3022A     10.107089  
    3023A     10.130949  3024A     10.221019  3025A     10.309884  
    3026A     10.365652  3027A     10.442505  3028A     10.516687  
    3029A     10.554897  3030A     10.692638  3031A     10.737355  
    3032A     10.818822  3033A     10.960886  3034A     11.044941  
    3035A     11.163947  3036A     11.236423  3037A     11.289929  
    3038A     11.383063  3039A     11.398732  3040A     11.452147  
    3041A     11.659950  3042A     11.837640  3043A     11.891664  
    3044A     11.972936  3045A     12.138738  3046A     12.221182  
    3047A     12.280109  3048A     12.323733  3049A     12.539978  
    3050A     12.621348  3051A     12.676815  3052A     15.963196  
    3053A     16.365571  3054A     16.736284  3055A     17.236972  
    3056A     17.576508  3057A     17.812654  3058A     17.940290  
    3059A     18.389833  3060A     18.861825  3061A     19.211202  
    3062A     19.645786  3063A     20.041093  3064A     20.432370  
    3065A     20.933654  3066A     21.471451  3067A     22.045392  
    3068A     22.302046  3069A     22.528849  3070A     22.613490  
    3071A     22.915456  3072A     23.040704  3073A     23.615718  
    3074A     23.919880  3075A     24.054064  3076A     49.702383  
    3077A     50.656353  3078A     51.444900  3079A     52.212564  
    3080A     52.833704  3081A     53.347409  3082A     53.693035  
    3083A     54.260786  3084A     55.096449  3085A     55.718519  
    3086A     56.650179  3087A     57.447088  3088A     57.986597  
    3089A     58.762493  3090A     59.753860  3091A     60.558986  
    3092A     61.019627  3093A     61.623712  3094A     61.837624  
    3095A     62.422499  3096A     62.647229  3097A     63.603418  
    3098A     63.940620  3099A     64.241408  

    Final Occupation by Irrep:
              A 
    DOCC [    82 ]
    NA   [    82 ]
    NB   [    82 ]

  @DF-RHF Final Energy:  -920.82436361690054

   => Energetics <=

    Nuclear Repulsion Energy =           1864.8412087392382546
    One-Electron Energy =               -4953.2416916022557416
    Two-Electron Energy =                2167.5761192461172868
    Total Energy =                       -920.8243636169004276

Computation Completed


Properties will be evaluated at   0.000000,   0.000000,   0.000000 [a0]

Properties computed using the SCF density matrix


 Multipole Moments:

 ------------------------------------------------------------------------------------
     Multipole            Electronic (a.u.)      Nuclear  (a.u.)        Total (a.u.)
 ------------------------------------------------------------------------------------

 L = 1.  Multiply by 2.5417464519 to convert [e a0] to [Debye]
 Dipole X            :      -5244.8695640         5244.7985666           -0.0709974
 Dipole Y            :      -3214.2097483         3213.8331896           -0.3765587
 Dipole Z            :      -6901.1684565         6901.1289601           -0.0394964
 Magnitude           :                                                    0.3852234

 ------------------------------------------------------------------------------------

*** tstop() called on atl1-1-03-004-7-1.pace.gatech.edu at Sat Jun 13 12:07:53 2026
Module time:
	user time   =   26205.88 seconds =     436.76 minutes
	system time =    2030.20 seconds =      33.84 minutes
	total time  =       4490 seconds =      74.83 minutes
Total time:
	user time   =   26205.88 seconds =     436.76 minutes
	system time =    2030.20 seconds =      33.84 minutes
	total time  =       4490 seconds =      74.83 minutes

    Psi4 stopped on: Saturday, 13 June 2026 12:08PM
    Psi4 wall time for execution: 1:14:58.29

*** Psi4 exiting successfully. Buy a developer a beer!
