
    -----------------------------------------------------------------------
          Psi4: An Open-Source Ab Initio Electronic Structure Package
                               Psi4 1.9.1 release

                         Git: Rev {} zzzzzzz 


    D. G. A. Smith, L. A. Burns, A. C. Simmonett, R. M. Parrish,
    M. C. Schieber, R. Galvelis, P. Kraus, H. Kruse, R. Di Remigio,
    A. Alenaizan, A. M. James, S. Lehtola, J. P. Misiewicz, M. Scheurer,
    R. A. Shaw, J. B. Schriber, Y. Xie, Z. L. Glick, D. A. Sirianni,
    J. S. O'Brien, J. M. Waldrop, A. Kumar, E. G. Hohenstein,
    B. P. Pritchard, B. R. Brooks, H. F. Schaefer III, A. Yu. Sokolov,
    K. Patkowski, A. E. DePrince III, U. Bozkaya, R. A. King,
    F. A. Evangelista, J. M. Turney, T. D. Crawford, C. D. Sherrill,
    J. Chem. Phys. 152(18) 184108 (2020). https://doi.org/10.1063/5.0006002

                            Additional Code Authors
    E. T. Seidl, C. L. Janssen, E. F. Valeev, M. L. Leininger,
    J. F. Gonthier, R. M. Richard, H. R. McAlexander, M. Saitow, X. Wang,
    P. Verma, M. H. Lechner, A. Jiang, S. Behnle, A. G. Heide,
    M. F. Herbst, and D. L. Poole

             Previous Authors, Complete List of Code Contributors,
                       and Citations for Specific Modules
    https://github.com/psi4/psi4/blob/master/codemeta.json
    https://github.com/psi4/psi4/graphs/contributors
    http://psicode.org/psi4manual/master/introduction.html#citing-psifour

    -----------------------------------------------------------------------


    Psi4 started on: Saturday, 13 June 2026 02:10AM

    Process ID: 141577
    Host:       atl1-1-02-003-29-2.pace.gatech.edu
    PSIDATADIR: /storage/home/hcoda1/5/vlita3/.conda/envs/p4_qcml/share/psi4
    Memory:     250.0 GiB
    Threads:    10
    
  ==> Input QCSchema <==

--------------------------------------------------------------------------
{'driver': 'energy',
 'extras': {},
 'id': '191',
 'keywords': {},
 'model': {'basis': 'aug-cc-pvtz', 'method': 'hf'},
 'molecule': {'extras': {},
              'fix_com': True,
              'fix_orientation': True,
              'fragment_charges': [0.0, 0.0],
              'fragment_multiplicities': [1, 1],
              'fragments': [[0, 1, 2, 3, 4, 5, 6, 7, 8, 9, 10, 11, 12, 13, 14],
                            [15, 16, 17, 18, 19, 20, 21, 22, 23, 24, 25, 26, 27, 28, 29, 30, 31, 32, 33, 34, 35, 36, 37,
                             38, 39, 40, 41, 42, 43, 44, 45, 46, 47, 48, 49, 50, 51, 52, 53, 54, 55, 56, 57, 58, 59, 60,
                             61, 62, 63, 64, 65, 66, 67, 68, 69, 70, 71, 72, 73, 74, 75, 76, 77, 78, 79, 80, 81, 82, 83,
                             84, 85, 86]],
              'geometry': [-4.21408926, -0.28723837, 4.89628039, -1.79523982, -1.39650761, 4.99454615, 0.24755412,
                           0.2891281, 5.03989958, -2.26011245, 3.62260498, 4.98698725, 1.49477337, -3.70764266,
                           4.95864135, -4.39928242, 2.25255354, 4.90194957, 0.14172946, 2.81947138, 5.05312766,
                           -0.98265759, -3.88905637, 4.94352354, 2.3583782, -1.24532952, 5.0417893, -6.38349485,
                           -1.67240762, 4.84336806, -2.52278438, 5.65972975, 4.97375916, 2.79301521, -5.28367425,
                           4.88305231, 4.17440501, -0.66140414, 4.90761875, -7.96519562, -0.73321374, 4.3180242,
                           -6.25499348, -3.50544196, 4.31424474, 11.7540965, -2.40373163, -0.19464179, 12.01109925,
                           0.16251645, -0.12661165, 9.86437037, 1.80657818, -0.31180481, 7.41339559, 0.69163976,
                           -0.57447674, 7.14694421, -1.98232271, -0.66329387, 9.3239087, -3.57536183, -0.45353427,
                           4.71108723, -3.08214331, -0.90706854, 9.01399362, -6.20397087, -0.50077742, 6.6253798,
                           -7.32646819, -0.72754456, 4.43707694, -5.7504366, -0.94486306, 6.28333937, -10.01365874,
                           -0.73699319, 3.93440979, -11.06812592, -0.89950964, 1.70453297, -9.53744776, -1.06580553,
                           1.98988161, -6.8502572, -1.09415143, -0.17763426, -5.27989479, -1.26233705, 0.09637603,
                           -2.60026315, -1.26422678, 2.53601246, -1.50233227, -1.12627677, 5.24776945, 2.2638919,
                           -0.77667744, 2.80246384, 1.16407129, -1.01856238, 0.63305825, 2.7344337, -1.15651239,
                           -1.80279872, 1.63650282, -1.33414664, -2.07491929, -1.02990074, -1.34926445, -2.62293986,
                           -6.37593595, -1.31902884, -4.79990436, -4.80179408, -1.37005144, -4.52967352, -2.1335008,
                           -1.44375076, -0.72565483, -10.5824663, -1.15840211, -2.8931707, -9.0631265, -1.26044733,
                           -7.27166613, -5.89972496, -1.3889487, -9.39193884, -4.31424474, -1.4324124, -9.16517171,
                           -1.67618707, -1.46642747, -6.70285857, -0.56124866, -1.45130966, -3.98732212, 3.21064469,
                           -1.35115418, -6.430738, 2.11082408, -1.44186103, -5.39138864, -10.11003477, -1.29257267,
                           -7.48142573, -8.6001436, -1.34737473, -8.61904086, 3.69819403, -1.42863295, -11.06056701,
                           2.52845356, -1.46453775, -11.32323894, -0.03779452, -1.47776583, -8.3110155, 6.32680307,
                           -1.36627199, -5.9167325, 7.44930039, -1.28123431, -3.71709129, 5.87704825, -1.27745486,
                           -1.27367541, 6.97686886, -1.09415143, 0.90328909, 5.4102859, -1.048798, 3.34103579,
                           6.50632705, -0.82203086, 5.51044138, 4.93218519, -0.65195551, 7.9708648, 6.02822634,
                           -0.40629112, 10.08546833, 4.44274612, -0.23810549, 8.17306549, 8.72864497, -0.31936372,
                           3.59803854, 9.1935176, -0.69541921, 6.08680785, 10.23853615, -0.45920345, -0.99588567,
                           9.66405941, -0.98454731, 1.42863295, 10.70907795, -0.7955747, -5.58036125, 10.13649094,
                           -1.18107883, -3.23143167, 11.19284784, -1.04312882, 13.40760686, -3.61315635, -0.04535343,
                           13.87058976, 1.01100348, 0.06991987, 10.67317316, -7.40772641, -0.34204043, 7.94629836,
                           -11.20985538, -0.59526373, 3.71331184, -13.11280958, -0.88817128, -0.93919388, -12.62714997,
                           -1.12249732, -11.26843689, -5.1570626, -1.44186103, -5.59169961, -12.15471844, -1.2585576,
                           -9.3598135, -9.43351282, -1.36060281, -12.72163628, 3.739768, -1.47020693, -13.19406781,
                           -0.88817128, -1.49288364, -9.97964367, 7.52866888, -1.35871308, 11.95062802, 5.28556397,
                           -0.0434637, 10.04200463, 9.56012447, -0.13228083, 6.28144964, 12.28321982, -0.37983495,
                           1.6346131, 12.75376162, -0.7086473, -7.25276887, 11.32890812, -1.20753499, -3.0160029,
                           13.23564178, -0.9618706],
              'id': 8,
              'identifiers': {'molecular_formula': 'C59H23N5',
                              'molecule_hash': 'f0ddb680e931cf1e25d7124fec297d5d0fb09058'},
              'masses': [12.0, 12.0, 12.0, 12.0, 12.0, 14.00307400443, 14.00307400443, 14.00307400443, 14.00307400443,
                         14.00307400443, 1.00782503223, 1.00782503223, 1.00782503223, 1.00782503223, 1.00782503223,
                         12.0, 12.0, 12.0, 12.0, 12.0, 12.0, 12.0, 12.0, 12.0, 12.0, 12.0, 12.0, 12.0, 12.0, 12.0, 12.0,
                         12.0, 12.0, 12.0, 12.0, 12.0, 12.0, 12.0, 12.0, 12.0, 12.0, 12.0, 12.0, 12.0, 12.0, 12.0, 12.0,
                         12.0, 12.0, 12.0, 12.0, 12.0, 12.0, 12.0, 12.0, 12.0, 12.0, 12.0, 12.0, 12.0, 12.0, 12.0, 12.0,
                         12.0, 12.0, 12.0, 12.0, 12.0, 12.0, 1.00782503223, 1.00782503223, 1.00782503223, 1.00782503223,
                         1.00782503223, 1.00782503223, 1.00782503223, 1.00782503223, 1.00782503223, 1.00782503223,
                         1.00782503223, 1.00782503223, 1.00782503223, 1.00782503223, 1.00782503223, 1.00782503223,
                         1.00782503223, 1.00782503223],
              'molecular_charge': 0.0,
              'molecular_multiplicity': 1,
              'name': 'C59H23N5 ([0],[1])',
              'provenance': {'creator': 'QCElemental',
                             'routine': 'qcelemental.molparse.from_schema',
                             'version': '0.29.0'},
              'real': [True, True, True, True, True, True, True, True, True, True, True, True, True, True, True, False,
                       False, False, False, False, False, False, False, False, False, False, False, False, False, False,
                       False, False, False, False, False, False, False, False, False, False, False, False, False, False,
                       False, False, False, False, False, False, False, False, False, False, False, False, False, False,
                       False, False, False, False, False, False, False, False, False, False, False, False, False, False,
                       False, False, False, False, False, False, False, False, False, False, False, False, False, False,
                       False],
              'schema_name': 'qcschema_molecule',
              'schema_version': 2,
              'symbols': ['C', 'C', 'C', 'C', 'C', 'N', 'N', 'N', 'N', 'N', 'H', 'H', 'H', 'H', 'H', 'C', 'C', 'C', 'C',
                          'C', 'C', 'C', 'C', 'C', 'C', 'C', 'C', 'C', 'C', 'C', 'C', 'C', 'C', 'C', 'C', 'C', 'C', 'C',
                          'C', 'C', 'C', 'C', 'C', 'C', 'C', 'C', 'C', 'C', 'C', 'C', 'C', 'C', 'C', 'C', 'C', 'C', 'C',
                          'C', 'C', 'C', 'C', 'C', 'C', 'C', 'C', 'C', 'C', 'C', 'C', 'H', 'H', 'H', 'H', 'H', 'H', 'H',
                          'H', 'H', 'H', 'H', 'H', 'H', 'H', 'H', 'H', 'H', 'H'],
              'validated': True},
 'protocols': {},
 'provenance': {'creator': 'QCElemental', 'routine': 'qcelemental.models.results', 'version': '0.29.0'},
 'schema_name': 'qcschema_input',
 'schema_version': 1}
--------------------------------------------------------------------------

Scratch directory: /tmp/tmpoh30mjul_psi_scratch/
   => Libint2 <=

    Primary   basis highest AM E, G, H:  6, 6, 3
    Auxiliary basis highest AM E, G, H:  7, 7, 4
    Onebody   basis highest AM E, G, H:  -, -, -
    Solid Harmonics ordering:            Gaussian

*** tstart() called on atl1-1-02-003-29-2.pace.gatech.edu
*** at Sat Jun 13 02:10:44 2026

   => Loading Basis Set <=

    Name: AUG-CC-PVTZ
    Role: ORBITAL
    Keyword: BASIS
    atoms 1-5, 16-69   entry C          line   239 file /storage/home/hcoda1/5/vlita3/.conda/envs/p4_qcml/share/psi4/basis/aug-cc-pvtz.gbs 
    atoms 6-10         entry N          line   285 file /storage/home/hcoda1/5/vlita3/.conda/envs/p4_qcml/share/psi4/basis/aug-cc-pvtz.gbs 
    atoms 11-15, 70-87 entry H          line    40 file /storage/home/hcoda1/5/vlita3/.conda/envs/p4_qcml/share/psi4/basis/aug-cc-pvtz.gbs 


         ---------------------------------------------------------
                                   SCF
               by Justin Turney, Rob Parrish, Andy Simmonett
                          and Daniel G. A. Smith
                              RHF Reference
                       10 Threads, 256000 MiB Core
         ---------------------------------------------------------

  ==> Geometry <==

    Molecular point group: c1
    Full point group: C1

    Geometry (in Bohr), charge = 0, multiplicity = 1:

       Center              X                  Y                   Z               Mass       
    ------------   -----------------  -----------------  -----------------  -----------------
         C           -4.214089260000    -0.287238370000     4.896280390000    12.000000000000
         C           -1.795239820000    -1.396507610000     4.994546150000    12.000000000000
         C            0.247554120000     0.289128100000     5.039899580000    12.000000000000
         C           -2.260112450000     3.622604980000     4.986987250000    12.000000000000
         C            1.494773370000    -3.707642660000     4.958641350000    12.000000000000
         N           -4.399282420000     2.252553540000     4.901949570000    14.003074004430
         N            0.141729460000     2.819471380000     5.053127660000    14.003074004430
         N           -0.982657590000    -3.889056370000     4.943523540000    14.003074004430
         N            2.358378200000    -1.245329520000     5.041789300000    14.003074004430
         N           -6.383494850000    -1.672407620000     4.843368060000    14.003074004430
         H           -2.522784380000     5.659729750000     4.973759160000     1.007825032230
         H            2.793015210000    -5.283674250000     4.883052310000     1.007825032230
         H            4.174405010000    -0.661404140000     4.907618750000     1.007825032230
         H           -7.965195620000    -0.733213740000     4.318024200000     1.007825032230
         H           -6.254993480000    -3.505441960000     4.314244740000     1.007825032230
      Gh(C)          11.754096500000    -2.403731630000    -0.194641790000    12.000000000000
      Gh(C)          12.011099250000     0.162516450000    -0.126611650000    12.000000000000
      Gh(C)           9.864370370000     1.806578180000    -0.311804810000    12.000000000000
      Gh(C)           7.413395590000     0.691639760000    -0.574476740000    12.000000000000
      Gh(C)           7.146944210000    -1.982322710000    -0.663293870000    12.000000000000
      Gh(C)           9.323908700000    -3.575361830000    -0.453534270000    12.000000000000
      Gh(C)           4.711087230000    -3.082143310000    -0.907068540000    12.000000000000
      Gh(C)           9.013993620000    -6.203970870000    -0.500777420000    12.000000000000
      Gh(C)           6.625379800000    -7.326468190000    -0.727544560000    12.000000000000
      Gh(C)           4.437076940000    -5.750436600000    -0.944863060000    12.000000000000
      Gh(C)           6.283339370000   -10.013658740000    -0.736993190000    12.000000000000
      Gh(C)           3.934409790000   -11.068125920000    -0.899509640000    12.000000000000
      Gh(C)           1.704532970000    -9.537447760000    -1.065805530000    12.000000000000
      Gh(C)           1.989881610000    -6.850257200000    -1.094151430000    12.000000000000
      Gh(C)          -0.177634260000    -5.279894790000    -1.262337050000    12.000000000000
      Gh(C)           0.096376030000    -2.600263150000    -1.264226780000    12.000000000000
      Gh(C)           2.536012460000    -1.502332270000    -1.126276770000    12.000000000000
      Gh(C)           5.247769450000     2.263891900000    -0.776677440000    12.000000000000
      Gh(C)           2.802463840000     1.164071290000    -1.018562380000    12.000000000000
      Gh(C)           0.633058250000     2.734433700000    -1.156512390000    12.000000000000
      Gh(C)          -1.802798720000     1.636502820000    -1.334146640000    12.000000000000
      Gh(C)          -2.074919290000    -1.029900740000    -1.349264450000    12.000000000000
      Gh(C)          -2.622939860000    -6.375935950000    -1.319028840000    12.000000000000
      Gh(C)          -4.799904360000    -4.801794080000    -1.370051440000    12.000000000000
      Gh(C)          -4.529673520000    -2.133500800000    -1.443750760000    12.000000000000
      Gh(C)          -0.725654830000   -10.582466300000    -1.158402110000    12.000000000000
      Gh(C)          -2.893170700000    -9.063126500000    -1.260447330000    12.000000000000
      Gh(C)          -7.271666130000    -5.899724960000    -1.388948700000    12.000000000000
      Gh(C)          -9.391938840000    -4.314244740000    -1.432412400000    12.000000000000
      Gh(C)          -9.165171710000    -1.676187070000    -1.466427470000    12.000000000000
      Gh(C)          -6.702858570000    -0.561248660000    -1.451309660000    12.000000000000
      Gh(C)          -3.987322120000     3.210644690000    -1.351154180000    12.000000000000
      Gh(C)          -6.430738000000     2.110824080000    -1.441861030000    12.000000000000
      Gh(C)          -5.391388640000   -10.110034770000    -1.292572670000    12.000000000000
      Gh(C)          -7.481425730000    -8.600143600000    -1.347374730000    12.000000000000
      Gh(C)          -8.619040860000     3.698194030000    -1.428632950000    12.000000000000
      Gh(C)         -11.060567010000     2.528453560000    -1.464537750000    12.000000000000
      Gh(C)         -11.323238940000    -0.037794520000    -1.477765830000    12.000000000000
      Gh(C)          -8.311015500000     6.326803070000    -1.366271990000    12.000000000000
      Gh(C)          -5.916732500000     7.449300390000    -1.281234310000    12.000000000000
      Gh(C)          -3.717091290000     5.877048250000    -1.277454860000    12.000000000000
      Gh(C)          -1.273675410000     6.976868860000    -1.094151430000    12.000000000000
      Gh(C)           0.903289090000     5.410285900000    -1.048798000000    12.000000000000
      Gh(C)           3.341035790000     6.506327050000    -0.822030860000    12.000000000000
      Gh(C)           5.510441380000     4.932185190000    -0.651955510000    12.000000000000
      Gh(C)           7.970864800000     6.028226340000    -0.406291120000    12.000000000000
      Gh(C)          10.085468330000     4.442746120000    -0.238105490000    12.000000000000
      Gh(C)           8.173065490000     8.728644970000    -0.319363720000    12.000000000000
      Gh(C)           3.598038540000     9.193517600000    -0.695419210000    12.000000000000
      Gh(C)           6.086807850000    10.238536150000    -0.459203450000    12.000000000000
      Gh(C)          -0.995885670000     9.664059410000    -0.984547310000    12.000000000000
      Gh(C)           1.428632950000    10.709077950000    -0.795574700000    12.000000000000
      Gh(C)          -5.580361250000    10.136490940000    -1.181078830000    12.000000000000
      Gh(C)          -3.231431670000    11.192847840000    -1.043128820000    12.000000000000
      Gh(H)          13.407606860000    -3.613156350000    -0.045353430000     1.007825032230
      Gh(H)          13.870589760000     1.011003480000     0.069919870000     1.007825032230
      Gh(H)          10.673173160000    -7.407726410000    -0.342040430000     1.007825032230
      Gh(H)           7.946298360000   -11.209855380000    -0.595263730000     1.007825032230
      Gh(H)           3.713311840000   -13.112809580000    -0.888171280000     1.007825032230
      Gh(H)          -0.939193880000   -12.627149970000    -1.122497320000     1.007825032230
      Gh(H)         -11.268436890000    -5.157062600000    -1.441861030000     1.007825032230
      Gh(H)          -5.591699610000   -12.154718440000    -1.258557600000     1.007825032230
      Gh(H)          -9.359813500000    -9.433512820000    -1.360602810000     1.007825032230
      Gh(H)         -12.721636280000     3.739768000000    -1.470206930000     1.007825032230
      Gh(H)         -13.194067810000    -0.888171280000    -1.492883640000     1.007825032230
      Gh(H)          -9.979643670000     7.528668880000    -1.358713080000     1.007825032230
      Gh(H)          11.950628020000     5.285563970000    -0.043463700000     1.007825032230
      Gh(H)          10.042004630000     9.560124470000    -0.132280830000     1.007825032230
      Gh(H)           6.281449640000    12.283219820000    -0.379834950000     1.007825032230
      Gh(H)           1.634613100000    12.753761620000    -0.708647300000     1.007825032230
      Gh(H)          -7.252768870000    11.328908120000    -1.207534990000     1.007825032230
      Gh(H)          -3.016002900000    13.235641780000    -0.961870600000     1.007825032230

  Running in c1 symmetry.

  Rotational constants: A =      0.00187  B =      0.00184  C =      0.00106 [cm^-1]
  Rotational constants: A =     56.02922  B =     55.09335  C =     31.77172 [MHz]
  Nuclear repulsion =  501.223593857768037

  Charge       = 0
  Multiplicity = 1
  Electrons    = 70
  Nalpha       = 35
  Nbeta        = 35

  ==> Algorithm <==

  SCF Algorithm Type is DF.
  DIIS enabled.
  MOM disabled.
  Fractional occupation disabled.
  Guess Type is SAD.
  Energy threshold   = 1.00e-06
  Density threshold  = 1.00e-06
  Integral threshold = 1.00e-12

  ==> Primary Basis <==

  Basis Set: AUG-CC-PVTZ
    Blend: AUG-CC-PVTZ
    Number of shells: 1103
    Number of basis functions: 3473
    Number of Cartesian functions: 4095
    Spherical Harmonics?: true
    Max angular momentum: 3

   => Loading Basis Set <=

    Name: (AUG-CC-PVTZ AUX)
    Role: JKFIT
    Keyword: DF_BASIS_SCF
    atoms 1-5, 16-69   entry C          line   162 file /storage/home/hcoda1/5/vlita3/.conda/envs/p4_qcml/share/psi4/basis/aug-cc-pvtz-jkfit.gbs 
    atoms 6-10         entry N          line   224 file /storage/home/hcoda1/5/vlita3/.conda/envs/p4_qcml/share/psi4/basis/aug-cc-pvtz-jkfit.gbs 
    atoms 11-15, 70-87 entry H          line    70 file /storage/home/hcoda1/5/vlita3/.conda/envs/p4_qcml/share/psi4/basis/aug-cc-pvtz-jkfit.gbs 

  ==> Integral Setup <==

  ==> DiskDFJK: Density-Fitted J/K Matrices <==

    J tasked:                  Yes
    K tasked:                  Yes
    wK tasked:                  No
    OpenMP threads:             10
    Integrals threads:          10
    Memory [MiB]:           192000
    Algorithm:                Disk
    Integral Cache:           NONE
    Schwarz Cutoff:          1E-12
    Fitting Condition:       1E-10

   => Auxiliary Basis Set <=

  Basis Set: (AUG-CC-PVTZ AUX)
    Blend: AUG-CC-PVTZ-JKFIT
    Number of shells: 2242
    Number of basis functions: 7714
    Number of Cartesian functions: 9649
    Spherical Harmonics?: true
    Max angular momentum: 4

  Minimum eigenvalue in the overlap matrix is 6.5964717033E-12.
  Reciprocal condition number of the overlap matrix is 1.9686718001E-13.
    Using canonical orthogonalization.
  Overall, 56 of 3473 possible MOs eliminated.


  ==> Pre-Iterations <==

  SCF Guess: Superposition of Atomic Densities via on-the-fly atomic UHF (no occupation information).

   -------------------------
    Irrep   Nso     Nmo    
   -------------------------
     A       3473    3417 
   -------------------------
    Total    3473    3417
   -------------------------

  ==> Iterations <==

                           Total Energy        Delta E     RMS |[F,P]|

   @DF-RHF iter SAD:  -464.43726129981980   -4.64437e+02   0.00000e+00 
   @DF-RHF iter   1:  -464.44602955466007   -8.76825e-03   1.95477e-04 ADIIS/DIIS
   @DF-RHF iter   2:  -464.63602706322297   -1.89998e-01   9.59158e-05 DIIS
   @DF-RHF iter   3:  -464.67904309002097   -4.30160e-02   2.18576e-05 DIIS
   @DF-RHF iter   4:  -464.68231934966730   -3.27626e-03   1.02220e-05 DIIS
   @DF-RHF iter   5:  -464.68295875047977   -6.39401e-04   2.08741e-06 DIIS
   @DF-RHF iter   6:  -464.68301630539298   -5.75549e-05   1.00139e-06 DIIS
   @DF-RHF iter   7:  -464.68303111681740   -1.48114e-05   4.03471e-07 DIIS
   @DF-RHF iter   8:  -464.68303439265054   -3.27583e-06   1.51524e-07 DIIS
   @DF-RHF iter   9:  -464.68303488890717   -4.96257e-07   7.99891e-08 DIIS
  Energy and wave function converged.


  ==> Post-Iterations <==

    Orbital Energies [Eh]
    ---------------------

    Doubly Occupied:                                                      

       1A    -15.633496     2A    -15.584997     3A    -15.572537  
       4A    -15.560972     5A    -15.554089     6A    -11.340022  
       7A    -11.327653     8A    -11.321563     9A    -11.313096  
      10A    -11.256314    11A     -1.365518    12A     -1.298336  
      13A     -1.245706    14A     -1.186614    15A     -1.151965  
      16A     -1.034377    17A     -0.895056    18A     -0.876731  
      19A     -0.844488    20A     -0.776862    21A     -0.735388  
      22A     -0.696101    23A     -0.674979    24A     -0.637634  
      25A     -0.633586    26A     -0.612623    27A     -0.591920  
      28A     -0.557449    29A     -0.498751    30A     -0.497718  
      31A     -0.452969    32A     -0.427588    33A     -0.411974  
      34A     -0.374838    35A     -0.312304  

    Virtual:                                                              

      36A      0.009282    37A      0.015545    38A      0.017446  
      39A      0.023953    40A      0.024710    41A      0.030633  
      42A      0.032416    43A      0.033883    44A      0.034613  
      45A      0.041033    46A      0.042772    47A      0.043757  
      48A      0.045584    49A      0.046575    50A      0.046627  
      51A      0.052371    52A      0.056792    53A      0.058681  
      54A      0.059310    55A      0.059675    56A      0.059980  
      57A      0.060384    58A      0.064832    59A      0.067998  
      60A      0.070233    61A      0.073807    62A      0.074104  
      63A      0.074826    64A      0.076367    65A      0.078425  
      66A      0.080072    67A      0.080907    68A      0.082431  
      69A      0.083709    70A      0.084249    71A      0.088156  
      72A      0.089899    73A      0.091459    74A      0.092187  
      75A      0.095499    76A      0.095970    77A      0.098406  
      78A      0.099535    79A      0.099888    80A      0.101307  
      81A      0.101873    82A      0.103404    83A      0.104786  
      84A      0.105727    85A      0.106802    86A      0.107827  
      87A      0.108106    88A      0.109583    89A      0.110605  
      90A      0.111548    91A      0.115979    92A      0.117176  
      93A      0.117381    94A      0.117944    95A      0.122198  
      96A      0.122310    97A      0.123182    98A      0.123472  
      99A      0.124418   100A      0.126610   101A      0.126691  
     102A      0.128135   103A      0.128591   104A      0.131123  
     105A      0.133585   106A      0.134207   107A      0.135975  
     108A      0.136547   109A      0.138083   110A      0.139234  
     111A      0.140130   112A      0.142327   113A      0.143154  
     114A      0.144095   115A      0.145256   116A      0.147420  
     117A      0.148148   118A      0.148759   119A      0.150903  
     120A      0.151941   121A      0.158388   122A      0.159044  
     123A      0.159089   124A      0.160503   125A      0.162510  
     126A      0.162894   127A      0.165150   128A      0.165294  
     129A      0.166183   130A      0.167866   131A      0.168871  
     132A      0.169092   133A      0.169495   134A      0.170609  
     135A      0.171199   136A      0.171609   137A      0.173174  
     138A      0.175190   139A      0.177215   140A      0.178655  
     141A      0.179609   142A      0.182708   143A      0.183408  
     144A      0.183832   145A      0.184458   146A      0.185897  
     147A      0.186793   148A      0.188890   149A      0.189009  
     150A      0.194647   151A      0.195295   152A      0.195909  
     153A      0.196413   154A      0.197072   155A      0.198528  
     156A      0.198933   157A      0.201137   158A      0.203598  
     159A      0.204000   160A      0.204954   161A      0.206222  
     162A      0.209097   163A      0.209768   164A      0.210184  
     165A      0.210549   166A      0.212095   167A      0.213203  
     168A      0.214752   169A      0.215039   170A      0.216969  
     171A      0.220803   172A      0.221625   173A      0.222487  
     174A      0.222774   175A      0.223514   176A      0.224948  
     177A      0.225977   178A      0.225997   179A      0.227450  
     180A      0.228188   181A      0.228555   182A      0.230382  
     183A      0.232359   184A      0.233939   185A      0.234416  
     186A      0.236318   187A      0.237412   188A      0.239117  
     189A      0.239774   190A      0.241545   191A      0.242667  
     192A      0.243485   193A      0.244718   194A      0.247743  
     195A      0.249795   196A      0.250895   197A      0.251274  
     198A      0.251730   199A      0.252419   200A      0.253253  
     201A      0.257327   202A      0.259695   203A      0.262606  
     204A      0.263238   205A      0.264150   206A      0.265342  
     207A      0.266581   208A      0.267632   209A      0.268176  
     210A      0.269291   211A      0.269799   212A      0.270978  
     213A      0.272040   214A      0.272547   215A      0.275753  
     216A      0.276781   217A      0.279645   218A      0.280487  
     219A      0.282522   220A      0.283920   221A      0.285256  
     222A      0.285750   223A      0.286849   224A      0.288285  
     225A      0.288763   226A      0.290134   227A      0.291571  
     228A      0.292492   229A      0.293636   230A      0.294600  
     231A      0.295845   232A      0.297016   233A      0.297602  
     234A      0.298743   235A      0.301931   236A      0.302299  
     237A      0.303329   238A      0.304084   239A      0.305805  
     240A      0.306515   241A      0.308146   242A      0.309370  
     243A      0.311361   244A      0.312685   245A      0.313834  
     246A      0.314734   247A      0.317467   248A      0.318539  
     249A      0.319683   250A      0.320381   251A      0.320961  
     252A      0.322649   253A      0.322808   254A      0.325778  
     255A      0.328339   256A      0.329562   257A      0.330919  
     258A      0.331454   259A      0.332289   260A      0.333087  
     261A      0.333848   262A      0.335957   263A      0.336762  
     264A      0.337489   265A      0.338641   266A      0.340644  
     267A      0.341359   268A      0.341652   269A      0.342205  
     270A      0.343584   271A      0.344413   272A      0.346173  
     273A      0.346647   274A      0.347279   275A      0.348295  
     276A      0.349106   277A      0.351160   278A      0.352031  
     279A      0.353792   280A      0.354451   281A      0.355250  
     282A      0.357353   283A      0.359096   284A      0.360700  
     285A      0.363001   286A      0.364531   287A      0.365617  
     288A      0.365814   289A      0.367858   290A      0.369689  
     291A      0.370257   292A      0.371952   293A      0.372782  
     294A      0.374381   295A      0.374960   296A      0.376029  
     297A      0.377336   298A      0.378719   299A      0.380222  
     300A      0.380484   301A      0.383297   302A      0.383470  
     303A      0.385138   304A      0.386191   305A      0.387571  
     306A      0.389392   307A      0.391067   308A      0.391489  
     309A      0.392542   310A      0.392876   311A      0.393851  
     312A      0.394857   313A      0.395733   314A      0.396283  
     315A      0.397311   316A      0.398169   317A      0.400055  
     318A      0.401134   319A      0.402098   320A      0.403261  
     321A      0.404492   322A      0.405472   323A      0.406546  
     324A      0.407603   325A      0.409199   326A      0.410238  
     327A      0.410510   328A      0.411992   329A      0.413390  
     330A      0.415016   331A      0.415783   332A      0.417147  
     333A      0.417961   334A      0.419985   335A      0.420378  
     336A      0.422241   337A      0.423469   338A      0.423940  
     339A      0.425717   340A      0.427036   341A      0.429224  
     342A      0.429647   343A      0.430422   344A      0.433148  
     345A      0.433918   346A      0.434167   347A      0.436211  
     348A      0.437856   349A      0.440368   350A      0.441123  
     351A      0.442179   352A      0.443311   353A      0.444060  
     354A      0.445581   355A      0.448160   356A      0.448868  
     357A      0.451770   358A      0.453426   359A      0.454224  
     360A      0.455205   361A      0.457093   362A      0.458757  
     363A      0.460032   364A      0.460522   365A      0.462475  
     366A      0.464155   367A      0.465303   368A      0.467304  
     369A      0.467787   370A      0.469648   371A      0.470619  
     372A      0.473186   373A      0.474801   374A      0.475541  
     375A      0.476398   376A      0.477178   377A      0.479083  
     378A      0.479581   379A      0.480809   380A      0.482232  
     381A      0.483564   382A      0.484315   383A      0.485601  
     384A      0.487057   385A      0.488460   386A      0.489344  
     387A      0.489824   388A      0.491609   389A      0.493296  
     390A      0.493960   391A      0.495667   392A      0.496102  
     393A      0.497361   394A      0.498726   395A      0.500613  
     396A      0.501662   397A      0.501814   398A      0.502100  
     399A      0.503913   400A      0.504973   401A      0.508000  
     402A      0.509690   403A      0.510905   404A      0.512288  
     405A      0.514253   406A      0.515522   407A      0.517178  
     408A      0.517941   409A      0.518565   410A      0.519539  
     411A      0.521290   412A      0.522702   413A      0.523549  
     414A      0.524172   415A      0.525026   416A      0.528961  
     417A      0.529963   418A      0.531431   419A      0.533309  
     420A      0.534611   421A      0.537512   422A      0.537938  
     423A      0.539346   424A      0.540055   425A      0.540674  
     426A      0.541614   427A      0.543832   428A      0.546020  
     429A      0.548338   430A      0.549817   431A      0.549874  
     432A      0.552044   433A      0.553269   434A      0.553774  
     435A      0.555535   436A      0.556349   437A      0.557586  
     438A      0.558779   439A      0.559810   440A      0.562607  
     441A      0.563818   442A      0.565532   443A      0.567534  
     444A      0.569385   445A      0.570043   446A      0.571399  
     447A      0.571931   448A      0.572839   449A      0.573357  
     450A      0.574684   451A      0.576766   452A      0.578008  
     453A      0.579081   454A      0.579551   455A      0.580711  
     456A      0.581170   457A      0.582156   458A      0.583193  
     459A      0.584085   460A      0.585752   461A      0.587201  
     462A      0.587496   463A      0.589962   464A      0.590342  
     465A      0.591117   466A      0.592829   467A      0.594958  
     468A      0.595345   469A      0.598196   470A      0.599333  
     471A      0.600888   472A      0.603327   473A      0.604336  
     474A      0.605361   475A      0.606629   476A      0.607662  
     477A      0.608865   478A      0.611120   479A      0.612807  
     480A      0.614217   481A      0.615195   482A      0.615974  
     483A      0.617026   484A      0.618196   485A      0.618881  
     486A      0.620476   487A      0.621510   488A      0.621759  
     489A      0.623343   490A      0.625323   491A      0.625890  
     492A      0.626330   493A      0.627503   494A      0.629985  
     495A      0.631263   496A      0.632620   497A      0.633454  
     498A      0.634801   499A      0.636875   500A      0.638870  
     501A      0.640543   502A      0.642221   503A      0.642732  
     504A      0.645179   505A      0.646931   506A      0.649403  
     507A      0.652310   508A      0.653904   509A      0.658033  
     510A      0.658518   511A      0.659268   512A      0.659461  
     513A      0.661336   514A      0.662254   515A      0.663343  
     516A      0.665037   517A      0.666122   518A      0.667568  
     519A      0.668936   520A      0.670523   521A      0.671439  
     522A      0.674181   523A      0.674817   524A      0.676817  
     525A      0.677432   526A      0.678166   527A      0.679103  
     528A      0.681485   529A      0.682435   530A      0.684872  
     531A      0.685973   532A      0.688067   533A      0.689446  
     534A      0.690187   535A      0.691589   536A      0.692935  
     537A      0.695963   538A      0.696484   539A      0.698459  
     540A      0.698788   541A      0.701933   542A      0.702357  
     543A      0.703872   544A      0.704379   545A      0.705571  
     546A      0.707734   547A      0.708784   548A      0.711446  
     549A      0.711637   550A      0.713826   551A      0.715064  
     552A      0.716250   553A      0.716840   554A      0.717430  
     555A      0.718830   556A      0.721524   557A      0.722855  
     558A      0.723843   559A      0.725442   560A      0.726410  
     561A      0.728492   562A      0.729033   563A      0.730236  
     564A      0.730906   565A      0.731806   566A      0.732940  
     567A      0.733677   568A      0.736344   569A      0.736995  
     570A      0.738090   571A      0.739234   572A      0.740830  
     573A      0.741721   574A      0.744156   575A      0.745260  
     576A      0.745939   577A      0.747337   578A      0.748981  
     579A      0.750340   580A      0.751635   581A      0.752607  
     582A      0.752956   583A      0.753676   584A      0.754744  
     585A      0.756694   586A      0.757520   587A      0.758517  
     588A      0.759422   589A      0.759867   590A      0.761080  
     591A      0.762116   592A      0.764766   593A      0.766041  
     594A      0.766956   595A      0.767994   596A      0.769790  
     597A      0.772218   598A      0.774089   599A      0.775456  
     600A      0.776585   601A      0.777766   602A      0.779340  
     603A      0.780181   604A      0.783105   605A      0.784423  
     606A      0.786142   607A      0.787679   608A      0.789041  
     609A      0.791687   610A      0.793212   611A      0.794178  
     612A      0.795321   613A      0.796943   614A      0.797157  
     615A      0.799494   616A      0.801986   617A      0.802212  
     618A      0.804475   619A      0.805022   620A      0.805673  
     621A      0.808682   622A      0.809860   623A      0.812361  
     624A      0.813457   625A      0.814298   626A      0.814901  
     627A      0.815048   628A      0.816910   629A      0.818322  
     630A      0.819514   631A      0.820372   632A      0.822234  
     633A      0.823012   634A      0.825586   635A      0.826224  
     636A      0.827681   637A      0.828390   638A      0.829939  
     639A      0.831527   640A      0.832643   641A      0.835177  
     642A      0.836003   643A      0.837583   644A      0.840703  
     645A      0.842588   646A      0.843451   647A      0.845259  
     648A      0.845380   649A      0.847607   650A      0.848068  
     651A      0.848995   652A      0.852099   653A      0.852996  
     654A      0.855408   655A      0.856179   656A      0.857481  
     657A      0.858059   658A      0.861410   659A      0.862963  
     660A      0.864426   661A      0.865638   662A      0.866922  
     663A      0.870181   664A      0.870770   665A      0.873051  
     666A      0.873489   667A      0.874285   668A      0.875191  
     669A      0.876417   670A      0.877619   671A      0.878633  
     672A      0.879283   673A      0.880362   674A      0.881717  
     675A      0.882185   676A      0.883577   677A      0.884392  
     678A      0.885969   679A      0.886999   680A      0.888959  
     681A      0.890630   682A      0.891720   683A      0.892356  
     684A      0.893911   685A      0.894809   686A      0.895637  
     687A      0.897280   688A      0.899899   689A      0.901917  
     690A      0.902505   691A      0.903447   692A      0.904801  
     693A      0.906170   694A      0.907468   695A      0.908157  
     696A      0.909929   697A      0.911977   698A      0.912779  
     699A      0.916174   700A      0.917474   701A      0.918405  
     702A      0.922073   703A      0.923445   704A      0.924846  
     705A      0.925237   706A      0.927498   707A      0.927736  
     708A      0.930231   709A      0.931913   710A      0.932832  
     711A      0.933390   712A      0.936379   713A      0.937673  
     714A      0.939828   715A      0.942791   716A      0.943552  
     717A      0.946360   718A      0.947695   719A      0.949805  
     720A      0.951361   721A      0.952707   722A      0.954284  
     723A      0.955622   724A      0.957331   725A      0.960028  
     726A      0.960994   727A      0.964432   728A      0.965950  
     729A      0.967181   730A      0.967972   731A      0.968878  
     732A      0.971005   733A      0.972085   734A      0.973666  
     735A      0.974603   736A      0.975309   737A      0.976890  
     738A      0.978885   739A      0.980906   740A      0.981794  
     741A      0.983409   742A      0.985235   743A      0.986525  
     744A      0.987425   745A      0.990545   746A      0.991691  
     747A      0.993101   748A      0.994380   749A      0.996550  
     750A      0.997116   751A      0.998339   752A      0.999635  
     753A      1.001771   754A      1.003973   755A      1.006055  
     756A      1.006780   757A      1.008374   758A      1.009748  
     759A      1.011409   760A      1.013299   761A      1.014133  
     762A      1.016659   763A      1.017605   764A      1.018866  
     765A      1.019152   766A      1.020426   767A      1.022196  
     768A      1.023251   769A      1.024055   770A      1.026350  
     771A      1.027834   772A      1.029974   773A      1.033108  
     774A      1.034574   775A      1.036319   776A      1.037241  
     777A      1.038391   778A      1.039439   779A      1.041068  
     780A      1.041920   781A      1.044326   782A      1.044826  
     783A      1.047400   784A      1.048246   785A      1.049880  
     786A      1.051291   787A      1.052571   788A      1.055262  
     789A      1.056267   790A      1.057208   791A      1.058795  
     792A      1.060705   793A      1.061246   794A      1.062234  
     795A      1.064695   796A      1.066317   797A      1.067140  
     798A      1.068573   799A      1.069565   800A      1.070922  
     801A      1.072445   802A      1.073888   803A      1.075860  
     804A      1.076999   805A      1.079237   806A      1.080671  
     807A      1.081745   808A      1.082210   809A      1.083395  
     810A      1.084961   811A      1.085436   812A      1.088749  
     813A      1.089431   814A      1.090497   815A      1.092013  
     816A      1.093906   817A      1.094268   818A      1.096459  
     819A      1.097526   820A      1.098563   821A      1.100717  
     822A      1.101218   823A      1.103691   824A      1.104583  
     825A      1.105698   826A      1.106107   827A      1.108685  
     828A      1.109308   829A      1.111340   830A      1.112555  
     831A      1.114246   832A      1.116008   833A      1.116491  
     834A      1.118337   835A      1.119660   836A      1.121427  
     837A      1.121709   838A      1.123875   839A      1.124184  
     840A      1.125481   841A      1.127661   842A      1.129331  
     843A      1.130636   844A      1.131053   845A      1.132917  
     846A      1.133461   847A      1.135628   848A      1.136198  
     849A      1.137061   850A      1.140019   851A      1.141839  
     852A      1.144019   853A      1.144771   854A      1.145718  
     855A      1.148089   856A      1.149040   857A      1.150644  
     858A      1.152591   859A      1.154014   860A      1.155604  
     861A      1.156210   862A      1.158772   863A      1.159426  
     864A      1.160568   865A      1.162538   866A      1.163467  
     867A      1.165605   868A      1.167277   869A      1.168022  
     870A      1.170566   871A      1.171661   872A      1.172461  
     873A      1.173520   874A      1.174728   875A      1.176091  
     876A      1.176930   877A      1.177884   878A      1.180041  
     879A      1.182299   880A      1.183117   881A      1.184447  
     882A      1.186532   883A      1.188135   884A      1.188993  
     885A      1.190870   886A      1.192440   887A      1.193454  
     888A      1.194725   889A      1.196722   890A      1.198244  
     891A      1.199510   892A      1.200225   893A      1.202787  
     894A      1.203429   895A      1.203735   896A      1.207020  
     897A      1.210550   898A      1.211491   899A      1.211772  
     900A      1.213116   901A      1.214629   902A      1.216086  
     903A      1.218927   904A      1.219985   905A      1.220995  
     906A      1.222179   907A      1.222761   908A      1.224682  
     909A      1.226208   910A      1.229604   911A      1.230779  
     912A      1.231526   913A      1.232542   914A      1.233882  
     915A      1.236695   916A      1.238753   917A      1.241609  
     918A      1.243867   919A      1.246081   920A      1.246580  
     921A      1.247803   922A      1.249380   923A      1.251369  
     924A      1.254251   925A      1.255870   926A      1.256763  
     927A      1.257930   928A      1.260453   929A      1.261653  
     930A      1.263050   931A      1.266225   932A      1.267235  
     933A      1.267996   934A      1.269026   935A      1.271169  
     936A      1.273645   937A      1.275630   938A      1.276392  
     939A      1.276485   940A      1.277714   941A      1.280053  
     942A      1.280503   943A      1.282060   944A      1.282977  
     945A      1.283452   946A      1.285024   947A      1.286832  
     948A      1.288055   949A      1.290352   950A      1.291140  
     951A      1.293085   952A      1.293880   953A      1.295281  
     954A      1.296478   955A      1.297866   956A      1.299419  
     957A      1.302323   958A      1.303586   959A      1.305358  
     960A      1.306978   961A      1.307631   962A      1.311057  
     963A      1.313150   964A      1.313331   965A      1.315642  
     966A      1.316669   967A      1.318374   968A      1.318860  
     969A      1.320378   970A      1.322586   971A      1.324742  
     972A      1.326284   973A      1.328905   974A      1.330115  
     975A      1.330138   976A      1.332921   977A      1.333233  
     978A      1.337610   979A      1.339783   980A      1.340836  
     981A      1.341267   982A      1.343971   983A      1.345053  
     984A      1.347849   985A      1.348965   986A      1.352301  
     987A      1.352791   988A      1.354098   989A      1.357368  
     990A      1.357926   991A      1.359219   992A      1.361577  
     993A      1.362702   994A      1.363968   995A      1.366676  
     996A      1.368112   997A      1.369095   998A      1.372083  
     999A      1.373792  1000A      1.374346  1001A      1.376531  
    1002A      1.378580  1003A      1.380088  1004A      1.382410  
    1005A      1.383499  1006A      1.385266  1007A      1.385671  
    1008A      1.388656  1009A      1.389300  1010A      1.391445  
    1011A      1.392334  1012A      1.395008  1013A      1.396495  
    1014A      1.397448  1015A      1.399347  1016A      1.400769  
    1017A      1.402060  1018A      1.402617  1019A      1.405545  
    1020A      1.406225  1021A      1.408111  1022A      1.410851  
    1023A      1.411262  1024A      1.412807  1025A      1.413021  
    1026A      1.418482  1027A      1.418892  1028A      1.420466  
    1029A      1.422080  1030A      1.422884  1031A      1.425470  
    1032A      1.426199  1033A      1.428764  1034A      1.430876  
    1035A      1.431534  1036A      1.433494  1037A      1.434734  
    1038A      1.436325  1039A      1.438833  1040A      1.441021  
    1041A      1.441984  1042A      1.443831  1043A      1.444420  
    1044A      1.446261  1045A      1.447577  1046A      1.449125  
    1047A      1.450921  1048A      1.451692  1049A      1.453351  
    1050A      1.453511  1051A      1.456347  1052A      1.458916  
    1053A      1.459499  1054A      1.461876  1055A      1.462258  
    1056A      1.463541  1057A      1.465652  1058A      1.466763  
    1059A      1.467607  1060A      1.470013  1061A      1.471269  
    1062A      1.472008  1063A      1.473066  1064A      1.473944  
    1065A      1.477425  1066A      1.478109  1067A      1.478749  
    1068A      1.481934  1069A      1.483144  1070A      1.484361  
    1071A      1.485732  1072A      1.486738  1073A      1.487881  
    1074A      1.489909  1075A      1.491635  1076A      1.493433  
    1077A      1.494330  1078A      1.495162  1079A      1.496350  
    1080A      1.496648  1081A      1.499031  1082A      1.500287  
    1083A      1.500915  1084A      1.502577  1085A      1.503780  
    1086A      1.504431  1087A      1.506760  1088A      1.507765  
    1089A      1.509112  1090A      1.509913  1091A      1.513303  
    1092A      1.513879  1093A      1.515120  1094A      1.517281  
    1095A      1.520011  1096A      1.520783  1097A      1.522031  
    1098A      1.522716  1099A      1.524153  1100A      1.525650  
    1101A      1.528322  1102A      1.528816  1103A      1.529843  
    1104A      1.530941  1105A      1.533698  1106A      1.535345  
    1107A      1.537258  1108A      1.537607  1109A      1.539294  
    1110A      1.539845  1111A      1.542046  1112A      1.543352  
    1113A      1.544196  1114A      1.545733  1115A      1.546203  
    1116A      1.547755  1117A      1.548590  1118A      1.552123  
    1119A      1.553189  1120A      1.554295  1121A      1.555808  
    1122A      1.557438  1123A      1.559970  1124A      1.560474  
    1125A      1.562152  1126A      1.563777  1127A      1.564385  
    1128A      1.564591  1129A      1.566515  1130A      1.568962  
    1131A      1.569542  1132A      1.570658  1133A      1.572704  
    1134A      1.573768  1135A      1.574831  1136A      1.577754  
    1137A      1.578648  1138A      1.579095  1139A      1.581950  
    1140A      1.582686  1141A      1.583326  1142A      1.585543  
    1143A      1.587541  1144A      1.588897  1145A      1.591045  
    1146A      1.591800  1147A      1.594549  1148A      1.594995  
    1149A      1.596592  1150A      1.597312  1151A      1.598545  
    1152A      1.600675  1153A      1.602512  1154A      1.603893  
    1155A      1.604483  1156A      1.605811  1157A      1.606660  
    1158A      1.608880  1159A      1.610853  1160A      1.611074  
    1161A      1.612057  1162A      1.612210  1163A      1.614576  
    1164A      1.617087  1165A      1.618118  1166A      1.619502  
    1167A      1.620563  1168A      1.621968  1169A      1.622968  
    1170A      1.624330  1171A      1.625968  1172A      1.627107  
    1173A      1.628215  1174A      1.628903  1175A      1.629296  
    1176A      1.632966  1177A      1.633812  1178A      1.635456  
    1179A      1.636340  1180A      1.637658  1181A      1.640134  
    1182A      1.641070  1183A      1.642475  1184A      1.644700  
    1185A      1.645055  1186A      1.646107  1187A      1.648055  
    1188A      1.649814  1189A      1.650684  1190A      1.651324  
    1191A      1.653906  1192A      1.654284  1193A      1.657044  
    1194A      1.657873  1195A      1.659020  1196A      1.661012  
    1197A      1.661416  1198A      1.662964  1199A      1.663758  
    1200A      1.665288  1201A      1.667961  1202A      1.669575  
    1203A      1.670882  1204A      1.672139  1205A      1.672711  
    1206A      1.673880  1207A      1.677117  1208A      1.677858  
    1209A      1.680519  1210A      1.682416  1211A      1.684036  
    1212A      1.684830  1213A      1.685858  1214A      1.687927  
    1215A      1.689784  1216A      1.691395  1217A      1.693501  
    1218A      1.695777  1219A      1.696011  1220A      1.697930  
    1221A      1.698664  1222A      1.702929  1223A      1.704026  
    1224A      1.704688  1225A      1.707301  1226A      1.708132  
    1227A      1.708580  1228A      1.710609  1229A      1.711774  
    1230A      1.715271  1231A      1.715812  1232A      1.718329  
    1233A      1.718945  1234A      1.720082  1235A      1.721510  
    1236A      1.722928  1237A      1.724710  1238A      1.727136  
    1239A      1.729079  1240A      1.730460  1241A      1.732043  
    1242A      1.733308  1243A      1.734685  1244A      1.736728  
    1245A      1.737305  1246A      1.739792  1247A      1.740468  
    1248A      1.741471  1249A      1.743776  1250A      1.745715  
    1251A      1.746824  1252A      1.749611  1253A      1.750820  
    1254A      1.752464  1255A      1.753703  1256A      1.755493  
    1257A      1.757411  1258A      1.759212  1259A      1.760633  
    1260A      1.762891  1261A      1.763962  1262A      1.765377  
    1263A      1.766724  1264A      1.768389  1265A      1.770972  
    1266A      1.771230  1267A      1.773935  1268A      1.775450  
    1269A      1.778196  1270A      1.779109  1271A      1.779832  
    1272A      1.781675  1273A      1.782587  1274A      1.784043  
    1275A      1.784590  1276A      1.786390  1277A      1.789963  
    1278A      1.790091  1279A      1.792193  1280A      1.794569  
    1281A      1.795173  1282A      1.798248  1283A      1.799106  
    1284A      1.799415  1285A      1.801196  1286A      1.802657  
    1287A      1.804076  1288A      1.804507  1289A      1.806919  
    1290A      1.807954  1291A      1.810237  1292A      1.812678  
    1293A      1.813082  1294A      1.815703  1295A      1.817035  
    1296A      1.818683  1297A      1.819469  1298A      1.820480  
    1299A      1.822289  1300A      1.823509  1301A      1.825866  
    1302A      1.829244  1303A      1.830764  1304A      1.831312  
    1305A      1.831688  1306A      1.833564  1307A      1.835109  
    1308A      1.837378  1309A      1.839593  1310A      1.839875  
    1311A      1.840931  1312A      1.842852  1313A      1.843998  
    1314A      1.846989  1315A      1.848394  1316A      1.849483  
    1317A      1.852106  1318A      1.853703  1319A      1.855195  
    1320A      1.855456  1321A      1.858088  1322A      1.859422  
    1323A      1.860532  1324A      1.862519  1325A      1.863158  
    1326A      1.864428  1327A      1.866233  1328A      1.867613  
    1329A      1.869600  1330A      1.869865  1331A      1.872025  
    1332A      1.875733  1333A      1.876611  1334A      1.878862  
    1335A      1.880567  1336A      1.881453  1337A      1.883793  
    1338A      1.886546  1339A      1.889773  1340A      1.890757  
    1341A      1.891024  1342A      1.892298  1343A      1.896964  
    1344A      1.897212  1345A      1.900773  1346A      1.903242  
    1347A      1.905594  1348A      1.906410  1349A      1.907102  
    1350A      1.910847  1351A      1.911523  1352A      1.914426  
    1353A      1.914961  1354A      1.916765  1355A      1.918681  
    1356A      1.921951  1357A      1.923004  1358A      1.925139  
    1359A      1.925532  1360A      1.927906  1361A      1.929393  
    1362A      1.932771  1363A      1.934594  1364A      1.937257  
    1365A      1.938737  1366A      1.939512  1367A      1.940809  
    1368A      1.942546  1369A      1.944145  1370A      1.945319  
    1371A      1.948974  1372A      1.950494  1373A      1.952056  
    1374A      1.953124  1375A      1.955365  1376A      1.959543  
    1377A      1.960618  1378A      1.961211  1379A      1.961748  
    1380A      1.963439  1381A      1.967280  1382A      1.968088  
    1383A      1.970108  1384A      1.970771  1385A      1.974104  
    1386A      1.977554  1387A      1.979341  1388A      1.979525  
    1389A      1.982280  1390A      1.985565  1391A      1.987871  
    1392A      1.989342  1393A      1.989820  1394A      1.991931  
    1395A      1.995524  1396A      1.996617  1397A      1.998693  
    1398A      1.999890  1399A      2.001629  1400A      2.003157  
    1401A      2.004930  1402A      2.006642  1403A      2.008840  
    1404A      2.010222  1405A      2.012605  1406A      2.015869  
    1407A      2.016841  1408A      2.019052  1409A      2.020722  
    1410A      2.024308  1411A      2.024863  1412A      2.026136  
    1413A      2.029061  1414A      2.029988  1415A      2.030098  
    1416A      2.032437  1417A      2.034347  1418A      2.037285  
    1419A      2.041912  1420A      2.043293  1421A      2.047206  
    1422A      2.047831  1423A      2.049245  1424A      2.050526  
    1425A      2.053865  1426A      2.054887  1427A      2.056061  
    1428A      2.058641  1429A      2.060000  1430A      2.062562  
    1431A      2.064500  1432A      2.066726  1433A      2.068711  
    1434A      2.070055  1435A      2.071706  1436A      2.072578  
    1437A      2.077826  1438A      2.078455  1439A      2.079880  
    1440A      2.081956  1441A      2.085160  1442A      2.086226  
    1443A      2.087661  1444A      2.089700  1445A      2.092365  
    1446A      2.093711  1447A      2.097152  1448A      2.099728  
    1449A      2.101796  1450A      2.102739  1451A      2.104806  
    1452A      2.106666  1453A      2.112227  1454A      2.112839  
    1455A      2.114461  1456A      2.117751  1457A      2.119455  
    1458A      2.121163  1459A      2.123258  1460A      2.126739  
    1461A      2.127792  1462A      2.128838  1463A      2.130303  
    1464A      2.133953  1465A      2.135488  1466A      2.137620  
    1467A      2.138429  1468A      2.142911  1469A      2.146290  
    1470A      2.147864  1471A      2.151573  1472A      2.152852  
    1473A      2.157059  1474A      2.158731  1475A      2.165822  
    1476A      2.169805  1477A      2.171705  1478A      2.174216  
    1479A      2.175495  1480A      2.178114  1481A      2.179997  
    1482A      2.181431  1483A      2.183202  1484A      2.184757  
    1485A      2.186723  1486A      2.189667  1487A      2.191119  
    1488A      2.196367  1489A      2.199821  1490A      2.202796  
    1491A      2.205396  1492A      2.207908  1493A      2.210465  
    1494A      2.212394  1495A      2.214972  1496A      2.216961  
    1497A      2.217755  1498A      2.219824  1499A      2.220888  
    1500A      2.223627  1501A      2.223949  1502A      2.226802  
    1503A      2.227782  1504A      2.229480  1505A      2.232709  
    1506A      2.236704  1507A      2.239423  1508A      2.244195  
    1509A      2.247267  1510A      2.248323  1511A      2.248733  
    1512A      2.252047  1513A      2.254610  1514A      2.255534  
    1515A      2.258522  1516A      2.261336  1517A      2.264459  
    1518A      2.265852  1519A      2.267136  1520A      2.269001  
    1521A      2.270373  1522A      2.271320  1523A      2.272895  
    1524A      2.275050  1525A      2.276340  1526A      2.278558  
    1527A      2.281004  1528A      2.281669  1529A      2.282672  
    1530A      2.283553  1531A      2.287232  1532A      2.288125  
    1533A      2.290337  1534A      2.293934  1535A      2.296828  
    1536A      2.299849  1537A      2.302513  1538A      2.304498  
    1539A      2.306534  1540A      2.307618  1541A      2.311428  
    1542A      2.314101  1543A      2.315882  1544A      2.317674  
    1545A      2.319312  1546A      2.322654  1547A      2.324070  
    1548A      2.326927  1549A      2.328458  1550A      2.331073  
    1551A      2.332530  1552A      2.334139  1553A      2.334936  
    1554A      2.335981  1555A      2.338236  1556A      2.340401  
    1557A      2.341913  1558A      2.342743  1559A      2.343813  
    1560A      2.347256  1561A      2.349125  1562A      2.352012  
    1563A      2.354399  1564A      2.357003  1565A      2.360854  
    1566A      2.361890  1567A      2.364944  1568A      2.366873  
    1569A      2.368876  1570A      2.371181  1571A      2.373781  
    1572A      2.376184  1573A      2.376593  1574A      2.381490  
    1575A      2.382780  1576A      2.383984  1577A      2.386691  
    1578A      2.389350  1579A      2.390953  1580A      2.393710  
    1581A      2.396464  1582A      2.397844  1583A      2.400008  
    1584A      2.401077  1585A      2.401560  1586A      2.404564  
    1587A      2.404926  1588A      2.407603  1589A      2.410088  
    1590A      2.411942  1591A      2.414545  1592A      2.415518  
    1593A      2.416404  1594A      2.417747  1595A      2.422063  
    1596A      2.424358  1597A      2.425232  1598A      2.425567  
    1599A      2.427158  1600A      2.429699  1601A      2.432292  
    1602A      2.435558  1603A      2.436759  1604A      2.438241  
    1605A      2.438298  1606A      2.440727  1607A      2.443879  
    1608A      2.446437  1609A      2.447587  1610A      2.451308  
    1611A      2.454126  1612A      2.455761  1613A      2.459233  
    1614A      2.461104  1615A      2.462674  1616A      2.464333  
    1617A      2.468041  1618A      2.469047  1619A      2.470682  
    1620A      2.474016  1621A      2.475269  1622A      2.478637  
    1623A      2.479670  1624A      2.481138  1625A      2.484080  
    1626A      2.486190  1627A      2.486704  1628A      2.488673  
    1629A      2.490098  1630A      2.491082  1631A      2.491720  
    1632A      2.494700  1633A      2.496963  1634A      2.499631  
    1635A      2.501426  1636A      2.502232  1637A      2.506510  
    1638A      2.507206  1639A      2.508629  1640A      2.510738  
    1641A      2.512540  1642A      2.513037  1643A      2.516089  
    1644A      2.518247  1645A      2.519828  1646A      2.521955  
    1647A      2.524999  1648A      2.525499  1649A      2.527999  
    1650A      2.531592  1651A      2.532681  1652A      2.535286  
    1653A      2.535812  1654A      2.537103  1655A      2.540362  
    1656A      2.541299  1657A      2.541558  1658A      2.544500  
    1659A      2.545238  1660A      2.549130  1661A      2.551377  
    1662A      2.552105  1663A      2.556467  1664A      2.557198  
    1665A      2.559271  1666A      2.561537  1667A      2.562819  
    1668A      2.564242  1669A      2.565664  1670A      2.567007  
    1671A      2.568595  1672A      2.571545  1673A      2.572952  
    1674A      2.573861  1675A      2.577555  1676A      2.578563  
    1677A      2.578883  1678A      2.579504  1679A      2.583718  
    1680A      2.583965  1681A      2.587448  1682A      2.588956  
    1683A      2.591705  1684A      2.593040  1685A      2.596202  
    1686A      2.598206  1687A      2.602119  1688A      2.602651  
    1689A      2.605264  1690A      2.605690  1691A      2.609619  
    1692A      2.611390  1693A      2.613994  1694A      2.614715  
    1695A      2.615663  1696A      2.617537  1697A      2.619577  
    1698A      2.621856  1699A      2.624153  1700A      2.626592  
    1701A      2.627092  1702A      2.629936  1703A      2.631615  
    1704A      2.635161  1705A      2.637725  1706A      2.638519  
    1707A      2.640712  1708A      2.644280  1709A      2.646273  
    1710A      2.646686  1711A      2.648617  1712A      2.649970  
    1713A      2.651908  1714A      2.653315  1715A      2.655439  
    1716A      2.656316  1717A      2.657569  1718A      2.659856  
    1719A      2.662392  1720A      2.663460  1721A      2.664037  
    1722A      2.665335  1723A      2.668095  1724A      2.672923  
    1725A      2.674735  1726A      2.676239  1727A      2.679995  
    1728A      2.680431  1729A      2.682410  1730A      2.684435  
    1731A      2.685860  1732A      2.689223  1733A      2.690839  
    1734A      2.691539  1735A      2.694450  1736A      2.696449  
    1737A      2.697124  1738A      2.700660  1739A      2.700749  
    1740A      2.703825  1741A      2.704580  1742A      2.707313  
    1743A      2.708041  1744A      2.710395  1745A      2.711891  
    1746A      2.714666  1747A      2.716661  1748A      2.717805  
    1749A      2.720043  1750A      2.722953  1751A      2.725067  
    1752A      2.726639  1753A      2.729118  1754A      2.730254  
    1755A      2.733357  1756A      2.734250  1757A      2.736503  
    1758A      2.740436  1759A      2.741765  1760A      2.745333  
    1761A      2.745824  1762A      2.746815  1763A      2.749113  
    1764A      2.749792  1765A      2.754045  1766A      2.755360  
    1767A      2.758507  1768A      2.759849  1769A      2.763644  
    1770A      2.766369  1771A      2.766594  1772A      2.769785  
    1773A      2.770458  1774A      2.772396  1775A      2.773252  
    1776A      2.776444  1777A      2.777533  1778A      2.780104  
    1779A      2.781339  1780A      2.782986  1781A      2.783820  
    1782A      2.786233  1783A      2.788766  1784A      2.790599  
    1785A      2.793622  1786A      2.795603  1787A      2.796890  
    1788A      2.798464  1789A      2.800990  1790A      2.802470  
    1791A      2.803317  1792A      2.808060  1793A      2.809491  
    1794A      2.810939  1795A      2.814770  1796A      2.815865  
    1797A      2.816753  1798A      2.821697  1799A      2.822849  
    1800A      2.824626  1801A      2.825209  1802A      2.828901  
    1803A      2.830810  1804A      2.832586  1805A      2.833558  
    1806A      2.836536  1807A      2.838467  1808A      2.839327  
    1809A      2.843775  1810A      2.847023  1811A      2.848096  
    1812A      2.849953  1813A      2.851661  1814A      2.853348  
    1815A      2.854445  1816A      2.857306  1817A      2.860915  
    1818A      2.865009  1819A      2.867264  1820A      2.868573  
    1821A      2.871682  1822A      2.875221  1823A      2.875780  
    1824A      2.877217  1825A      2.880454  1826A      2.882550  
    1827A      2.885781  1828A      2.886638  1829A      2.888655  
    1830A      2.890312  1831A      2.892198  1832A      2.896480  
    1833A      2.899336  1834A      2.899987  1835A      2.901879  
    1836A      2.904184  1837A      2.905164  1838A      2.905654  
    1839A      2.908864  1840A      2.909561  1841A      2.912677  
    1842A      2.913806  1843A      2.916787  1844A      2.918337  
    1845A      2.920887  1846A      2.922599  1847A      2.926119  
    1848A      2.927691  1849A      2.931426  1850A      2.933623  
    1851A      2.935512  1852A      2.936664  1853A      2.939508  
    1854A      2.947072  1855A      2.949058  1856A      2.951230  
    1857A      2.957450  1858A      2.959666  1859A      2.962761  
    1860A      2.964551  1861A      2.965915  1862A      2.967428  
    1863A      2.970671  1864A      2.973904  1865A      2.977968  
    1866A      2.980809  1867A      2.981141  1868A      2.984760  
    1869A      2.985129  1870A      2.988916  1871A      2.992357  
    1872A      2.995363  1873A      2.998238  1874A      3.004454  
    1875A      3.007909  1876A      3.009411  1877A      3.011685  
    1878A      3.014577  1879A      3.015815  1880A      3.018729  
    1881A      3.024632  1882A      3.024795  1883A      3.031545  
    1884A      3.034498  1885A      3.036921  1886A      3.040152  
    1887A      3.041123  1888A      3.043014  1889A      3.045530  
    1890A      3.051204  1891A      3.053061  1892A      3.054958  
    1893A      3.060532  1894A      3.063702  1895A      3.066959  
    1896A      3.070753  1897A      3.072296  1898A      3.074277  
    1899A      3.081415  1900A      3.081812  1901A      3.084170  
    1902A      3.088645  1903A      3.092903  1904A      3.094866  
    1905A      3.097427  1906A      3.103157  1907A      3.104951  
    1908A      3.108037  1909A      3.110072  1910A      3.115932  
    1911A      3.117720  1912A      3.121398  1913A      3.123655  
    1914A      3.125334  1915A      3.129035  1916A      3.131788  
    1917A      3.133513  1918A      3.140650  1919A      3.145547  
    1920A      3.147463  1921A      3.151098  1922A      3.153280  
    1923A      3.158417  1924A      3.160701  1925A      3.162280  
    1926A      3.169130  1927A      3.170142  1928A      3.172469  
    1929A      3.174389  1930A      3.176996  1931A      3.177068  
    1932A      3.180773  1933A      3.183518  1934A      3.186229  
    1935A      3.187971  1936A      3.193550  1937A      3.197427  
    1938A      3.199666  1939A      3.201220  1940A      3.202679  
    1941A      3.205689  1942A      3.206223  1943A      3.208212  
    1944A      3.213123  1945A      3.215491  1946A      3.221686  
    1947A      3.223865  1948A      3.228205  1949A      3.230538  
    1950A      3.232865  1951A      3.236304  1952A      3.240147  
    1953A      3.240553  1954A      3.244943  1955A      3.252351  
    1956A      3.258406  1957A      3.260752  1958A      3.263725  
    1959A      3.267758  1960A      3.272102  1961A      3.277251  
    1962A      3.280675  1963A      3.281946  1964A      3.289191  
    1965A      3.292312  1966A      3.301861  1967A      3.304616  
    1968A      3.310977  1969A      3.315712  1970A      3.318332  
    1971A      3.322115  1972A      3.325774  1973A      3.326984  
    1974A      3.333660  1975A      3.338454  1976A      3.339638  
    1977A      3.343747  1978A      3.350626  1979A      3.351845  
    1980A      3.358364  1981A      3.362797  1982A      3.365647  
    1983A      3.370333  1984A      3.375424  1985A      3.381278  
    1986A      3.385131  1987A      3.388392  1988A      3.391447  
    1989A      3.395739  1990A      3.400305  1991A      3.409856  
    1992A      3.410730  1993A      3.414502  1994A      3.416937  
    1995A      3.422201  1996A      3.427881  1997A      3.432759  
    1998A      3.437216  1999A      3.440220  2000A      3.445575  
    2001A      3.453211  2002A      3.456455  2003A      3.458375  
    2004A      3.460117  2005A      3.466702  2006A      3.471856  
    2007A      3.472791  2008A      3.478296  2009A      3.480289  
    2010A      3.483310  2011A      3.490653  2012A      3.497709  
    2013A      3.500398  2014A      3.501376  2015A      3.516727  
    2016A      3.521514  2017A      3.531097  2018A      3.543151  
    2019A      3.546619  2020A      3.549581  2021A      3.553531  
    2022A      3.561974  2023A      3.569576  2024A      3.575312  
    2025A      3.581106  2026A      3.586019  2027A      3.590501  
    2028A      3.592945  2029A      3.598189  2030A      3.600842  
    2031A      3.604679  2032A      3.608289  2033A      3.616368  
    2034A      3.620872  2035A      3.623009  2036A      3.625086  
    2037A      3.629854  2038A      3.635555  2039A      3.640559  
    2040A      3.650072  2041A      3.659356  2042A      3.673356  
    2043A      3.687376  2044A      3.690125  2045A      3.691740  
    2046A      3.696104  2047A      3.704760  2048A      3.709209  
    2049A      3.717392  2050A      3.721331  2051A      3.725690  
    2052A      3.728591  2053A      3.736020  2054A      3.743975  
    2055A      3.748573  2056A      3.751728  2057A      3.755863  
    2058A      3.757737  2059A      3.762978  2060A      3.768977  
    2061A      3.770550  2062A      3.774468  2063A      3.785352  
    2064A      3.786000  2065A      3.791431  2066A      3.799564  
    2067A      3.809344  2068A      3.821252  2069A      3.822583  
    2070A      3.830233  2071A      3.832598  2072A      3.835146  
    2073A      3.839024  2074A      3.848053  2075A      3.848483  
    2076A      3.851544  2077A      3.852491  2078A      3.859504  
    2079A      3.862905  2080A      3.878500  2081A      3.889953  
    2082A      3.900532  2083A      3.902321  2084A      3.906515  
    2085A      3.912531  2086A      3.915865  2087A      3.917550  
    2088A      3.921057  2089A      3.926807  2090A      3.935086  
    2091A      3.942240  2092A      3.949595  2093A      3.953521  
    2094A      3.957744  2095A      3.960667  2096A      3.968978  
    2097A      3.973869  2098A      3.980210  2099A      3.986854  
    2100A      3.992192  2101A      3.997545  2102A      4.001345  
    2103A      4.003297  2104A      4.005236  2105A      4.009733  
    2106A      4.014077  2107A      4.020101  2108A      4.027278  
    2109A      4.030417  2110A      4.031917  2111A      4.035524  
    2112A      4.037664  2113A      4.040922  2114A      4.042783  
    2115A      4.044537  2116A      4.046393  2117A      4.051629  
    2118A      4.055538  2119A      4.056338  2120A      4.057538  
    2121A      4.059967  2122A      4.063204  2123A      4.069451  
    2124A      4.069779  2125A      4.070061  2126A      4.073296  
    2127A      4.076612  2128A      4.078016  2129A      4.079912  
    2130A      4.082213  2131A      4.083457  2132A      4.090070  
    2133A      4.091598  2134A      4.091825  2135A      4.093099  
    2136A      4.095137  2137A      4.097050  2138A      4.098279  
    2139A      4.102661  2140A      4.105652  2141A      4.110164  
    2142A      4.110796  2143A      4.114826  2144A      4.120159  
    2145A      4.121504  2146A      4.123229  2147A      4.126264  
    2148A      4.129659  2149A      4.130469  2150A      4.135533  
    2151A      4.138663  2152A      4.139721  2153A      4.141277  
    2154A      4.143049  2155A      4.146867  2156A      4.148311  
    2157A      4.150377  2158A      4.152696  2159A      4.155235  
    2160A      4.155953  2161A      4.157504  2162A      4.160074  
    2163A      4.163219  2164A      4.164573  2165A      4.166971  
    2166A      4.169910  2167A      4.171130  2168A      4.175180  
    2169A      4.179134  2170A      4.181335  2171A      4.184039  
    2172A      4.186820  2173A      4.188666  2174A      4.191311  
    2175A      4.191976  2176A      4.197105  2177A      4.199377  
    2178A      4.200856  2179A      4.204173  2180A      4.206150  
    2181A      4.208625  2182A      4.209331  2183A      4.211300  
    2184A      4.212563  2185A      4.214994  2186A      4.216661  
    2187A      4.217515  2188A      4.218995  2189A      4.223521  
    2190A      4.226978  2191A      4.229664  2192A      4.231950  
    2193A      4.233607  2194A      4.235563  2195A      4.239392  
    2196A      4.240301  2197A      4.242724  2198A      4.243567  
    2199A      4.244089  2200A      4.249787  2201A      4.250482  
    2202A      4.251887  2203A      4.256393  2204A      4.258479  
    2205A      4.259788  2206A      4.261428  2207A      4.264537  
    2208A      4.266649  2209A      4.267899  2210A      4.270217  
    2211A      4.272886  2212A      4.274190  2213A      4.275814  
    2214A      4.279109  2215A      4.280912  2216A      4.282102  
    2217A      4.283993  2218A      4.286339  2219A      4.290505  
    2220A      4.293197  2221A      4.294657  2222A      4.295337  
    2223A      4.298008  2224A      4.300479  2225A      4.301007  
    2226A      4.302851  2227A      4.304348  2228A      4.307383  
    2229A      4.308744  2230A      4.312724  2231A      4.315091  
    2232A      4.315316  2233A      4.317836  2234A      4.319950  
    2235A      4.320148  2236A      4.323609  2237A      4.326292  
    2238A      4.326911  2239A      4.328669  2240A      4.331256  
    2241A      4.332762  2242A      4.335867  2243A      4.337999  
    2244A      4.338115  2245A      4.338863  2246A      4.341524  
    2247A      4.345501  2248A      4.346939  2249A      4.348679  
    2250A      4.349813  2251A      4.353463  2252A      4.354846  
    2253A      4.358206  2254A      4.358562  2255A      4.359904  
    2256A      4.360659  2257A      4.363727  2258A      4.367190  
    2259A      4.371485  2260A      4.372258  2261A      4.375378  
    2262A      4.376921  2263A      4.383136  2264A      4.384275  
    2265A      4.386182  2266A      4.387121  2267A      4.391598  
    2268A      4.393366  2269A      4.395961  2270A      4.397895  
    2271A      4.399858  2272A      4.401216  2273A      4.405078  
    2274A      4.407937  2275A      4.411907  2276A      4.414327  
    2277A      4.415210  2278A      4.417218  2279A      4.417678  
    2280A      4.419063  2281A      4.420797  2282A      4.423546  
    2283A      4.427074  2284A      4.429409  2285A      4.431102  
    2286A      4.433351  2287A      4.438946  2288A      4.440451  
    2289A      4.442220  2290A      4.443184  2291A      4.447769  
    2292A      4.450371  2293A      4.454382  2294A      4.455768  
    2295A      4.459034  2296A      4.462341  2297A      4.465691  
    2298A      4.468448  2299A      4.470003  2300A      4.472313  
    2301A      4.474615  2302A      4.475675  2303A      4.480232  
    2304A      4.483418  2305A      4.485783  2306A      4.487961  
    2307A      4.492856  2308A      4.494721  2309A      4.495325  
    2310A      4.496356  2311A      4.500717  2312A      4.504702  
    2313A      4.505248  2314A      4.506416  2315A      4.509677  
    2316A      4.510544  2317A      4.513884  2318A      4.514619  
    2319A      4.516159  2320A      4.519619  2321A      4.520903  
    2322A      4.521816  2323A      4.526058  2324A      4.527210  
    2325A      4.530762  2326A      4.532688  2327A      4.536789  
    2328A      4.541376  2329A      4.542202  2330A      4.543937  
    2331A      4.546759  2332A      4.548093  2333A      4.548837  
    2334A      4.550420  2335A      4.551103  2336A      4.552838  
    2337A      4.558445  2338A      4.559969  2339A      4.560862  
    2340A      4.562679  2341A      4.566374  2342A      4.567401  
    2343A      4.570663  2344A      4.573018  2345A      4.574008  
    2346A      4.576987  2347A      4.580237  2348A      4.585405  
    2349A      4.586348  2350A      4.588114  2351A      4.591193  
    2352A      4.595379  2353A      4.598348  2354A      4.598976  
    2355A      4.600035  2356A      4.602281  2357A      4.603795  
    2358A      4.605923  2359A      4.609068  2360A      4.611732  
    2361A      4.611901  2362A      4.612491  2363A      4.612710  
    2364A      4.619428  2365A      4.622379  2366A      4.623978  
    2367A      4.626322  2368A      4.629795  2369A      4.633967  
    2370A      4.637534  2371A      4.639230  2372A      4.643258  
    2373A      4.643963  2374A      4.646966  2375A      4.650691  
    2376A      4.651750  2377A      4.653844  2378A      4.658942  
    2379A      4.660383  2380A      4.660657  2381A      4.662536  
    2382A      4.665929  2383A      4.667981  2384A      4.669693  
    2385A      4.673826  2386A      4.676271  2387A      4.677221  
    2388A      4.680835  2389A      4.682367  2390A      4.686189  
    2391A      4.690386  2392A      4.691575  2393A      4.692332  
    2394A      4.694911  2395A      4.697245  2396A      4.702026  
    2397A      4.702680  2398A      4.705253  2399A      4.707889  
    2400A      4.710974  2401A      4.712065  2402A      4.715374  
    2403A      4.717462  2404A      4.718849  2405A      4.720138  
    2406A      4.722780  2407A      4.726527  2408A      4.731630  
    2409A      4.734894  2410A      4.735446  2411A      4.739310  
    2412A      4.740862  2413A      4.742744  2414A      4.744309  
    2415A      4.745467  2416A      4.749408  2417A      4.753312  
    2418A      4.755122  2419A      4.756637  2420A      4.758256  
    2421A      4.761819  2422A      4.763264  2423A      4.765112  
    2424A      4.767068  2425A      4.770919  2426A      4.772619  
    2427A      4.774318  2428A      4.775057  2429A      4.780229  
    2430A      4.782437  2431A      4.785566  2432A      4.789335  
    2433A      4.792487  2434A      4.794593  2435A      4.797382  
    2436A      4.798452  2437A      4.802238  2438A      4.804223  
    2439A      4.808617  2440A      4.811063  2441A      4.815011  
    2442A      4.815727  2443A      4.819814  2444A      4.819978  
    2445A      4.822655  2446A      4.825537  2447A      4.827183  
    2448A      4.829513  2449A      4.834007  2450A      4.836773  
    2451A      4.839478  2452A      4.841215  2453A      4.842110  
    2454A      4.847010  2455A      4.848744  2456A      4.849930  
    2457A      4.852430  2458A      4.855303  2459A      4.859676  
    2460A      4.861761  2461A      4.863907  2462A      4.867983  
    2463A      4.869325  2464A      4.872050  2465A      4.872982  
    2466A      4.876391  2467A      4.879298  2468A      4.881316  
    2469A      4.883937  2470A      4.885923  2471A      4.891323  
    2472A      4.894246  2473A      4.897560  2474A      4.898968  
    2475A      4.902108  2476A      4.903142  2477A      4.906278  
    2478A      4.907698  2479A      4.911147  2480A      4.911574  
    2481A      4.914355  2482A      4.915754  2483A      4.918331  
    2484A      4.920941  2485A      4.925570  2486A      4.926285  
    2487A      4.930709  2488A      4.933854  2489A      4.936106  
    2490A      4.939865  2491A      4.943243  2492A      4.944996  
    2493A      4.948075  2494A      4.950074  2495A      4.955635  
    2496A      4.956115  2497A      4.959647  2498A      4.963172  
    2499A      4.965280  2500A      4.967629  2501A      4.970766  
    2502A      4.975139  2503A      4.979642  2504A      4.981302  
    2505A      4.985882  2506A      4.989409  2507A      4.989854  
    2508A      4.995871  2509A      5.000851  2510A      5.003943  
    2511A      5.007242  2512A      5.008232  2513A      5.011121  
    2514A      5.016337  2515A      5.018650  2516A      5.019988  
    2517A      5.022337  2518A      5.024301  2519A      5.029936  
    2520A      5.036031  2521A      5.038658  2522A      5.039735  
    2523A      5.040749  2524A      5.045476  2525A      5.047841  
    2526A      5.050696  2527A      5.054227  2528A      5.055641  
    2529A      5.057404  2530A      5.061804  2531A      5.065242  
    2532A      5.067468  2533A      5.072526  2534A      5.073505  
    2535A      5.080027  2536A      5.081652  2537A      5.083853  
    2538A      5.086240  2539A      5.090138  2540A      5.097587  
    2541A      5.098635  2542A      5.102797  2543A      5.106790  
    2544A      5.108365  2545A      5.112251  2546A      5.116167  
    2547A      5.116894  2548A      5.119636  2549A      5.123072  
    2550A      5.124934  2551A      5.126671  2552A      5.129722  
    2553A      5.131329  2554A      5.136013  2555A      5.137013  
    2556A      5.138895  2557A      5.144742  2558A      5.148207  
    2559A      5.149944  2560A      5.152510  2561A      5.156322  
    2562A      5.159109  2563A      5.162555  2564A      5.167936  
    2565A      5.171648  2566A      5.173020  2567A      5.173641  
    2568A      5.178318  2569A      5.182331  2570A      5.183525  
    2571A      5.186293  2572A      5.189453  2573A      5.189917  
    2574A      5.196106  2575A      5.199691  2576A      5.201029  
    2577A      5.203751  2578A      5.204836  2579A      5.207490  
    2580A      5.208923  2581A      5.211455  2582A      5.216122  
    2583A      5.216834  2584A      5.220133  2585A      5.222451  
    2586A      5.222759  2587A      5.224589  2588A      5.229038  
    2589A      5.231050  2590A      5.233172  2591A      5.233515  
    2592A      5.235987  2593A      5.239174  2594A      5.242306  
    2595A      5.246043  2596A      5.248839  2597A      5.251749  
    2598A      5.255144  2599A      5.256770  2600A      5.261261  
    2601A      5.263140  2602A      5.264950  2603A      5.265897  
    2604A      5.269924  2605A      5.270479  2606A      5.273409  
    2607A      5.274208  2608A      5.275802  2609A      5.278784  
    2610A      5.280067  2611A      5.282001  2612A      5.283565  
    2613A      5.284288  2614A      5.287809  2615A      5.290658  
    2616A      5.293261  2617A      5.295161  2618A      5.297680  
    2619A      5.300578  2620A      5.302038  2621A      5.308825  
    2622A      5.310216  2623A      5.311673  2624A      5.314660  
    2625A      5.319818  2626A      5.320602  2627A      5.324139  
    2628A      5.326781  2629A      5.330799  2630A      5.342665  
    2631A      5.345332  2632A      5.346059  2633A      5.350677  
    2634A      5.351675  2635A      5.353456  2636A      5.357786  
    2637A      5.359590  2638A      5.360404  2639A      5.362775  
    2640A      5.364791  2641A      5.370513  2642A      5.372357  
    2643A      5.375445  2644A      5.377933  2645A      5.378785  
    2646A      5.381504  2647A      5.384267  2648A      5.389437  
    2649A      5.392166  2650A      5.395920  2651A      5.398818  
    2652A      5.401148  2653A      5.403110  2654A      5.408241  
    2655A      5.413715  2656A      5.416360  2657A      5.421202  
    2658A      5.425123  2659A      5.427115  2660A      5.431846  
    2661A      5.433491  2662A      5.437675  2663A      5.439833  
    2664A      5.440878  2665A      5.443745  2666A      5.445464  
    2667A      5.448581  2668A      5.449990  2669A      5.454171  
    2670A      5.455613  2671A      5.459178  2672A      5.460711  
    2673A      5.464470  2674A      5.466334  2675A      5.468811  
    2676A      5.470299  2677A      5.470788  2678A      5.476758  
    2679A      5.479622  2680A      5.480514  2681A      5.482135  
    2682A      5.482596  2683A      5.484111  2684A      5.487856  
    2685A      5.489167  2686A      5.490648  2687A      5.492083  
    2688A      5.493388  2689A      5.495556  2690A      5.496932  
    2691A      5.498414  2692A      5.501666  2693A      5.502829  
    2694A      5.506959  2695A      5.510566  2696A      5.513839  
    2697A      5.516455  2698A      5.518154  2699A      5.519267  
    2700A      5.521450  2701A      5.524023  2702A      5.525498  
    2703A      5.527564  2704A      5.529543  2705A      5.532411  
    2706A      5.534525  2707A      5.535441  2708A      5.537126  
    2709A      5.538520  2710A      5.540787  2711A      5.544066  
    2712A      5.546358  2713A      5.548735  2714A      5.550609  
    2715A      5.555655  2716A      5.558158  2717A      5.559530  
    2718A      5.562960  2719A      5.563363  2720A      5.569099  
    2721A      5.570700  2722A      5.572782  2723A      5.576127  
    2724A      5.576237  2725A      5.578367  2726A      5.579884  
    2727A      5.583915  2728A      5.586367  2729A      5.588108  
    2730A      5.591057  2731A      5.593161  2732A      5.595543  
    2733A      5.596489  2734A      5.598813  2735A      5.600225  
    2736A      5.602810  2737A      5.605924  2738A      5.608592  
    2739A      5.610868  2740A      5.612672  2741A      5.615964  
    2742A      5.617806  2743A      5.619212  2744A      5.620734  
    2745A      5.623191  2746A      5.625380  2747A      5.627458  
    2748A      5.631957  2749A      5.634062  2750A      5.637071  
    2751A      5.639218  2752A      5.641133  2753A      5.642821  
    2754A      5.643951  2755A      5.646483  2756A      5.650573  
    2757A      5.651885  2758A      5.655472  2759A      5.658195  
    2760A      5.660309  2761A      5.661772  2762A      5.665579  
    2763A      5.666505  2764A      5.669090  2765A      5.670238  
    2766A      5.672313  2767A      5.675817  2768A      5.677592  
    2769A      5.678763  2770A      5.682340  2771A      5.683746  
    2772A      5.685587  2773A      5.688506  2774A      5.689763  
    2775A      5.691878  2776A      5.696033  2777A      5.697126  
    2778A      5.699459  2779A      5.701325  2780A      5.705462  
    2781A      5.707634  2782A      5.709484  2783A      5.712635  
    2784A      5.715619  2785A      5.719436  2786A      5.721767  
    2787A      5.722976  2788A      5.725658  2789A      5.729682  
    2790A      5.731890  2791A      5.734201  2792A      5.739604  
    2793A      5.742964  2794A      5.747935  2795A      5.755743  
    2796A      5.757939  2797A      5.761108  2798A      5.763309  
    2799A      5.763567  2800A      5.765391  2801A      5.766835  
    2802A      5.769250  2803A      5.773298  2804A      5.773979  
    2805A      5.774442  2806A      5.778096  2807A      5.779418  
    2808A      5.781416  2809A      5.786504  2810A      5.788059  
    2811A      5.789673  2812A      5.794176  2813A      5.795470  
    2814A      5.798172  2815A      5.801152  2816A      5.803501  
    2817A      5.808081  2818A      5.810669  2819A      5.813609  
    2820A      5.818899  2821A      5.822778  2822A      5.824817  
    2823A      5.827742  2824A      5.832049  2825A      5.835244  
    2826A      5.837964  2827A      5.841940  2828A      5.843320  
    2829A      5.845845  2830A      5.847425  2831A      5.849005  
    2832A      5.850913  2833A      5.858171  2834A      5.859418  
    2835A      5.862659  2836A      5.867472  2837A      5.869372  
    2838A      5.874888  2839A      5.880487  2840A      5.881657  
    2841A      5.886258  2842A      5.889500  2843A      5.892675  
    2844A      5.897757  2845A      5.902998  2846A      5.908074  
    2847A      5.908877  2848A      5.909893  2849A      5.912880  
    2850A      5.915369  2851A      5.922161  2852A      5.923232  
    2853A      5.927504  2854A      5.931539  2855A      5.933602  
    2856A      5.936407  2857A      5.939255  2858A      5.943317  
    2859A      5.945709  2860A      5.947677  2861A      5.949021  
    2862A      5.951370  2863A      5.954778  2864A      5.957342  
    2865A      5.958891  2866A      5.960974  2867A      5.964798  
    2868A      5.968410  2869A      5.969991  2870A      5.972826  
    2871A      5.976694  2872A      5.979080  2873A      5.980154  
    2874A      5.982924  2875A      5.983563  2876A      5.988134  
    2877A      5.992541  2878A      5.994483  2879A      5.996758  
    2880A      5.998600  2881A      6.004290  2882A      6.009810  
    2883A      6.010708  2884A      6.011330  2885A      6.014740  
    2886A      6.017586  2887A      6.024187  2888A      6.024689  
    2889A      6.027705  2890A      6.040255  2891A      6.042121  
    2892A      6.043575  2893A      6.046329  2894A      6.049321  
    2895A      6.051120  2896A      6.052777  2897A      6.060354  
    2898A      6.061314  2899A      6.062840  2900A      6.065797  
    2901A      6.068388  2902A      6.072405  2903A      6.073597  
    2904A      6.075682  2905A      6.076282  2906A      6.081105  
    2907A      6.084692  2908A      6.088635  2909A      6.089621  
    2910A      6.092497  2911A      6.094381  2912A      6.097872  
    2913A      6.107917  2914A      6.109639  2915A      6.114498  
    2916A      6.115379  2917A      6.117651  2918A      6.122036  
    2919A      6.124290  2920A      6.129442  2921A      6.136058  
    2922A      6.149251  2923A      6.152643  2924A      6.155817  
    2925A      6.164661  2926A      6.165649  2927A      6.169347  
    2928A      6.170632  2929A      6.176084  2930A      6.178874  
    2931A      6.179609  2932A      6.182488  2933A      6.183269  
    2934A      6.185804  2935A      6.188354  2936A      6.208622  
    2937A      6.209225  2938A      6.225994  2939A      6.238739  
    2940A      6.241743  2941A      6.247397  2942A      6.250112  
    2943A      6.250759  2944A      6.262814  2945A      6.264923  
    2946A      6.267275  2947A      6.272379  2948A      6.274687  
    2949A      6.279381  2950A      6.280819  2951A      6.293106  
    2952A      6.298577  2953A      6.301405  2954A      6.305583  
    2955A      6.309035  2956A      6.312853  2957A      6.321250  
    2958A      6.325392  2959A      6.340118  2960A      6.348364  
    2961A      6.351516  2962A      6.353200  2963A      6.354692  
    2964A      6.361850  2965A      6.367447  2966A      6.368040  
    2967A      6.373731  2968A      6.380805  2969A      6.384560  
    2970A      6.387015  2971A      6.397896  2972A      6.401715  
    2973A      6.407857  2974A      6.410579  2975A      6.418934  
    2976A      6.421725  2977A      6.426139  2978A      6.427600  
    2979A      6.435163  2980A      6.435609  2981A      6.440802  
    2982A      6.449059  2983A      6.453213  2984A      6.458027  
    2985A      6.464735  2986A      6.473085  2987A      6.483183  
    2988A      6.484219  2989A      6.491725  2990A      6.492214  
    2991A      6.501537  2992A      6.506530  2993A      6.522162  
    2994A      6.527568  2995A      6.533441  2996A      6.543750  
    2997A      6.552746  2998A      6.555173  2999A      6.557471  
    3000A      6.574483  3001A      6.576500  3002A      6.580315  
    3003A      6.585836  3004A      6.594952  3005A      6.601964  
    3006A      6.610761  3007A      6.621264  3008A      6.622599  
    3009A      6.635622  3010A      6.640682  3011A      6.648071  
    3012A      6.651665  3013A      6.652325  3014A      6.683110  
    3015A      6.688654  3016A      6.689279  3017A      6.711970  
    3018A      6.727921  3019A      6.728375  3020A      6.735732  
    3021A      6.739631  3022A      6.740295  3023A      6.748491  
    3024A      6.758659  3025A      6.764029  3026A      6.788236  
    3027A      6.791261  3028A      6.795448  3029A      6.821888  
    3030A      6.825244  3031A      6.830664  3032A      6.855261  
    3033A      6.856711  3034A      6.879243  3035A      6.882633  
    3036A      6.884351  3037A      6.887560  3038A      6.894903  
    3039A      6.898495  3040A      6.901079  3041A      6.918363  
    3042A      6.934004  3043A      6.949152  3044A      6.950677  
    3045A      6.960945  3046A      6.965936  3047A      6.967353  
    3048A      6.975699  3049A      6.980855  3050A      6.992148  
    3051A      6.995648  3052A      7.002048  3053A      7.021721  
    3054A      7.026987  3055A      7.034835  3056A      7.061798  
    3057A      7.066522  3058A      7.070567  3059A      7.071710  
    3060A      7.105263  3061A      7.122168  3062A      7.124948  
    3063A      7.129621  3064A      7.136474  3065A      7.138850  
    3066A      7.143965  3067A      7.147627  3068A      7.150267  
    3069A      7.155565  3070A      7.157859  3071A      7.162041  
    3072A      7.168884  3073A      7.173119  3074A      7.174656  
    3075A      7.181848  3076A      7.186566  3077A      7.188322  
    3078A      7.203180  3079A      7.208143  3080A      7.223492  
    3081A      7.236020  3082A      7.237781  3083A      7.245666  
    3084A      7.248332  3085A      7.263233  3086A      7.275572  
    3087A      7.283085  3088A      7.285455  3089A      7.289873  
    3090A      7.293169  3091A      7.294728  3092A      7.306333  
    3093A      7.314281  3094A      7.316158  3095A      7.331116  
    3096A      7.334808  3097A      7.340425  3098A      7.342341  
    3099A      7.347483  3100A      7.351351  3101A      7.358313  
    3102A      7.360520  3103A      7.363570  3104A      7.376109  
    3105A      7.379351  3106A      7.390916  3107A      7.397445  
    3108A      7.403929  3109A      7.408856  3110A      7.417285  
    3111A      7.422054  3112A      7.439132  3113A      7.453084  
    3114A      7.488700  3115A      7.492223  3116A      7.498125  
    3117A      7.498517  3118A      7.500502  3119A      7.508525  
    3120A      7.515915  3121A      7.518623  3122A      7.520706  
    3123A      7.523696  3124A      7.525850  3125A      7.541260  
    3126A      7.543406  3127A      7.551253  3128A      7.554324  
    3129A      7.558064  3130A      7.571763  3131A      7.576747  
    3132A      7.577516  3133A      7.580745  3134A      7.584775  
    3135A      7.586673  3136A      7.596021  3137A      7.617985  
    3138A      7.625568  3139A      7.633444  3140A      7.637254  
    3141A      7.642506  3142A      7.655236  3143A      7.658482  
    3144A      7.660012  3145A      7.660524  3146A      7.667832  
    3147A      7.670479  3148A      7.677032  3149A      7.704246  
    3150A      7.715260  3151A      7.719365  3152A      7.719966  
    3153A      7.723969  3154A      7.728901  3155A      7.735157  
    3156A      7.740991  3157A      7.758380  3158A      7.768217  
    3159A      7.773688  3160A      7.776779  3161A      7.782746  
    3162A      7.793938  3163A      7.802740  3164A      7.816424  
    3165A      7.821107  3166A      7.823871  3167A      7.834748  
    3168A      7.835347  3169A      7.838366  3170A      7.859738  
    3171A      7.888931  3172A      7.915163  3173A      7.921322  
    3174A      7.939619  3175A      7.946931  3176A      7.949155  
    3177A      7.951957  3178A      7.962510  3179A      7.984454  
    3180A      7.994686  3181A      7.996612  3182A      8.001511  
    3183A      8.007665  3184A      8.014960  3185A      8.034333  
    3186A      8.070744  3187A      8.084726  3188A      8.089886  
    3189A      8.092752  3190A      8.095684  3191A      8.099054  
    3192A      8.107582  3193A      8.160758  3194A      8.163529  
    3195A      8.184874  3196A      8.192895  3197A      8.218779  
    3198A      8.221912  3199A      8.224407  3200A      8.227582  
    3201A      8.232631  3202A      8.264441  3203A      8.266872  
    3204A      8.268168  3205A      8.291950  3206A      8.303648  
    3207A      8.331699  3208A      8.337460  3209A      8.342612  
    3210A      8.369461  3211A      8.374943  3212A      8.376641  
    3213A      8.399351  3214A      8.402526  3215A      8.477279  
    3216A      8.481820  3217A      8.482707  3218A      8.485368  
    3219A      8.504155  3220A      8.550411  3221A      8.573995  
    3222A      8.593303  3223A      8.596889  3224A      8.647662  
    3225A      8.651347  3226A      8.661685  3227A      8.663777  
    3228A      8.688438  3229A      8.734561  3230A      8.741799  
    3231A      8.796990  3232A      8.839053  3233A      8.844620  
    3234A      8.883117  3235A      8.905854  3236A      8.914177  
    3237A      8.928484  3238A      9.020247  3239A      9.025280  
    3240A      9.033728  3241A      9.037902  3242A      9.058475  
    3243A      9.106129  3244A      9.219099  3245A      9.273340  
    3246A      9.291308  3247A      9.299077  3248A      9.303759  
    3249A      9.360209  3250A      9.362765  3251A      9.495515  
    3252A      9.500567  3253A      9.520600  3254A      9.615627  
    3255A      9.645715  3256A      9.676911  3257A      9.687170  
    3258A      9.694054  3259A      9.707342  3260A      9.721306  
    3261A      9.788679  3262A      9.790460  3263A      9.808005  
    3264A      9.825994  3265A      9.835907  3266A      9.846930  
    3267A      9.860786  3268A      9.865830  3269A      9.911716  
    3270A      9.917308  3271A      9.919569  3272A      9.970280  
    3273A     10.006873  3274A     10.016450  3275A     10.021781  
    3276A     10.025142  3277A     10.038946  3278A     10.044075  
    3279A     10.138888  3280A     10.145716  3281A     10.151562  
    3282A     10.166167  3283A     10.249826  3284A     10.254864  
    3285A     10.259738  3286A     10.268744  3287A     10.271529  
    3288A     10.277655  3289A     10.330645  3290A     10.332628  
    3291A     10.574421  3292A     10.577872  3293A     10.706046  
    3294A     10.759629  3295A     10.770711  3296A     10.810097  
    3297A     10.819702  3298A     10.978209  3299A     10.982206  
    3300A     11.229138  3301A     11.268213  3302A     11.275100  
    3303A     11.289895  3304A     11.293681  3305A     11.296357  
    3306A     11.352624  3307A     11.366687  3308A     11.391293  
    3309A     11.396382  3310A     11.406475  3311A     11.458672  
    3312A     11.478234  3313A     11.483733  3314A     11.493518  
    3315A     11.502960  3316A     11.567332  3317A     11.683152  
    3318A     11.701628  3319A     11.787634  3320A     11.798728  
    3321A     11.856740  3322A     11.862843  3323A     11.879005  
    3324A     11.892685  3325A     11.910284  3326A     11.916047  
    3327A     11.957299  3328A     11.963034  3329A     11.992270  
    3330A     12.019224  3331A     12.075220  3332A     12.080874  
    3333A     12.168200  3334A     12.185609  3335A     12.277134  
    3336A     12.297214  3337A     12.299405  3338A     12.315160  
    3339A     12.448064  3340A     12.481447  3341A     12.491974  
    3342A     12.515109  3343A     12.526164  3344A     12.540144  
    3345A     12.578104  3346A     12.619610  3347A     12.640603  
    3348A     12.658811  3349A     12.764514  3350A     12.782111  
    3351A     12.900130  3352A     12.931555  3353A     12.952863  
    3354A     16.739471  3355A     16.865766  3356A     17.215366  
    3357A     18.481123  3358A     19.291517  3359A     19.880701  
    3360A     20.372270  3361A     20.624579  3362A     21.283767  
    3363A     22.093606  3364A     49.901743  3365A     49.983566  
    3366A     50.206070  3367A     50.519043  3368A     53.009515  
    3369A     53.106491  3370A     53.183361  3371A     53.254038  
    3372A     53.376063  3373A     53.385040  3374A     53.408649  
    3375A     53.421986  3376A     55.031772  3377A     55.055150  
    3378A     55.999974  3379A     56.611711  3380A     56.640361  
    3381A     56.694741  3382A     57.110788  3383A     57.170482  
    3384A     57.397151  3385A     58.002223  3386A     58.896403  
    3387A     59.009349  3388A     59.965789  3389A     60.014674  
    3390A     60.073656  3391A     60.110937  3392A     60.135421  
    3393A     60.417877  3394A     60.476217  3395A     60.853152  
    3396A     61.148562  3397A     61.854198  3398A     62.308692  
    3399A     62.369262  3400A     62.705471  3401A     62.758607  
    3402A     62.837522  3403A     63.631183  3404A     63.664788  
    3405A     63.750854  3406A     63.831343  3407A     63.997204  
    3408A     64.130523  3409A     64.339394  3410A     64.465585  
    3411A     64.939087  3412A     65.016229  3413A     65.113217  
    3414A     65.162485  3415A     65.445826  3416A     65.632753  
    3417A     65.693750  

    Final Occupation by Irrep:
              A 
    DOCC [    35 ]
    NA   [    35 ]
    NB   [    35 ]

  @DF-RHF Final Energy:  -464.68303488890717

   => Energetics <=

    Nuclear Repulsion Energy =            501.2235938577680372
    One-Electron Energy =               -1625.3007004877470081
    Two-Electron Energy =                 659.3940717410717980
    Total Energy =                       -464.6830348889071729

Computation Completed


Properties will be evaluated at   0.000000,   0.000000,   0.000000 [a0]

Properties computed using the SCF density matrix


 Multipole Moments:

 ------------------------------------------------------------------------------------
     Multipole            Electronic (a.u.)      Nuclear  (a.u.)        Total (a.u.)
 ------------------------------------------------------------------------------------

 L = 1.  Multiply by 2.5417464519 to convert [e a0] to [Debye]
 Dipole X            :        114.4928151         -113.7955279            0.6972872
 Dipole Y            :         24.8291041          -25.5453178           -0.7162137
 Dipole Z            :       -346.5279690          346.1411344           -0.3868346
 Magnitude           :                                                    1.0718267

 ------------------------------------------------------------------------------------

*** tstop() called on atl1-1-02-003-29-2.pace.gatech.edu at Sat Jun 13 03:27:35 2026
Module time:
	user time   =   27092.12 seconds =     451.54 minutes
	system time =    2104.13 seconds =      35.07 minutes
	total time  =       4611 seconds =      76.85 minutes
Total time:
	user time   =   27092.12 seconds =     451.54 minutes
	system time =    2104.13 seconds =      35.07 minutes
	total time  =       4611 seconds =      76.85 minutes

    Psi4 stopped on: Saturday, 13 June 2026 03:27AM
    Psi4 wall time for execution: 1:16:59.67

*** Psi4 exiting successfully. Buy a developer a beer!
