
    -----------------------------------------------------------------------
          Psi4: An Open-Source Ab Initio Electronic Structure Package
                               Psi4 1.9.1 release

                         Git: Rev {} zzzzzzz 


    D. G. A. Smith, L. A. Burns, A. C. Simmonett, R. M. Parrish,
    M. C. Schieber, R. Galvelis, P. Kraus, H. Kruse, R. Di Remigio,
    A. Alenaizan, A. M. James, S. Lehtola, J. P. Misiewicz, M. Scheurer,
    R. A. Shaw, J. B. Schriber, Y. Xie, Z. L. Glick, D. A. Sirianni,
    J. S. O'Brien, J. M. Waldrop, A. Kumar, E. G. Hohenstein,
    B. P. Pritchard, B. R. Brooks, H. F. Schaefer III, A. Yu. Sokolov,
    K. Patkowski, A. E. DePrince III, U. Bozkaya, R. A. King,
    F. A. Evangelista, J. M. Turney, T. D. Crawford, C. D. Sherrill,
    J. Chem. Phys. 152(18) 184108 (2020). https://doi.org/10.1063/5.0006002

                            Additional Code Authors
    E. T. Seidl, C. L. Janssen, E. F. Valeev, M. L. Leininger,
    J. F. Gonthier, R. M. Richard, H. R. McAlexander, M. Saitow, X. Wang,
    P. Verma, M. H. Lechner, A. Jiang, S. Behnle, A. G. Heide,
    M. F. Herbst, and D. L. Poole

             Previous Authors, Complete List of Code Contributors,
                       and Citations for Specific Modules
    https://github.com/psi4/psi4/blob/master/codemeta.json
    https://github.com/psi4/psi4/graphs/contributors
    http://psicode.org/psi4manual/master/introduction.html#citing-psifour

    -----------------------------------------------------------------------


    Psi4 started on: Saturday, 13 June 2026 04:58PM

    Process ID: 1341320
    Host:       atl1-1-02-004-3-1.pace.gatech.edu
    PSIDATADIR: /storage/home/hcoda1/5/vlita3/.conda/envs/p4_qcml/share/psi4
    Memory:     250.0 GiB
    Threads:    10
    
  ==> Input QCSchema <==

--------------------------------------------------------------------------
{'driver': 'energy',
 'extras': {},
 'id': '271',
 'keywords': {},
 'model': {'basis': 'aug-cc-pvtz', 'method': 'mp2'},
 'molecule': {'extras': {},
              'fix_com': True,
              'fix_orientation': True,
              'fragment_charges': [0.0, 0.0],
              'fragment_multiplicities': [1, 1],
              'fragments': [[0, 1, 2, 3, 4, 5, 6, 7, 8, 9, 10, 11, 12, 13, 14, 15, 16, 17, 18, 19, 20, 21, 22, 23, 24,
                             25, 26, 27, 28, 29, 30, 31, 32, 33, 34, 35, 36, 37, 38, 39, 40, 41, 42, 43, 44, 45, 46, 47,
                             48, 49, 50, 51, 52, 53, 54, 55, 56, 57, 58, 59, 60, 61, 62, 63, 64, 65, 66, 67, 68, 69, 70,
                             71],
                            [72, 73, 74, 75, 76, 77, 78, 79, 80, 81, 82, 83, 84, 85, 86, 87, 88, 89, 90, 91]],
              'geometry': [-0.27392714, 6.18819166, -1.19323544, -2.46344698, 5.77825337, -2.60449614, -4.6940608,
                           5.39705781, -1.25234985, -4.71896739, 5.33938337, 1.40379628, -2.51326016, 5.65638493,
                           2.81229042, -0.29786241, 6.1264921, 1.46128175, -7.4236946, 4.94664159, -2.11437677,
                           -8.0102089, 2.21933216, -1.3518118, -8.03725088, 2.16388759, 1.30730308, -7.46490952,
                           4.85601033, 2.19433108, -8.21278754, 0.01810099, -2.78449255, -8.41651891, -2.24308601,
                           -1.44718061, -8.44656555, -2.29788807, 1.20944929, -8.27108559, -0.09424159, 2.64331111,
                           -8.82968863, 6.36030791, 0.05739419, 2.39027678, 6.99321499, -1.97848656, 2.35234998,
                           6.89052727, 2.33048585, 4.24147139, 4.87579576, 1.47132186, 4.26509297, 4.93957402,
                           -1.18371122, 5.91295305, 3.35513315, 2.83024282, 7.66850862, 1.97164575, 1.43096487,
                           7.69269711, 2.03631218, -1.22332744, 5.96134893, 3.48626124, -2.58482409, 2.91214355,
                           8.90127146, 0.22748523, 9.87956377, 0.34201964, -2.07607202, 9.16122218, -2.35520346,
                           -1.32189933, 9.13548411, -2.42066358, 1.33912796, 9.83927481, 0.23553924, 2.23913649,
                           8.55002806, -4.47912335, -2.729596, 7.90073706, -6.7005909, -1.42801501, 7.87418641,
                           -6.76523843, 1.20657123, 8.49702124, -4.61078057, 2.62830668, 11.77284258, 0.92596769,
                           0.1150709, -8.31764844, -5.08264518, 1.9809621, -5.66577687, -5.91321761, 1.16915466,
                           -5.63425624, -5.85826437, -1.48990165, -8.26696598, -4.99384695, -2.32929532, -3.49926256,
                           -6.47956853, 2.52781105, -1.27490751, -7.03089613, 1.18478458, -1.24350593, -6.97650981,
                           -1.44679133, -3.43540871, -6.36901955, -2.81856431, -9.87669139, -6.270716, -0.2182029,
                           -2.4529401, 5.84171037, -4.65828828, -2.54030214, 5.62747212, 4.86674397, -7.86022133,
                           5.46728004, -4.05896164, -7.93792687, 5.29540945, 4.15038659, -8.11773431, 0.05695332,
                           -4.83605482, -8.21892915, -0.14041005, 4.69617729, -8.40519945, 8.38335422, 0.10379812,
                           -10.87140543, 6.03249712, 0.03110168, 2.58575005, 7.68646102, -3.90969218, 2.51428061,
                           7.49055311, 4.29570653, 5.92036077, 3.32542665, 4.88460188, 6.00539845, 3.55672913,
                           -4.63769027, 1.57808761, 10.48166831, 0.25357668, 4.86729199, 9.57563912, 0.26070473,
                           10.52462179, 0.60197793, -4.01470426, 10.44833354, 0.39868497, 4.19987852, 8.5531839,
                           -4.43267388, -4.7823677, 7.42214502, -8.39155563, -2.48982755, 7.37512864, -8.50599744,
                           2.1742055, 8.4600204, -4.66543145, 4.68064374, 12.34503276, 2.91199237, 0.16959272,
                           13.42257349, -0.321261, 0.09956022, -8.86591468, -5.52843157, 3.91606055, -8.76902842,
                           -5.35979242, -4.29349555, -3.50574432, -6.49980749, 4.58215122, 0.4449946, -7.48906022,
                           2.20842844, 0.50076797, -7.39238184, -2.44683628, -3.39254972, -6.30418305, -4.87158167,
                           -11.84561594, -5.6407569, -0.22849246, -9.76051103, -8.33473156, -0.2592572, 0.45225115,
                           -0.84580551, -2.67537976, 2.67838443, -1.53842793, -1.2866805, 2.65068104, -1.59445642,
                           1.27425178, 0.39459182, -0.96458424, 2.64450164, -1.86313012, -0.39368286, 1.25325503,
                           -1.83502422, -0.33633346, -1.30877329, 0.51180775, -0.67721548, -5.30584073, 2.77402347,
                           -1.11680357, -6.67834882, 4.65792923, -1.46517081, -7.76197447, -1.67832057, -0.01779464,
                           -6.70601441, -3.49875233, 0.52904962, -7.81566159, 0.39835616, -0.91584254, 5.28048061,
                           2.63210503, -1.41763286, 6.67793308, 4.4946569, -1.81660506, 7.78079614, -1.82246132,
                           -0.32547131, 6.66298535, -3.66775054, 0.16586372, 7.75745803, 4.38153789, -2.03474371,
                           -2.30489896, 4.33176251, -2.13518265, 2.30622176, -3.59287959, 0.00412869, 2.26776584,
                           -3.54227272, 0.1076148, -2.34208877],
              'id': 11,
              'identifiers': {'molecular_formula': 'C54H34N4',
                              'molecule_hash': '4c8c81f85cb59bc3d701ac2a728348ee32004706'},
              'masses': [12.0, 12.0, 12.0, 12.0, 12.0, 12.0, 12.0, 12.0, 12.0, 12.0, 12.0, 12.0, 12.0, 12.0, 12.0, 12.0,
                         12.0, 12.0, 12.0, 12.0, 12.0, 12.0, 12.0, 12.0, 12.0, 12.0, 12.0, 12.0, 12.0, 12.0, 12.0, 12.0,
                         12.0, 12.0, 12.0, 12.0, 12.0, 12.0, 12.0, 12.0, 12.0, 12.0, 1.00782503223, 1.00782503223,
                         1.00782503223, 1.00782503223, 1.00782503223, 1.00782503223, 1.00782503223, 1.00782503223,
                         1.00782503223, 1.00782503223, 1.00782503223, 1.00782503223, 1.00782503223, 1.00782503223,
                         1.00782503223, 1.00782503223, 1.00782503223, 1.00782503223, 1.00782503223, 1.00782503223,
                         1.00782503223, 1.00782503223, 1.00782503223, 1.00782503223, 1.00782503223, 1.00782503223,
                         1.00782503223, 1.00782503223, 1.00782503223, 1.00782503223, 12.0, 12.0, 12.0, 12.0, 12.0, 12.0,
                         12.0, 12.0, 14.00307400443, 12.0, 14.00307400443, 12.0, 12.0, 14.00307400443, 12.0,
                         14.00307400443, 1.00782503223, 1.00782503223, 1.00782503223, 1.00782503223],
              'molecular_charge': 0.0,
              'molecular_multiplicity': 1,
              'name': 'C54H34N4 ([1],[0])',
              'provenance': {'creator': 'QCElemental',
                             'routine': 'qcelemental.molparse.from_schema',
                             'version': '0.29.0'},
              'real': [False, False, False, False, False, False, False, False, False, False, False, False, False, False,
                       False, False, False, False, False, False, False, False, False, False, False, False, False, False,
                       False, False, False, False, False, False, False, False, False, False, False, False, False, False,
                       False, False, False, False, False, False, False, False, False, False, False, False, False, False,
                       False, False, False, False, False, False, False, False, False, False, False, False, False, False,
                       False, False, True, True, True, True, True, True, True, True, True, True, True, True, True, True,
                       True, True, True, True, True, True],
              'schema_name': 'qcschema_molecule',
              'schema_version': 2,
              'symbols': ['C', 'C', 'C', 'C', 'C', 'C', 'C', 'C', 'C', 'C', 'C', 'C', 'C', 'C', 'C', 'C', 'C', 'C', 'C',
                          'C', 'C', 'C', 'C', 'C', 'C', 'C', 'C', 'C', 'C', 'C', 'C', 'C', 'C', 'C', 'C', 'C', 'C', 'C',
                          'C', 'C', 'C', 'C', 'H', 'H', 'H', 'H', 'H', 'H', 'H', 'H', 'H', 'H', 'H', 'H', 'H', 'H', 'H',
                          'H', 'H', 'H', 'H', 'H', 'H', 'H', 'H', 'H', 'H', 'H', 'H', 'H', 'H', 'H', 'C', 'C', 'C', 'C',
                          'C', 'C', 'C', 'C', 'N', 'C', 'N', 'C', 'C', 'N', 'C', 'N', 'H', 'H', 'H', 'H'],
              'validated': True},
 'protocols': {},
 'provenance': {'creator': 'QCElemental', 'routine': 'qcelemental.models.results', 'version': '0.29.0'},
 'schema_name': 'qcschema_input',
 'schema_version': 1}
--------------------------------------------------------------------------

Scratch directory: /tmp/tmpg6n7x1k__psi_scratch/
    SCF Algorithm Type (re)set to DF.
   => Libint2 <=

    Primary   basis highest AM E, G, H:  6, 6, 3
    Auxiliary basis highest AM E, G, H:  7, 7, 4
    Onebody   basis highest AM E, G, H:  -, -, -
    Solid Harmonics ordering:            Gaussian

*** tstart() called on atl1-1-02-004-3-1.pace.gatech.edu
*** at Sat Jun 13 16:58:55 2026

   => Loading Basis Set <=

    Name: AUG-CC-PVTZ
    Role: ORBITAL
    Keyword: BASIS
    atoms 1-42, 73-80, 82, 84-85, 87 entry C          line   239 file /storage/home/hcoda1/5/vlita3/.conda/envs/p4_qcml/share/psi4/basis/aug-cc-pvtz.gbs 
    atoms 43-72, 89-92               entry H          line    40 file /storage/home/hcoda1/5/vlita3/.conda/envs/p4_qcml/share/psi4/basis/aug-cc-pvtz.gbs 
    atoms 81, 83, 86, 88             entry N          line   285 file /storage/home/hcoda1/5/vlita3/.conda/envs/p4_qcml/share/psi4/basis/aug-cc-pvtz.gbs 


         ---------------------------------------------------------
                                   SCF
               by Justin Turney, Rob Parrish, Andy Simmonett
                          and Daniel G. A. Smith
                              RHF Reference
                       10 Threads, 256000 MiB Core
         ---------------------------------------------------------

  ==> Geometry <==

    Molecular point group: c1
    Full point group: C1

    Geometry (in Bohr), charge = 0, multiplicity = 1:

       Center              X                  Y                   Z               Mass       
    ------------   -----------------  -----------------  -----------------  -----------------
      Gh(C)          -0.273927140000     6.188191660000    -1.193235440000    12.000000000000
      Gh(C)          -2.463446980000     5.778253370000    -2.604496140000    12.000000000000
      Gh(C)          -4.694060800000     5.397057810000    -1.252349850000    12.000000000000
      Gh(C)          -4.718967390000     5.339383370000     1.403796280000    12.000000000000
      Gh(C)          -2.513260160000     5.656384930000     2.812290420000    12.000000000000
      Gh(C)          -0.297862410000     6.126492100000     1.461281750000    12.000000000000
      Gh(C)          -7.423694600000     4.946641590000    -2.114376770000    12.000000000000
      Gh(C)          -8.010208900000     2.219332160000    -1.351811800000    12.000000000000
      Gh(C)          -8.037250880000     2.163887590000     1.307303080000    12.000000000000
      Gh(C)          -7.464909520000     4.856010330000     2.194331080000    12.000000000000
      Gh(C)          -8.212787540000     0.018100990000    -2.784492550000    12.000000000000
      Gh(C)          -8.416518910000    -2.243086010000    -1.447180610000    12.000000000000
      Gh(C)          -8.446565550000    -2.297888070000     1.209449290000    12.000000000000
      Gh(C)          -8.271085590000    -0.094241590000     2.643311110000    12.000000000000
      Gh(C)          -8.829688630000     6.360307910000     0.057394190000    12.000000000000
      Gh(C)           2.390276780000     6.993214990000    -1.978486560000    12.000000000000
      Gh(C)           2.352349980000     6.890527270000     2.330485850000    12.000000000000
      Gh(C)           4.241471390000     4.875795760000     1.471321860000    12.000000000000
      Gh(C)           4.265092970000     4.939574020000    -1.183711220000    12.000000000000
      Gh(C)           5.912953050000     3.355133150000     2.830242820000    12.000000000000
      Gh(C)           7.668508620000     1.971645750000     1.430964870000    12.000000000000
      Gh(C)           7.692697110000     2.036312180000    -1.223327440000    12.000000000000
      Gh(C)           5.961348930000     3.486261240000    -2.584824090000    12.000000000000
      Gh(C)           2.912143550000     8.901271460000     0.227485230000    12.000000000000
      Gh(C)           9.879563770000     0.342019640000    -2.076072020000    12.000000000000
      Gh(C)           9.161222180000    -2.355203460000    -1.321899330000    12.000000000000
      Gh(C)           9.135484110000    -2.420663580000     1.339127960000    12.000000000000
      Gh(C)           9.839274810000     0.235539240000     2.239136490000    12.000000000000
      Gh(C)           8.550028060000    -4.479123350000    -2.729596000000    12.000000000000
      Gh(C)           7.900737060000    -6.700590900000    -1.428015010000    12.000000000000
      Gh(C)           7.874186410000    -6.765238430000     1.206571230000    12.000000000000
      Gh(C)           8.497021240000    -4.610780570000     2.628306680000    12.000000000000
      Gh(C)          11.772842580000     0.925967690000     0.115070900000    12.000000000000
      Gh(C)          -8.317648440000    -5.082645180000     1.980962100000    12.000000000000
      Gh(C)          -5.665776870000    -5.913217610000     1.169154660000    12.000000000000
      Gh(C)          -5.634256240000    -5.858264370000    -1.489901650000    12.000000000000
      Gh(C)          -8.266965980000    -4.993846950000    -2.329295320000    12.000000000000
      Gh(C)          -3.499262560000    -6.479568530000     2.527811050000    12.000000000000
      Gh(C)          -1.274907510000    -7.030896130000     1.184784580000    12.000000000000
      Gh(C)          -1.243505930000    -6.976509810000    -1.446791330000    12.000000000000
      Gh(C)          -3.435408710000    -6.369019550000    -2.818564310000    12.000000000000
      Gh(C)          -9.876691390000    -6.270716000000    -0.218202900000    12.000000000000
      Gh(H)          -2.452940100000     5.841710370000    -4.658288280000     1.007825032230
      Gh(H)          -2.540302140000     5.627472120000     4.866743970000     1.007825032230
      Gh(H)          -7.860221330000     5.467280040000    -4.058961640000     1.007825032230
      Gh(H)          -7.937926870000     5.295409450000     4.150386590000     1.007825032230
      Gh(H)          -8.117734310000     0.056953320000    -4.836054820000     1.007825032230
      Gh(H)          -8.218929150000    -0.140410050000     4.696177290000     1.007825032230
      Gh(H)          -8.405199450000     8.383354220000     0.103798120000     1.007825032230
      Gh(H)         -10.871405430000     6.032497120000     0.031101680000     1.007825032230
      Gh(H)           2.585750050000     7.686461020000    -3.909692180000     1.007825032230
      Gh(H)           2.514280610000     7.490553110000     4.295706530000     1.007825032230
      Gh(H)           5.920360770000     3.325426650000     4.884601880000     1.007825032230
      Gh(H)           6.005398450000     3.556729130000    -4.637690270000     1.007825032230
      Gh(H)           1.578087610000    10.481668310000     0.253576680000     1.007825032230
      Gh(H)           4.867291990000     9.575639120000     0.260704730000     1.007825032230
      Gh(H)          10.524621790000     0.601977930000    -4.014704260000     1.007825032230
      Gh(H)          10.448333540000     0.398684970000     4.199878520000     1.007825032230
      Gh(H)           8.553183900000    -4.432673880000    -4.782367700000     1.007825032230
      Gh(H)           7.422145020000    -8.391555630000    -2.489827550000     1.007825032230
      Gh(H)           7.375128640000    -8.505997440000     2.174205500000     1.007825032230
      Gh(H)           8.460020400000    -4.665431450000     4.680643740000     1.007825032230
      Gh(H)          12.345032760000     2.911992370000     0.169592720000     1.007825032230
      Gh(H)          13.422573490000    -0.321261000000     0.099560220000     1.007825032230
      Gh(H)          -8.865914680000    -5.528431570000     3.916060550000     1.007825032230
      Gh(H)          -8.769028420000    -5.359792420000    -4.293495550000     1.007825032230
      Gh(H)          -3.505744320000    -6.499807490000     4.582151220000     1.007825032230
      Gh(H)           0.444994600000    -7.489060220000     2.208428440000     1.007825032230
      Gh(H)           0.500767970000    -7.392381840000    -2.446836280000     1.007825032230
      Gh(H)          -3.392549720000    -6.304183050000    -4.871581670000     1.007825032230
      Gh(H)         -11.845615940000    -5.640756900000    -0.228492460000     1.007825032230
      Gh(H)          -9.760511030000    -8.334731560000    -0.259257200000     1.007825032230
         C            0.452251150000    -0.845805510000    -2.675379760000    12.000000000000
         C            2.678384430000    -1.538427930000    -1.286680500000    12.000000000000
         C            2.650681040000    -1.594456420000     1.274251780000    12.000000000000
         C            0.394591820000    -0.964584240000     2.644501640000    12.000000000000
         C           -1.863130120000    -0.393682860000     1.253255030000    12.000000000000
         C           -1.835024220000    -0.336333460000    -1.308773290000    12.000000000000
         C            0.511807750000    -0.677215480000    -5.305840730000    12.000000000000
         C            2.774023470000    -1.116803570000    -6.678348820000    12.000000000000
         N            4.657929230000    -1.465170810000    -7.761974470000    14.003074004430
         C           -1.678320570000    -0.017794640000    -6.706014410000    12.000000000000
         N           -3.498752330000     0.529049620000    -7.815661590000    14.003074004430
         C            0.398356160000    -0.915842540000     5.280480610000    12.000000000000
         C            2.632105030000    -1.417632860000     6.677933080000    12.000000000000
         N            4.494656900000    -1.816605060000     7.780796140000    14.003074004430
         C           -1.822461320000    -0.325471310000     6.662985350000    12.000000000000
         N           -3.667750540000     0.165863720000     7.757458030000    14.003074004430
         H            4.381537890000    -2.034743710000    -2.304898960000     1.007825032230
         H            4.331762510000    -2.135182650000     2.306221760000     1.007825032230
         H           -3.592879590000     0.004128690000     2.267765840000     1.007825032230
         H           -3.542272720000     0.107614800000    -2.342088770000     1.007825032230

  Running in c1 symmetry.

  Rotational constants: A =      0.00267  B =      0.00168  C =      0.00146 [cm^-1]
  Rotational constants: A =     80.12542  B =     50.33918  C =     43.84220 [MHz]
  Nuclear repulsion =  836.883087262661093

  Charge       = 0
  Multiplicity = 1
  Electrons    = 104
  Nalpha       = 52
  Nbeta        = 52

  ==> Algorithm <==

  SCF Algorithm Type is DF.
  DIIS enabled.
  MOM disabled.
  Fractional occupation disabled.
  Guess Type is SAD.
  Energy threshold   = 1.00e-08
  Density threshold  = 1.00e-08
  Integral threshold = 1.00e-12

  ==> Primary Basis <==

  Basis Set: AUG-CC-PVTZ
    Blend: AUG-CC-PVTZ
    Number of shells: 1118
    Number of basis functions: 3450
    Number of Cartesian functions: 4040
    Spherical Harmonics?: true
    Max angular momentum: 3

   => Loading Basis Set <=

    Name: (AUG-CC-PVTZ AUX)
    Role: JKFIT
    Keyword: DF_BASIS_SCF
    atoms 1-42, 73-80, 82, 84-85, 87 entry C          line   162 file /storage/home/hcoda1/5/vlita3/.conda/envs/p4_qcml/share/psi4/basis/aug-cc-pvtz-jkfit.gbs 
    atoms 43-72, 89-92               entry H          line    70 file /storage/home/hcoda1/5/vlita3/.conda/envs/p4_qcml/share/psi4/basis/aug-cc-pvtz-jkfit.gbs 
    atoms 81, 83, 86, 88             entry N          line   224 file /storage/home/hcoda1/5/vlita3/.conda/envs/p4_qcml/share/psi4/basis/aug-cc-pvtz-jkfit.gbs 

  ==> Integral Setup <==

  ==> DiskDFJK: Density-Fitted J/K Matrices <==

    J tasked:                  Yes
    K tasked:                  Yes
    wK tasked:                  No
    OpenMP threads:             10
    Integrals threads:          10
    Memory [MiB]:           192000
    Algorithm:                Disk
    Integral Cache:           NONE
    Schwarz Cutoff:          1E-12
    Fitting Condition:       1E-10

   => Auxiliary Basis Set <=

  Basis Set: (AUG-CC-PVTZ AUX)
    Blend: AUG-CC-PVTZ-JKFIT
    Number of shells: 2216
    Number of basis functions: 7596
    Number of Cartesian functions: 9468
    Spherical Harmonics?: true
    Max angular momentum: 4

  Minimum eigenvalue in the overlap matrix is 3.2999283483E-10.
  Reciprocal condition number of the overlap matrix is 8.9829939844E-12.
    Using canonical orthogonalization.
  Overall, 31 of 3450 possible MOs eliminated.


  ==> Pre-Iterations <==

  SCF Guess: Superposition of Atomic Densities via on-the-fly atomic UHF (no occupation information).

   -------------------------
    Irrep   Nso     Nmo    
   -------------------------
     A       3450    3419 
   -------------------------
    Total    3450    3419
   -------------------------

  ==> Iterations <==

                           Total Energy        Delta E     RMS |[F,P]|

   @DF-RHF iter SAD:  -672.41082144505617   -6.72411e+02   0.00000e+00 
   @DF-RHF iter   1:  -674.34976848633278   -1.93895e+00   2.26411e-04 DIIS/ADIIS
   @DF-RHF iter   2:  -674.49025109825186   -1.40483e-01   1.89332e-04 DIIS/ADIIS
   @DF-RHF iter   3:  -674.65934589244682   -1.69095e-01   3.60903e-05 DIIS
   @DF-RHF iter   4:  -674.66948598138106   -1.01401e-02   9.97964e-06 DIIS
   @DF-RHF iter   5:  -674.67064831159450   -1.16233e-03   3.61586e-06 DIIS
   @DF-RHF iter   6:  -674.67081655984100   -1.68248e-04   1.48992e-06 DIIS
   @DF-RHF iter   7:  -674.67087849889185   -6.19391e-05   6.34086e-07 DIIS
   @DF-RHF iter   8:  -674.67088782705275   -9.32816e-06   2.50878e-07 DIIS
   @DF-RHF iter   9:  -674.67088979246932   -1.96542e-06   1.27168e-07 DIIS
   @DF-RHF iter  10:  -674.67089039328630   -6.00817e-07   4.57096e-08 DIIS
   @DF-RHF iter  11:  -674.67089047647801   -8.31917e-08   1.85902e-08 DIIS
   @DF-RHF iter  12:  -674.67089048044238   -3.96437e-09   1.08208e-08 DIIS
   @DF-RHF iter  13:  -674.67089048153139   -1.08901e-09   3.15251e-09 DIIS
  Energy and wave function converged.


  ==> Post-Iterations <==

    Orbital Energies [Eh]
    ---------------------

    Doubly Occupied:                                                      

       1A    -15.622342     2A    -15.622336     3A    -15.622290  
       4A    -15.622278     5A    -11.368448     6A    -11.368436  
       7A    -11.361256     8A    -11.361244     9A    -11.324215  
      10A    -11.324211    11A    -11.324143    12A    -11.324133  
      13A    -11.320773    14A    -11.320623    15A    -11.319239  
      16A    -11.319089    17A     -1.282153    18A     -1.274691  
      19A     -1.254873    20A     -1.254827    21A     -1.245137  
      22A     -1.185729    23A     -1.118949    24A     -1.110466  
      25A     -1.024016    26A     -0.929383    27A     -0.914022  
      28A     -0.847746    29A     -0.807910    30A     -0.804137  
      31A     -0.770530    32A     -0.693896    33A     -0.687980  
      34A     -0.676453    35A     -0.631098    36A     -0.624888  
      37A     -0.606360    38A     -0.601957    39A     -0.601882  
      40A     -0.601216    41A     -0.598078    42A     -0.570377  
      43A     -0.542422    44A     -0.521467    45A     -0.516006  
      46A     -0.515198    47A     -0.514688    48A     -0.502404  
      49A     -0.502281    50A     -0.449101    51A     -0.437808  
      52A     -0.348275  

    Virtual:                                                              

      53A     -0.081539    54A      0.006811    55A      0.012532  
      56A      0.014165    57A      0.023170    58A      0.023495  
      59A      0.024734    60A      0.030431    61A      0.033455  
      62A      0.034593    63A      0.036257    64A      0.037841  
      65A      0.041908    66A      0.042930    67A      0.043076  
      68A      0.043371    69A      0.047265    70A      0.049697  
      71A      0.051723    72A      0.052530    73A      0.053662  
      74A      0.055334    75A      0.057685    76A      0.057859  
      77A      0.058262    78A      0.060109    79A      0.061139  
      80A      0.063547    81A      0.064662    82A      0.066974  
      83A      0.068108    84A      0.069572    85A      0.071426  
      86A      0.071523    87A      0.072742    88A      0.076208  
      89A      0.078463    90A      0.079854    91A      0.081461  
      92A      0.081654    93A      0.083191    94A      0.083581  
      95A      0.087131    96A      0.087857    97A      0.088806  
      98A      0.090766    99A      0.094253   100A      0.096208  
     101A      0.096604   102A      0.098653   103A      0.101780  
     104A      0.102062   105A      0.102596   106A      0.103629  
     107A      0.105764   108A      0.107640   109A      0.108323  
     110A      0.108542   111A      0.112856   112A      0.114347  
     113A      0.114878   114A      0.115086   115A      0.117985  
     116A      0.118385   117A      0.119661   118A      0.120605  
     119A      0.122670   120A      0.123055   121A      0.124045  
     122A      0.124312   123A      0.127319   124A      0.127459  
     125A      0.129528   126A      0.132932   127A      0.133735  
     128A      0.134104   129A      0.134327   130A      0.134617  
     131A      0.136880   132A      0.138922   133A      0.139970  
     134A      0.140020   135A      0.141272   136A      0.141985  
     137A      0.144850   138A      0.145044   139A      0.146038  
     140A      0.147184   141A      0.149356   142A      0.152049  
     143A      0.153354   144A      0.153549   145A      0.155943  
     146A      0.156937   147A      0.157089   148A      0.158791  
     149A      0.159967   150A      0.160470   151A      0.161738  
     152A      0.162045   153A      0.162224   154A      0.164730  
     155A      0.165978   156A      0.166828   157A      0.167599  
     158A      0.168443   159A      0.169065   160A      0.171702  
     161A      0.172802   162A      0.174226   163A      0.175089  
     164A      0.176608   165A      0.178357   166A      0.178965  
     167A      0.179269   168A      0.180144   169A      0.180772  
     170A      0.182674   171A      0.182970   172A      0.184176  
     173A      0.185321   174A      0.188274   175A      0.188868  
     176A      0.189631   177A      0.190439   178A      0.193093  
     179A      0.194140   180A      0.194909   181A      0.195400  
     182A      0.195927   183A      0.197865   184A      0.199573  
     185A      0.200377   186A      0.203000   187A      0.203412  
     188A      0.203984   189A      0.205777   190A      0.205947  
     191A      0.207527   192A      0.208527   193A      0.210400  
     194A      0.211727   195A      0.212923   196A      0.213391  
     197A      0.215349   198A      0.216706   199A      0.217565  
     200A      0.219359   201A      0.220894   202A      0.222046  
     203A      0.223352   204A      0.223683   205A      0.223933  
     206A      0.224792   207A      0.225566   208A      0.226157  
     209A      0.227729   210A      0.229374   211A      0.230562  
     212A      0.232166   213A      0.234951   214A      0.235477  
     215A      0.235554   216A      0.236367   217A      0.236851  
     218A      0.238180   219A      0.240409   220A      0.240454  
     221A      0.241206   222A      0.243165   223A      0.244303  
     224A      0.246788   225A      0.247151   226A      0.247958  
     227A      0.251011   228A      0.251751   229A      0.252171  
     230A      0.253668   231A      0.253791   232A      0.255750  
     233A      0.256620   234A      0.258001   235A      0.260430  
     236A      0.261632   237A      0.261747   238A      0.262162  
     239A      0.263588   240A      0.264145   241A      0.265220  
     242A      0.265558   243A      0.268192   244A      0.268304  
     245A      0.268854   246A      0.269710   247A      0.270453  
     248A      0.270485   249A      0.272620   250A      0.275309  
     251A      0.275770   252A      0.275864   253A      0.277657  
     254A      0.279115   255A      0.280396   256A      0.281619  
     257A      0.282624   258A      0.284468   259A      0.286154  
     260A      0.287174   261A      0.287927   262A      0.288783  
     263A      0.291682   264A      0.292375   265A      0.294000  
     266A      0.294848   267A      0.295029   268A      0.296124  
     269A      0.296464   270A      0.297738   271A      0.297977  
     272A      0.298818   273A      0.300253   274A      0.301824  
     275A      0.302726   276A      0.303445   277A      0.306023  
     278A      0.306510   279A      0.307738   280A      0.308430  
     281A      0.310912   282A      0.311873   283A      0.312659  
     284A      0.314105   285A      0.315402   286A      0.315877  
     287A      0.317736   288A      0.318494   289A      0.319266  
     290A      0.321603   291A      0.323203   292A      0.323994  
     293A      0.325984   294A      0.327551   295A      0.328017  
     296A      0.328553   297A      0.332644   298A      0.333597  
     299A      0.334140   300A      0.335219   301A      0.336378  
     302A      0.337526   303A      0.338618   304A      0.339976  
     305A      0.342082   306A      0.343574   307A      0.344651  
     308A      0.346385   309A      0.346490   310A      0.347701  
     311A      0.349006   312A      0.350823   313A      0.352095  
     314A      0.352983   315A      0.353304   316A      0.354413  
     317A      0.356107   318A      0.357338   319A      0.357652  
     320A      0.362384   321A      0.362744   322A      0.363721  
     323A      0.366069   324A      0.366462   325A      0.368684  
     326A      0.369714   327A      0.370850   328A      0.372442  
     329A      0.373241   330A      0.374138   331A      0.378122  
     332A      0.378802   333A      0.382805   334A      0.384622  
     335A      0.384909   336A      0.386687   337A      0.386738  
     338A      0.387634   339A      0.388189   340A      0.390490  
     341A      0.392223   342A      0.393955   343A      0.395921  
     344A      0.397171   345A      0.398359   346A      0.398486  
     347A      0.399961   348A      0.401880   349A      0.403361  
     350A      0.404342   351A      0.406880   352A      0.408657  
     353A      0.409710   354A      0.411450   355A      0.411661  
     356A      0.412918   357A      0.414311   358A      0.416975  
     359A      0.418229   360A      0.419076   361A      0.421829  
     362A      0.423767   363A      0.424525   364A      0.425473  
     365A      0.426357   366A      0.427635   367A      0.428109  
     368A      0.429158   369A      0.432382   370A      0.432673  
     371A      0.432759   372A      0.434656   373A      0.435529  
     374A      0.437449   375A      0.437740   376A      0.441916  
     377A      0.443204   378A      0.443883   379A      0.445246  
     380A      0.446461   381A      0.446927   382A      0.448945  
     383A      0.449754   384A      0.451095   385A      0.451468  
     386A      0.452441   387A      0.453608   388A      0.454736  
     389A      0.455293   390A      0.456844   391A      0.459191  
     392A      0.459468   393A      0.459952   394A      0.460841  
     395A      0.462207   396A      0.462951   397A      0.464268  
     398A      0.466552   399A      0.468194   400A      0.470511  
     401A      0.470810   402A      0.473176   403A      0.473338  
     404A      0.474526   405A      0.476621   406A      0.477605  
     407A      0.478230   408A      0.479200   409A      0.481229  
     410A      0.482412   411A      0.483625   412A      0.484487  
     413A      0.486458   414A      0.488256   415A      0.490001  
     416A      0.490536   417A      0.493189   418A      0.495352  
     419A      0.495738   420A      0.498271   421A      0.498634  
     422A      0.500189   423A      0.501343   424A      0.502066  
     425A      0.502185   426A      0.504625   427A      0.504659  
     428A      0.506084   429A      0.509788   430A      0.509902  
     431A      0.510267   432A      0.512017   433A      0.512973  
     434A      0.513325   435A      0.513907   436A      0.515575  
     437A      0.516304   438A      0.517455   439A      0.518780  
     440A      0.519854   441A      0.520397   442A      0.521403  
     443A      0.523939   444A      0.525655   445A      0.527279  
     446A      0.529642   447A      0.530451   448A      0.531826  
     449A      0.533339   450A      0.534807   451A      0.535356  
     452A      0.535890   453A      0.538391   454A      0.538541  
     455A      0.540101   456A      0.540319   457A      0.542801  
     458A      0.543241   459A      0.544834   460A      0.546466  
     461A      0.547203   462A      0.547581   463A      0.549524  
     464A      0.551923   465A      0.553982   466A      0.554301  
     467A      0.555706   468A      0.556433   469A      0.557248  
     470A      0.560140   471A      0.561392   472A      0.563089  
     473A      0.563950   474A      0.564585   475A      0.564756  
     476A      0.567380   477A      0.567847   478A      0.568754  
     479A      0.569634   480A      0.569890   481A      0.572045  
     482A      0.574173   483A      0.575864   484A      0.577965  
     485A      0.579211   486A      0.580187   487A      0.580309  
     488A      0.581617   489A      0.585038   490A      0.586902  
     491A      0.587128   492A      0.590428   493A      0.591592  
     494A      0.592142   495A      0.593030   496A      0.595764  
     497A      0.596173   498A      0.597626   499A      0.600055  
     500A      0.600610   501A      0.602072   502A      0.603190  
     503A      0.603688   504A      0.603822   505A      0.605919  
     506A      0.608670   507A      0.609420   508A      0.609795  
     509A      0.610389   510A      0.611698   511A      0.612207  
     512A      0.614143   513A      0.614718   514A      0.617053  
     515A      0.621132   516A      0.621271   517A      0.623020  
     518A      0.623120   519A      0.625421   520A      0.626144  
     521A      0.628332   522A      0.628735   523A      0.630652  
     524A      0.631021   525A      0.633310   526A      0.633644  
     527A      0.635949   528A      0.636455   529A      0.637411  
     530A      0.638682   531A      0.639895   532A      0.640777  
     533A      0.642080   534A      0.643579   535A      0.644950  
     536A      0.645336   537A      0.646420   538A      0.649965  
     539A      0.650688   540A      0.654290   541A      0.655576  
     542A      0.656276   543A      0.657771   544A      0.658918  
     545A      0.661764   546A      0.662137   547A      0.663459  
     548A      0.666360   549A      0.667628   550A      0.667693  
     551A      0.669892   552A      0.670378   553A      0.673201  
     554A      0.675302   555A      0.675501   556A      0.676911  
     557A      0.678466   558A      0.681253   559A      0.681451  
     560A      0.683007   561A      0.683520   562A      0.684319  
     563A      0.686897   564A      0.689548   565A      0.691030  
     566A      0.691452   567A      0.694545   568A      0.695119  
     569A      0.696980   570A      0.698849   571A      0.699599  
     572A      0.699740   573A      0.699971   574A      0.701100  
     575A      0.702669   576A      0.703068   577A      0.705828  
     578A      0.708380   579A      0.708542   580A      0.708962  
     581A      0.710124   582A      0.710955   583A      0.711351  
     584A      0.713364   585A      0.714816   586A      0.715549  
     587A      0.717414   588A      0.718077   589A      0.719007  
     590A      0.720893   591A      0.722600   592A      0.724684  
     593A      0.725242   594A      0.726068   595A      0.726679  
     596A      0.727037   597A      0.728535   598A      0.729545  
     599A      0.732324   600A      0.734136   601A      0.735020  
     602A      0.737032   603A      0.740066   604A      0.741144  
     605A      0.741546   606A      0.742798   607A      0.743658  
     608A      0.745911   609A      0.745976   610A      0.746745  
     611A      0.748496   612A      0.750225   613A      0.752689  
     614A      0.753950   615A      0.755694   616A      0.756716  
     617A      0.757586   618A      0.758478   619A      0.758646  
     620A      0.762475   621A      0.762598   622A      0.764239  
     623A      0.764580   624A      0.766567   625A      0.767723  
     626A      0.768047   627A      0.769973   628A      0.772002  
     629A      0.772705   630A      0.774258   631A      0.775087  
     632A      0.775446   633A      0.775924   634A      0.776407  
     635A      0.779723   636A      0.781672   637A      0.782702  
     638A      0.783773   639A      0.783943   640A      0.784444  
     641A      0.785448   642A      0.787738   643A      0.790221  
     644A      0.793098   645A      0.793806   646A      0.795709  
     647A      0.796278   648A      0.798413   649A      0.798691  
     650A      0.801005   651A      0.802893   652A      0.804444  
     653A      0.805376   654A      0.806430   655A      0.807639  
     656A      0.808523   657A      0.810030   658A      0.811987  
     659A      0.815065   660A      0.816129   661A      0.816170  
     662A      0.816678   663A      0.818891   664A      0.821745  
     665A      0.822304   666A      0.823215   667A      0.825092  
     668A      0.826120   669A      0.827752   670A      0.828378  
     671A      0.828645   672A      0.830343   673A      0.832386  
     674A      0.832743   675A      0.833538   676A      0.836328  
     677A      0.837014   678A      0.840320   679A      0.841566  
     680A      0.845281   681A      0.845376   682A      0.845945  
     683A      0.846905   684A      0.851124   685A      0.851253  
     686A      0.852371   687A      0.853264   688A      0.855144  
     689A      0.855480   690A      0.855982   691A      0.858112  
     692A      0.859106   693A      0.860076   694A      0.862437  
     695A      0.864543   696A      0.867363   697A      0.868370  
     698A      0.869177   699A      0.869919   700A      0.872050  
     701A      0.873337   702A      0.875768   703A      0.876232  
     704A      0.878227   705A      0.880801   706A      0.882942  
     707A      0.883445   708A      0.883944   709A      0.885981  
     710A      0.886156   711A      0.888108   712A      0.889395  
     713A      0.890215   714A      0.891440   715A      0.893050  
     716A      0.893511   717A      0.896459   718A      0.897184  
     719A      0.899606   720A      0.900360   721A      0.902113  
     722A      0.903031   723A      0.904060   724A      0.905547  
     725A      0.908734   726A      0.910018   727A      0.911759  
     728A      0.912848   729A      0.914380   730A      0.915244  
     731A      0.916303   732A      0.916552   733A      0.917548  
     734A      0.921288   735A      0.922438   736A      0.923338  
     737A      0.926889   738A      0.927468   739A      0.928306  
     740A      0.931144   741A      0.932240   742A      0.932887  
     743A      0.934904   744A      0.935864   745A      0.937340  
     746A      0.939330   747A      0.939499   748A      0.941086  
     749A      0.942442   750A      0.944152   751A      0.944538  
     752A      0.946060   753A      0.948464   754A      0.949449  
     755A      0.950412   756A      0.951893   757A      0.952644  
     758A      0.954293   759A      0.955027   760A      0.957744  
     761A      0.959293   762A      0.959649   763A      0.961132  
     764A      0.963151   765A      0.966483   766A      0.967757  
     767A      0.968420   768A      0.969891   769A      0.972736  
     770A      0.974788   771A      0.974916   772A      0.976357  
     773A      0.976971   774A      0.979036   775A      0.979605  
     776A      0.979712   777A      0.982371   778A      0.983369  
     779A      0.985495   780A      0.986251   781A      0.987540  
     782A      0.989892   783A      0.990322   784A      0.991956  
     785A      0.994555   786A      0.996032   787A      0.997419  
     788A      0.998997   789A      1.001261   790A      1.002772  
     791A      1.003775   792A      1.005474   793A      1.006487  
     794A      1.007397   795A      1.008173   796A      1.008344  
     797A      1.009335   798A      1.011301   799A      1.012716  
     800A      1.016929   801A      1.017424   802A      1.018907  
     803A      1.020043   804A      1.022717   805A      1.022977  
     806A      1.024273   807A      1.026275   808A      1.026732  
     809A      1.027470   810A      1.028859   811A      1.030082  
     812A      1.030616   813A      1.035925   814A      1.037296  
     815A      1.038799   816A      1.040204   817A      1.040397  
     818A      1.042253   819A      1.042785   820A      1.045297  
     821A      1.047084   822A      1.049099   823A      1.051720  
     824A      1.052255   825A      1.053730   826A      1.055246  
     827A      1.057032   828A      1.059411   829A      1.061203  
     830A      1.061875   831A      1.062489   832A      1.062981  
     833A      1.065422   834A      1.066628   835A      1.069353  
     836A      1.070715   837A      1.072077   838A      1.075244  
     839A      1.077121   840A      1.077263   841A      1.079283  
     842A      1.080083   843A      1.081408   844A      1.082299  
     845A      1.083794   846A      1.085165   847A      1.087139  
     848A      1.088240   849A      1.089977   850A      1.090386  
     851A      1.091832   852A      1.092088   853A      1.093775  
     854A      1.095524   855A      1.097930   856A      1.099525  
     857A      1.101470   858A      1.103527   859A      1.104876  
     860A      1.106437   861A      1.106749   862A      1.109485  
     863A      1.110333   864A      1.111826   865A      1.111928  
     866A      1.112969   867A      1.115769   868A      1.117656  
     869A      1.120640   870A      1.122222   871A      1.122967  
     872A      1.123061   873A      1.123795   874A      1.124436  
     875A      1.125786   876A      1.130093   877A      1.130848  
     878A      1.132872   879A      1.136017   880A      1.136538  
     881A      1.139237   882A      1.140697   883A      1.141239  
     884A      1.142037   885A      1.142603   886A      1.145504  
     887A      1.149000   888A      1.149667   889A      1.151076  
     890A      1.152014   891A      1.153108   892A      1.153461  
     893A      1.157122   894A      1.157960   895A      1.161110  
     896A      1.162215   897A      1.163975   898A      1.165285  
     899A      1.165979   900A      1.166938   901A      1.167526  
     902A      1.169354   903A      1.169853   904A      1.171489  
     905A      1.174526   906A      1.175416   907A      1.176924  
     908A      1.180905   909A      1.182228   910A      1.183081  
     911A      1.185273   912A      1.186514   913A      1.187748  
     914A      1.188388   915A      1.190246   916A      1.192224  
     917A      1.195540   918A      1.196202   919A      1.197160  
     920A      1.197666   921A      1.199408   922A      1.200729  
     923A      1.202943   924A      1.204192   925A      1.208205  
     926A      1.211287   927A      1.212050   928A      1.213292  
     929A      1.214185   930A      1.214481   931A      1.216150  
     932A      1.216945   933A      1.219033   934A      1.220203  
     935A      1.220558   936A      1.225865   937A      1.226193  
     938A      1.229132   939A      1.230659   940A      1.230942  
     941A      1.235203   942A      1.235666   943A      1.236256  
     944A      1.238773   945A      1.241772   946A      1.243288  
     947A      1.243589   948A      1.246800   949A      1.247557  
     950A      1.250304   951A      1.252218   952A      1.253694  
     953A      1.255666   954A      1.256050   955A      1.256283  
     956A      1.258798   957A      1.260616   958A      1.261126  
     959A      1.262917   960A      1.265621   961A      1.266753  
     962A      1.267452   963A      1.268015   964A      1.268483  
     965A      1.268703   966A      1.274201   967A      1.275480  
     968A      1.279231   969A      1.280149   970A      1.282464  
     971A      1.283320   972A      1.283450   973A      1.286241  
     974A      1.288642   975A      1.289216   976A      1.291716  
     977A      1.293067   978A      1.294396   979A      1.294638  
     980A      1.295334   981A      1.295570   982A      1.299593  
     983A      1.300652   984A      1.300988   985A      1.302678  
     986A      1.303535   987A      1.305691   988A      1.306303  
     989A      1.306711   990A      1.309768   991A      1.312072  
     992A      1.312419   993A      1.313910   994A      1.315773  
     995A      1.319520   996A      1.321455   997A      1.323364  
     998A      1.324282   999A      1.324819  1000A      1.325618  
    1001A      1.329432  1002A      1.329608  1003A      1.333719  
    1004A      1.335092  1005A      1.335804  1006A      1.336120  
    1007A      1.336331  1008A      1.338164  1009A      1.340368  
    1010A      1.341524  1011A      1.342970  1012A      1.343826  
    1013A      1.347644  1014A      1.348065  1015A      1.348933  
    1016A      1.350279  1017A      1.351582  1018A      1.354622  
    1019A      1.356719  1020A      1.357382  1021A      1.359606  
    1022A      1.359923  1023A      1.360793  1024A      1.366432  
    1025A      1.366762  1026A      1.367024  1027A      1.370684  
    1028A      1.372483  1029A      1.374346  1030A      1.376346  
    1031A      1.377690  1032A      1.379160  1033A      1.380005  
    1034A      1.381701  1035A      1.382126  1036A      1.383599  
    1037A      1.384885  1038A      1.386743  1039A      1.387974  
    1040A      1.390232  1041A      1.391836  1042A      1.393831  
    1043A      1.396217  1044A      1.396482  1045A      1.397773  
    1046A      1.400494  1047A      1.401229  1048A      1.403333  
    1049A      1.405938  1050A      1.407052  1051A      1.407503  
    1052A      1.407736  1053A      1.408501  1054A      1.410826  
    1055A      1.412008  1056A      1.414895  1057A      1.417484  
    1058A      1.418102  1059A      1.419002  1060A      1.419340  
    1061A      1.424462  1062A      1.426172  1063A      1.426673  
    1064A      1.428485  1065A      1.430792  1066A      1.431283  
    1067A      1.432177  1068A      1.432616  1069A      1.434094  
    1070A      1.436119  1071A      1.439641  1072A      1.441604  
    1073A      1.442696  1074A      1.444627  1075A      1.445305  
    1076A      1.447564  1077A      1.448886  1078A      1.451206  
    1079A      1.452348  1080A      1.452995  1081A      1.456155  
    1082A      1.456498  1083A      1.456913  1084A      1.459388  
    1085A      1.460331  1086A      1.460907  1087A      1.462404  
    1088A      1.463816  1089A      1.466599  1090A      1.468122  
    1091A      1.470007  1092A      1.472681  1093A      1.473763  
    1094A      1.474826  1095A      1.475275  1096A      1.477894  
    1097A      1.481347  1098A      1.481469  1099A      1.484191  
    1100A      1.484644  1101A      1.486052  1102A      1.487472  
    1103A      1.489709  1104A      1.490518  1105A      1.491546  
    1106A      1.494027  1107A      1.494930  1108A      1.495704  
    1109A      1.498049  1110A      1.500405  1111A      1.500904  
    1112A      1.501957  1113A      1.502860  1114A      1.505008  
    1115A      1.505768  1116A      1.507308  1117A      1.507691  
    1118A      1.512041  1119A      1.513107  1120A      1.514736  
    1121A      1.515357  1122A      1.517861  1123A      1.518637  
    1124A      1.519496  1125A      1.520613  1126A      1.521724  
    1127A      1.522878  1128A      1.524382  1129A      1.526148  
    1130A      1.527786  1131A      1.528935  1132A      1.531209  
    1133A      1.531802  1134A      1.534307  1135A      1.534778  
    1136A      1.536668  1137A      1.539126  1138A      1.540399  
    1139A      1.541410  1140A      1.543964  1141A      1.544901  
    1142A      1.545312  1143A      1.546321  1144A      1.548316  
    1145A      1.549467  1146A      1.550769  1147A      1.553041  
    1148A      1.555511  1149A      1.555889  1150A      1.558201  
    1151A      1.559168  1152A      1.560632  1153A      1.561262  
    1154A      1.562646  1155A      1.566753  1156A      1.567096  
    1157A      1.568281  1158A      1.570977  1159A      1.572322  
    1160A      1.573704  1161A      1.574006  1162A      1.574403  
    1163A      1.575347  1164A      1.579256  1165A      1.579868  
    1166A      1.580424  1167A      1.582622  1168A      1.586148  
    1169A      1.588815  1170A      1.590950  1171A      1.592875  
    1172A      1.594221  1173A      1.595413  1174A      1.597452  
    1175A      1.597785  1176A      1.598930  1177A      1.599270  
    1178A      1.600338  1179A      1.601581  1180A      1.603311  
    1181A      1.604657  1182A      1.605282  1183A      1.605902  
    1184A      1.607402  1185A      1.607909  1186A      1.609563  
    1187A      1.612687  1188A      1.613682  1189A      1.616286  
    1190A      1.617445  1191A      1.619142  1192A      1.620258  
    1193A      1.621365  1194A      1.622860  1195A      1.623680  
    1196A      1.624502  1197A      1.626794  1198A      1.628207  
    1199A      1.629200  1200A      1.631640  1201A      1.632301  
    1202A      1.635132  1203A      1.635611  1204A      1.636177  
    1205A      1.638473  1206A      1.642401  1207A      1.642971  
    1208A      1.644605  1209A      1.645366  1210A      1.645719  
    1211A      1.647643  1212A      1.648659  1213A      1.649286  
    1214A      1.650075  1215A      1.650949  1216A      1.652560  
    1217A      1.655110  1218A      1.656573  1219A      1.659757  
    1220A      1.661465  1221A      1.662483  1222A      1.663712  
    1223A      1.664113  1224A      1.665147  1225A      1.666383  
    1226A      1.669112  1227A      1.669715  1228A      1.670030  
    1229A      1.673354  1230A      1.674613  1231A      1.677308  
    1232A      1.678225  1233A      1.678628  1234A      1.680995  
    1235A      1.682270  1236A      1.685026  1237A      1.686152  
    1238A      1.686914  1239A      1.689087  1240A      1.690037  
    1241A      1.691199  1242A      1.692243  1243A      1.695308  
    1244A      1.696085  1245A      1.697176  1246A      1.697833  
    1247A      1.699533  1248A      1.703835  1249A      1.704147  
    1250A      1.704808  1251A      1.706149  1252A      1.707237  
    1253A      1.709983  1254A      1.711631  1255A      1.713523  
    1256A      1.714379  1257A      1.714703  1258A      1.716219  
    1259A      1.717461  1260A      1.719263  1261A      1.719707  
    1262A      1.722129  1263A      1.722669  1264A      1.725043  
    1265A      1.725212  1266A      1.725704  1267A      1.726762  
    1268A      1.728076  1269A      1.731406  1270A      1.732606  
    1271A      1.733129  1272A      1.735585  1273A      1.737430  
    1274A      1.738478  1275A      1.739407  1276A      1.741794  
    1277A      1.742855  1278A      1.743758  1279A      1.746549  
    1280A      1.748260  1281A      1.750004  1282A      1.750675  
    1283A      1.752739  1284A      1.754214  1285A      1.756786  
    1286A      1.757692  1287A      1.758556  1288A      1.759228  
    1289A      1.760806  1290A      1.763253  1291A      1.764246  
    1292A      1.766341  1293A      1.767823  1294A      1.769812  
    1295A      1.770695  1296A      1.771543  1297A      1.773018  
    1298A      1.776190  1299A      1.777824  1300A      1.778897  
    1301A      1.781095  1302A      1.781341  1303A      1.783647  
    1304A      1.786468  1305A      1.788806  1306A      1.790352  
    1307A      1.791169  1308A      1.794054  1309A      1.795088  
    1310A      1.795870  1311A      1.796464  1312A      1.797821  
    1313A      1.798608  1314A      1.799185  1315A      1.800855  
    1316A      1.801773  1317A      1.803340  1318A      1.806225  
    1319A      1.806498  1320A      1.808054  1321A      1.811186  
    1322A      1.812346  1323A      1.813782  1324A      1.814765  
    1325A      1.817033  1326A      1.818368  1327A      1.820513  
    1328A      1.824858  1329A      1.825396  1330A      1.826508  
    1331A      1.830267  1332A      1.830630  1333A      1.831177  
    1334A      1.832119  1335A      1.835245  1336A      1.836369  
    1337A      1.836961  1338A      1.838014  1339A      1.840281  
    1340A      1.842149  1341A      1.842331  1342A      1.843483  
    1343A      1.846218  1344A      1.847124  1345A      1.848670  
    1346A      1.850840  1347A      1.852318  1348A      1.853117  
    1349A      1.854116  1350A      1.857770  1351A      1.859078  
    1352A      1.860652  1353A      1.861464  1354A      1.863858  
    1355A      1.864545  1356A      1.867416  1357A      1.870581  
    1358A      1.870687  1359A      1.871335  1360A      1.871797  
    1361A      1.875357  1362A      1.876250  1363A      1.878044  
    1364A      1.878904  1365A      1.880497  1366A      1.882906  
    1367A      1.883257  1368A      1.887592  1369A      1.891313  
    1370A      1.891970  1371A      1.895864  1372A      1.896604  
    1373A      1.897077  1374A      1.898173  1375A      1.900823  
    1376A      1.901658  1377A      1.903652  1378A      1.906183  
    1379A      1.907301  1380A      1.908507  1381A      1.910807  
    1382A      1.911992  1383A      1.914180  1384A      1.915672  
    1385A      1.917924  1386A      1.919540  1387A      1.920888  
    1388A      1.922672  1389A      1.922959  1390A      1.923470  
    1391A      1.926449  1392A      1.929101  1393A      1.930028  
    1394A      1.933743  1395A      1.934353  1396A      1.934883  
    1397A      1.936307  1398A      1.937652  1399A      1.940418  
    1400A      1.940680  1401A      1.943631  1402A      1.945017  
    1403A      1.948717  1404A      1.949321  1405A      1.951411  
    1406A      1.952464  1407A      1.953943  1408A      1.958546  
    1409A      1.960249  1410A      1.960892  1411A      1.961143  
    1412A      1.961919  1413A      1.964808  1414A      1.967025  
    1415A      1.968958  1416A      1.970657  1417A      1.971442  
    1418A      1.971755  1419A      1.972282  1420A      1.973758  
    1421A      1.975125  1422A      1.978453  1423A      1.979905  
    1424A      1.981884  1425A      1.983928  1426A      1.985260  
    1427A      1.986778  1428A      1.989422  1429A      1.990364  
    1430A      1.991880  1431A      1.992552  1432A      1.995599  
    1433A      1.995944  1434A      1.998890  1435A      2.000262  
    1436A      2.001482  1437A      2.003044  1438A      2.005515  
    1439A      2.005583  1440A      2.007474  1441A      2.008692  
    1442A      2.010374  1443A      2.011059  1444A      2.011992  
    1445A      2.013448  1446A      2.014929  1447A      2.015831  
    1448A      2.016022  1449A      2.019986  1450A      2.021668  
    1451A      2.024841  1452A      2.025798  1453A      2.026084  
    1454A      2.030819  1455A      2.031800  1456A      2.032775  
    1457A      2.035078  1458A      2.037582  1459A      2.039231  
    1460A      2.040326  1461A      2.040756  1462A      2.040998  
    1463A      2.042254  1464A      2.045514  1465A      2.047725  
    1466A      2.048801  1467A      2.049624  1468A      2.051619  
    1469A      2.053745  1470A      2.055559  1471A      2.056814  
    1472A      2.058985  1473A      2.059602  1474A      2.062359  
    1475A      2.063499  1476A      2.066364  1477A      2.067887  
    1478A      2.068819  1479A      2.070064  1480A      2.075886  
    1481A      2.076835  1482A      2.077219  1483A      2.079904  
    1484A      2.082997  1485A      2.084228  1486A      2.084497  
    1487A      2.084852  1488A      2.088337  1489A      2.090379  
    1490A      2.093436  1491A      2.095778  1492A      2.097715  
    1493A      2.098610  1494A      2.099991  1495A      2.103647  
    1496A      2.104985  1497A      2.105794  1498A      2.107944  
    1499A      2.110270  1500A      2.110625  1501A      2.113480  
    1502A      2.114764  1503A      2.118452  1504A      2.118980  
    1505A      2.119943  1506A      2.121735  1507A      2.122356  
    1508A      2.123962  1509A      2.125511  1510A      2.128776  
    1511A      2.130281  1512A      2.131431  1513A      2.135168  
    1514A      2.136862  1515A      2.140549  1516A      2.141076  
    1517A      2.142388  1518A      2.144751  1519A      2.147439  
    1520A      2.147591  1521A      2.152578  1522A      2.152901  
    1523A      2.155818  1524A      2.157599  1525A      2.158469  
    1526A      2.160447  1527A      2.161973  1528A      2.163854  
    1529A      2.164629  1530A      2.168081  1531A      2.169313  
    1532A      2.172903  1533A      2.175086  1534A      2.175204  
    1535A      2.176929  1536A      2.177803  1537A      2.181986  
    1538A      2.182726  1539A      2.184792  1540A      2.185982  
    1541A      2.187205  1542A      2.188643  1543A      2.191595  
    1544A      2.192454  1545A      2.196452  1546A      2.196602  
    1547A      2.199663  1548A      2.199823  1549A      2.202350  
    1550A      2.205278  1551A      2.205964  1552A      2.208125  
    1553A      2.208970  1554A      2.212439  1555A      2.213752  
    1556A      2.214564  1557A      2.216390  1558A      2.218063  
    1559A      2.220880  1560A      2.223147  1561A      2.224107  
    1562A      2.224591  1563A      2.226503  1564A      2.227220  
    1565A      2.228715  1566A      2.234640  1567A      2.236002  
    1568A      2.236509  1569A      2.239210  1570A      2.241030  
    1571A      2.243033  1572A      2.244759  1573A      2.246139  
    1574A      2.248141  1575A      2.249243  1576A      2.255573  
    1577A      2.257901  1578A      2.258624  1579A      2.259852  
    1580A      2.262309  1581A      2.263526  1582A      2.265159  
    1583A      2.267694  1584A      2.269164  1585A      2.271697  
    1586A      2.273105  1587A      2.273884  1588A      2.276201  
    1589A      2.276765  1590A      2.281388  1591A      2.283932  
    1592A      2.285158  1593A      2.285287  1594A      2.287842  
    1595A      2.291867  1596A      2.292518  1597A      2.292958  
    1598A      2.293982  1599A      2.297171  1600A      2.298097  
    1601A      2.301135  1602A      2.303735  1603A      2.304740  
    1604A      2.306702  1605A      2.308167  1606A      2.309495  
    1607A      2.312173  1608A      2.316870  1609A      2.317281  
    1610A      2.319728  1611A      2.321733  1612A      2.323867  
    1613A      2.326760  1614A      2.330030  1615A      2.332974  
    1616A      2.334985  1617A      2.335854  1618A      2.338529  
    1619A      2.340631  1620A      2.341090  1621A      2.343608  
    1622A      2.344160  1623A      2.346117  1624A      2.346503  
    1625A      2.350124  1626A      2.351792  1627A      2.354499  
    1628A      2.356515  1629A      2.357921  1630A      2.360584  
    1631A      2.364532  1632A      2.365277  1633A      2.367790  
    1634A      2.370799  1635A      2.371581  1636A      2.371830  
    1637A      2.374827  1638A      2.377419  1639A      2.378833  
    1640A      2.382381  1641A      2.387182  1642A      2.389801  
    1643A      2.391596  1644A      2.395843  1645A      2.397488  
    1646A      2.398766  1647A      2.399817  1648A      2.402252  
    1649A      2.404228  1650A      2.404797  1651A      2.406835  
    1652A      2.409986  1653A      2.412299  1654A      2.413387  
    1655A      2.419223  1656A      2.420043  1657A      2.422116  
    1658A      2.423773  1659A      2.424371  1660A      2.427112  
    1661A      2.429101  1662A      2.430939  1663A      2.433952  
    1664A      2.435537  1665A      2.437702  1666A      2.438220  
    1667A      2.441575  1668A      2.442521  1669A      2.444382  
    1670A      2.446632  1671A      2.448208  1672A      2.449173  
    1673A      2.453946  1674A      2.456444  1675A      2.456838  
    1676A      2.459273  1677A      2.462001  1678A      2.464125  
    1679A      2.465432  1680A      2.466878  1681A      2.468391  
    1682A      2.470353  1683A      2.472050  1684A      2.474089  
    1685A      2.477248  1686A      2.478051  1687A      2.478311  
    1688A      2.480803  1689A      2.482247  1690A      2.486119  
    1691A      2.487111  1692A      2.490534  1693A      2.494210  
    1694A      2.495579  1695A      2.497445  1696A      2.497928  
    1697A      2.503825  1698A      2.503948  1699A      2.506821  
    1700A      2.507689  1701A      2.509991  1702A      2.511518  
    1703A      2.512793  1704A      2.517767  1705A      2.520336  
    1706A      2.522120  1707A      2.526190  1708A      2.528000  
    1709A      2.528685  1710A      2.532133  1711A      2.533356  
    1712A      2.535272  1713A      2.536708  1714A      2.539877  
    1715A      2.541956  1716A      2.543917  1717A      2.548655  
    1718A      2.548918  1719A      2.550435  1720A      2.551155  
    1721A      2.551683  1722A      2.553076  1723A      2.557351  
    1724A      2.558617  1725A      2.562386  1726A      2.563699  
    1727A      2.565864  1728A      2.567090  1729A      2.569861  
    1730A      2.570656  1731A      2.573110  1732A      2.573873  
    1733A      2.575926  1734A      2.578941  1735A      2.579648  
    1736A      2.581394  1737A      2.582447  1738A      2.583790  
    1739A      2.586008  1740A      2.587511  1741A      2.589777  
    1742A      2.591852  1743A      2.594212  1744A      2.595350  
    1745A      2.598293  1746A      2.598809  1747A      2.599545  
    1748A      2.601257  1749A      2.601933  1750A      2.602797  
    1751A      2.604131  1752A      2.605963  1753A      2.610067  
    1754A      2.610559  1755A      2.614575  1756A      2.618285  
    1757A      2.619306  1758A      2.621660  1759A      2.622020  
    1760A      2.623979  1761A      2.627664  1762A      2.629133  
    1763A      2.629513  1764A      2.629790  1765A      2.636897  
    1766A      2.637896  1767A      2.639495  1768A      2.640168  
    1769A      2.641766  1770A      2.642084  1771A      2.642461  
    1772A      2.646013  1773A      2.646623  1774A      2.650200  
    1775A      2.651366  1776A      2.653060  1777A      2.653462  
    1778A      2.657432  1779A      2.659857  1780A      2.660922  
    1781A      2.663678  1782A      2.667834  1783A      2.668814  
    1784A      2.668984  1785A      2.670552  1786A      2.673437  
    1787A      2.674553  1788A      2.677243  1789A      2.677977  
    1790A      2.681061  1791A      2.682006  1792A      2.684373  
    1793A      2.685455  1794A      2.686859  1795A      2.689864  
    1796A      2.693682  1797A      2.694864  1798A      2.696962  
    1799A      2.698570  1800A      2.702549  1801A      2.703991  
    1802A      2.705256  1803A      2.705640  1804A      2.707434  
    1805A      2.709818  1806A      2.711124  1807A      2.712933  
    1808A      2.714784  1809A      2.720258  1810A      2.721127  
    1811A      2.723043  1812A      2.724671  1813A      2.725764  
    1814A      2.728358  1815A      2.732428  1816A      2.735951  
    1817A      2.736572  1818A      2.737626  1819A      2.740140  
    1820A      2.740738  1821A      2.743016  1822A      2.746045  
    1823A      2.747555  1824A      2.749407  1825A      2.750319  
    1826A      2.751443  1827A      2.753338  1828A      2.754907  
    1829A      2.758033  1830A      2.761574  1831A      2.762460  
    1832A      2.768474  1833A      2.769528  1834A      2.771398  
    1835A      2.772644  1836A      2.776465  1837A      2.777358  
    1838A      2.781084  1839A      2.781611  1840A      2.782850  
    1841A      2.787423  1842A      2.792263  1843A      2.793191  
    1844A      2.795732  1845A      2.796591  1846A      2.797250  
    1847A      2.798382  1848A      2.798593  1849A      2.802721  
    1850A      2.805665  1851A      2.806194  1852A      2.809671  
    1853A      2.811440  1854A      2.813513  1855A      2.816262  
    1856A      2.819756  1857A      2.822497  1858A      2.823433  
    1859A      2.826234  1860A      2.827193  1861A      2.829018  
    1862A      2.833947  1863A      2.834747  1864A      2.836665  
    1865A      2.837642  1866A      2.838422  1867A      2.841239  
    1868A      2.844019  1869A      2.847453  1870A      2.851002  
    1871A      2.852415  1872A      2.854199  1873A      2.858295  
    1874A      2.858794  1875A      2.860984  1876A      2.863877  
    1877A      2.865145  1878A      2.868165  1879A      2.870203  
    1880A      2.871089  1881A      2.876148  1882A      2.877647  
    1883A      2.879914  1884A      2.881722  1885A      2.883741  
    1886A      2.885863  1887A      2.887038  1888A      2.893214  
    1889A      2.895302  1890A      2.897767  1891A      2.899236  
    1892A      2.903576  1893A      2.905369  1894A      2.906051  
    1895A      2.910274  1896A      2.913302  1897A      2.913937  
    1898A      2.916220  1899A      2.918125  1900A      2.919628  
    1901A      2.923281  1902A      2.923360  1903A      2.926775  
    1904A      2.930212  1905A      2.932997  1906A      2.933664  
    1907A      2.938330  1908A      2.938436  1909A      2.942799  
    1910A      2.942865  1911A      2.946703  1912A      2.950579  
    1913A      2.951099  1914A      2.953023  1915A      2.954393  
    1916A      2.960166  1917A      2.964955  1918A      2.967005  
    1919A      2.967614  1920A      2.968698  1921A      2.972183  
    1922A      2.972554  1923A      2.978576  1924A      2.979806  
    1925A      2.984254  1926A      2.985371  1927A      2.989661  
    1928A      2.993282  1929A      2.994596  1930A      2.996455  
    1931A      2.999386  1932A      2.999956  1933A      3.000626  
    1934A      3.003093  1935A      3.007051  1936A      3.008056  
    1937A      3.012778  1938A      3.014579  1939A      3.016036  
    1940A      3.018735  1941A      3.024805  1942A      3.027807  
    1943A      3.033520  1944A      3.039742  1945A      3.040487  
    1946A      3.042158  1947A      3.043662  1948A      3.044149  
    1949A      3.049624  1950A      3.050142  1951A      3.053447  
    1952A      3.058055  1953A      3.059012  1954A      3.060223  
    1955A      3.064117  1956A      3.068660  1957A      3.069706  
    1958A      3.074592  1959A      3.076061  1960A      3.079575  
    1961A      3.081265  1962A      3.086269  1963A      3.087360  
    1964A      3.091154  1965A      3.092665  1966A      3.101258  
    1967A      3.103704  1968A      3.105945  1969A      3.108599  
    1970A      3.110514  1971A      3.112904  1972A      3.117323  
    1973A      3.123217  1974A      3.127218  1975A      3.128170  
    1976A      3.130149  1977A      3.135964  1978A      3.138937  
    1979A      3.140384  1980A      3.144703  1981A      3.148081  
    1982A      3.151114  1983A      3.151812  1984A      3.154148  
    1985A      3.163121  1986A      3.166900  1987A      3.172079  
    1988A      3.173176  1989A      3.179256  1990A      3.182662  
    1991A      3.183376  1992A      3.183591  1993A      3.184110  
    1994A      3.188959  1995A      3.189292  1996A      3.193652  
    1997A      3.203114  1998A      3.204201  1999A      3.207791  
    2000A      3.215164  2001A      3.216198  2002A      3.219195  
    2003A      3.220107  2004A      3.224589  2005A      3.228322  
    2006A      3.232494  2007A      3.233999  2008A      3.238941  
    2009A      3.241917  2010A      3.242115  2011A      3.246506  
    2012A      3.249324  2013A      3.252478  2014A      3.253565  
    2015A      3.259387  2016A      3.262081  2017A      3.266275  
    2018A      3.274341  2019A      3.281458  2020A      3.282455  
    2021A      3.289145  2022A      3.293954  2023A      3.294909  
    2024A      3.302120  2025A      3.305897  2026A      3.306412  
    2027A      3.314144  2028A      3.314634  2029A      3.318735  
    2030A      3.321080  2031A      3.322129  2032A      3.327456  
    2033A      3.338828  2034A      3.344508  2035A      3.346728  
    2036A      3.351961  2037A      3.353546  2038A      3.353789  
    2039A      3.358548  2040A      3.366887  2041A      3.369420  
    2042A      3.370641  2043A      3.378753  2044A      3.381376  
    2045A      3.387200  2046A      3.388843  2047A      3.390888  
    2048A      3.400914  2049A      3.402031  2050A      3.403128  
    2051A      3.410086  2052A      3.413102  2053A      3.415786  
    2054A      3.419961  2055A      3.427330  2056A      3.431422  
    2057A      3.434588  2058A      3.439324  2059A      3.444798  
    2060A      3.447192  2061A      3.448221  2062A      3.457273  
    2063A      3.457590  2064A      3.457780  2065A      3.460106  
    2066A      3.465642  2067A      3.466016  2068A      3.473699  
    2069A      3.476325  2070A      3.478532  2071A      3.481406  
    2072A      3.483601  2073A      3.484195  2074A      3.487808  
    2075A      3.510537  2076A      3.515857  2077A      3.517124  
    2078A      3.517570  2079A      3.534914  2080A      3.535375  
    2081A      3.537269  2082A      3.540183  2083A      3.544638  
    2084A      3.549219  2085A      3.549451  2086A      3.555502  
    2087A      3.556682  2088A      3.558820  2089A      3.566287  
    2090A      3.570660  2091A      3.571247  2092A      3.581012  
    2093A      3.584462  2094A      3.587159  2095A      3.592718  
    2096A      3.600310  2097A      3.608539  2098A      3.616244  
    2099A      3.616783  2100A      3.620391  2101A      3.621090  
    2102A      3.631015  2103A      3.639570  2104A      3.639775  
    2105A      3.644775  2106A      3.651782  2107A      3.653438  
    2108A      3.657171  2109A      3.659837  2110A      3.665772  
    2111A      3.671760  2112A      3.675880  2113A      3.679549  
    2114A      3.684245  2115A      3.689970  2116A      3.695195  
    2117A      3.708973  2118A      3.709299  2119A      3.712943  
    2120A      3.714408  2121A      3.717496  2122A      3.723528  
    2123A      3.726350  2124A      3.728862  2125A      3.735014  
    2126A      3.740365  2127A      3.741261  2128A      3.744191  
    2129A      3.749507  2130A      3.755473  2131A      3.757345  
    2132A      3.762449  2133A      3.767737  2134A      3.770249  
    2135A      3.772935  2136A      3.777922  2137A      3.780860  
    2138A      3.783700  2139A      3.789092  2140A      3.791653  
    2141A      3.796544  2142A      3.797707  2143A      3.800075  
    2144A      3.806986  2145A      3.811084  2146A      3.817471  
    2147A      3.817802  2148A      3.822153  2149A      3.827701  
    2150A      3.829367  2151A      3.830051  2152A      3.836292  
    2153A      3.842879  2154A      3.852393  2155A      3.855772  
    2156A      3.861018  2157A      3.865086  2158A      3.867540  
    2159A      3.872474  2160A      3.873231  2161A      3.874267  
    2162A      3.877401  2163A      3.877756  2164A      3.890054  
    2165A      3.893346  2166A      3.893821  2167A      3.898024  
    2168A      3.899276  2169A      3.911316  2170A      3.915054  
    2171A      3.918570  2172A      3.919464  2173A      3.932153  
    2174A      3.932349  2175A      3.944770  2176A      3.945985  
    2177A      3.951340  2178A      3.953987  2179A      3.959862  
    2180A      3.965085  2181A      3.965605  2182A      3.970199  
    2183A      3.976752  2184A      3.978355  2185A      3.983141  
    2186A      3.985844  2187A      3.989992  2188A      3.992901  
    2189A      3.995706  2190A      3.996171  2191A      4.000805  
    2192A      4.003966  2193A      4.004738  2194A      4.015501  
    2195A      4.015814  2196A      4.021825  2197A      4.032419  
    2198A      4.035240  2199A      4.035849  2200A      4.044573  
    2201A      4.048309  2202A      4.053340  2203A      4.053973  
    2204A      4.062448  2205A      4.063294  2206A      4.066338  
    2207A      4.067390  2208A      4.079973  2209A      4.087072  
    2210A      4.088722  2211A      4.089941  2212A      4.097936  
    2213A      4.102208  2214A      4.103326  2215A      4.109972  
    2216A      4.112064  2217A      4.117461  2218A      4.126420  
    2219A      4.129918  2220A      4.130573  2221A      4.135135  
    2222A      4.136558  2223A      4.142874  2224A      4.144115  
    2225A      4.147413  2226A      4.151382  2227A      4.152980  
    2228A      4.156460  2229A      4.158025  2230A      4.160122  
    2231A      4.169314  2232A      4.171705  2233A      4.174166  
    2234A      4.177193  2235A      4.179060  2236A      4.184439  
    2237A      4.192493  2238A      4.199795  2239A      4.202907  
    2240A      4.207901  2241A      4.208332  2242A      4.210480  
    2243A      4.212138  2244A      4.215301  2245A      4.216377  
    2246A      4.219000  2247A      4.223399  2248A      4.226299  
    2249A      4.232084  2250A      4.238860  2251A      4.241495  
    2252A      4.242390  2253A      4.247088  2254A      4.248267  
    2255A      4.251488  2256A      4.254329  2257A      4.255424  
    2258A      4.258326  2259A      4.266559  2260A      4.268273  
    2261A      4.269516  2262A      4.269917  2263A      4.275806  
    2264A      4.280922  2265A      4.282691  2266A      4.284371  
    2267A      4.286373  2268A      4.289447  2269A      4.291921  
    2270A      4.292250  2271A      4.292785  2272A      4.297647  
    2273A      4.304232  2274A      4.308313  2275A      4.310542  
    2276A      4.311323  2277A      4.312100  2278A      4.316302  
    2279A      4.317048  2280A      4.319022  2281A      4.322825  
    2282A      4.326668  2283A      4.327374  2284A      4.330408  
    2285A      4.333399  2286A      4.336577  2287A      4.338338  
    2288A      4.340243  2289A      4.341841  2290A      4.347463  
    2291A      4.349993  2292A      4.351516  2293A      4.353196  
    2294A      4.358452  2295A      4.360504  2296A      4.364253  
    2297A      4.364805  2298A      4.366652  2299A      4.369809  
    2300A      4.373097  2301A      4.376928  2302A      4.379061  
    2303A      4.380670  2304A      4.384488  2305A      4.385280  
    2306A      4.385949  2307A      4.391082  2308A      4.395149  
    2309A      4.398008  2310A      4.399272  2311A      4.402364  
    2312A      4.403283  2313A      4.404813  2314A      4.413195  
    2315A      4.414394  2316A      4.415820  2317A      4.417719  
    2318A      4.419707  2319A      4.419846  2320A      4.424469  
    2321A      4.425510  2322A      4.427389  2323A      4.431496  
    2324A      4.432045  2325A      4.436963  2326A      4.437679  
    2327A      4.440545  2328A      4.441004  2329A      4.444690  
    2330A      4.448907  2331A      4.450357  2332A      4.450553  
    2333A      4.454723  2334A      4.457929  2335A      4.460310  
    2336A      4.461473  2337A      4.465980  2338A      4.467031  
    2339A      4.470482  2340A      4.472427  2341A      4.480001  
    2342A      4.481478  2343A      4.482333  2344A      4.485835  
    2345A      4.486101  2346A      4.487949  2347A      4.490336  
    2348A      4.490992  2349A      4.492269  2350A      4.495401  
    2351A      4.495934  2352A      4.499856  2353A      4.504158  
    2354A      4.504874  2355A      4.505857  2356A      4.506201  
    2357A      4.515355  2358A      4.515777  2359A      4.519500  
    2360A      4.520439  2361A      4.521849  2362A      4.524514  
    2363A      4.525919  2364A      4.526221  2365A      4.528050  
    2366A      4.535244  2367A      4.537363  2368A      4.539602  
    2369A      4.540847  2370A      4.542505  2371A      4.544607  
    2372A      4.550754  2373A      4.551422  2374A      4.552786  
    2375A      4.555173  2376A      4.555744  2377A      4.560266  
    2378A      4.562509  2379A      4.565006  2380A      4.567818  
    2381A      4.569899  2382A      4.573091  2383A      4.574830  
    2384A      4.575303  2385A      4.576795  2386A      4.579785  
    2387A      4.582446  2388A      4.587849  2389A      4.591056  
    2390A      4.592161  2391A      4.594699  2392A      4.596004  
    2393A      4.597816  2394A      4.599644  2395A      4.603340  
    2396A      4.607922  2397A      4.609703  2398A      4.610687  
    2399A      4.611043  2400A      4.616810  2401A      4.619870  
    2402A      4.621307  2403A      4.622295  2404A      4.627372  
    2405A      4.627850  2406A      4.631433  2407A      4.632774  
    2408A      4.637261  2409A      4.640350  2410A      4.643455  
    2411A      4.644193  2412A      4.646166  2413A      4.650106  
    2414A      4.653726  2415A      4.654945  2416A      4.658929  
    2417A      4.660612  2418A      4.664950  2419A      4.666254  
    2420A      4.668133  2421A      4.671787  2422A      4.672660  
    2423A      4.674796  2424A      4.677309  2425A      4.679276  
    2426A      4.680899  2427A      4.683644  2428A      4.688083  
    2429A      4.692116  2430A      4.695660  2431A      4.697072  
    2432A      4.698812  2433A      4.700068  2434A      4.704642  
    2435A      4.705951  2436A      4.708979  2437A      4.710880  
    2438A      4.711048  2439A      4.712883  2440A      4.714848  
    2441A      4.719026  2442A      4.719858  2443A      4.726515  
    2444A      4.729791  2445A      4.730279  2446A      4.733854  
    2447A      4.734254  2448A      4.737481  2449A      4.741119  
    2450A      4.745640  2451A      4.746312  2452A      4.748021  
    2453A      4.748560  2454A      4.756327  2455A      4.756910  
    2456A      4.757784  2457A      4.761628  2458A      4.763520  
    2459A      4.771735  2460A      4.773026  2461A      4.774768  
    2462A      4.776357  2463A      4.778866  2464A      4.780318  
    2465A      4.783399  2466A      4.784278  2467A      4.786395  
    2468A      4.792097  2469A      4.792835  2470A      4.796041  
    2471A      4.799322  2472A      4.800557  2473A      4.804058  
    2474A      4.806535  2475A      4.809040  2476A      4.810302  
    2477A      4.810709  2478A      4.814484  2479A      4.815992  
    2480A      4.816413  2481A      4.819853  2482A      4.823849  
    2483A      4.824921  2484A      4.827122  2485A      4.828549  
    2486A      4.831766  2487A      4.832088  2488A      4.835129  
    2489A      4.836599  2490A      4.840652  2491A      4.843006  
    2492A      4.848150  2493A      4.848751  2494A      4.851125  
    2495A      4.851870  2496A      4.853120  2497A      4.857889  
    2498A      4.858250  2499A      4.864534  2500A      4.865809  
    2501A      4.866534  2502A      4.867959  2503A      4.870132  
    2504A      4.875692  2505A      4.877670  2506A      4.880522  
    2507A      4.885372  2508A      4.887821  2509A      4.888368  
    2510A      4.892339  2511A      4.893739  2512A      4.896220  
    2513A      4.896384  2514A      4.898731  2515A      4.902221  
    2516A      4.904606  2517A      4.910376  2518A      4.912047  
    2519A      4.913991  2520A      4.919419  2521A      4.925380  
    2522A      4.925682  2523A      4.930717  2524A      4.931317  
    2525A      4.934035  2526A      4.937368  2527A      4.940463  
    2528A      4.941979  2529A      4.943374  2530A      4.945400  
    2531A      4.949021  2532A      4.949087  2533A      4.951713  
    2534A      4.952192  2535A      4.957911  2536A      4.964621  
    2537A      4.965031  2538A      4.966954  2539A      4.968224  
    2540A      4.968590  2541A      4.972464  2542A      4.973564  
    2543A      4.978105  2544A      4.980147  2545A      4.980649  
    2546A      4.986621  2547A      4.993278  2548A      4.994686  
    2549A      4.996444  2550A      4.997031  2551A      4.998205  
    2552A      5.004642  2553A      5.006076  2554A      5.006270  
    2555A      5.011157  2556A      5.015039  2557A      5.017522  
    2558A      5.019064  2559A      5.023542  2560A      5.024637  
    2561A      5.028245  2562A      5.031593  2563A      5.035233  
    2564A      5.036057  2565A      5.041189  2566A      5.043088  
    2567A      5.045129  2568A      5.051530  2569A      5.054602  
    2570A      5.055090  2571A      5.057381  2572A      5.060287  
    2573A      5.061599  2574A      5.066610  2575A      5.067511  
    2576A      5.069192  2577A      5.071091  2578A      5.075933  
    2579A      5.080053  2580A      5.081007  2581A      5.083554  
    2582A      5.086960  2583A      5.088016  2584A      5.092303  
    2585A      5.093111  2586A      5.098147  2587A      5.099304  
    2588A      5.102280  2589A      5.103518  2590A      5.103965  
    2591A      5.107422  2592A      5.110304  2593A      5.110654  
    2594A      5.113799  2595A      5.114555  2596A      5.119943  
    2597A      5.121256  2598A      5.124441  2599A      5.125563  
    2600A      5.126294  2601A      5.126966  2602A      5.129706  
    2603A      5.134958  2604A      5.135631  2605A      5.139064  
    2606A      5.139435  2607A      5.144512  2608A      5.145972  
    2609A      5.146285  2610A      5.149534  2611A      5.149696  
    2612A      5.150589  2613A      5.151942  2614A      5.156459  
    2615A      5.159617  2616A      5.160941  2617A      5.163522  
    2618A      5.164683  2619A      5.165988  2620A      5.168793  
    2621A      5.171055  2622A      5.172496  2623A      5.172916  
    2624A      5.175616  2625A      5.181061  2626A      5.184293  
    2627A      5.187994  2628A      5.188492  2629A      5.189761  
    2630A      5.193944  2631A      5.194347  2632A      5.197501  
    2633A      5.198279  2634A      5.200793  2635A      5.201611  
    2636A      5.202089  2637A      5.209089  2638A      5.209831  
    2639A      5.211878  2640A      5.212849  2641A      5.215031  
    2642A      5.215391  2643A      5.217001  2644A      5.223034  
    2645A      5.225259  2646A      5.228197  2647A      5.231011  
    2648A      5.233619  2649A      5.236435  2650A      5.238208  
    2651A      5.241679  2652A      5.244730  2653A      5.246742  
    2654A      5.248443  2655A      5.249749  2656A      5.251834  
    2657A      5.253241  2658A      5.254934  2659A      5.259974  
    2660A      5.261421  2661A      5.263705  2662A      5.265543  
    2663A      5.270511  2664A      5.271666  2665A      5.273816  
    2666A      5.276879  2667A      5.277378  2668A      5.281641  
    2669A      5.283860  2670A      5.286408  2671A      5.288178  
    2672A      5.290100  2673A      5.291289  2674A      5.293836  
    2675A      5.294823  2676A      5.296205  2677A      5.302095  
    2678A      5.304645  2679A      5.309327  2680A      5.309925  
    2681A      5.313063  2682A      5.318430  2683A      5.318926  
    2684A      5.322012  2685A      5.323907  2686A      5.324899  
    2687A      5.332142  2688A      5.332503  2689A      5.335200  
    2690A      5.335944  2691A      5.344779  2692A      5.348526  
    2693A      5.349736  2694A      5.350011  2695A      5.354265  
    2696A      5.354431  2697A      5.360308  2698A      5.360998  
    2699A      5.365573  2700A      5.368404  2701A      5.371254  
    2702A      5.375838  2703A      5.376335  2704A      5.377307  
    2705A      5.382950  2706A      5.383188  2707A      5.386449  
    2708A      5.392560  2709A      5.393868  2710A      5.394998  
    2711A      5.400643  2712A      5.408041  2713A      5.410749  
    2714A      5.411277  2715A      5.419017  2716A      5.423926  
    2717A      5.426134  2718A      5.430339  2719A      5.431834  
    2720A      5.432569  2721A      5.439811  2722A      5.440573  
    2723A      5.443941  2724A      5.449741  2725A      5.450516  
    2726A      5.451598  2727A      5.453111  2728A      5.459125  
    2729A      5.461347  2730A      5.464560  2731A      5.464942  
    2732A      5.468545  2733A      5.473470  2734A      5.475369  
    2735A      5.478245  2736A      5.480618  2737A      5.485868  
    2738A      5.488238  2739A      5.489252  2740A      5.492519  
    2741A      5.494378  2742A      5.495483  2743A      5.496964  
    2744A      5.502597  2745A      5.503344  2746A      5.506978  
    2747A      5.509088  2748A      5.512836  2749A      5.515024  
    2750A      5.516825  2751A      5.520093  2752A      5.522075  
    2753A      5.524174  2754A      5.524742  2755A      5.526536  
    2756A      5.527383  2757A      5.531076  2758A      5.531644  
    2759A      5.535972  2760A      5.537198  2761A      5.540621  
    2762A      5.544144  2763A      5.544537  2764A      5.548176  
    2765A      5.549921  2766A      5.553028  2767A      5.553905  
    2768A      5.554946  2769A      5.555960  2770A      5.558897  
    2771A      5.566592  2772A      5.570129  2773A      5.571813  
    2774A      5.580337  2775A      5.583250  2776A      5.583683  
    2777A      5.586752  2778A      5.592116  2779A      5.592344  
    2780A      5.596236  2781A      5.597644  2782A      5.607285  
    2783A      5.610022  2784A      5.613152  2785A      5.616716  
    2786A      5.621628  2787A      5.625439  2788A      5.629166  
    2789A      5.630527  2790A      5.637919  2791A      5.640220  
    2792A      5.641736  2793A      5.645090  2794A      5.646235  
    2795A      5.646739  2796A      5.648955  2797A      5.652395  
    2798A      5.655110  2799A      5.655840  2800A      5.657876  
    2801A      5.661078  2802A      5.664579  2803A      5.665206  
    2804A      5.667734  2805A      5.670954  2806A      5.673691  
    2807A      5.675187  2808A      5.677221  2809A      5.680537  
    2810A      5.684529  2811A      5.689070  2812A      5.690998  
    2813A      5.691103  2814A      5.692563  2815A      5.697118  
    2816A      5.700578  2817A      5.703700  2818A      5.706519  
    2819A      5.707357  2820A      5.710798  2821A      5.713383  
    2822A      5.715448  2823A      5.720107  2824A      5.721067  
    2825A      5.725476  2826A      5.726719  2827A      5.732700  
    2828A      5.734217  2829A      5.737084  2830A      5.738805  
    2831A      5.741585  2832A      5.746175  2833A      5.747803  
    2834A      5.750239  2835A      5.751189  2836A      5.755764  
    2837A      5.757280  2838A      5.766609  2839A      5.773060  
    2840A      5.775038  2841A      5.775313  2842A      5.779353  
    2843A      5.781301  2844A      5.783377  2845A      5.784233  
    2846A      5.786832  2847A      5.789700  2848A      5.792653  
    2849A      5.795542  2850A      5.795988  2851A      5.797015  
    2852A      5.799217  2853A      5.801005  2854A      5.803418  
    2855A      5.814535  2856A      5.816162  2857A      5.817763  
    2858A      5.823471  2859A      5.825689  2860A      5.828195  
    2861A      5.830516  2862A      5.832423  2863A      5.836957  
    2864A      5.837243  2865A      5.840978  2866A      5.842746  
    2867A      5.846714  2868A      5.847932  2869A      5.855031  
    2870A      5.861325  2871A      5.863393  2872A      5.867322  
    2873A      5.867622  2874A      5.872939  2875A      5.874408  
    2876A      5.874963  2877A      5.879460  2878A      5.880706  
    2879A      5.881998  2880A      5.886485  2881A      5.887409  
    2882A      5.892051  2883A      5.892429  2884A      5.896544  
    2885A      5.897351  2886A      5.902210  2887A      5.907022  
    2888A      5.912950  2889A      5.917213  2890A      5.920467  
    2891A      5.925073  2892A      5.926101  2893A      5.930592  
    2894A      5.931578  2895A      5.936128  2896A      5.936758  
    2897A      5.941266  2898A      5.941947  2899A      5.944080  
    2900A      5.944786  2901A      5.949124  2902A      5.952302  
    2903A      5.955805  2904A      5.961432  2905A      5.962211  
    2906A      5.964533  2907A      5.968904  2908A      5.971305  
    2909A      5.975532  2910A      5.976539  2911A      5.978185  
    2912A      5.984356  2913A      5.985908  2914A      5.987710  
    2915A      5.993791  2916A      5.996181  2917A      5.998160  
    2918A      6.002316  2919A      6.004934  2920A      6.006160  
    2921A      6.013710  2922A      6.013962  2923A      6.017598  
    2924A      6.019621  2925A      6.025292  2926A      6.029584  
    2927A      6.029926  2928A      6.032754  2929A      6.036265  
    2930A      6.038282  2931A      6.045053  2932A      6.047091  
    2933A      6.050563  2934A      6.051976  2935A      6.054612  
    2936A      6.056729  2937A      6.062274  2938A      6.063322  
    2939A      6.066095  2940A      6.066827  2941A      6.073037  
    2942A      6.077017  2943A      6.079562  2944A      6.082962  
    2945A      6.086643  2946A      6.089768  2947A      6.093298  
    2948A      6.093593  2949A      6.097233  2950A      6.102216  
    2951A      6.102833  2952A      6.104381  2953A      6.109800  
    2954A      6.115846  2955A      6.116222  2956A      6.119979  
    2957A      6.124137  2958A      6.127374  2959A      6.130974  
    2960A      6.134531  2961A      6.138450  2962A      6.143261  
    2963A      6.146761  2964A      6.147144  2965A      6.148857  
    2966A      6.150788  2967A      6.152322  2968A      6.153688  
    2969A      6.163554  2970A      6.164493  2971A      6.173420  
    2972A      6.173666  2973A      6.177256  2974A      6.178893  
    2975A      6.184631  2976A      6.188795  2977A      6.193741  
    2978A      6.198989  2979A      6.202319  2980A      6.209218  
    2981A      6.213942  2982A      6.214474  2983A      6.219911  
    2984A      6.221326  2985A      6.224548  2986A      6.227052  
    2987A      6.227464  2988A      6.232206  2989A      6.237435  
    2990A      6.240213  2991A      6.245664  2992A      6.247667  
    2993A      6.248908  2994A      6.252614  2995A      6.254664  
    2996A      6.258826  2997A      6.262654  2998A      6.263225  
    2999A      6.266744  3000A      6.274303  3001A      6.281218  
    3002A      6.284273  3003A      6.287039  3004A      6.292864  
    3005A      6.294234  3006A      6.295075  3007A      6.299016  
    3008A      6.304471  3009A      6.307551  3010A      6.310775  
    3011A      6.323788  3012A      6.329908  3013A      6.330596  
    3014A      6.337367  3015A      6.341793  3016A      6.343110  
    3017A      6.344281  3018A      6.350733  3019A      6.351898  
    3020A      6.358551  3021A      6.363851  3022A      6.368218  
    3023A      6.374263  3024A      6.379039  3025A      6.385220  
    3026A      6.389690  3027A      6.395129  3028A      6.397286  
    3029A      6.401175  3030A      6.411077  3031A      6.418377  
    3032A      6.421308  3033A      6.421687  3034A      6.434257  
    3035A      6.437230  3036A      6.440870  3037A      6.443459  
    3038A      6.446458  3039A      6.451978  3040A      6.453709  
    3041A      6.458553  3042A      6.462754  3043A      6.463867  
    3044A      6.470025  3045A      6.481016  3046A      6.481695  
    3047A      6.487086  3048A      6.494971  3049A      6.503186  
    3050A      6.513607  3051A      6.516943  3052A      6.526589  
    3053A      6.537126  3054A      6.541998  3055A      6.553469  
    3056A      6.557654  3057A      6.568803  3058A      6.592100  
    3059A      6.598962  3060A      6.636461  3061A      6.637591  
    3062A      6.644937  3063A      6.649858  3064A      6.652513  
    3065A      6.656290  3066A      6.675564  3067A      6.676465  
    3068A      6.684462  3069A      6.693433  3070A      6.693909  
    3071A      6.695917  3072A      6.700620  3073A      6.703312  
    3074A      6.707457  3075A      6.724278  3076A      6.726795  
    3077A      6.732287  3078A      6.732744  3079A      6.736553  
    3080A      6.741816  3081A      6.744939  3082A      6.749658  
    3083A      6.760130  3084A      6.766356  3085A      6.774627  
    3086A      6.782074  3087A      6.786187  3088A      6.797996  
    3089A      6.804064  3090A      6.804666  3091A      6.808799  
    3092A      6.829060  3093A      6.835166  3094A      6.840669  
    3095A      6.843439  3096A      6.846126  3097A      6.855201  
    3098A      6.873739  3099A      6.889320  3100A      6.894900  
    3101A      6.916063  3102A      6.927227  3103A      6.935519  
    3104A      6.938967  3105A      6.940229  3106A      6.956503  
    3107A      6.958805  3108A      6.967529  3109A      6.973637  
    3110A      6.986730  3111A      6.995534  3112A      7.010931  
    3113A      7.022731  3114A      7.028236  3115A      7.042543  
    3116A      7.043197  3117A      7.065275  3118A      7.078168  
    3119A      7.085921  3120A      7.092695  3121A      7.113341  
    3122A      7.131718  3123A      7.134037  3124A      7.144343  
    3125A      7.155639  3126A      7.175416  3127A      7.186798  
    3128A      7.188919  3129A      7.199962  3130A      7.204566  
    3131A      7.216795  3132A      7.227830  3133A      7.229327  
    3134A      7.243902  3135A      7.250133  3136A      7.260327  
    3137A      7.263428  3138A      7.274127  3139A      7.279194  
    3140A      7.290183  3141A      7.307684  3142A      7.311492  
    3143A      7.323365  3144A      7.329512  3145A      7.339649  
    3146A      7.358106  3147A      7.366006  3148A      7.370600  
    3149A      7.377884  3150A      7.382055  3151A      7.382734  
    3152A      7.395576  3153A      7.398503  3154A      7.415806  
    3155A      7.419657  3156A      7.420650  3157A      7.422910  
    3158A      7.436405  3159A      7.447540  3160A      7.458034  
    3161A      7.479554  3162A      7.479894  3163A      7.492098  
    3164A      7.496063  3165A      7.507882  3166A      7.543025  
    3167A      7.552538  3168A      7.572055  3169A      7.576459  
    3170A      7.577941  3171A      7.587117  3172A      7.594487  
    3173A      7.608491  3174A      7.612985  3175A      7.619078  
    3176A      7.622717  3177A      7.641922  3178A      7.645250  
    3179A      7.658745  3180A      7.673975  3181A      7.676917  
    3182A      7.690124  3183A      7.697714  3184A      7.715951  
    3185A      7.718117  3186A      7.726482  3187A      7.731137  
    3188A      7.745325  3189A      7.747247  3190A      7.757429  
    3191A      7.767971  3192A      7.775557  3193A      7.781197  
    3194A      7.785441  3195A      7.802540  3196A      7.815665  
    3197A      7.817300  3198A      7.827651  3199A      7.849652  
    3200A      7.855924  3201A      7.865184  3202A      7.872892  
    3203A      7.883025  3204A      7.888103  3205A      7.889601  
    3206A      7.923352  3207A      7.923795  3208A      7.927418  
    3209A      7.933712  3210A      7.939145  3211A      7.949296  
    3212A      7.959300  3213A      7.962119  3214A      7.968963  
    3215A      7.981353  3216A      7.987869  3217A      8.008095  
    3218A      8.013927  3219A      8.016189  3220A      8.016678  
    3221A      8.041707  3222A      8.043138  3223A      8.072913  
    3224A      8.074228  3225A      8.086620  3226A      8.102253  
    3227A      8.106769  3228A      8.126055  3229A      8.141774  
    3230A      8.149139  3231A      8.185266  3232A      8.193753  
    3233A      8.205032  3234A      8.206907  3235A      8.227744  
    3236A      8.238088  3237A      8.258789  3238A      8.289811  
    3239A      8.304671  3240A      8.327255  3241A      8.331212  
    3242A      8.351150  3243A      8.363228  3244A      8.384067  
    3245A      8.395542  3246A      8.396211  3247A      8.423917  
    3248A      8.439189  3249A      8.448874  3250A      8.457175  
    3251A      8.472286  3252A      8.501328  3253A      8.513329  
    3254A      8.527792  3255A      8.545226  3256A      8.568178  
    3257A      8.587157  3258A      8.745150  3259A      8.763360  
    3260A      8.774674  3261A      8.801181  3262A      8.801754  
    3263A      8.805399  3264A      8.826279  3265A      8.841918  
    3266A      8.850573  3267A      8.862279  3268A      8.879267  
    3269A      8.897651  3270A      8.913824  3271A      8.935991  
    3272A      8.964304  3273A      9.071338  3274A      9.081157  
    3275A      9.098792  3276A      9.141778  3277A      9.145202  
    3278A      9.195486  3279A      9.256479  3280A      9.273963  
    3281A      9.283232  3282A      9.311735  3283A      9.322229  
    3284A      9.356356  3285A      9.401409  3286A      9.428610  
    3287A      9.438279  3288A      9.444761  3289A      9.447290  
    3290A      9.463258  3291A      9.478099  3292A      9.566090  
    3293A      9.617155  3294A      9.693062  3295A      9.810909  
    3296A      9.860945  3297A      9.886124  3298A      9.906499  
    3299A      9.935762  3300A      9.942111  3301A     10.001304  
    3302A     10.027631  3303A     10.057201  3304A     10.074311  
    3305A     10.090558  3306A     10.119917  3307A     10.148019  
    3308A     10.187434  3309A     10.187878  3310A     10.196121  
    3311A     10.203295  3312A     10.241787  3313A     10.277251  
    3314A     10.279814  3315A     10.347737  3316A     10.352935  
    3317A     10.388645  3318A     10.463598  3319A     10.469895  
    3320A     10.478256  3321A     10.488332  3322A     10.779564  
    3323A     10.828244  3324A     10.838022  3325A     10.843910  
    3326A     10.850257  3327A     10.883809  3328A     10.898688  
    3329A     10.943094  3330A     11.016627  3331A     11.129988  
    3332A     11.157640  3333A     11.220435  3334A     11.232675  
    3335A     11.238531  3336A     11.305985  3337A     11.318793  
    3338A     11.333024  3339A     11.374965  3340A     11.433257  
    3341A     11.501653  3342A     11.522054  3343A     11.700854  
    3344A     11.706379  3345A     11.738784  3346A     11.770372  
    3347A     11.785464  3348A     11.832786  3349A     11.944881  
    3350A     11.965299  3351A     11.988316  3352A     12.030326  
    3353A     12.058454  3354A     12.074175  3355A     12.089344  
    3356A     12.120064  3357A     12.140353  3358A     12.218445  
    3359A     12.240087  3360A     12.300908  3361A     12.388540  
    3362A     16.753109  3363A     17.200481  3364A     17.415479  
    3365A     17.871336  3366A     18.919588  3367A     19.100738  
    3368A     19.283044  3369A     20.871245  3370A     21.055316  
    3371A     21.165969  3372A     21.466903  3373A     22.487421  
    3374A     22.881548  3375A     22.912987  3376A     23.789441  
    3377A     23.955811  3378A     50.776590  3379A     50.883051  
    3380A     51.475854  3381A     51.626684  3382A     51.926596  
    3383A     52.419250  3384A     52.538337  3385A     54.261387  
    3386A     54.553446  3387A     54.821418  3388A     54.991609  
    3389A     55.326469  3390A     55.373915  3391A     55.515804  
    3392A     55.645552  3393A     55.862264  3394A     56.141001  
    3395A     56.175420  3396A     56.678364  3397A     57.261656  
    3398A     58.036603  3399A     58.112328  3400A     58.802214  
    3401A     59.010761  3402A     59.637484  3403A     60.017235  
    3404A     60.394146  3405A     60.534216  3406A     60.687492  
    3407A     60.756321  3408A     60.878774  3409A     60.911745  
    3410A     61.087303  3411A     61.138000  3412A     61.278358  
    3413A     61.321339  3414A     61.464403  3415A     61.612112  
    3416A     61.748651  3417A     62.493013  3418A     62.662468  
    3419A     63.093317  

    Final Occupation by Irrep:
              A 
    DOCC [    52 ]
    NA   [    52 ]
    NB   [    52 ]

  @DF-RHF Final Energy:  -674.67089048153139

   => Energetics <=

    Nuclear Repulsion Energy =            836.8830872626610926
    One-Electron Energy =               -2570.9210602191533326
    Two-Electron Energy =                1059.3670824749608528
    Total Energy =                       -674.6708904815313872

Computation Completed


Properties will be evaluated at   0.000000,   0.000000,   0.000000 [a0]

Properties computed using the SCF density matrix


 Multipole Moments:

 ------------------------------------------------------------------------------------
     Multipole            Electronic (a.u.)      Nuclear  (a.u.)        Total (a.u.)
 ------------------------------------------------------------------------------------

 L = 1.  Multiply by 2.5417464519 to convert [e a0] to [Debye]
 Dipole X            :        -47.3004109           47.2403186           -0.0600922
 Dipole Y            :         82.8134049          -83.0305255           -0.2171206
 Dipole Z            :          1.3499740           -1.3544535           -0.0044795
 Magnitude           :                                                    0.2253276

 ------------------------------------------------------------------------------------

*** tstop() called on atl1-1-02-004-3-1.pace.gatech.edu at Sat Jun 13 18:41:27 2026
Module time:
	user time   =   35070.15 seconds =     584.50 minutes
	system time =    2878.33 seconds =      47.97 minutes
	total time  =       6152 seconds =     102.53 minutes
Total time:
	user time   =   35070.15 seconds =     584.50 minutes
	system time =    2878.33 seconds =      47.97 minutes
	total time  =       6152 seconds =     102.53 minutes

*** tstart() called on atl1-1-02-004-3-1.pace.gatech.edu
*** at Sat Jun 13 18:41:27 2026


  //>>>>>>>>>>>>>>>>>>>>>>>>>>>>>>>>>>>//
  //               DFMP2               //
  //<<<<<<<<<<<<<<<<<<<<<<<<<<<<<<<<<<<//

   => Loading Basis Set <=

    Name: (AUG-CC-PVTZ AUX)
    Role: RIFIT
    Keyword: DF_BASIS_MP2
    atoms 1-42, 73-80, 82, 84-85, 87 entry C          line   148 file /storage/home/hcoda1/5/vlita3/.conda/envs/p4_qcml/share/psi4/basis/aug-cc-pvtz-ri.gbs 
    atoms 43-72, 89-92               entry H          line    30 file /storage/home/hcoda1/5/vlita3/.conda/envs/p4_qcml/share/psi4/basis/aug-cc-pvtz-ri.gbs 
    atoms 81, 83, 86, 88             entry N          line   206 file /storage/home/hcoda1/5/vlita3/.conda/envs/p4_qcml/share/psi4/basis/aug-cc-pvtz-ri.gbs 

	 --------------------------------------------------------
	                          DF-MP2                         
	      2nd-Order Density-Fitted Moller-Plesset Theory     
	              RMP2 Wavefunction,  10 Threads             
	                                                         
	        Rob Parrish, Justin Turney, Andy Simmonett,      
	           Ed Hohenstein, and C. David Sherrill          
	 --------------------------------------------------------

   => Auxiliary Basis Set <=

  Basis Set: (AUG-CC-PVTZ AUX)
    Blend: AUG-CC-PVTZ-RI
    Number of shells: 2100
    Number of basis functions: 7712
    Number of Cartesian functions: 9758
    Spherical Harmonics?: true
    Max angular momentum: 4

	 --------------------------------------------------------
	                 NBF =  3450, NAUX =  7712
	 --------------------------------------------------------
	   CLASS    FOCC     OCC    AOCC    AVIR     VIR    FVIR
	   PAIRS       0      52      52    3367    3367       0
	 --------------------------------------------------------

	-----------------------------------------------------------
	 ==================> DF-MP2 Energies <==================== 
	-----------------------------------------------------------
	 Reference Energy          =    -674.6708904815313872 [Eh]
	 Singles Energy            =      -0.0000000000000000 [Eh]
	 Same-Spin Energy          =      -0.7312260787191931 [Eh]
	 Opposite-Spin Energy      =      -2.2099967406641881 [Eh]
	 Correlation Energy        =      -2.9412228193833814 [Eh]
	 Total Energy              =    -677.6121133009147570 [Eh]
	-----------------------------------------------------------
	 ================> DF-SCS-MP2 Energies <================== 
	-----------------------------------------------------------
	 SCS Same-Spin Scale       =       0.3333333333333333 [-]
	 SCS Opposite-Spin Scale   =       1.2000000000000000 [-]
	 SCS Same-Spin Energy      =      -0.2437420262397310 [Eh]
	 SCS Opposite-Spin Energy  =      -2.6519960887970258 [Eh]
	 SCS Correlation Energy    =      -2.8957381150367567 [Eh]
	 SCS Total Energy          =    -677.5666285965681936 [Eh]
	-----------------------------------------------------------


*** tstop() called on atl1-1-02-004-3-1.pace.gatech.edu at Sat Jun 13 18:59:00 2026
Module time:
	user time   =    8308.91 seconds =     138.48 minutes
	system time =      85.63 seconds =       1.43 minutes
	total time  =       1053 seconds =      17.55 minutes
Total time:
	user time   =   43379.06 seconds =     722.98 minutes
	system time =    2963.96 seconds =      49.40 minutes
	total time  =       7205 seconds =     120.08 minutes

    Psi4 stopped on: Saturday, 13 June 2026 06:59PM
    Psi4 wall time for execution: 2:00:10.11

*** Psi4 exiting successfully. Buy a developer a beer!
