
    -----------------------------------------------------------------------
          Psi4: An Open-Source Ab Initio Electronic Structure Package
                               Psi4 1.9.1 release

                         Git: Rev {} zzzzzzz 


    D. G. A. Smith, L. A. Burns, A. C. Simmonett, R. M. Parrish,
    M. C. Schieber, R. Galvelis, P. Kraus, H. Kruse, R. Di Remigio,
    A. Alenaizan, A. M. James, S. Lehtola, J. P. Misiewicz, M. Scheurer,
    R. A. Shaw, J. B. Schriber, Y. Xie, Z. L. Glick, D. A. Sirianni,
    J. S. O'Brien, J. M. Waldrop, A. Kumar, E. G. Hohenstein,
    B. P. Pritchard, B. R. Brooks, H. F. Schaefer III, A. Yu. Sokolov,
    K. Patkowski, A. E. DePrince III, U. Bozkaya, R. A. King,
    F. A. Evangelista, J. M. Turney, T. D. Crawford, C. D. Sherrill,
    J. Chem. Phys. 152(18) 184108 (2020). https://doi.org/10.1063/5.0006002

                            Additional Code Authors
    E. T. Seidl, C. L. Janssen, E. F. Valeev, M. L. Leininger,
    J. F. Gonthier, R. M. Richard, H. R. McAlexander, M. Saitow, X. Wang,
    P. Verma, M. H. Lechner, A. Jiang, S. Behnle, A. G. Heide,
    M. F. Herbst, and D. L. Poole

             Previous Authors, Complete List of Code Contributors,
                       and Citations for Specific Modules
    https://github.com/psi4/psi4/blob/master/codemeta.json
    https://github.com/psi4/psi4/graphs/contributors
    http://psicode.org/psi4manual/master/introduction.html#citing-psifour

    -----------------------------------------------------------------------


    Psi4 started on: Monday, 15 June 2026 10:18AM

    Process ID: 1121052
    Host:       atl1-1-03-004-15-2.pace.gatech.edu
    PSIDATADIR: /storage/home/hcoda1/5/vlita3/.conda/envs/p4_qcml/share/psi4
    Memory:     250.0 GiB
    Threads:    10
    
  ==> Input QCSchema <==

--------------------------------------------------------------------------
{'driver': 'energy',
 'extras': {},
 'id': '336',
 'keywords': {},
 'model': {'basis': 'aug-cc-pvtz', 'method': 'mp2'},
 'molecule': {'extras': {},
              'fix_com': True,
              'fix_orientation': True,
              'fragment_charges': [0.0, 0.0],
              'fragment_multiplicities': [1, 1],
              'fragments': [[0, 1, 2, 3, 4, 5, 6, 7, 8, 9, 10, 11, 12, 13, 14, 15, 16, 17, 18, 19, 20, 21, 22, 23, 24,
                             25, 26, 27, 28, 29, 30, 31, 32, 33, 34, 35, 36, 37, 38, 39, 40, 41, 42, 43],
                            [44, 45, 46, 47, 48, 49, 50, 51, 52, 53, 54, 55, 56, 57, 58, 59, 60, 61, 62, 63, 64, 65, 66,
                             67, 68, 69, 70, 71, 72, 73, 74, 75, 76, 77, 78, 79, 80, 81, 82, 83, 84, 85, 86, 87]],
              'geometry': [25.47963781, 23.08351049, 43.1296896, 24.89690954, 20.52012331, 43.887087, 25.07057198,
                           18.48699404, 42.07353641, 25.8424877, 19.04880944, 39.52013663, 26.46903607, 21.61452675,
                           38.85199593, 26.30318821, 23.59330066, 40.54460103, 24.46577176, 15.9279092, 42.77036087,
                           23.76811717, 15.37695629, 45.40838081, 23.59859476, 17.38880058, 47.22265844, 24.1081018,
                           20.02007671, 46.44346413, 22.96694077, 16.77267612, 49.77192758, 22.51062738, 14.29130626,
                           50.58597185, 22.67427055, 12.32177999, 48.76231557, 23.27971306, 12.86309326, 46.25226043,
                           25.97467497, 17.0727052, 37.71068154, 25.34789586, 14.59123463, 38.39437083, 24.59969708,
                           14.0277518, 40.88784347, 25.20039992, 25.0588727, 44.92111126, 24.35321071, 24.59525103,
                           47.39946073, 23.84084877, 22.08099208, 48.12795237, 21.86046838, 13.69556932, 53.32235171,
                           24.04555383, 26.76370654, 49.27889773, 26.50915633, 27.41178979, 50.73375129, 26.93108599,
                           26.27094839, 39.72356046, 27.10311578, 21.98163565, 36.89906984, 22.32265299, 10.34583799,
                           49.33666834, 23.39372081, 11.28300305, 44.90489504, 26.57612038, 17.51973959, 35.76596134,
                           25.43664936, 13.06203906, 36.97800898, 24.12002947, 12.05854919, 41.3527408, 25.62817825,
                           27.01761767, 44.36171793, 23.18724332, 21.75219607, 50.07608394, 23.27013145, 12.38510294,
                           54.17857328, 21.79629273, 15.42803966, 54.50687769, 19.98705402, 12.74487252, 53.47527914,
                           22.53167906, 26.28198386, 50.6619148, 23.38069793, 28.48102898, 48.25612267, 27.19569266,
                           25.7565067, 51.83310019, 28.04156267, 27.96965392, 49.40821263, 28.39145441, 27.1428651,
                           40.95513515, 25.23456206, 27.51897461, 39.79892028, 27.66207922, 26.29954115, 37.75755015,
                           26.2022166, 29.00071195, 52.0780899, 22.83611537, 18.29134925, 51.1881473, 30.81342193,
                           18.71017989, 45.99359029, 31.5788239, 19.74555973, 43.58027113, 32.18922921, 22.39746574,
                           43.36009841, 32.04731473, 23.98056161, 45.57578145, 31.25562095, 22.88485355, 47.94186375,
                           30.64065655, 20.36296812, 48.19759324, 32.96098858, 23.46875558, 40.98068543, 32.9776879,
                           21.8498177, 38.71563215, 32.39688051, 19.20754673, 38.92783428, 31.75108262, 18.1119644,
                           41.41040042, 32.38510148, 17.70859001, 36.6883681, 32.89884869, 18.70388423, 34.28627015,
                           33.46045747, 21.32787429, 34.10603582, 33.50020544, 22.84413785, 36.26471359, 32.71084168,
                           26.57519902, 45.39430813, 33.51746054, 27.59229626, 43.0833912, 33.64071365, 26.05933156,
                           40.9078722, 30.26834315, 16.09166271, 46.16720061, 30.49746548, 14.47431826, 44.06910385,
                           31.23964841, 15.50757785, 41.72580743, 32.85245858, 17.05660123, 31.93007182, 30.0352396,
                           11.64386798, 44.33912194, 32.45644731, 10.16276856, 45.08627623, 29.83741229, 19.30937345,
                           50.74453249, 31.15944353, 24.13692378, 49.60598037, 33.86115259, 22.17547238, 32.24063318,
                           33.92403613, 24.86828461, 36.03931452, 32.60693264, 27.77144276, 47.1004289, 34.05705016,
                           29.60331272, 42.95688301, 34.27807476, 26.92308174, 39.12655219, 29.64722791, 15.28713696,
                           47.98302787, 31.38145507, 14.21615321, 40.10268471, 34.735737, 17.01308892, 30.98680081,
                           32.31443775, 15.0754773, 32.37170495, 31.48589123, 17.79122297, 30.50534659, 29.28049933,
                           10.88478084, 42.52649407, 28.54357618, 11.31799443, 45.78690148, 33.97269455, 10.41059171,
                           43.64975571, 33.2192207, 10.84125701, 46.92494523, 31.18221652, 17.84465276, 51.44063809,
                           27.94896357, 18.39273342, 50.64394079, 29.74125873, 20.82714016, 52.19033882, 32.06613232,
                           8.10297733, 45.26704002, 31.91846208, 15.68652669, 36.81860417],
              'id': 15,
              'identifiers': {'molecular_formula': 'C48H40',
                              'molecule_hash': '5e3296bad3c72e10e864464b8bcfe4a1199407a4'},
              'masses': [12.0, 12.0, 12.0, 12.0, 12.0, 12.0, 12.0, 12.0, 12.0, 12.0, 12.0, 12.0, 12.0, 12.0, 12.0, 12.0,
                         12.0, 12.0, 12.0, 12.0, 12.0, 12.0, 12.0, 12.0, 1.00782503223, 1.00782503223, 1.00782503223,
                         1.00782503223, 1.00782503223, 1.00782503223, 1.00782503223, 1.00782503223, 1.00782503223,
                         1.00782503223, 1.00782503223, 1.00782503223, 1.00782503223, 1.00782503223, 1.00782503223,
                         1.00782503223, 1.00782503223, 1.00782503223, 1.00782503223, 1.00782503223, 12.0, 12.0, 12.0,
                         12.0, 12.0, 12.0, 12.0, 12.0, 12.0, 12.0, 12.0, 12.0, 12.0, 12.0, 12.0, 12.0, 12.0, 12.0, 12.0,
                         12.0, 12.0, 12.0, 12.0, 12.0, 1.00782503223, 1.00782503223, 1.00782503223, 1.00782503223,
                         1.00782503223, 1.00782503223, 1.00782503223, 1.00782503223, 1.00782503223, 1.00782503223,
                         1.00782503223, 1.00782503223, 1.00782503223, 1.00782503223, 1.00782503223, 1.00782503223,
                         1.00782503223, 1.00782503223, 1.00782503223, 1.00782503223],
              'molecular_charge': 0.0,
              'molecular_multiplicity': 1,
              'name': 'C48H40 ([1],[0])',
              'provenance': {'creator': 'QCElemental',
                             'routine': 'qcelemental.molparse.from_schema',
                             'version': '0.29.0'},
              'real': [False, False, False, False, False, False, False, False, False, False, False, False, False, False,
                       False, False, False, False, False, False, False, False, False, False, False, False, False, False,
                       False, False, False, False, False, False, False, False, False, False, False, False, False, False,
                       False, False, True, True, True, True, True, True, True, True, True, True, True, True, True, True,
                       True, True, True, True, True, True, True, True, True, True, True, True, True, True, True, True,
                       True, True, True, True, True, True, True, True, True, True, True, True, True, True],
              'schema_name': 'qcschema_molecule',
              'schema_version': 2,
              'symbols': ['C', 'C', 'C', 'C', 'C', 'C', 'C', 'C', 'C', 'C', 'C', 'C', 'C', 'C', 'C', 'C', 'C', 'C', 'C',
                          'C', 'C', 'C', 'C', 'C', 'H', 'H', 'H', 'H', 'H', 'H', 'H', 'H', 'H', 'H', 'H', 'H', 'H', 'H',
                          'H', 'H', 'H', 'H', 'H', 'H', 'C', 'C', 'C', 'C', 'C', 'C', 'C', 'C', 'C', 'C', 'C', 'C', 'C',
                          'C', 'C', 'C', 'C', 'C', 'C', 'C', 'C', 'C', 'C', 'C', 'H', 'H', 'H', 'H', 'H', 'H', 'H', 'H',
                          'H', 'H', 'H', 'H', 'H', 'H', 'H', 'H', 'H', 'H', 'H', 'H'],
              'validated': True},
 'protocols': {},
 'provenance': {'creator': 'QCElemental', 'routine': 'qcelemental.models.results', 'version': '0.29.0'},
 'schema_name': 'qcschema_input',
 'schema_version': 1}
--------------------------------------------------------------------------

Scratch directory: /tmp/tmpc60wvds2_psi_scratch/
    SCF Algorithm Type (re)set to DF.
   => Libint2 <=

    Primary   basis highest AM E, G, H:  6, 6, 3
    Auxiliary basis highest AM E, G, H:  7, 7, 4
    Onebody   basis highest AM E, G, H:  -, -, -
    Solid Harmonics ordering:            Gaussian

*** tstart() called on atl1-1-03-004-15-2.pace.gatech.edu
*** at Mon Jun 15 10:18:07 2026

   => Loading Basis Set <=

    Name: AUG-CC-PVTZ
    Role: ORBITAL
    Keyword: BASIS
    atoms 1-24, 45-68  entry C          line   239 file /storage/home/hcoda1/5/vlita3/.conda/envs/p4_qcml/share/psi4/basis/aug-cc-pvtz.gbs 
    atoms 25-44, 69-88 entry H          line    40 file /storage/home/hcoda1/5/vlita3/.conda/envs/p4_qcml/share/psi4/basis/aug-cc-pvtz.gbs 


         ---------------------------------------------------------
                                   SCF
               by Justin Turney, Rob Parrish, Andy Simmonett
                          and Daniel G. A. Smith
                              RHF Reference
                       10 Threads, 256000 MiB Core
         ---------------------------------------------------------

  ==> Geometry <==

    Molecular point group: c1
    Full point group: C1

    Geometry (in Bohr), charge = 0, multiplicity = 1:

       Center              X                  Y                   Z               Mass       
    ------------   -----------------  -----------------  -----------------  -----------------
      Gh(C)          25.479637810000    23.083510490000    43.129689600000    12.000000000000
      Gh(C)          24.896909540000    20.520123310000    43.887087000000    12.000000000000
      Gh(C)          25.070571980000    18.486994040000    42.073536410000    12.000000000000
      Gh(C)          25.842487700000    19.048809440000    39.520136630000    12.000000000000
      Gh(C)          26.469036070000    21.614526750000    38.851995930000    12.000000000000
      Gh(C)          26.303188210000    23.593300660000    40.544601030000    12.000000000000
      Gh(C)          24.465771760000    15.927909200000    42.770360870000    12.000000000000
      Gh(C)          23.768117170000    15.376956290000    45.408380810000    12.000000000000
      Gh(C)          23.598594760000    17.388800580000    47.222658440000    12.000000000000
      Gh(C)          24.108101800000    20.020076710000    46.443464130000    12.000000000000
      Gh(C)          22.966940770000    16.772676120000    49.771927580000    12.000000000000
      Gh(C)          22.510627380000    14.291306260000    50.585971850000    12.000000000000
      Gh(C)          22.674270550000    12.321779990000    48.762315570000    12.000000000000
      Gh(C)          23.279713060000    12.863093260000    46.252260430000    12.000000000000
      Gh(C)          25.974674970000    17.072705200000    37.710681540000    12.000000000000
      Gh(C)          25.347895860000    14.591234630000    38.394370830000    12.000000000000
      Gh(C)          24.599697080000    14.027751800000    40.887843470000    12.000000000000
      Gh(C)          25.200399920000    25.058872700000    44.921111260000    12.000000000000
      Gh(C)          24.353210710000    24.595251030000    47.399460730000    12.000000000000
      Gh(C)          23.840848770000    22.080992080000    48.127952370000    12.000000000000
      Gh(C)          21.860468380000    13.695569320000    53.322351710000    12.000000000000
      Gh(C)          24.045553830000    26.763706540000    49.278897730000    12.000000000000
      Gh(C)          26.509156330000    27.411789790000    50.733751290000    12.000000000000
      Gh(C)          26.931085990000    26.270948390000    39.723560460000    12.000000000000
      Gh(H)          27.103115780000    21.981635650000    36.899069840000     1.007825032230
      Gh(H)          22.322652990000    10.345837990000    49.336668340000     1.007825032230
      Gh(H)          23.393720810000    11.283003050000    44.904895040000     1.007825032230
      Gh(H)          26.576120380000    17.519739590000    35.765961340000     1.007825032230
      Gh(H)          25.436649360000    13.062039060000    36.978008980000     1.007825032230
      Gh(H)          24.120029470000    12.058549190000    41.352740800000     1.007825032230
      Gh(H)          25.628178250000    27.017617670000    44.361717930000     1.007825032230
      Gh(H)          23.187243320000    21.752196070000    50.076083940000     1.007825032230
      Gh(H)          23.270131450000    12.385102940000    54.178573280000     1.007825032230
      Gh(H)          21.796292730000    15.428039660000    54.506877690000     1.007825032230
      Gh(H)          19.987054020000    12.744872520000    53.475279140000     1.007825032230
      Gh(H)          22.531679060000    26.281983860000    50.661914800000     1.007825032230
      Gh(H)          23.380697930000    28.481028980000    48.256122670000     1.007825032230
      Gh(H)          27.195692660000    25.756506700000    51.833100190000     1.007825032230
      Gh(H)          28.041562670000    27.969653920000    49.408212630000     1.007825032230
      Gh(H)          28.391454410000    27.142865100000    40.955135150000     1.007825032230
      Gh(H)          25.234562060000    27.518974610000    39.798920280000     1.007825032230
      Gh(H)          27.662079220000    26.299541150000    37.757550150000     1.007825032230
      Gh(H)          26.202216600000    29.000711950000    52.078089900000     1.007825032230
      Gh(H)          22.836115370000    18.291349250000    51.188147300000     1.007825032230
         C           30.813421930000    18.710179890000    45.993590290000    12.000000000000
         C           31.578823900000    19.745559730000    43.580271130000    12.000000000000
         C           32.189229210000    22.397465740000    43.360098410000    12.000000000000
         C           32.047314730000    23.980561610000    45.575781450000    12.000000000000
         C           31.255620950000    22.884853550000    47.941863750000    12.000000000000
         C           30.640656550000    20.362968120000    48.197593240000    12.000000000000
         C           32.960988580000    23.468755580000    40.980685430000    12.000000000000
         C           32.977687900000    21.849817700000    38.715632150000    12.000000000000
         C           32.396880510000    19.207546730000    38.927834280000    12.000000000000
         C           31.751082620000    18.111964400000    41.410400420000    12.000000000000
         C           32.385101480000    17.708590010000    36.688368100000    12.000000000000
         C           32.898848690000    18.703884230000    34.286270150000    12.000000000000
         C           33.460457470000    21.327874290000    34.106035820000    12.000000000000
         C           33.500205440000    22.844137850000    36.264713590000    12.000000000000
         C           32.710841680000    26.575199020000    45.394308130000    12.000000000000
         C           33.517460540000    27.592296260000    43.083391200000    12.000000000000
         C           33.640713650000    26.059331560000    40.907872200000    12.000000000000
         C           30.268343150000    16.091662710000    46.167200610000    12.000000000000
         C           30.497465480000    14.474318260000    44.069103850000    12.000000000000
         C           31.239648410000    15.507577850000    41.725807430000    12.000000000000
         C           32.852458580000    17.056601230000    31.930071820000    12.000000000000
         C           30.035239600000    11.643867980000    44.339121940000    12.000000000000
         C           32.456447310000    10.162768560000    45.086276230000    12.000000000000
         C           29.837412290000    19.309373450000    50.744532490000    12.000000000000
         H           31.159443530000    24.136923780000    49.605980370000     1.007825032230
         H           33.861152590000    22.175472380000    32.240633180000     1.007825032230
         H           33.924036130000    24.868284610000    36.039314520000     1.007825032230
         H           32.606932640000    27.771442760000    47.100428900000     1.007825032230
         H           34.057050160000    29.603312720000    42.956883010000     1.007825032230
         H           34.278074760000    26.923081740000    39.126552190000     1.007825032230
         H           29.647227910000    15.287136960000    47.983027870000     1.007825032230
         H           31.381455070000    14.216153210000    40.102684710000     1.007825032230
         H           34.735737000000    17.013088920000    30.986800810000     1.007825032230
         H           32.314437750000    15.075477300000    32.371704950000     1.007825032230
         H           31.485891230000    17.791222970000    30.505346590000     1.007825032230
         H           29.280499330000    10.884780840000    42.526494070000     1.007825032230
         H           28.543576180000    11.317994430000    45.786901480000     1.007825032230
         H           33.972694550000    10.410591710000    43.649755710000     1.007825032230
         H           33.219220700000    10.841257010000    46.924945230000     1.007825032230
         H           31.182216520000    17.844652760000    51.440638090000     1.007825032230
         H           27.948963570000    18.392733420000    50.643940790000     1.007825032230
         H           29.741258730000    20.827140160000    52.190338820000     1.007825032230
         H           32.066132320000     8.102977330000    45.267040020000     1.007825032230
         H           31.918462080000    15.686526690000    36.818604170000     1.007825032230

  Running in c1 symmetry.

  Rotational constants: A =      0.00210  B =      0.00003  C =      0.00003 [cm^-1]
  Rotational constants: A =     62.96897  B =      0.94325  C =      0.93874 [MHz]
  Nuclear repulsion = 1864.841208739238255

  Charge       = 0
  Multiplicity = 1
  Electrons    = 164
  Nalpha       = 82
  Nbeta        = 82

  ==> Algorithm <==

  SCF Algorithm Type is DF.
  DIIS enabled.
  MOM disabled.
  Fractional occupation disabled.
  Guess Type is SAD.
  Energy threshold   = 1.00e-08
  Density threshold  = 1.00e-08
  Integral threshold = 1.00e-12

  ==> Primary Basis <==

  Basis Set: AUG-CC-PVTZ
    Blend: AUG-CC-PVTZ
    Number of shells: 1032
    Number of basis functions: 3128
    Number of Cartesian functions: 3640
    Spherical Harmonics?: true
    Max angular momentum: 3

   => Loading Basis Set <=

    Name: (AUG-CC-PVTZ AUX)
    Role: JKFIT
    Keyword: DF_BASIS_SCF
    atoms 1-24, 45-68  entry C          line   162 file /storage/home/hcoda1/5/vlita3/.conda/envs/p4_qcml/share/psi4/basis/aug-cc-pvtz-jkfit.gbs 
    atoms 25-44, 69-88 entry H          line    70 file /storage/home/hcoda1/5/vlita3/.conda/envs/p4_qcml/share/psi4/basis/aug-cc-pvtz-jkfit.gbs 

  ==> Integral Setup <==

  ==> DiskDFJK: Density-Fitted J/K Matrices <==

    J tasked:                  Yes
    K tasked:                  Yes
    wK tasked:                  No
    OpenMP threads:             10
    Integrals threads:          10
    Memory [MiB]:           192000
    Algorithm:                Disk
    Integral Cache:           NONE
    Schwarz Cutoff:          1E-12
    Fitting Condition:       1E-10

   => Auxiliary Basis Set <=

  Basis Set: (AUG-CC-PVTZ AUX)
    Blend: AUG-CC-PVTZ-JKFIT
    Number of shells: 2000
    Number of basis functions: 6832
    Number of Cartesian functions: 8488
    Spherical Harmonics?: true
    Max angular momentum: 4

  Minimum eigenvalue in the overlap matrix is 6.3711160731E-10.
  Reciprocal condition number of the overlap matrix is 1.7895063395E-11.
    Using canonical orthogonalization.
  Overall, 29 of 3128 possible MOs eliminated.


  ==> Pre-Iterations <==

  SCF Guess: Superposition of Atomic Densities via on-the-fly atomic UHF (no occupation information).

   -------------------------
    Irrep   Nso     Nmo    
   -------------------------
     A       3128    3099 
   -------------------------
    Total    3128    3099
   -------------------------

  ==> Iterations <==

                           Total Energy        Delta E     RMS |[F,P]|

   @DF-RHF iter SAD:  -920.65506338537034   -9.20655e+02   0.00000e+00 
   @DF-RHF iter   1:  -920.21638466533159    4.38679e-01   3.04639e-04 ADIIS/DIIS
   @DF-RHF iter   2:  -920.74188422009206   -5.25500e-01   1.18714e-04 ADIIS/DIIS
   @DF-RHF iter   3:  -920.81695048799429   -7.50663e-02   2.91101e-05 DIIS
   @DF-RHF iter   4:  -920.82353722608025   -6.58674e-03   1.14308e-05 DIIS
   @DF-RHF iter   5:  -920.82427686802328   -7.39642e-04   3.03326e-06 DIIS
   @DF-RHF iter   6:  -920.82434800057922   -7.11326e-05   1.10519e-06 DIIS
   @DF-RHF iter   7:  -920.82436038228218   -1.23817e-05   3.92558e-07 DIIS
   @DF-RHF iter   8:  -920.82436295652974   -2.57425e-06   1.75912e-07 DIIS
   @DF-RHF iter   9:  -920.82436361689486   -6.60365e-07   8.00432e-08 DIIS
   @DF-RHF iter  10:  -920.82436373907808   -1.22183e-07   3.67424e-08 DIIS
   @DF-RHF iter  11:  -920.82436376926898   -3.01909e-08   1.96218e-08 DIIS
   @DF-RHF iter  12:  -920.82436378029274   -1.10238e-08   1.12075e-08 DIIS
   @DF-RHF iter  13:  -920.82436378597333   -5.68059e-09   4.70562e-09 DIIS
  Energy and wave function converged.


  ==> Post-Iterations <==

    Orbital Energies [Eh]
    ---------------------

    Doubly Occupied:                                                      

       1A    -11.256403     2A    -11.255634     3A    -11.254971  
       4A    -11.252634     5A    -11.252573     6A    -11.251790  
       7A    -11.251253     8A    -11.250983     9A    -11.250147  
      10A    -11.249220    11A    -11.247267    12A    -11.243742  
      13A    -11.242524    14A    -11.240524    15A    -11.240183  
      16A    -11.239934    17A    -11.239623    18A    -11.238379  
      19A    -11.238086    20A    -11.238024    21A    -11.237035  
      22A    -11.236202    23A    -11.235037    24A    -11.227932  
      25A     -1.189852    26A     -1.149266    27A     -1.139398  
      28A     -1.100699    29A     -1.078774    30A     -1.052538  
      31A     -1.029578    32A     -1.024755    33A     -1.004589  
      34A     -0.974609    35A     -0.967226    36A     -0.928819  
      37A     -0.926993    38A     -0.868659    39A     -0.855254  
      40A     -0.833607    41A     -0.824992    42A     -0.815271  
      43A     -0.784236    44A     -0.741150    45A     -0.718878  
      46A     -0.706757    47A     -0.678977    48A     -0.669796  
      49A     -0.639249    50A     -0.635746    51A     -0.630989  
      52A     -0.614206    53A     -0.610634    54A     -0.593112  
      55A     -0.583265    56A     -0.576484    57A     -0.575913  
      58A     -0.572096    59A     -0.570643    60A     -0.563451  
      61A     -0.554298    62A     -0.544785    63A     -0.539047  
      64A     -0.534589    65A     -0.528113    66A     -0.521623  
      67A     -0.512921    68A     -0.510610    69A     -0.496031  
      70A     -0.489560    71A     -0.488598    72A     -0.483634  
      73A     -0.478321    74A     -0.456659    75A     -0.455628  
      76A     -0.414906    77A     -0.382481    78A     -0.376029  
      79A     -0.321318    80A     -0.319778    81A     -0.278062  
      82A     -0.257700  

    Virtual:                                                              

      83A      0.015679    84A      0.020930    85A      0.022158  
      86A      0.027542    87A      0.028559    88A      0.029998  
      89A      0.034099    90A      0.034578    91A      0.039126  
      92A      0.039213    93A      0.041449    94A      0.044596  
      95A      0.046524    96A      0.047830    97A      0.050246  
      98A      0.051857    99A      0.053900   100A      0.054594  
     101A      0.055596   102A      0.059718   103A      0.060867  
     104A      0.063039   105A      0.065279   106A      0.066147  
     107A      0.067085   108A      0.068423   109A      0.070073  
     110A      0.070690   111A      0.074748   112A      0.075718  
     113A      0.078851   114A      0.079624   115A      0.081786  
     116A      0.082849   117A      0.083811   118A      0.085820  
     119A      0.086362   120A      0.087410   121A      0.089688  
     122A      0.090682   123A      0.091484   124A      0.093318  
     125A      0.097607   126A      0.098111   127A      0.100105  
     128A      0.101190   129A      0.101885   130A      0.104241  
     131A      0.105183   132A      0.107592   133A      0.109304  
     134A      0.109853   135A      0.111047   136A      0.113193  
     137A      0.113695   138A      0.114820   139A      0.117287  
     140A      0.118361   141A      0.119024   142A      0.119206  
     143A      0.121188   144A      0.124258   145A      0.124549  
     146A      0.128036   147A      0.128708   148A      0.129136  
     149A      0.130678   150A      0.130965   151A      0.133787  
     152A      0.137093   153A      0.138168   154A      0.139098  
     155A      0.140288   156A      0.141386   157A      0.142998  
     158A      0.144489   159A      0.145000   160A      0.145176  
     161A      0.146049   162A      0.148115   163A      0.150394  
     164A      0.150554   165A      0.154142   166A      0.154980  
     167A      0.156404   168A      0.158432   169A      0.160034  
     170A      0.160593   171A      0.161888   172A      0.162886  
     173A      0.165180   174A      0.166394   175A      0.167316  
     176A      0.168753   177A      0.169661   178A      0.171319  
     179A      0.172240   180A      0.173166   181A      0.174411  
     182A      0.174951   183A      0.175717   184A      0.177347  
     185A      0.178787   186A      0.179859   187A      0.182401  
     188A      0.184270   189A      0.184765   190A      0.186616  
     191A      0.188386   192A      0.188786   193A      0.191210  
     194A      0.192237   195A      0.193900   196A      0.194872  
     197A      0.195639   198A      0.198323   199A      0.200331  
     200A      0.202305   201A      0.202523   202A      0.203736  
     203A      0.204298   204A      0.206521   205A      0.207350  
     206A      0.209347   207A      0.210016   208A      0.211808  
     209A      0.212911   210A      0.214670   211A      0.215518  
     212A      0.215606   213A      0.217583   214A      0.218211  
     215A      0.219367   216A      0.221454   217A      0.222889  
     218A      0.225462   219A      0.227835   220A      0.229228  
     221A      0.230462   222A      0.232690   223A      0.234740  
     224A      0.235252   225A      0.236339   226A      0.237831  
     227A      0.238599   228A      0.240702   229A      0.241645  
     230A      0.242522   231A      0.244980   232A      0.245140  
     233A      0.246754   234A      0.248609   235A      0.249252  
     236A      0.251668   237A      0.252118   238A      0.253067  
     239A      0.253742   240A      0.255599   241A      0.256557  
     242A      0.258148   243A      0.260375   244A      0.261520  
     245A      0.262798   246A      0.263180   247A      0.264307  
     248A      0.266102   249A      0.268409   250A      0.269264  
     251A      0.271032   252A      0.274077   253A      0.275139  
     254A      0.276650   255A      0.277213   256A      0.278315  
     257A      0.280383   258A      0.281217   259A      0.281933  
     260A      0.283708   261A      0.284689   262A      0.285576  
     263A      0.286840   264A      0.287703   265A      0.289640  
     266A      0.291745   267A      0.292635   268A      0.293653  
     269A      0.295766   270A      0.297161   271A      0.298571  
     272A      0.300484   273A      0.301955   274A      0.302745  
     275A      0.302886   276A      0.304278   277A      0.306396  
     278A      0.307236   279A      0.309751   280A      0.310595  
     281A      0.311004   282A      0.312568   283A      0.314041  
     284A      0.314371   285A      0.315613   286A      0.318265  
     287A      0.320714   288A      0.321418   289A      0.322130  
     290A      0.322992   291A      0.325228   292A      0.325955  
     293A      0.327595   294A      0.329235   295A      0.330718  
     296A      0.332603   297A      0.334238   298A      0.336190  
     299A      0.336646   300A      0.338233   301A      0.339201  
     302A      0.340024   303A      0.341192   304A      0.343381  
     305A      0.344306   306A      0.345320   307A      0.347236  
     308A      0.348780   309A      0.349379   310A      0.350525  
     311A      0.352864   312A      0.354802   313A      0.355194  
     314A      0.356441   315A      0.358386   316A      0.359130  
     317A      0.361385   318A      0.362042   319A      0.363124  
     320A      0.364286   321A      0.366530   322A      0.369332  
     323A      0.369590   324A      0.369647   325A      0.371093  
     326A      0.372958   327A      0.374795   328A      0.376269  
     329A      0.377560   330A      0.379832   331A      0.381305  
     332A      0.382735   333A      0.384157   334A      0.384869  
     335A      0.387115   336A      0.387963   337A      0.390002  
     338A      0.390977   339A      0.393129   340A      0.393442  
     341A      0.395073   342A      0.396190   343A      0.396812  
     344A      0.398518   345A      0.399420   346A      0.400903  
     347A      0.402697   348A      0.403418   349A      0.403941  
     350A      0.406329   351A      0.407206   352A      0.410214  
     353A      0.412744   354A      0.413220   355A      0.413819  
     356A      0.415462   357A      0.417328   358A      0.418023  
     359A      0.418348   360A      0.419516   361A      0.420499  
     362A      0.421605   363A      0.422667   364A      0.422865  
     365A      0.424704   366A      0.427552   367A      0.428174  
     368A      0.429370   369A      0.430814   370A      0.431166  
     371A      0.431825   372A      0.433656   373A      0.434274  
     374A      0.435483   375A      0.438389   376A      0.439109  
     377A      0.440373   378A      0.441926   379A      0.443584  
     380A      0.445641   381A      0.446743   382A      0.448771  
     383A      0.449872   384A      0.451747   385A      0.453325  
     386A      0.453753   387A      0.453990   388A      0.456202  
     389A      0.457122   390A      0.458561   391A      0.459685  
     392A      0.461180   393A      0.462534   394A      0.464928  
     395A      0.466216   396A      0.467141   397A      0.468786  
     398A      0.471042   399A      0.472298   400A      0.473806  
     401A      0.474134   402A      0.477047   403A      0.478374  
     404A      0.479847   405A      0.481233   406A      0.482033  
     407A      0.485267   408A      0.485842   409A      0.487311  
     410A      0.487938   411A      0.488987   412A      0.490955  
     413A      0.491443   414A      0.493839   415A      0.494102  
     416A      0.494583   417A      0.496499   418A      0.498042  
     419A      0.499039   420A      0.499814   421A      0.501432  
     422A      0.501710   423A      0.503427   424A      0.504509  
     425A      0.505341   426A      0.506389   427A      0.507837  
     428A      0.509012   429A      0.511773   430A      0.512393  
     431A      0.513527   432A      0.513810   433A      0.515299  
     434A      0.516200   435A      0.516574   436A      0.518245  
     437A      0.519960   438A      0.521329   439A      0.523345  
     440A      0.523673   441A      0.525044   442A      0.526458  
     443A      0.528138   444A      0.529226   445A      0.530985  
     446A      0.531741   447A      0.532198   448A      0.533469  
     449A      0.533963   450A      0.535774   451A      0.536490  
     452A      0.538378   453A      0.539989   454A      0.540042  
     455A      0.541021   456A      0.541968   457A      0.544267  
     458A      0.546463   459A      0.547674   460A      0.549643  
     461A      0.550692   462A      0.551469   463A      0.552136  
     464A      0.552851   465A      0.555095   466A      0.556105  
     467A      0.557894   468A      0.559764   469A      0.560918  
     470A      0.562397   471A      0.563737   472A      0.564859  
     473A      0.565667   474A      0.566416   475A      0.568017  
     476A      0.569281   477A      0.570116   478A      0.571848  
     479A      0.572814   480A      0.573556   481A      0.574233  
     482A      0.576714   483A      0.578481   484A      0.579246  
     485A      0.581884   486A      0.583095   487A      0.583645  
     488A      0.584700   489A      0.585710   490A      0.587251  
     491A      0.588595   492A      0.588825   493A      0.590569  
     494A      0.591473   495A      0.592067   496A      0.594478  
     497A      0.595486   498A      0.598193   499A      0.598482  
     500A      0.600948   501A      0.601584   502A      0.603083  
     503A      0.604698   504A      0.607082   505A      0.607672  
     506A      0.608394   507A      0.609859   508A      0.610123  
     509A      0.610619   510A      0.614645   511A      0.615269  
     512A      0.616791   513A      0.618319   514A      0.619436  
     515A      0.621370   516A      0.622487   517A      0.622937  
     518A      0.625140   519A      0.626679   520A      0.627455  
     521A      0.630838   522A      0.631330   523A      0.631854  
     524A      0.633866   525A      0.634686   526A      0.635870  
     527A      0.636854   528A      0.637682   529A      0.639148  
     530A      0.640177   531A      0.641762   532A      0.645109  
     533A      0.647268   534A      0.648213   535A      0.650761  
     536A      0.652378   537A      0.652674   538A      0.653766  
     539A      0.654971   540A      0.656070   541A      0.657231  
     542A      0.658018   543A      0.660093   544A      0.661837  
     545A      0.662974   546A      0.664961   547A      0.666534  
     548A      0.667459   549A      0.669853   550A      0.671089  
     551A      0.672646   552A      0.675548   553A      0.676930  
     554A      0.679573   555A      0.681162   556A      0.681503  
     557A      0.683626   558A      0.685622   559A      0.686000  
     560A      0.688209   561A      0.688919   562A      0.691697  
     563A      0.693773   564A      0.694328   565A      0.695043  
     566A      0.697477   567A      0.698618   568A      0.699386  
     569A      0.700412   570A      0.701651   571A      0.704490  
     572A      0.705587   573A      0.708546   574A      0.709138  
     575A      0.709867   576A      0.710930   577A      0.713117  
     578A      0.714770   579A      0.715471   580A      0.718692  
     581A      0.720979   582A      0.721727   583A      0.722337  
     584A      0.723893   585A      0.725436   586A      0.727313  
     587A      0.729074   588A      0.729623   589A      0.732129  
     590A      0.734013   591A      0.735959   592A      0.737121  
     593A      0.738694   594A      0.740870   595A      0.742073  
     596A      0.743213   597A      0.745582   598A      0.746085  
     599A      0.747537   600A      0.750801   601A      0.752453  
     602A      0.753241   603A      0.753981   604A      0.755588  
     605A      0.756787   606A      0.759313   607A      0.759923  
     608A      0.761121   609A      0.762291   610A      0.764520  
     611A      0.765198   612A      0.767730   613A      0.768755  
     614A      0.769962   615A      0.770500   616A      0.771966  
     617A      0.775214   618A      0.776255   619A      0.778957  
     620A      0.779757   621A      0.780858   622A      0.782901  
     623A      0.783217   624A      0.784867   625A      0.787089  
     626A      0.788655   627A      0.790669   628A      0.791772  
     629A      0.793154   630A      0.794870   631A      0.796270  
     632A      0.798206   633A      0.800598   634A      0.801226  
     635A      0.802169   636A      0.805444   637A      0.805696  
     638A      0.808987   639A      0.810597   640A      0.812635  
     641A      0.813738   642A      0.815465   643A      0.815948  
     644A      0.816920   645A      0.818923   646A      0.821784  
     647A      0.823424   648A      0.824159   649A      0.825783  
     650A      0.828963   651A      0.829523   652A      0.831202  
     653A      0.832060   654A      0.832717   655A      0.835592  
     656A      0.836394   657A      0.837504   658A      0.840378  
     659A      0.840971   660A      0.842263   661A      0.844686  
     662A      0.846039   663A      0.847486   664A      0.849799  
     665A      0.851428   666A      0.852234   667A      0.853696  
     668A      0.855810   669A      0.856637   670A      0.858781  
     671A      0.860456   672A      0.863396   673A      0.864233  
     674A      0.864899   675A      0.867548   676A      0.867791  
     677A      0.869974   678A      0.871219   679A      0.872652  
     680A      0.874532   681A      0.875628   682A      0.877107  
     683A      0.878637   684A      0.880705   685A      0.882457  
     686A      0.883206   687A      0.885002   688A      0.885833  
     689A      0.887701   690A      0.888480   691A      0.890036  
     692A      0.891657   693A      0.893572   694A      0.895199  
     695A      0.897843   696A      0.899518   697A      0.899887  
     698A      0.901035   699A      0.903740   700A      0.904851  
     701A      0.906165   702A      0.907572   703A      0.909232  
     704A      0.911220   705A      0.913490   706A      0.914581  
     707A      0.916504   708A      0.917137   709A      0.918516  
     710A      0.920202   711A      0.922106   712A      0.924409  
     713A      0.925664   714A      0.927424   715A      0.928663  
     716A      0.929793   717A      0.932991   718A      0.933504  
     719A      0.934088   720A      0.934964   721A      0.936323  
     722A      0.938195   723A      0.940274   724A      0.941807  
     725A      0.944416   726A      0.946906   727A      0.947388  
     728A      0.948861   729A      0.950108   730A      0.950947  
     731A      0.952246   732A      0.953818   733A      0.955819  
     734A      0.957774   735A      0.958557   736A      0.960519  
     737A      0.963079   738A      0.963711   739A      0.964643  
     740A      0.966925   741A      0.967238   742A      0.969510  
     743A      0.969860   744A      0.971552   745A      0.973455  
     746A      0.974384   747A      0.976016   748A      0.978628  
     749A      0.979708   750A      0.980477   751A      0.982679  
     752A      0.984173   753A      0.985871   754A      0.988658  
     755A      0.988857   756A      0.991540   757A      0.992326  
     758A      0.993262   759A      0.994304   760A      0.995783  
     761A      0.996261   762A      0.997526   763A      0.999150  
     764A      1.000089   765A      1.002149   766A      1.003734  
     767A      1.005174   768A      1.005670   769A      1.009820  
     770A      1.010587   771A      1.011016   772A      1.012592  
     773A      1.015523   774A      1.016097   775A      1.018471  
     776A      1.019482   777A      1.021072   778A      1.021522  
     779A      1.022783   780A      1.025338   781A      1.026763  
     782A      1.027549   783A      1.028906   784A      1.031779  
     785A      1.033715   786A      1.034691   787A      1.034952  
     788A      1.036784   789A      1.038531   790A      1.039861  
     791A      1.040660   792A      1.041297   793A      1.045756  
     794A      1.046926   795A      1.048232   796A      1.049832  
     797A      1.050954   798A      1.051312   799A      1.053166  
     800A      1.055922   801A      1.058515   802A      1.059091  
     803A      1.060931   804A      1.062939   805A      1.063160  
     806A      1.065883   807A      1.066422   808A      1.067870  
     809A      1.068939   810A      1.070706   811A      1.070964  
     812A      1.072831   813A      1.074682   814A      1.075889  
     815A      1.076830   816A      1.077166   817A      1.078988  
     818A      1.080722   819A      1.083898   820A      1.084889  
     821A      1.085653   822A      1.087781   823A      1.089225  
     824A      1.091399   825A      1.092224   826A      1.092770  
     827A      1.094004   828A      1.096977   829A      1.097460  
     830A      1.099434   831A      1.101584   832A      1.103548  
     833A      1.105556   834A      1.107219   835A      1.107340  
     836A      1.108279   837A      1.110389   838A      1.112794  
     839A      1.115573   840A      1.116046   841A      1.119433  
     842A      1.120455   843A      1.121736   844A      1.123963  
     845A      1.125352   846A      1.126941   847A      1.129049  
     848A      1.129976   849A      1.131711   850A      1.133261  
     851A      1.134863   852A      1.136022   853A      1.136879  
     854A      1.138907   855A      1.140971   856A      1.142799  
     857A      1.145261   858A      1.146318   859A      1.148838  
     860A      1.149409   861A      1.150546   862A      1.151785  
     863A      1.153811   864A      1.154821   865A      1.154884  
     866A      1.156523   867A      1.159082   868A      1.159871  
     869A      1.160914   870A      1.163963   871A      1.164514  
     872A      1.166474   873A      1.168132   874A      1.168929  
     875A      1.171751   876A      1.172179   877A      1.175171  
     878A      1.176051   879A      1.177030   880A      1.178846  
     881A      1.179591   882A      1.180666   883A      1.183407  
     884A      1.185710   885A      1.186918   886A      1.188610  
     887A      1.189532   888A      1.189960   889A      1.191758  
     890A      1.192570   891A      1.194600   892A      1.196253  
     893A      1.198289   894A      1.199208   895A      1.201046  
     896A      1.203345   897A      1.204421   898A      1.205081  
     899A      1.207597   900A      1.209175   901A      1.210469  
     902A      1.212648   903A      1.213858   904A      1.215349  
     905A      1.216348   906A      1.217636   907A      1.218866  
     908A      1.221331   909A      1.223545   910A      1.225132  
     911A      1.225833   912A      1.226530   913A      1.229246  
     914A      1.230175   915A      1.231101   916A      1.232586  
     917A      1.233966   918A      1.237184   919A      1.238850  
     920A      1.241179   921A      1.242480   922A      1.243238  
     923A      1.244174   924A      1.245936   925A      1.247160  
     926A      1.249519   927A      1.250801   928A      1.251582  
     929A      1.251761   930A      1.253933   931A      1.256286  
     932A      1.257474   933A      1.259257   934A      1.259903  
     935A      1.261869   936A      1.264473   937A      1.266177  
     938A      1.267560   939A      1.268851   940A      1.270657  
     941A      1.272018   942A      1.272845   943A      1.273443  
     944A      1.277106   945A      1.278498   946A      1.281733  
     947A      1.282099   948A      1.284263   949A      1.285005  
     950A      1.287227   951A      1.288798   952A      1.290261  
     953A      1.290636   954A      1.294411   955A      1.297269  
     956A      1.297369   957A      1.300427   958A      1.301303  
     959A      1.302204   960A      1.303233   961A      1.304924  
     962A      1.307185   963A      1.307917   964A      1.309663  
     965A      1.311139   966A      1.312000   967A      1.315148  
     968A      1.315545   969A      1.317440   970A      1.319387  
     971A      1.320401   972A      1.322274   973A      1.322997  
     974A      1.324255   975A      1.326030   976A      1.328416  
     977A      1.330282   978A      1.331958   979A      1.333650  
     980A      1.335657   981A      1.336806   982A      1.338429  
     983A      1.340695   984A      1.342876   985A      1.343781  
     986A      1.344077   987A      1.344690   988A      1.347060  
     989A      1.349908   990A      1.352062   991A      1.354126  
     992A      1.355279   993A      1.356679   994A      1.357650  
     995A      1.358863   996A      1.361502   997A      1.362397  
     998A      1.364358   999A      1.365398  1000A      1.367750  
    1001A      1.369170  1002A      1.370118  1003A      1.371193  
    1004A      1.373154  1005A      1.376282  1006A      1.378190  
    1007A      1.380428  1008A      1.381476  1009A      1.383890  
    1010A      1.384404  1011A      1.385158  1012A      1.386096  
    1013A      1.388573  1014A      1.388904  1015A      1.392049  
    1016A      1.392588  1017A      1.393130  1018A      1.396811  
    1019A      1.398431  1020A      1.399914  1021A      1.400841  
    1022A      1.404371  1023A      1.406296  1024A      1.407226  
    1025A      1.408617  1026A      1.411978  1027A      1.413260  
    1028A      1.414546  1029A      1.415567  1030A      1.416974  
    1031A      1.419418  1032A      1.420994  1033A      1.421989  
    1034A      1.423249  1035A      1.424538  1036A      1.426583  
    1037A      1.429967  1038A      1.432140  1039A      1.433144  
    1040A      1.435295  1041A      1.435606  1042A      1.435891  
    1043A      1.438932  1044A      1.442231  1045A      1.444227  
    1046A      1.445179  1047A      1.446797  1048A      1.449118  
    1049A      1.449425  1050A      1.450761  1051A      1.454000  
    1052A      1.454440  1053A      1.457353  1054A      1.458798  
    1055A      1.460249  1056A      1.462448  1057A      1.464064  
    1058A      1.465562  1059A      1.467498  1060A      1.469864  
    1061A      1.471399  1062A      1.472728  1063A      1.474488  
    1064A      1.476165  1065A      1.477899  1066A      1.480446  
    1067A      1.481996  1068A      1.482541  1069A      1.483819  
    1070A      1.484483  1071A      1.486519  1072A      1.488406  
    1073A      1.490341  1074A      1.492381  1075A      1.493586  
    1076A      1.497031  1077A      1.498089  1078A      1.498342  
    1079A      1.500707  1080A      1.502498  1081A      1.503816  
    1082A      1.504016  1083A      1.506678  1084A      1.507901  
    1085A      1.509168  1086A      1.510778  1087A      1.512188  
    1088A      1.515468  1089A      1.516379  1090A      1.516874  
    1091A      1.518968  1092A      1.519335  1093A      1.521459  
    1094A      1.523561  1095A      1.523826  1096A      1.525651  
    1097A      1.529143  1098A      1.530003  1099A      1.531176  
    1100A      1.532505  1101A      1.534447  1102A      1.534910  
    1103A      1.536922  1104A      1.537676  1105A      1.539767  
    1106A      1.540329  1107A      1.543389  1108A      1.544877  
    1109A      1.545679  1110A      1.547816  1111A      1.548259  
    1112A      1.550087  1113A      1.551644  1114A      1.552643  
    1115A      1.556065  1116A      1.558101  1117A      1.560347  
    1118A      1.561801  1119A      1.562162  1120A      1.564630  
    1121A      1.565807  1122A      1.566513  1123A      1.570065  
    1124A      1.571825  1125A      1.573479  1126A      1.575667  
    1127A      1.578142  1128A      1.579129  1129A      1.580484  
    1130A      1.581030  1131A      1.582573  1132A      1.585539  
    1133A      1.586525  1134A      1.588620  1135A      1.589832  
    1136A      1.591951  1137A      1.592189  1138A      1.595814  
    1139A      1.597266  1140A      1.599246  1141A      1.600444  
    1142A      1.601297  1143A      1.603190  1144A      1.606168  
    1145A      1.606377  1146A      1.609879  1147A      1.611197  
    1148A      1.612319  1149A      1.615628  1150A      1.617904  
    1151A      1.618086  1152A      1.619368  1153A      1.621686  
    1154A      1.625009  1155A      1.625554  1156A      1.625999  
    1157A      1.628953  1158A      1.630341  1159A      1.632586  
    1160A      1.633682  1161A      1.635305  1162A      1.636227  
    1163A      1.636691  1164A      1.640081  1165A      1.641388  
    1166A      1.642295  1167A      1.645074  1168A      1.646260  
    1169A      1.647746  1170A      1.648370  1171A      1.651416  
    1172A      1.653617  1173A      1.654364  1174A      1.656269  
    1175A      1.659104  1176A      1.659847  1177A      1.661996  
    1178A      1.662347  1179A      1.665114  1180A      1.666414  
    1181A      1.667979  1182A      1.672342  1183A      1.673001  
    1184A      1.673833  1185A      1.674933  1186A      1.675561  
    1187A      1.676307  1188A      1.677245  1189A      1.679599  
    1190A      1.680441  1191A      1.682319  1192A      1.686062  
    1193A      1.687917  1194A      1.688578  1195A      1.691613  
    1196A      1.692152  1197A      1.693754  1198A      1.695069  
    1199A      1.696143  1200A      1.697112  1201A      1.698844  
    1202A      1.701675  1203A      1.703537  1204A      1.704725  
    1205A      1.705853  1206A      1.706599  1207A      1.707537  
    1208A      1.712013  1209A      1.712218  1210A      1.714354  
    1211A      1.715667  1212A      1.717457  1213A      1.718089  
    1214A      1.722573  1215A      1.725037  1216A      1.726707  
    1217A      1.728391  1218A      1.729392  1219A      1.730192  
    1220A      1.732275  1221A      1.735337  1222A      1.736481  
    1223A      1.737477  1224A      1.738518  1225A      1.741185  
    1226A      1.741798  1227A      1.743102  1228A      1.744606  
    1229A      1.745675  1230A      1.747968  1231A      1.748583  
    1232A      1.750200  1233A      1.751332  1234A      1.752828  
    1235A      1.755216  1236A      1.756042  1237A      1.756689  
    1238A      1.762103  1239A      1.763442  1240A      1.763998  
    1241A      1.766999  1242A      1.769315  1243A      1.771378  
    1244A      1.771501  1245A      1.772368  1246A      1.773556  
    1247A      1.774503  1248A      1.777561  1249A      1.778813  
    1250A      1.780224  1251A      1.782230  1252A      1.784264  
    1253A      1.785238  1254A      1.786949  1255A      1.788067  
    1256A      1.788414  1257A      1.790804  1258A      1.794886  
    1259A      1.796571  1260A      1.798195  1261A      1.799618  
    1262A      1.799689  1263A      1.802588  1264A      1.805187  
    1265A      1.805417  1266A      1.806674  1267A      1.808295  
    1268A      1.809041  1269A      1.811713  1270A      1.814383  
    1271A      1.817374  1272A      1.818828  1273A      1.820072  
    1274A      1.821454  1275A      1.824403  1276A      1.825980  
    1277A      1.826661  1278A      1.827173  1279A      1.829804  
    1280A      1.830732  1281A      1.832438  1282A      1.834617  
    1283A      1.835840  1284A      1.837048  1285A      1.840475  
    1286A      1.843789  1287A      1.845652  1288A      1.846882  
    1289A      1.847744  1290A      1.849257  1291A      1.850785  
    1292A      1.852312  1293A      1.855056  1294A      1.855319  
    1295A      1.858137  1296A      1.859708  1297A      1.861403  
    1298A      1.862209  1299A      1.864033  1300A      1.867310  
    1301A      1.869176  1302A      1.869399  1303A      1.872227  
    1304A      1.872621  1305A      1.873540  1306A      1.875012  
    1307A      1.875829  1308A      1.879027  1309A      1.882732  
    1310A      1.884057  1311A      1.885696  1312A      1.888469  
    1313A      1.890274  1314A      1.890806  1315A      1.891084  
    1316A      1.892702  1317A      1.896431  1318A      1.898144  
    1319A      1.899471  1320A      1.900505  1321A      1.903539  
    1322A      1.906650  1323A      1.907766  1324A      1.910246  
    1325A      1.912080  1326A      1.912710  1327A      1.914191  
    1328A      1.916689  1329A      1.916841  1330A      1.918338  
    1331A      1.921057  1332A      1.922386  1333A      1.923246  
    1334A      1.926115  1335A      1.929618  1336A      1.930743  
    1337A      1.932023  1338A      1.933110  1339A      1.935025  
    1340A      1.937824  1341A      1.938718  1342A      1.940694  
    1343A      1.943741  1344A      1.945090  1345A      1.946457  
    1346A      1.947020  1347A      1.948560  1348A      1.949689  
    1349A      1.953678  1350A      1.953863  1351A      1.957252  
    1352A      1.958187  1353A      1.959466  1354A      1.961356  
    1355A      1.963141  1356A      1.964668  1357A      1.967050  
    1358A      1.970411  1359A      1.973844  1360A      1.974398  
    1361A      1.976095  1362A      1.978202  1363A      1.980405  
    1364A      1.981351  1365A      1.982123  1366A      1.985983  
    1367A      1.987245  1368A      1.987733  1369A      1.991880  
    1370A      1.993702  1371A      1.994176  1372A      1.995506  
    1373A      1.996621  1374A      1.998020  1375A      1.998938  
    1376A      2.000025  1377A      2.003785  1378A      2.004434  
    1379A      2.007271  1380A      2.008708  1381A      2.010908  
    1382A      2.012420  1383A      2.014569  1384A      2.016108  
    1385A      2.017421  1386A      2.020326  1387A      2.023777  
    1388A      2.026518  1389A      2.028510  1390A      2.029590  
    1391A      2.031778  1392A      2.033078  1393A      2.036177  
    1394A      2.036217  1395A      2.038848  1396A      2.041177  
    1397A      2.043032  1398A      2.045313  1399A      2.047398  
    1400A      2.048564  1401A      2.052097  1402A      2.053429  
    1403A      2.056649  1404A      2.057785  1405A      2.060100  
    1406A      2.061349  1407A      2.062477  1408A      2.063980  
    1409A      2.065129  1410A      2.066787  1411A      2.070002  
    1412A      2.072714  1413A      2.075691  1414A      2.076088  
    1415A      2.078244  1416A      2.079503  1417A      2.082735  
    1418A      2.085152  1419A      2.087359  1420A      2.088338  
    1421A      2.090673  1422A      2.091409  1423A      2.094239  
    1424A      2.094819  1425A      2.095748  1426A      2.098659  
    1427A      2.101409  1428A      2.101883  1429A      2.103327  
    1430A      2.104541  1431A      2.106514  1432A      2.108646  
    1433A      2.111925  1434A      2.114688  1435A      2.115761  
    1436A      2.118088  1437A      2.120052  1438A      2.121856  
    1439A      2.123804  1440A      2.125701  1441A      2.127346  
    1442A      2.129186  1443A      2.130854  1444A      2.134312  
    1445A      2.135982  1446A      2.136575  1447A      2.138420  
    1448A      2.140009  1449A      2.140757  1450A      2.146516  
    1451A      2.148194  1452A      2.149162  1453A      2.150946  
    1454A      2.153423  1455A      2.158316  1456A      2.159967  
    1457A      2.161311  1458A      2.163089  1459A      2.164327  
    1460A      2.166852  1461A      2.169850  1462A      2.170662  
    1463A      2.172106  1464A      2.173736  1465A      2.175982  
    1466A      2.177694  1467A      2.178911  1468A      2.179894  
    1469A      2.182896  1470A      2.184046  1471A      2.186686  
    1472A      2.188202  1473A      2.190819  1474A      2.193955  
    1475A      2.194383  1476A      2.197382  1477A      2.201290  
    1478A      2.203273  1479A      2.206353  1480A      2.206518  
    1481A      2.210913  1482A      2.211851  1483A      2.213217  
    1484A      2.216015  1485A      2.218596  1486A      2.219378  
    1487A      2.220526  1488A      2.225773  1489A      2.226998  
    1490A      2.227972  1491A      2.229734  1492A      2.231843  
    1493A      2.234033  1494A      2.237875  1495A      2.240809  
    1496A      2.242658  1497A      2.244741  1498A      2.247688  
    1499A      2.250576  1500A      2.251111  1501A      2.252616  
    1502A      2.255601  1503A      2.256383  1504A      2.260660  
    1505A      2.263103  1506A      2.265807  1507A      2.267022  
    1508A      2.267965  1509A      2.269573  1510A      2.272383  
    1511A      2.276581  1512A      2.278813  1513A      2.280655  
    1514A      2.281002  1515A      2.282277  1516A      2.285513  
    1517A      2.287840  1518A      2.289557  1519A      2.293088  
    1520A      2.294048  1521A      2.294821  1522A      2.296440  
    1523A      2.301399  1524A      2.302971  1525A      2.304992  
    1526A      2.307008  1527A      2.309703  1528A      2.312767  
    1529A      2.313444  1530A      2.316451  1531A      2.319293  
    1532A      2.321871  1533A      2.322660  1534A      2.324085  
    1535A      2.325289  1536A      2.326650  1537A      2.327873  
    1538A      2.331441  1539A      2.332424  1540A      2.332744  
    1541A      2.334419  1542A      2.336041  1543A      2.336459  
    1544A      2.340309  1545A      2.343823  1546A      2.345994  
    1547A      2.347768  1548A      2.351132  1549A      2.354345  
    1550A      2.354690  1551A      2.358107  1552A      2.360972  
    1553A      2.362855  1554A      2.366287  1555A      2.367840  
    1556A      2.368932  1557A      2.372995  1558A      2.374768  
    1559A      2.376046  1560A      2.378358  1561A      2.380295  
    1562A      2.382109  1563A      2.384761  1564A      2.387220  
    1565A      2.388580  1566A      2.391605  1567A      2.394300  
    1568A      2.395961  1569A      2.396213  1570A      2.399330  
    1571A      2.402441  1572A      2.405974  1573A      2.408158  
    1574A      2.410685  1575A      2.412114  1576A      2.413098  
    1577A      2.414636  1578A      2.416178  1579A      2.420705  
    1580A      2.424163  1581A      2.425769  1582A      2.427166  
    1583A      2.431068  1584A      2.432832  1585A      2.434742  
    1586A      2.436197  1587A      2.437080  1588A      2.441774  
    1589A      2.442963  1590A      2.446730  1591A      2.450340  
    1592A      2.452384  1593A      2.453048  1594A      2.453424  
    1595A      2.456932  1596A      2.461505  1597A      2.464305  
    1598A      2.465751  1599A      2.470635  1600A      2.471567  
    1601A      2.473740  1602A      2.474897  1603A      2.477479  
    1604A      2.479748  1605A      2.482326  1606A      2.483474  
    1607A      2.484777  1608A      2.485348  1609A      2.491523  
    1610A      2.494289  1611A      2.496472  1612A      2.497885  
    1613A      2.498926  1614A      2.503449  1615A      2.504657  
    1616A      2.506904  1617A      2.508728  1618A      2.512441  
    1619A      2.512910  1620A      2.516287  1621A      2.519533  
    1622A      2.523407  1623A      2.524973  1624A      2.527128  
    1625A      2.532188  1626A      2.532693  1627A      2.535287  
    1628A      2.537006  1629A      2.538983  1630A      2.541581  
    1631A      2.544558  1632A      2.546841  1633A      2.547281  
    1634A      2.551889  1635A      2.552995  1636A      2.554465  
    1637A      2.558493  1638A      2.559785  1639A      2.563282  
    1640A      2.566697  1641A      2.567896  1642A      2.569634  
    1643A      2.573111  1644A      2.574214  1645A      2.577216  
    1646A      2.579242  1647A      2.580837  1648A      2.586630  
    1649A      2.588286  1650A      2.592870  1651A      2.594490  
    1652A      2.596542  1653A      2.598403  1654A      2.602304  
    1655A      2.604340  1656A      2.605525  1657A      2.610256  
    1658A      2.612198  1659A      2.615171  1660A      2.616276  
    1661A      2.617489  1662A      2.618668  1663A      2.624996  
    1664A      2.627418  1665A      2.629607  1666A      2.632598  
    1667A      2.634023  1668A      2.636763  1669A      2.640250  
    1670A      2.642274  1671A      2.646517  1672A      2.647386  
    1673A      2.647655  1674A      2.652473  1675A      2.656844  
    1676A      2.657308  1677A      2.659985  1678A      2.663430  
    1679A      2.665855  1680A      2.666670  1681A      2.671428  
    1682A      2.673851  1683A      2.675257  1684A      2.678169  
    1685A      2.680077  1686A      2.681395  1687A      2.684903  
    1688A      2.685126  1689A      2.688376  1690A      2.689907  
    1691A      2.692081  1692A      2.693334  1693A      2.693984  
    1694A      2.696636  1695A      2.699356  1696A      2.701411  
    1697A      2.709387  1698A      2.710788  1699A      2.711207  
    1700A      2.713068  1701A      2.715615  1702A      2.722747  
    1703A      2.723837  1704A      2.726489  1705A      2.728316  
    1706A      2.732115  1707A      2.735897  1708A      2.737370  
    1709A      2.740484  1710A      2.741693  1711A      2.744812  
    1712A      2.746561  1713A      2.753094  1714A      2.755634  
    1715A      2.756664  1716A      2.759372  1717A      2.760548  
    1718A      2.764942  1719A      2.766892  1720A      2.767726  
    1721A      2.771963  1722A      2.773840  1723A      2.777836  
    1724A      2.779251  1725A      2.780664  1726A      2.784981  
    1727A      2.787888  1728A      2.788530  1729A      2.789971  
    1730A      2.791455  1731A      2.794464  1732A      2.798258  
    1733A      2.799542  1734A      2.802846  1735A      2.804438  
    1736A      2.811113  1737A      2.812617  1738A      2.814401  
    1739A      2.817158  1740A      2.819976  1741A      2.821973  
    1742A      2.826908  1743A      2.829413  1744A      2.830216  
    1745A      2.830997  1746A      2.833010  1747A      2.834786  
    1748A      2.835390  1749A      2.838125  1750A      2.842601  
    1751A      2.847585  1752A      2.849132  1753A      2.853033  
    1754A      2.856369  1755A      2.862001  1756A      2.863601  
    1757A      2.865408  1758A      2.867735  1759A      2.870014  
    1760A      2.874589  1761A      2.875790  1762A      2.880300  
    1763A      2.881181  1764A      2.885640  1765A      2.890080  
    1766A      2.891740  1767A      2.895031  1768A      2.896669  
    1769A      2.897158  1770A      2.901687  1771A      2.904925  
    1772A      2.907336  1773A      2.909312  1774A      2.910465  
    1775A      2.915485  1776A      2.919118  1777A      2.922132  
    1778A      2.924341  1779A      2.925500  1780A      2.932004  
    1781A      2.934651  1782A      2.936797  1783A      2.942832  
    1784A      2.945037  1785A      2.947823  1786A      2.949736  
    1787A      2.955104  1788A      2.957313  1789A      2.962570  
    1790A      2.966165  1791A      2.967973  1792A      2.971676  
    1793A      2.973740  1794A      2.978082  1795A      2.980154  
    1796A      2.983901  1797A      2.986502  1798A      2.988664  
    1799A      2.993134  1800A      2.995717  1801A      3.003934  
    1802A      3.007878  1803A      3.009475  1804A      3.010683  
    1805A      3.013049  1806A      3.022101  1807A      3.024335  
    1808A      3.027255  1809A      3.028460  1810A      3.032474  
    1811A      3.038792  1812A      3.041416  1813A      3.045952  
    1814A      3.049547  1815A      3.055714  1816A      3.060411  
    1817A      3.062806  1818A      3.067668  1819A      3.070891  
    1820A      3.073414  1821A      3.080063  1822A      3.085169  
    1823A      3.093547  1824A      3.095479  1825A      3.097418  
    1826A      3.101410  1827A      3.103721  1828A      3.110473  
    1829A      3.115956  1830A      3.121303  1831A      3.124872  
    1832A      3.126740  1833A      3.133090  1834A      3.134775  
    1835A      3.141416  1836A      3.142336  1837A      3.147072  
    1838A      3.149511  1839A      3.157441  1840A      3.160103  
    1841A      3.162380  1842A      3.170622  1843A      3.173044  
    1844A      3.174679  1845A      3.179294  1846A      3.187780  
    1847A      3.198593  1848A      3.199305  1849A      3.202603  
    1850A      3.204521  1851A      3.209462  1852A      3.218494  
    1853A      3.225795  1854A      3.230648  1855A      3.232299  
    1856A      3.238227  1857A      3.242775  1858A      3.248345  
    1859A      3.250940  1860A      3.252546  1861A      3.260836  
    1862A      3.267635  1863A      3.270906  1864A      3.279624  
    1865A      3.288096  1866A      3.290526  1867A      3.299125  
    1868A      3.305806  1869A      3.313690  1870A      3.316248  
    1871A      3.318872  1872A      3.328491  1873A      3.330222  
    1874A      3.340992  1875A      3.342898  1876A      3.348352  
    1877A      3.352850  1878A      3.360097  1879A      3.366766  
    1880A      3.374025  1881A      3.378369  1882A      3.383783  
    1883A      3.390406  1884A      3.392422  1885A      3.398770  
    1886A      3.404045  1887A      3.411175  1888A      3.415079  
    1889A      3.419715  1890A      3.421210  1891A      3.428145  
    1892A      3.434551  1893A      3.441526  1894A      3.446010  
    1895A      3.449136  1896A      3.451300  1897A      3.456502  
    1898A      3.464022  1899A      3.467309  1900A      3.469680  
    1901A      3.473744  1902A      3.479885  1903A      3.483241  
    1904A      3.491294  1905A      3.494095  1906A      3.495836  
    1907A      3.505755  1908A      3.508032  1909A      3.516819  
    1910A      3.519148  1911A      3.520885  1912A      3.529308  
    1913A      3.530426  1914A      3.535516  1915A      3.538856  
    1916A      3.540796  1917A      3.546397  1918A      3.550676  
    1919A      3.553600  1920A      3.556124  1921A      3.564448  
    1922A      3.571210  1923A      3.572164  1924A      3.574278  
    1925A      3.580304  1926A      3.588196  1927A      3.589529  
    1928A      3.590497  1929A      3.592949  1930A      3.594261  
    1931A      3.600232  1932A      3.607443  1933A      3.610923  
    1934A      3.614929  1935A      3.620437  1936A      3.623979  
    1937A      3.632087  1938A      3.635456  1939A      3.636984  
    1940A      3.640397  1941A      3.647903  1942A      3.648661  
    1943A      3.653032  1944A      3.653826  1945A      3.660320  
    1946A      3.663072  1947A      3.666447  1948A      3.670068  
    1949A      3.674840  1950A      3.677354  1951A      3.678962  
    1952A      3.680668  1953A      3.683934  1954A      3.689514  
    1955A      3.694884  1956A      3.695706  1957A      3.696059  
    1958A      3.703536  1959A      3.704452  1960A      3.706556  
    1961A      3.709855  1962A      3.710370  1963A      3.712266  
    1964A      3.718588  1965A      3.723522  1966A      3.725757  
    1967A      3.727561  1968A      3.731396  1969A      3.732560  
    1970A      3.737304  1971A      3.743470  1972A      3.744029  
    1973A      3.747234  1974A      3.748753  1975A      3.756135  
    1976A      3.758150  1977A      3.758963  1978A      3.763291  
    1979A      3.764760  1980A      3.772267  1981A      3.774657  
    1982A      3.776254  1983A      3.783154  1984A      3.787723  
    1985A      3.788571  1986A      3.792529  1987A      3.794381  
    1988A      3.795813  1989A      3.801345  1990A      3.802601  
    1991A      3.804663  1992A      3.807385  1993A      3.809239  
    1994A      3.813596  1995A      3.815513  1996A      3.819593  
    1997A      3.822764  1998A      3.826409  1999A      3.827641  
    2000A      3.830701  2001A      3.834952  2002A      3.836271  
    2003A      3.842055  2004A      3.844777  2005A      3.851551  
    2006A      3.855510  2007A      3.856512  2008A      3.859257  
    2009A      3.862867  2010A      3.865409  2011A      3.871025  
    2012A      3.872953  2013A      3.877256  2014A      3.882714  
    2015A      3.885039  2016A      3.886268  2017A      3.889595  
    2018A      3.896677  2019A      3.897407  2020A      3.898875  
    2021A      3.904071  2022A      3.907509  2023A      3.912743  
    2024A      3.913253  2025A      3.915063  2026A      3.917516  
    2027A      3.920246  2028A      3.921691  2029A      3.926789  
    2030A      3.929080  2031A      3.933098  2032A      3.935481  
    2033A      3.939559  2034A      3.941458  2035A      3.945531  
    2036A      3.949534  2037A      3.953729  2038A      3.958040  
    2039A      3.958380  2040A      3.961788  2041A      3.966388  
    2042A      3.970647  2043A      3.974446  2044A      3.981264  
    2045A      3.985224  2046A      3.989652  2047A      3.992478  
    2048A      3.994070  2049A      3.995623  2050A      3.998414  
    2051A      4.006917  2052A      4.007734  2053A      4.010648  
    2054A      4.013769  2055A      4.017398  2056A      4.019207  
    2057A      4.022134  2058A      4.025000  2059A      4.025564  
    2060A      4.031103  2061A      4.035929  2062A      4.038107  
    2063A      4.040742  2064A      4.046345  2065A      4.048295  
    2066A      4.051838  2067A      4.053896  2068A      4.055897  
    2069A      4.058347  2070A      4.059992  2071A      4.062923  
    2072A      4.067492  2073A      4.070095  2074A      4.072368  
    2075A      4.074675  2076A      4.078138  2077A      4.078823  
    2078A      4.081430  2079A      4.085714  2080A      4.087582  
    2081A      4.090509  2082A      4.093168  2083A      4.095434  
    2084A      4.101308  2085A      4.103589  2086A      4.106979  
    2087A      4.111935  2088A      4.114028  2089A      4.116286  
    2090A      4.118447  2091A      4.119918  2092A      4.121207  
    2093A      4.126150  2094A      4.131438  2095A      4.135447  
    2096A      4.135586  2097A      4.137825  2098A      4.138628  
    2099A      4.142024  2100A      4.143764  2101A      4.146630  
    2102A      4.148643  2103A      4.149862  2104A      4.155271  
    2105A      4.156729  2106A      4.159910  2107A      4.162526  
    2108A      4.163259  2109A      4.166627  2110A      4.169619  
    2111A      4.170289  2112A      4.175843  2113A      4.178032  
    2114A      4.180049  2115A      4.181810  2116A      4.186444  
    2117A      4.188771  2118A      4.192143  2119A      4.192891  
    2120A      4.194376  2121A      4.199380  2122A      4.199818  
    2123A      4.202199  2124A      4.202781  2125A      4.207156  
    2126A      4.208235  2127A      4.210315  2128A      4.212817  
    2129A      4.219131  2130A      4.221874  2131A      4.224146  
    2132A      4.226096  2133A      4.228302  2134A      4.232647  
    2135A      4.234043  2136A      4.237182  2137A      4.241887  
    2138A      4.244749  2139A      4.245696  2140A      4.246856  
    2141A      4.250560  2142A      4.252110  2143A      4.256595  
    2144A      4.257336  2145A      4.260026  2146A      4.261621  
    2147A      4.265110  2148A      4.267511  2149A      4.270628  
    2150A      4.273617  2151A      4.274850  2152A      4.276854  
    2153A      4.277869  2154A      4.281302  2155A      4.284318  
    2156A      4.287176  2157A      4.288266  2158A      4.290125  
    2159A      4.292370  2160A      4.297586  2161A      4.300090  
    2162A      4.302908  2163A      4.304064  2164A      4.306525  
    2165A      4.309156  2166A      4.314877  2167A      4.316520  
    2168A      4.317666  2169A      4.318398  2170A      4.320564  
    2171A      4.321431  2172A      4.325925  2173A      4.326490  
    2174A      4.330462  2175A      4.333146  2176A      4.335569  
    2177A      4.339387  2178A      4.340776  2179A      4.342631  
    2180A      4.344935  2181A      4.347391  2182A      4.349481  
    2183A      4.352028  2184A      4.353217  2185A      4.354362  
    2186A      4.357641  2187A      4.359152  2188A      4.361938  
    2189A      4.364179  2190A      4.367668  2191A      4.369358  
    2192A      4.370667  2193A      4.373292  2194A      4.376365  
    2195A      4.379560  2196A      4.382224  2197A      4.383886  
    2198A      4.384851  2199A      4.387642  2200A      4.389151  
    2201A      4.393021  2202A      4.395341  2203A      4.398219  
    2204A      4.400205  2205A      4.402548  2206A      4.404186  
    2207A      4.405346  2208A      4.408085  2209A      4.408654  
    2210A      4.413118  2211A      4.414071  2212A      4.415246  
    2213A      4.416824  2214A      4.421252  2215A      4.422855  
    2216A      4.425048  2217A      4.429344  2218A      4.432569  
    2219A      4.433258  2220A      4.437532  2221A      4.438964  
    2222A      4.441655  2223A      4.443605  2224A      4.444044  
    2225A      4.448483  2226A      4.448877  2227A      4.452121  
    2228A      4.452953  2229A      4.455744  2230A      4.459552  
    2231A      4.461294  2232A      4.462792  2233A      4.465968  
    2234A      4.468200  2235A      4.468901  2236A      4.470931  
    2237A      4.473873  2238A      4.476900  2239A      4.477692  
    2240A      4.478605  2241A      4.481388  2242A      4.482169  
    2243A      4.485744  2244A      4.487061  2245A      4.490902  
    2246A      4.491547  2247A      4.493188  2248A      4.495289  
    2249A      4.500127  2250A      4.503054  2251A      4.506574  
    2252A      4.507729  2253A      4.510219  2254A      4.511429  
    2255A      4.512949  2256A      4.517001  2257A      4.518953  
    2258A      4.521486  2259A      4.522572  2260A      4.526529  
    2261A      4.527913  2262A      4.530350  2263A      4.534189  
    2264A      4.537556  2265A      4.538897  2266A      4.541215  
    2267A      4.543466  2268A      4.546782  2269A      4.547608  
    2270A      4.553239  2271A      4.554123  2272A      4.556382  
    2273A      4.558734  2274A      4.560724  2275A      4.562719  
    2276A      4.564323  2277A      4.567251  2278A      4.571637  
    2279A      4.573903  2280A      4.575182  2281A      4.577242  
    2282A      4.581877  2283A      4.584986  2284A      4.586462  
    2285A      4.588878  2286A      4.591830  2287A      4.593362  
    2288A      4.594019  2289A      4.597567  2290A      4.599105  
    2291A      4.600375  2292A      4.604972  2293A      4.606799  
    2294A      4.608712  2295A      4.613043  2296A      4.614273  
    2297A      4.615242  2298A      4.623075  2299A      4.624851  
    2300A      4.627156  2301A      4.629191  2302A      4.633348  
    2303A      4.636067  2304A      4.638946  2305A      4.641176  
    2306A      4.643164  2307A      4.646941  2308A      4.649057  
    2309A      4.651721  2310A      4.652566  2311A      4.653607  
    2312A      4.656411  2313A      4.659037  2314A      4.661020  
    2315A      4.664226  2316A      4.666927  2317A      4.670068  
    2318A      4.673742  2319A      4.674318  2320A      4.676929  
    2321A      4.679153  2322A      4.681028  2323A      4.683231  
    2324A      4.684999  2325A      4.687096  2326A      4.690111  
    2327A      4.692252  2328A      4.693633  2329A      4.695574  
    2330A      4.697433  2331A      4.701665  2332A      4.704591  
    2333A      4.706597  2334A      4.711696  2335A      4.713799  
    2336A      4.716459  2337A      4.718156  2338A      4.721559  
    2339A      4.724801  2340A      4.725658  2341A      4.727578  
    2342A      4.728937  2343A      4.731913  2344A      4.733975  
    2345A      4.738104  2346A      4.740234  2347A      4.742108  
    2348A      4.743341  2349A      4.745974  2350A      4.747519  
    2351A      4.749922  2352A      4.752556  2353A      4.757531  
    2354A      4.758014  2355A      4.759116  2356A      4.763957  
    2357A      4.766292  2358A      4.771623  2359A      4.772859  
    2360A      4.774397  2361A      4.777009  2362A      4.780816  
    2363A      4.782716  2364A      4.783830  2365A      4.788463  
    2366A      4.790604  2367A      4.795881  2368A      4.796208  
    2369A      4.798209  2370A      4.800333  2371A      4.801261  
    2372A      4.803873  2373A      4.806695  2374A      4.809592  
    2375A      4.813997  2376A      4.814896  2377A      4.818246  
    2378A      4.819596  2379A      4.821511  2380A      4.823136  
    2381A      4.827576  2382A      4.830968  2383A      4.833509  
    2384A      4.836563  2385A      4.836750  2386A      4.839931  
    2387A      4.842118  2388A      4.844235  2389A      4.847212  
    2390A      4.850836  2391A      4.851898  2392A      4.854416  
    2393A      4.857858  2394A      4.858603  2395A      4.862236  
    2396A      4.863870  2397A      4.865223  2398A      4.867441  
    2399A      4.869918  2400A      4.872063  2401A      4.877939  
    2402A      4.880556  2403A      4.881103  2404A      4.884998  
    2405A      4.885547  2406A      4.887821  2407A      4.892323  
    2408A      4.896022  2409A      4.899078  2410A      4.901836  
    2411A      4.903022  2412A      4.905272  2413A      4.906520  
    2414A      4.910345  2415A      4.912505  2416A      4.916182  
    2417A      4.916845  2418A      4.920897  2419A      4.924101  
    2420A      4.927306  2421A      4.930663  2422A      4.934122  
    2423A      4.936026  2424A      4.938693  2425A      4.939729  
    2426A      4.943389  2427A      4.945958  2428A      4.947442  
    2429A      4.951593  2430A      4.956716  2431A      4.959309  
    2432A      4.961960  2433A      4.962998  2434A      4.965961  
    2435A      4.968348  2436A      4.971133  2437A      4.972513  
    2438A      4.973988  2439A      4.977892  2440A      4.980106  
    2441A      4.980590  2442A      4.986202  2443A      4.987808  
    2444A      4.990254  2445A      4.992909  2446A      4.993722  
    2447A      4.997985  2448A      5.000206  2449A      5.004384  
    2450A      5.006747  2451A      5.007835  2452A      5.011324  
    2453A      5.016267  2454A      5.020037  2455A      5.022920  
    2456A      5.025916  2457A      5.028074  2458A      5.029422  
    2459A      5.031263  2460A      5.032491  2461A      5.038531  
    2462A      5.042153  2463A      5.042844  2464A      5.045315  
    2465A      5.051495  2466A      5.053352  2467A      5.053633  
    2468A      5.054922  2469A      5.059317  2470A      5.060671  
    2471A      5.063371  2472A      5.064072  2473A      5.066963  
    2474A      5.070698  2475A      5.072060  2476A      5.074251  
    2477A      5.076188  2478A      5.079292  2479A      5.081973  
    2480A      5.083742  2481A      5.087381  2482A      5.090438  
    2483A      5.093024  2484A      5.095597  2485A      5.098526  
    2486A      5.101420  2487A      5.104313  2488A      5.104355  
    2489A      5.105795  2490A      5.109655  2491A      5.113805  
    2492A      5.114831  2493A      5.116925  2494A      5.119855  
    2495A      5.122768  2496A      5.125145  2497A      5.126314  
    2498A      5.131471  2499A      5.131628  2500A      5.136490  
    2501A      5.138164  2502A      5.140901  2503A      5.144702  
    2504A      5.145757  2505A      5.150075  2506A      5.153291  
    2507A      5.156463  2508A      5.159375  2509A      5.161968  
    2510A      5.164503  2511A      5.167239  2512A      5.170319  
    2513A      5.171104  2514A      5.171936  2515A      5.179972  
    2516A      5.182216  2517A      5.184780  2518A      5.185926  
    2519A      5.191247  2520A      5.193672  2521A      5.196955  
    2522A      5.199786  2523A      5.202213  2524A      5.205836  
    2525A      5.207273  2526A      5.210797  2527A      5.214792  
    2528A      5.219076  2529A      5.220109  2530A      5.221560  
    2531A      5.225571  2532A      5.227276  2533A      5.232113  
    2534A      5.233497  2535A      5.236539  2536A      5.240609  
    2537A      5.243306  2538A      5.244977  2539A      5.248951  
    2540A      5.251414  2541A      5.253834  2542A      5.255772  
    2543A      5.260302  2544A      5.264296  2545A      5.266639  
    2546A      5.268662  2547A      5.270045  2548A      5.276432  
    2549A      5.279646  2550A      5.283903  2551A      5.284684  
    2552A      5.285464  2553A      5.289993  2554A      5.293212  
    2555A      5.294953  2556A      5.296516  2557A      5.298090  
    2558A      5.300404  2559A      5.301663  2560A      5.306934  
    2561A      5.308269  2562A      5.314021  2563A      5.316502  
    2564A      5.317523  2565A      5.320717  2566A      5.324763  
    2567A      5.329150  2568A      5.331522  2569A      5.336024  
    2570A      5.338142  2571A      5.342825  2572A      5.346505  
    2573A      5.347514  2574A      5.349242  2575A      5.350800  
    2576A      5.355363  2577A      5.362615  2578A      5.364741  
    2579A      5.365956  2580A      5.369711  2581A      5.370289  
    2582A      5.373172  2583A      5.374335  2584A      5.377921  
    2585A      5.383532  2586A      5.386128  2587A      5.390373  
    2588A      5.391235  2589A      5.394147  2590A      5.394775  
    2591A      5.397614  2592A      5.400366  2593A      5.403181  
    2594A      5.409629  2595A      5.410957  2596A      5.416048  
    2597A      5.417983  2598A      5.424742  2599A      5.425397  
    2600A      5.427164  2601A      5.428533  2602A      5.432393  
    2603A      5.440029  2604A      5.442682  2605A      5.444144  
    2606A      5.446104  2607A      5.449608  2608A      5.451274  
    2609A      5.455778  2610A      5.460335  2611A      5.465692  
    2612A      5.468906  2613A      5.471754  2614A      5.475420  
    2615A      5.479398  2616A      5.482251  2617A      5.485072  
    2618A      5.487319  2619A      5.489446  2620A      5.491869  
    2621A      5.494941  2622A      5.496939  2623A      5.499791  
    2624A      5.503654  2625A      5.506091  2626A      5.509811  
    2627A      5.515521  2628A      5.522584  2629A      5.522907  
    2630A      5.524953  2631A      5.529131  2632A      5.532758  
    2633A      5.535806  2634A      5.539130  2635A      5.542777  
    2636A      5.544440  2637A      5.548831  2638A      5.550795  
    2639A      5.552925  2640A      5.554103  2641A      5.561202  
    2642A      5.566663  2643A      5.569075  2644A      5.571210  
    2645A      5.572708  2646A      5.573858  2647A      5.578881  
    2648A      5.580870  2649A      5.585294  2650A      5.590315  
    2651A      5.593219  2652A      5.594356  2653A      5.598324  
    2654A      5.599515  2655A      5.603579  2656A      5.606380  
    2657A      5.608768  2658A      5.612836  2659A      5.613973  
    2660A      5.616331  2661A      5.618036  2662A      5.621851  
    2663A      5.623236  2664A      5.624128  2665A      5.628252  
    2666A      5.633334  2667A      5.634625  2668A      5.639439  
    2669A      5.644376  2670A      5.648630  2671A      5.652002  
    2672A      5.653919  2673A      5.661466  2674A      5.662948  
    2675A      5.668483  2676A      5.672364  2677A      5.674722  
    2678A      5.678842  2679A      5.680470  2680A      5.683975  
    2681A      5.685178  2682A      5.686410  2683A      5.689240  
    2684A      5.694595  2685A      5.695652  2686A      5.699403  
    2687A      5.701537  2688A      5.704975  2689A      5.708859  
    2690A      5.711651  2691A      5.713498  2692A      5.714923  
    2693A      5.717560  2694A      5.724609  2695A      5.727300  
    2696A      5.730310  2697A      5.733537  2698A      5.739111  
    2699A      5.741109  2700A      5.743625  2701A      5.746370  
    2702A      5.750570  2703A      5.752032  2704A      5.754269  
    2705A      5.758309  2706A      5.760845  2707A      5.765731  
    2708A      5.771091  2709A      5.779689  2710A      5.781886  
    2711A      5.782957  2712A      5.785719  2713A      5.795613  
    2714A      5.796846  2715A      5.799475  2716A      5.803512  
    2717A      5.811817  2718A      5.814917  2719A      5.818841  
    2720A      5.823305  2721A      5.825631  2722A      5.828675  
    2723A      5.833450  2724A      5.834494  2725A      5.838207  
    2726A      5.842158  2727A      5.853296  2728A      5.861758  
    2729A      5.863429  2730A      5.867612  2731A      5.872211  
    2732A      5.876307  2733A      5.879675  2734A      5.882608  
    2735A      5.887161  2736A      5.890918  2737A      5.894627  
    2738A      5.896536  2739A      5.906712  2740A      5.908008  
    2741A      5.919610  2742A      5.922235  2743A      5.925642  
    2744A      5.926700  2745A      5.930456  2746A      5.932387  
    2747A      5.934363  2748A      5.941023  2749A      5.947725  
    2750A      5.952187  2751A      5.961737  2752A      5.963935  
    2753A      5.970079  2754A      5.971647  2755A      5.978627  
    2756A      5.980702  2757A      5.984982  2758A      5.989736  
    2759A      5.994924  2760A      5.998145  2761A      6.007436  
    2762A      6.011946  2763A      6.016404  2764A      6.022161  
    2765A      6.027383  2766A      6.033031  2767A      6.036407  
    2768A      6.039284  2769A      6.040052  2770A      6.045758  
    2771A      6.052373  2772A      6.056895  2773A      6.063935  
    2774A      6.066642  2775A      6.068284  2776A      6.077019  
    2777A      6.079091  2778A      6.084073  2779A      6.089709  
    2780A      6.093873  2781A      6.099693  2782A      6.102186  
    2783A      6.106334  2784A      6.108804  2785A      6.116056  
    2786A      6.121072  2787A      6.124621  2788A      6.129367  
    2789A      6.130567  2790A      6.137345  2791A      6.141061  
    2792A      6.151710  2793A      6.155602  2794A      6.165835  
    2795A      6.169308  2796A      6.173025  2797A      6.178679  
    2798A      6.188028  2799A      6.191648  2800A      6.200485  
    2801A      6.202673  2802A      6.215426  2803A      6.218279  
    2804A      6.220870  2805A      6.223333  2806A      6.231246  
    2807A      6.238731  2808A      6.241823  2809A      6.246188  
    2810A      6.250645  2811A      6.257519  2812A      6.260206  
    2813A      6.264588  2814A      6.266842  2815A      6.270332  
    2816A      6.273325  2817A      6.278763  2818A      6.285189  
    2819A      6.292819  2820A      6.299601  2821A      6.307389  
    2822A      6.310705  2823A      6.313534  2824A      6.327272  
    2825A      6.342050  2826A      6.346523  2827A      6.350749  
    2828A      6.359709  2829A      6.362395  2830A      6.367701  
    2831A      6.368359  2832A      6.380955  2833A      6.392446  
    2834A      6.396123  2835A      6.406134  2836A      6.418450  
    2837A      6.419574  2838A      6.425117  2839A      6.427321  
    2840A      6.441371  2841A      6.450807  2842A      6.467434  
    2843A      6.479644  2844A      6.484626  2845A      6.499549  
    2846A      6.522393  2847A      6.535678  2848A      6.545861  
    2849A      6.550429  2850A      6.571823  2851A      6.586308  
    2852A      6.600554  2853A      6.605100  2854A      6.611269  
    2855A      6.621233  2856A      6.629519  2857A      6.641716  
    2858A      6.647133  2859A      6.654964  2860A      6.666137  
    2861A      6.674904  2862A      6.677546  2863A      6.687146  
    2864A      6.701446  2865A      6.717368  2866A      6.728802  
    2867A      6.730322  2868A      6.739897  2869A      6.743928  
    2870A      6.752267  2871A      6.769950  2872A      6.778682  
    2873A      6.797130  2874A      6.802509  2875A      6.816058  
    2876A      6.820442  2877A      6.826837  2878A      6.840974  
    2879A      6.844388  2880A      6.848672  2881A      6.851807  
    2882A      6.865679  2883A      6.869496  2884A      6.871385  
    2885A      6.891200  2886A      6.899605  2887A      6.908374  
    2888A      6.910593  2889A      6.926450  2890A      6.929107  
    2891A      6.936065  2892A      6.941260  2893A      6.943974  
    2894A      6.957140  2895A      6.962967  2896A      6.976663  
    2897A      6.987415  2898A      7.001882  2899A      7.009198  
    2900A      7.019889  2901A      7.022136  2902A      7.034155  
    2903A      7.036863  2904A      7.050939  2905A      7.057705  
    2906A      7.064297  2907A      7.071322  2908A      7.081015  
    2909A      7.086224  2910A      7.101397  2911A      7.110555  
    2912A      7.112154  2913A      7.124856  2914A      7.136409  
    2915A      7.145842  2916A      7.152030  2917A      7.160362  
    2918A      7.169230  2919A      7.179692  2920A      7.184437  
    2921A      7.201989  2922A      7.206706  2923A      7.226164  
    2924A      7.236828  2925A      7.244015  2926A      7.270487  
    2927A      7.287172  2928A      7.294438  2929A      7.321590  
    2930A      7.343152  2931A      7.354516  2932A      7.367447  
    2933A      7.379836  2934A      7.384979  2935A      7.409394  
    2936A      7.415703  2937A      7.433330  2938A      7.450408  
    2939A      7.466543  2940A      7.475153  2941A      7.482165  
    2942A      7.500523  2943A      7.512884  2944A      7.520317  
    2945A      7.543779  2946A      7.557342  2947A      7.569384  
    2948A      7.593465  2949A      7.614921  2950A      7.636953  
    2951A      7.645538  2952A      7.668156  2953A      7.689136  
    2954A      7.701041  2955A      7.708797  2956A      7.732062  
    2957A      7.738503  2958A      7.744319  2959A      7.766464  
    2960A      7.778829  2961A      7.787222  2962A      7.797735  
    2963A      7.812113  2964A      7.817769  2965A      7.829436  
    2966A      7.839426  2967A      7.854680  2968A      7.872042  
    2969A      7.893938  2970A      7.900916  2971A      7.909834  
    2972A      7.940170  2973A      7.943763  2974A      7.982923  
    2975A      7.997713  2976A      8.014988  2977A      8.084253  
    2978A      8.105679  2979A      8.151953  2980A      8.172487  
    2981A      8.185099  2982A      8.219974  2983A      8.228404  
    2984A      8.245607  2985A      8.283560  2986A      8.288193  
    2987A      8.322771  2988A      8.335335  2989A      8.387583  
    2990A      8.399130  2991A      8.417360  2992A      8.434542  
    2993A      8.460220  2994A      8.489035  2995A      8.594590  
    2996A      8.609102  2997A      8.628909  2998A      8.657942  
    2999A      8.698334  3000A      8.729599  3001A      8.791193  
    3002A      8.859438  3003A      8.894984  3004A      9.007605  
    3005A      9.016196  3006A      9.063759  3007A      9.194831  
    3008A      9.294701  3009A      9.377016  3010A      9.440062  
    3011A      9.576489  3012A      9.605346  3013A      9.665041  
    3014A      9.743425  3015A      9.746757  3016A      9.815334  
    3017A      9.930915  3018A      9.959719  3019A      9.994785  
    3020A     10.034057  3021A     10.040692  3022A     10.107090  
    3023A     10.130952  3024A     10.221020  3025A     10.309885  
    3026A     10.365653  3027A     10.442506  3028A     10.516690  
    3029A     10.554898  3030A     10.692639  3031A     10.737357  
    3032A     10.818824  3033A     10.960887  3034A     11.044943  
    3035A     11.163947  3036A     11.236425  3037A     11.289933  
    3038A     11.383065  3039A     11.398733  3040A     11.452150  
    3041A     11.659953  3042A     11.837643  3043A     11.891667  
    3044A     11.972937  3045A     12.138739  3046A     12.221184  
    3047A     12.280113  3048A     12.323735  3049A     12.539980  
    3050A     12.621350  3051A     12.676818  3052A     15.963195  
    3053A     16.365565  3054A     16.736276  3055A     17.236971  
    3056A     17.576508  3057A     17.812656  3058A     17.940293  
    3059A     18.389842  3060A     18.861827  3061A     19.211202  
    3062A     19.645790  3063A     20.041086  3064A     20.432378  
    3065A     20.933651  3066A     21.471446  3067A     22.045389  
    3068A     22.302049  3069A     22.528840  3070A     22.613488  
    3071A     22.915451  3072A     23.040703  3073A     23.615725  
    3074A     23.919869  3075A     24.054061  3076A     49.702386  
    3077A     50.656356  3078A     51.444903  3079A     52.212567  
    3080A     52.833706  3081A     53.347411  3082A     53.693034  
    3083A     54.260787  3084A     55.096452  3085A     55.718520  
    3086A     56.650180  3087A     57.447089  3088A     57.986598  
    3089A     58.762495  3090A     59.753862  3091A     60.558988  
    3092A     61.019628  3093A     61.623715  3094A     61.837627  
    3095A     62.422502  3096A     62.647230  3097A     63.603419  
    3098A     63.940623  3099A     64.241411  

    Final Occupation by Irrep:
              A 
    DOCC [    82 ]
    NA   [    82 ]
    NB   [    82 ]

  @DF-RHF Final Energy:  -920.82436378597333

   => Energetics <=

    Nuclear Repulsion Energy =           1864.8412087392382546
    One-Electron Energy =               -4953.2406340840298071
    Two-Electron Energy =                2167.5750615588185610
    Total Energy =                       -920.8243637859732189

Computation Completed


Properties will be evaluated at   0.000000,   0.000000,   0.000000 [a0]

Properties computed using the SCF density matrix


 Multipole Moments:

 ------------------------------------------------------------------------------------
     Multipole            Electronic (a.u.)      Nuclear  (a.u.)        Total (a.u.)
 ------------------------------------------------------------------------------------

 L = 1.  Multiply by 2.5417464519 to convert [e a0] to [Debye]
 Dipole X            :      -5244.8695088         5244.7985666           -0.0709422
 Dipole Y            :      -3214.2092285         3213.8331896           -0.3760389
 Dipole Z            :      -6901.1683983         6901.1289601           -0.0394382
 Magnitude           :                                                    0.3846992

 ------------------------------------------------------------------------------------

*** tstop() called on atl1-1-03-004-15-2.pace.gatech.edu at Mon Jun 15 11:41:20 2026
Module time:
	user time   =   29175.76 seconds =     486.26 minutes
	system time =    2298.11 seconds =      38.30 minutes
	total time  =       4993 seconds =      83.22 minutes
Total time:
	user time   =   29175.76 seconds =     486.26 minutes
	system time =    2298.11 seconds =      38.30 minutes
	total time  =       4993 seconds =      83.22 minutes

*** tstart() called on atl1-1-03-004-15-2.pace.gatech.edu
*** at Mon Jun 15 11:41:20 2026


  //>>>>>>>>>>>>>>>>>>>>>>>>>>>>>>>>>>>//
  //               DFMP2               //
  //<<<<<<<<<<<<<<<<<<<<<<<<<<<<<<<<<<<//

   => Loading Basis Set <=

    Name: (AUG-CC-PVTZ AUX)
    Role: RIFIT
    Keyword: DF_BASIS_MP2
    atoms 1-24, 45-68  entry C          line   148 file /storage/home/hcoda1/5/vlita3/.conda/envs/p4_qcml/share/psi4/basis/aug-cc-pvtz-ri.gbs 
    atoms 25-44, 69-88 entry H          line    30 file /storage/home/hcoda1/5/vlita3/.conda/envs/p4_qcml/share/psi4/basis/aug-cc-pvtz-ri.gbs 

	 --------------------------------------------------------
	                          DF-MP2                         
	      2nd-Order Density-Fitted Moller-Plesset Theory     
	              RMP2 Wavefunction,  10 Threads             
	                                                         
	        Rob Parrish, Justin Turney, Andy Simmonett,      
	           Ed Hohenstein, and C. David Sherrill          
	 --------------------------------------------------------

   => Auxiliary Basis Set <=

  Basis Set: (AUG-CC-PVTZ AUX)
    Blend: AUG-CC-PVTZ-RI
    Number of shells: 1904
    Number of basis functions: 6928
    Number of Cartesian functions: 8728
    Spherical Harmonics?: true
    Max angular momentum: 4

	 --------------------------------------------------------
	                 NBF =  3128, NAUX =  6928
	 --------------------------------------------------------
	   CLASS    FOCC     OCC    AOCC    AVIR     VIR    FVIR
	   PAIRS       0      82      82    3017    3017       0
	 --------------------------------------------------------

	-----------------------------------------------------------
	 ==================> DF-MP2 Energies <==================== 
	-----------------------------------------------------------
	 Reference Energy          =    -920.8243637859733326 [Eh]
	 Singles Energy            =      -0.0000000000000000 [Eh]
	 Same-Spin Energy          =      -1.0685239672429592 [Eh]
	 Opposite-Spin Energy      =      -3.3097967122574672 [Eh]
	 Correlation Energy        =      -4.3783206795004261 [Eh]
	 Total Energy              =    -925.2026844654737943 [Eh]
	-----------------------------------------------------------
	 ================> DF-SCS-MP2 Energies <================== 
	-----------------------------------------------------------
	 SCS Same-Spin Scale       =       0.3333333333333333 [-]
	 SCS Opposite-Spin Scale   =       1.2000000000000000 [-]
	 SCS Same-Spin Energy      =      -0.3561746557476531 [Eh]
	 SCS Opposite-Spin Energy  =      -3.9717560547089605 [Eh]
	 SCS Correlation Energy    =      -4.3279307104566138 [Eh]
	 SCS Total Energy          =    -925.1522944964299313 [Eh]
	-----------------------------------------------------------


*** tstop() called on atl1-1-03-004-15-2.pace.gatech.edu at Mon Jun 15 12:01:43 2026
Module time:
	user time   =   10368.55 seconds =     172.81 minutes
	system time =      94.74 seconds =       1.58 minutes
	total time  =       1223 seconds =      20.38 minutes
Total time:
	user time   =   39544.31 seconds =     659.07 minutes
	system time =    2392.86 seconds =      39.88 minutes
	total time  =       6216 seconds =     103.60 minutes

    Psi4 stopped on: Monday, 15 June 2026 12:01PM
    Psi4 wall time for execution: 1:43:39.49

*** Psi4 exiting successfully. Buy a developer a beer!
