
    -----------------------------------------------------------------------
          Psi4: An Open-Source Ab Initio Electronic Structure Package
                               Psi4 1.9.1 release

                         Git: Rev {} zzzzzzz 


    D. G. A. Smith, L. A. Burns, A. C. Simmonett, R. M. Parrish,
    M. C. Schieber, R. Galvelis, P. Kraus, H. Kruse, R. Di Remigio,
    A. Alenaizan, A. M. James, S. Lehtola, J. P. Misiewicz, M. Scheurer,
    R. A. Shaw, J. B. Schriber, Y. Xie, Z. L. Glick, D. A. Sirianni,
    J. S. O'Brien, J. M. Waldrop, A. Kumar, E. G. Hohenstein,
    B. P. Pritchard, B. R. Brooks, H. F. Schaefer III, A. Yu. Sokolov,
    K. Patkowski, A. E. DePrince III, U. Bozkaya, R. A. King,
    F. A. Evangelista, J. M. Turney, T. D. Crawford, C. D. Sherrill,
    J. Chem. Phys. 152(18) 184108 (2020). https://doi.org/10.1063/5.0006002

                            Additional Code Authors
    E. T. Seidl, C. L. Janssen, E. F. Valeev, M. L. Leininger,
    J. F. Gonthier, R. M. Richard, H. R. McAlexander, M. Saitow, X. Wang,
    P. Verma, M. H. Lechner, A. Jiang, S. Behnle, A. G. Heide,
    M. F. Herbst, and D. L. Poole

             Previous Authors, Complete List of Code Contributors,
                       and Citations for Specific Modules
    https://github.com/psi4/psi4/blob/master/codemeta.json
    https://github.com/psi4/psi4/graphs/contributors
    http://psicode.org/psi4manual/master/introduction.html#citing-psifour

    -----------------------------------------------------------------------


    Psi4 started on: Saturday, 13 June 2026 05:01PM

    Process ID: 4142176
    Host:       atl1-1-03-004-7-1.pace.gatech.edu
    PSIDATADIR: /storage/home/hcoda1/5/vlita3/.conda/envs/p4_qcml/share/psi4
    Memory:     250.0 GiB
    Threads:    10
    
  ==> Input QCSchema <==

--------------------------------------------------------------------------
{'driver': 'energy',
 'extras': {},
 'id': '272',
 'keywords': {},
 'model': {'basis': 'aug-cc-pvtz', 'method': 'mp2'},
 'molecule': {'extras': {},
              'fix_com': True,
              'fix_orientation': True,
              'fragment_charges': [0.0, 0.0],
              'fragment_multiplicities': [1, 1],
              'fragments': [[0, 1, 2, 3, 4, 5, 6, 7, 8, 9, 10, 11, 12, 13, 14, 15, 16, 17, 18, 19, 20, 21, 22, 23, 24,
                             25, 26, 27, 28, 29, 30, 31, 32, 33, 34, 35, 36, 37, 38, 39, 40, 41, 42, 43, 44, 45, 46, 47,
                             48, 49, 50, 51, 52, 53, 54, 55],
                            [56, 57, 58, 59, 60, 61, 62, 63, 64, 65, 66, 67, 68, 69, 70, 71, 72, 73, 74, 75, 76, 77, 78,
                             79, 80, 81, 82, 83, 84, 85, 86, 87, 88, 89, 90, 91, 92, 93, 94, 95, 96, 97, 98, 99, 100,
                             101, 102, 103, 104, 105, 106, 107, 108, 109, 110, 111]],
              'geometry': [39.18725066, 24.74029443, 4.00810911, 37.91546498, 22.14947992, 3.77378307, 35.03363264,
                           22.26853266, 4.05535227, 33.7429497, 19.68527705, 3.82102623, 30.85922763, 19.81566815,
                           4.07613925, 29.56287551, 17.23808172, 3.82858513, 26.67726371, 17.37792145, 4.05535227,
                           25.37335269, 14.80600419, 3.78890088, 22.48774089, 14.95907201, 3.99866048, 21.17249151,
                           12.3909342, 3.72653992, 18.28876944, 12.55534038, 3.93818925, 16.9621817, 9.99287175,
                           3.67551731, 14.08034936, 10.16483683, 3.9060639, 12.74809244, 7.60425793, 3.66417896,
                           9.86814983, 7.77811273, 3.92685089, 8.53400318, 5.21564411, 3.71142211, 5.65595029,
                           5.38571946, 4.00621939, 4.34070091, 2.8138022, 3.80590842, 2.28845834, 3.00088509,
                           4.00432966, 38.81875407, 25.57933283, 5.86570989, 41.23760351, 24.59667525, 3.76811389,
                           38.46915474, 26.04798491, 2.57191726, 38.38222733, 21.31233124, 1.93318983, 38.68647324,
                           20.86635588, 5.21186465, 34.56120111, 23.10568134, 5.89594551, 34.26073465, 23.5516567,
                           2.61538096, 34.22860931, 18.8424592, 1.98610216, 34.50072987, 18.40782219, 5.27044616,
                           30.37356801, 20.65281683, 5.91484277, 30.10333718, 21.10257164, 2.63238849, 30.06365293,
                           16.39337414, 1.99744051, 30.30175842, 15.95495768, 5.28556397, 26.17648629, 18.2131804,
                           5.89027633, 25.94216025, 18.67049412, 2.60593233, 25.88168901, 13.96507607, 1.95964599,
                           26.09711779, 13.51532125, 5.24776945, 21.97940457, 15.79433096, 5.83169482, 21.76586551,
                           16.25353441, 2.54546109, 21.67893811, 11.5518958, 1.89728503, 21.89247716, 11.09647181,
                           5.18351876, 17.78610229, 13.3962685, 5.76933386, 17.56878379, 13.8516925, 2.48310013,
                           17.45540022, 9.14816417, 1.84248297, 17.68594681, 8.69651963, 5.1287167, 13.59468975,
                           11.01521359, 5.73909824, 13.3528048, 11.4574095, 2.45286451, 13.21863425, 6.7557709,
                           1.82925489, 13.48697536, 6.31168526, 5.1135989, 9.4032772, 8.63604839, 5.76177496,
                           9.12359773, 9.0631265, 2.47743095, 8.983758, 4.35959817, 1.87271859, 9.29178336, 3.92874061,
                           5.15517287, 5.21186465, 6.2493243, 5.84114345, 4.90005984, 6.66506404, 2.55868917,
                           4.72431531, 1.92563092, 1.9747638, 5.00966396, 1.52500898, 5.28367425, 9.39004912,
                           8.90249978, -3.87960774, 8.09936617, 6.31924416, -4.11393378, 5.21753383, 6.43829691,
                           -3.83236458, 3.94574815, 3.84748239, -4.06669062, 12.27188146, 8.77210867, -4.13661049,
                           13.57012331, 11.35158484, -3.88716664, 16.45384537, 11.20985538, -4.11393378, 17.75964613,
                           13.78177263, -3.84748239, 20.64525792, 13.62870482, -4.05724199, 21.95861758, 16.19684262,
                           -3.78512143, 24.84422937, 16.03243645, -3.99677076, 26.16892739, 18.5967948, -3.73409882,
                           29.05075973, 18.42294, -3.96464541, 30.38301665, 20.98540862, -3.72276047, 33.26295926,
                           20.80966409, -3.98732212, 34.5971059, 23.37213272, -3.77000362, 37.47515879, 23.20205737,
                           -4.0648009, 38.79040818, 25.77397463, -3.86637965, 40.84265075, 25.58878146, -4.0648009,
                           38.12144513, 27.06276784, -5.34414548, 37.91924443, 22.33845253, -5.89972496, 38.23104924,
                           21.92271278, -2.61727068, 34.14735109, 24.23006838, -1.93318983, 33.83932573, 24.65903621,
                           -5.21564411, 33.72783189, 19.95172843, -5.82035647, 34.00751135, 19.52465033, -2.53601246,
                           29.91247484, 21.83389565, -1.8878364, 29.64413373, 22.27609157, -5.17218041, 29.53641934,
                           17.57256324, -5.79767975, 29.78019401, 17.13225705, -2.51144602, 25.67759859, 19.43961265,
                           -1.90106448, 25.44516228, 19.8912572, -5.18729821, 25.34500679, 15.19150832, -5.82791537,
                           25.5623253, 14.73797405, -2.54168164, 21.45217098, 17.03777075, -1.95586654, 21.24052165,
                           17.49130502, -5.24210027, 21.15359425, 12.79344587, -5.89027633, 21.3671333, 12.33424242,
                           -2.6040426, 17.24942007, 14.62270076, -2.02011723, 17.03588102, 15.07245558, -5.30635096,
                           16.9546228, 10.37459643, -5.95074757, 17.18894884, 9.91728271, -2.66451384, 13.06934588,
                           12.19440269, -2.05791175, 12.82935067, 12.63281915, -5.34414548, 12.75754107, 7.93684973,
                           -5.97531401, 13.02777191, 7.48520518, -2.69285973, 8.9043895, 9.74531763, -2.04468367,
                           8.57179771, 5.48209549, -5.95641675, 8.87037443, 5.03612012, -2.67585219, 4.75077148,
                           7.27544558, -1.99177134, 4.44652557, 7.72142095, -5.27044616, 1.8953953, 3.99110158,
                           -3.82858513, 4.31424474, 3.00844399, -5.92618113, 4.66384408, 2.53979191, -2.63238849,
                           8.63037921, 10.17995464, -5.3309174, 38.40679377, 26.6621459, -2.03334531],
              'id': 14,
              'identifiers': {'molecular_formula': 'C36H76',
                              'molecule_hash': '50a7586feb101e20a452f7f17161f8f38cf3c226'},
              'masses': [12.0, 12.0, 12.0, 12.0, 12.0, 12.0, 12.0, 12.0, 12.0, 12.0, 12.0, 12.0, 12.0, 12.0, 12.0, 12.0,
                         12.0, 12.0, 1.00782503223, 1.00782503223, 1.00782503223, 1.00782503223, 1.00782503223,
                         1.00782503223, 1.00782503223, 1.00782503223, 1.00782503223, 1.00782503223, 1.00782503223,
                         1.00782503223, 1.00782503223, 1.00782503223, 1.00782503223, 1.00782503223, 1.00782503223,
                         1.00782503223, 1.00782503223, 1.00782503223, 1.00782503223, 1.00782503223, 1.00782503223,
                         1.00782503223, 1.00782503223, 1.00782503223, 1.00782503223, 1.00782503223, 1.00782503223,
                         1.00782503223, 1.00782503223, 1.00782503223, 1.00782503223, 1.00782503223, 1.00782503223,
                         1.00782503223, 1.00782503223, 1.00782503223, 12.0, 12.0, 12.0, 12.0, 12.0, 12.0, 12.0, 12.0,
                         12.0, 12.0, 12.0, 12.0, 12.0, 12.0, 12.0, 12.0, 12.0, 12.0, 1.00782503223, 1.00782503223,
                         1.00782503223, 1.00782503223, 1.00782503223, 1.00782503223, 1.00782503223, 1.00782503223,
                         1.00782503223, 1.00782503223, 1.00782503223, 1.00782503223, 1.00782503223, 1.00782503223,
                         1.00782503223, 1.00782503223, 1.00782503223, 1.00782503223, 1.00782503223, 1.00782503223,
                         1.00782503223, 1.00782503223, 1.00782503223, 1.00782503223, 1.00782503223, 1.00782503223,
                         1.00782503223, 1.00782503223, 1.00782503223, 1.00782503223, 1.00782503223, 1.00782503223,
                         1.00782503223, 1.00782503223, 1.00782503223, 1.00782503223, 1.00782503223, 1.00782503223],
              'molecular_charge': 0.0,
              'molecular_multiplicity': 1,
              'name': 'C36H76 ([0],[1])',
              'provenance': {'creator': 'QCElemental',
                             'routine': 'qcelemental.molparse.from_schema',
                             'version': '0.29.0'},
              'real': [True, True, True, True, True, True, True, True, True, True, True, True, True, True, True, True,
                       True, True, True, True, True, True, True, True, True, True, True, True, True, True, True, True,
                       True, True, True, True, True, True, True, True, True, True, True, True, True, True, True, True,
                       True, True, True, True, True, True, True, True, False, False, False, False, False, False, False,
                       False, False, False, False, False, False, False, False, False, False, False, False, False, False,
                       False, False, False, False, False, False, False, False, False, False, False, False, False, False,
                       False, False, False, False, False, False, False, False, False, False, False, False, False, False,
                       False, False, False, False, False, False, False],
              'schema_name': 'qcschema_molecule',
              'schema_version': 2,
              'symbols': ['C', 'C', 'C', 'C', 'C', 'C', 'C', 'C', 'C', 'C', 'C', 'C', 'C', 'C', 'C', 'C', 'C', 'C', 'H',
                          'H', 'H', 'H', 'H', 'H', 'H', 'H', 'H', 'H', 'H', 'H', 'H', 'H', 'H', 'H', 'H', 'H', 'H', 'H',
                          'H', 'H', 'H', 'H', 'H', 'H', 'H', 'H', 'H', 'H', 'H', 'H', 'H', 'H', 'H', 'H', 'H', 'H', 'C',
                          'C', 'C', 'C', 'C', 'C', 'C', 'C', 'C', 'C', 'C', 'C', 'C', 'C', 'C', 'C', 'C', 'C', 'H', 'H',
                          'H', 'H', 'H', 'H', 'H', 'H', 'H', 'H', 'H', 'H', 'H', 'H', 'H', 'H', 'H', 'H', 'H', 'H', 'H',
                          'H', 'H', 'H', 'H', 'H', 'H', 'H', 'H', 'H', 'H', 'H', 'H', 'H', 'H', 'H', 'H', 'H'],
              'validated': True},
 'protocols': {},
 'provenance': {'creator': 'QCElemental', 'routine': 'qcelemental.models.results', 'version': '0.29.0'},
 'schema_name': 'qcschema_input',
 'schema_version': 1}
--------------------------------------------------------------------------

Scratch directory: /tmp/tmpugqanmz4_psi_scratch/
    SCF Algorithm Type (re)set to DF.
   => Libint2 <=

    Primary   basis highest AM E, G, H:  6, 6, 3
    Auxiliary basis highest AM E, G, H:  7, 7, 4
    Onebody   basis highest AM E, G, H:  -, -, -
    Solid Harmonics ordering:            Gaussian

*** tstart() called on atl1-1-03-004-7-1.pace.gatech.edu
*** at Sat Jun 13 17:01:16 2026

   => Loading Basis Set <=

    Name: AUG-CC-PVTZ
    Role: ORBITAL
    Keyword: BASIS
    atoms 1-18, 57-74   entry C          line   239 file /storage/home/hcoda1/5/vlita3/.conda/envs/p4_qcml/share/psi4/basis/aug-cc-pvtz.gbs 
    atoms 19-56, 75-112 entry H          line    40 file /storage/home/hcoda1/5/vlita3/.conda/envs/p4_qcml/share/psi4/basis/aug-cc-pvtz.gbs 


         ---------------------------------------------------------
                                   SCF
               by Justin Turney, Rob Parrish, Andy Simmonett
                          and Daniel G. A. Smith
                              RHF Reference
                       10 Threads, 256000 MiB Core
         ---------------------------------------------------------

  ==> Geometry <==

    Molecular point group: c1
    Full point group: C1

    Geometry (in Bohr), charge = 0, multiplicity = 1:

       Center              X                  Y                   Z               Mass       
    ------------   -----------------  -----------------  -----------------  -----------------
         C           39.187250660000    24.740294430000     4.008109110000    12.000000000000
         C           37.915464980000    22.149479920000     3.773783070000    12.000000000000
         C           35.033632640000    22.268532660000     4.055352270000    12.000000000000
         C           33.742949700000    19.685277050000     3.821026230000    12.000000000000
         C           30.859227630000    19.815668150000     4.076139250000    12.000000000000
         C           29.562875510000    17.238081720000     3.828585130000    12.000000000000
         C           26.677263710000    17.377921450000     4.055352270000    12.000000000000
         C           25.373352690000    14.806004190000     3.788900880000    12.000000000000
         C           22.487740890000    14.959072010000     3.998660480000    12.000000000000
         C           21.172491510000    12.390934200000     3.726539920000    12.000000000000
         C           18.288769440000    12.555340380000     3.938189250000    12.000000000000
         C           16.962181700000     9.992871750000     3.675517310000    12.000000000000
         C           14.080349360000    10.164836830000     3.906063900000    12.000000000000
         C           12.748092440000     7.604257930000     3.664178960000    12.000000000000
         C            9.868149830000     7.778112730000     3.926850890000    12.000000000000
         C            8.534003180000     5.215644110000     3.711422110000    12.000000000000
         C            5.655950290000     5.385719460000     4.006219390000    12.000000000000
         C            4.340700910000     2.813802200000     3.805908420000    12.000000000000
         H            2.288458340000     3.000885090000     4.004329660000     1.007825032230
         H           38.818754070000    25.579332830000     5.865709890000     1.007825032230
         H           41.237603510000    24.596675250000     3.768113890000     1.007825032230
         H           38.469154740000    26.047984910000     2.571917260000     1.007825032230
         H           38.382227330000    21.312331240000     1.933189830000     1.007825032230
         H           38.686473240000    20.866355880000     5.211864650000     1.007825032230
         H           34.561201110000    23.105681340000     5.895945510000     1.007825032230
         H           34.260734650000    23.551656700000     2.615380960000     1.007825032230
         H           34.228609310000    18.842459200000     1.986102160000     1.007825032230
         H           34.500729870000    18.407822190000     5.270446160000     1.007825032230
         H           30.373568010000    20.652816830000     5.914842770000     1.007825032230
         H           30.103337180000    21.102571640000     2.632388490000     1.007825032230
         H           30.063652930000    16.393374140000     1.997440510000     1.007825032230
         H           30.301758420000    15.954957680000     5.285563970000     1.007825032230
         H           26.176486290000    18.213180400000     5.890276330000     1.007825032230
         H           25.942160250000    18.670494120000     2.605932330000     1.007825032230
         H           25.881689010000    13.965076070000     1.959645990000     1.007825032230
         H           26.097117790000    13.515321250000     5.247769450000     1.007825032230
         H           21.979404570000    15.794330960000     5.831694820000     1.007825032230
         H           21.765865510000    16.253534410000     2.545461090000     1.007825032230
         H           21.678938110000    11.551895800000     1.897285030000     1.007825032230
         H           21.892477160000    11.096471810000     5.183518760000     1.007825032230
         H           17.786102290000    13.396268500000     5.769333860000     1.007825032230
         H           17.568783790000    13.851692500000     2.483100130000     1.007825032230
         H           17.455400220000     9.148164170000     1.842482970000     1.007825032230
         H           17.685946810000     8.696519630000     5.128716700000     1.007825032230
         H           13.594689750000    11.015213590000     5.739098240000     1.007825032230
         H           13.352804800000    11.457409500000     2.452864510000     1.007825032230
         H           13.218634250000     6.755770900000     1.829254890000     1.007825032230
         H           13.486975360000     6.311685260000     5.113598900000     1.007825032230
         H            9.403277200000     8.636048390000     5.761774960000     1.007825032230
         H            9.123597730000     9.063126500000     2.477430950000     1.007825032230
         H            8.983758000000     4.359598170000     1.872718590000     1.007825032230
         H            9.291783360000     3.928740610000     5.155172870000     1.007825032230
         H            5.211864650000     6.249324300000     5.841143450000     1.007825032230
         H            4.900059840000     6.665064040000     2.558689170000     1.007825032230
         H            4.724315310000     1.925630920000     1.974763800000     1.007825032230
         H            5.009663960000     1.525008980000     5.283674250000     1.007825032230
      Gh(C)           9.390049120000     8.902499780000    -3.879607740000    12.000000000000
      Gh(C)           8.099366170000     6.319244160000    -4.113933780000    12.000000000000
      Gh(C)           5.217533830000     6.438296910000    -3.832364580000    12.000000000000
      Gh(C)           3.945748150000     3.847482390000    -4.066690620000    12.000000000000
      Gh(C)          12.271881460000     8.772108670000    -4.136610490000    12.000000000000
      Gh(C)          13.570123310000    11.351584840000    -3.887166640000    12.000000000000
      Gh(C)          16.453845370000    11.209855380000    -4.113933780000    12.000000000000
      Gh(C)          17.759646130000    13.781772630000    -3.847482390000    12.000000000000
      Gh(C)          20.645257920000    13.628704820000    -4.057241990000    12.000000000000
      Gh(C)          21.958617580000    16.196842620000    -3.785121430000    12.000000000000
      Gh(C)          24.844229370000    16.032436450000    -3.996770760000    12.000000000000
      Gh(C)          26.168927390000    18.596794800000    -3.734098820000    12.000000000000
      Gh(C)          29.050759730000    18.422940000000    -3.964645410000    12.000000000000
      Gh(C)          30.383016650000    20.985408620000    -3.722760470000    12.000000000000
      Gh(C)          33.262959260000    20.809664090000    -3.987322120000    12.000000000000
      Gh(C)          34.597105900000    23.372132720000    -3.770003620000    12.000000000000
      Gh(C)          37.475158790000    23.202057370000    -4.064800900000    12.000000000000
      Gh(C)          38.790408180000    25.773974630000    -3.866379650000    12.000000000000
      Gh(H)          40.842650750000    25.588781460000    -4.064800900000     1.007825032230
      Gh(H)          38.121445130000    27.062767840000    -5.344145480000     1.007825032230
      Gh(H)          37.919244430000    22.338452530000    -5.899724960000     1.007825032230
      Gh(H)          38.231049240000    21.922712780000    -2.617270680000     1.007825032230
      Gh(H)          34.147351090000    24.230068380000    -1.933189830000     1.007825032230
      Gh(H)          33.839325730000    24.659036210000    -5.215644110000     1.007825032230
      Gh(H)          33.727831890000    19.951728430000    -5.820356470000     1.007825032230
      Gh(H)          34.007511350000    19.524650330000    -2.536012460000     1.007825032230
      Gh(H)          29.912474840000    21.833895650000    -1.887836400000     1.007825032230
      Gh(H)          29.644133730000    22.276091570000    -5.172180410000     1.007825032230
      Gh(H)          29.536419340000    17.572563240000    -5.797679750000     1.007825032230
      Gh(H)          29.780194010000    17.132257050000    -2.511446020000     1.007825032230
      Gh(H)          25.677598590000    19.439612650000    -1.901064480000     1.007825032230
      Gh(H)          25.445162280000    19.891257200000    -5.187298210000     1.007825032230
      Gh(H)          25.345006790000    15.191508320000    -5.827915370000     1.007825032230
      Gh(H)          25.562325300000    14.737974050000    -2.541681640000     1.007825032230
      Gh(H)          21.452170980000    17.037770750000    -1.955866540000     1.007825032230
      Gh(H)          21.240521650000    17.491305020000    -5.242100270000     1.007825032230
      Gh(H)          21.153594250000    12.793445870000    -5.890276330000     1.007825032230
      Gh(H)          21.367133300000    12.334242420000    -2.604042600000     1.007825032230
      Gh(H)          17.249420070000    14.622700760000    -2.020117230000     1.007825032230
      Gh(H)          17.035881020000    15.072455580000    -5.306350960000     1.007825032230
      Gh(H)          16.954622800000    10.374596430000    -5.950747570000     1.007825032230
      Gh(H)          17.188948840000     9.917282710000    -2.664513840000     1.007825032230
      Gh(H)          13.069345880000    12.194402690000    -2.057911750000     1.007825032230
      Gh(H)          12.829350670000    12.632819150000    -5.344145480000     1.007825032230
      Gh(H)          12.757541070000     7.936849730000    -5.975314010000     1.007825032230
      Gh(H)          13.027771910000     7.485205180000    -2.692859730000     1.007825032230
      Gh(H)           8.904389500000     9.745317630000    -2.044683670000     1.007825032230
      Gh(H)           8.571797710000     5.482095490000    -5.956416750000     1.007825032230
      Gh(H)           8.870374430000     5.036120120000    -2.675852190000     1.007825032230
      Gh(H)           4.750771480000     7.275445580000    -1.991771340000     1.007825032230
      Gh(H)           4.446525570000     7.721420950000    -5.270446160000     1.007825032230
      Gh(H)           1.895395300000     3.991101580000    -3.828585130000     1.007825032230
      Gh(H)           4.314244740000     3.008443990000    -5.926181130000     1.007825032230
      Gh(H)           4.663844080000     2.539791910000    -2.632388490000     1.007825032230
      Gh(H)           8.630379210000    10.179954640000    -5.330917400000     1.007825032230
      Gh(H)          38.406793770000    26.662145900000    -2.033345310000     1.007825032230

  Running in c1 symmetry.

  Rotational constants: A =      0.00674  B =      0.00014  C =      0.00014 [cm^-1]
  Rotational constants: A =    202.03768  B =      4.27015  C =      4.19674 [MHz]
  Nuclear repulsion = 1177.196919444696050

  Charge       = 0
  Multiplicity = 1
  Electrons    = 146
  Nalpha       = 73
  Nbeta        = 73

  ==> Algorithm <==

  SCF Algorithm Type is DF.
  DIIS enabled.
  MOM disabled.
  Fractional occupation disabled.
  Guess Type is SAD.
  Energy threshold   = 1.00e-08
  Density threshold  = 1.00e-08
  Integral threshold = 1.00e-12

  ==> Primary Basis <==

  Basis Set: AUG-CC-PVTZ
    Blend: AUG-CC-PVTZ
    Number of shells: 1188
    Number of basis functions: 3404
    Number of Cartesian functions: 3880
    Spherical Harmonics?: true
    Max angular momentum: 3

   => Loading Basis Set <=

    Name: (AUG-CC-PVTZ AUX)
    Role: JKFIT
    Keyword: DF_BASIS_SCF
    atoms 1-18, 57-74   entry C          line   162 file /storage/home/hcoda1/5/vlita3/.conda/envs/p4_qcml/share/psi4/basis/aug-cc-pvtz-jkfit.gbs 
    atoms 19-56, 75-112 entry H          line    70 file /storage/home/hcoda1/5/vlita3/.conda/envs/p4_qcml/share/psi4/basis/aug-cc-pvtz-jkfit.gbs 

  ==> Integral Setup <==

  ==> DiskDFJK: Density-Fitted J/K Matrices <==

    J tasked:                  Yes
    K tasked:                  Yes
    wK tasked:                  No
    OpenMP threads:             10
    Integrals threads:          10
    Memory [MiB]:           192000
    Algorithm:                Core
    Integral Cache:           NONE
    Schwarz Cutoff:          1E-12
    Fitting Condition:       1E-10

   => Auxiliary Basis Set <=

  Basis Set: (AUG-CC-PVTZ AUX)
    Blend: AUG-CC-PVTZ-JKFIT
    Number of shells: 2144
    Number of basis functions: 7240
    Number of Cartesian functions: 8896
    Spherical Harmonics?: true
    Max angular momentum: 4

  Minimum eigenvalue in the overlap matrix is 2.2061596341E-08.
  Reciprocal condition number of the overlap matrix is 6.8411741151E-10.
    Using canonical orthogonalization.
  Overall, 1 of 3404 possible MOs eliminated.


  ==> Pre-Iterations <==

  SCF Guess: Superposition of Atomic Densities via on-the-fly atomic UHF (no occupation information).

   -------------------------
    Irrep   Nso     Nmo    
   -------------------------
     A       3404    3403 
   -------------------------
    Total    3404    3403
   -------------------------

  ==> Iterations <==

                           Total Energy        Delta E     RMS |[F,P]|

   @DF-RHF iter SAD:  -703.54829135607201   -7.03548e+02   0.00000e+00 
   @DF-RHF iter   1:  -703.17526001490069    3.73031e-01   3.34390e-04 DIIS/ADIIS
   @DF-RHF iter   2:  -703.88655567131389   -7.11296e-01   1.43828e-04 DIIS/ADIIS
   @DF-RHF iter   3:  -704.01497215944323   -1.28416e-01   2.74446e-05 DIIS
   @DF-RHF iter   4:  -704.02466353274383   -9.69137e-03   4.35010e-06 DIIS
   @DF-RHF iter   5:  -704.02485882952169   -1.95297e-04   1.65156e-06 DIIS
   @DF-RHF iter   6:  -704.02488221170131   -2.33822e-05   2.35597e-07 DIIS
   @DF-RHF iter   7:  -704.02488295592855   -7.44227e-07   6.25603e-08 DIIS
   @DF-RHF iter   8:  -704.02488299256731   -3.66388e-08   1.59404e-08 DIIS
   @DF-RHF iter   9:  -704.02488299516972   -2.60241e-09   3.79402e-09 DIIS
  Energy and wave function converged.


  ==> Post-Iterations <==

    Orbital Energies [Eh]
    ---------------------

    Doubly Occupied:                                                      

       1A    -11.215692     2A    -11.215679     3A    -11.213544  
       4A    -11.213530     5A    -11.213338     6A    -11.213318  
       7A    -11.213202     8A    -11.213116     9A    -11.212987  
      10A    -11.212869    11A    -11.212741    12A    -11.212621  
      13A    -11.212513    14A    -11.212394    15A    -11.212281  
      16A    -11.212137    17A    -11.210172    18A    -11.210078  
      19A     -1.094755    20A     -1.088105    21A     -1.076811  
      22A     -1.061110    23A     -1.041101    24A     -1.017036  
      25A     -0.989149    26A     -0.958003    27A     -0.924085  
      28A     -0.888550    29A     -0.852959    30A     -0.820401  
      31A     -0.795197    32A     -0.785571    33A     -0.782509  
      34A     -0.781478    35A     -0.777346    36A     -0.776062  
      37A     -0.660226    38A     -0.654198    39A     -0.644142  
      40A     -0.630345    41A     -0.613388    42A     -0.593797  
      43A     -0.589914    44A     -0.588682    45A     -0.579015  
      46A     -0.572352    47A     -0.571576    48A     -0.562052  
      49A     -0.550055    50A     -0.542744    51A     -0.540583  
      52A     -0.528008    53A     -0.521295    54A     -0.507535  
      55A     -0.503616    56A     -0.501739    57A     -0.489742  
      58A     -0.484863    59A     -0.475636    60A     -0.472444  
      61A     -0.465527    62A     -0.464468    63A     -0.462645  
      64A     -0.459460    65A     -0.456893    66A     -0.456873  
      67A     -0.456494    68A     -0.455583    69A     -0.455538  
      70A     -0.453281    71A     -0.451510    72A     -0.431514  
      73A     -0.408694  

    Virtual:                                                              

      74A      0.016727    75A      0.018273    76A      0.023504  
      77A      0.026814    78A      0.029049    79A      0.029547  
      80A      0.030603    81A      0.031845    82A      0.034492  
      83A      0.037533    84A      0.038054    85A      0.040778  
      86A      0.041690    87A      0.042319    88A      0.046271  
      89A      0.046798    90A      0.049179    91A      0.049941  
      92A      0.051008    93A      0.052617    94A      0.057094  
      95A      0.057408    96A      0.058540    97A      0.061631  
      98A      0.062187    99A      0.062301   100A      0.065093  
     101A      0.065925   102A      0.066365   103A      0.066798  
     104A      0.069799   105A      0.071284   106A      0.072350  
     107A      0.074165   108A      0.074882   109A      0.075416  
     110A      0.078588   111A      0.080252   112A      0.081396  
     113A      0.081547   114A      0.083371   115A      0.084810  
     116A      0.085928   117A      0.086407   118A      0.088766  
     119A      0.089087   120A      0.091432   121A      0.092970  
     122A      0.093533   123A      0.094456   124A      0.095058  
     125A      0.098383   126A      0.098621   127A      0.099186  
     128A      0.099408   129A      0.101990   130A      0.104000  
     131A      0.106628   132A      0.106801   133A      0.107197  
     134A      0.108265   135A      0.108724   136A      0.111108  
     137A      0.111994   138A      0.113783   139A      0.114413  
     140A      0.114457   141A      0.117119   142A      0.117780  
     143A      0.119434   144A      0.120219   145A      0.121017  
     146A      0.122690   147A      0.123640   148A      0.124214  
     149A      0.124642   150A      0.126400   151A      0.126782  
     152A      0.127646   153A      0.128401   154A      0.131098  
     155A      0.131575   156A      0.131770   157A      0.133134  
     158A      0.135197   159A      0.136103   160A      0.139387  
     161A      0.139732   162A      0.140785   163A      0.141565  
     164A      0.142597   165A      0.144500   166A      0.145243  
     167A      0.146745   168A      0.148042   169A      0.149847  
     170A      0.151236   171A      0.151896   172A      0.153304  
     173A      0.153611   174A      0.154195   175A      0.154537  
     176A      0.155163   177A      0.156926   178A      0.157375  
     179A      0.157725   180A      0.159328   181A      0.160338  
     182A      0.162368   183A      0.162862   184A      0.164630  
     185A      0.166555   186A      0.169505   187A      0.170628  
     188A      0.171481   189A      0.172068   190A      0.172366  
     191A      0.173296   192A      0.173943   193A      0.174929  
     194A      0.176607   195A      0.178530   196A      0.179337  
     197A      0.179635   198A      0.183244   199A      0.184081  
     200A      0.185309   201A      0.185387   202A      0.187486  
     203A      0.188808   204A      0.189582   205A      0.189664  
     206A      0.190976   207A      0.191238   208A      0.192295  
     209A      0.192641   210A      0.194765   211A      0.196834  
     212A      0.197970   213A      0.199570   214A      0.201325  
     215A      0.201670   216A      0.202595   217A      0.203825  
     218A      0.204088   219A      0.204776   220A      0.205921  
     221A      0.206251   222A      0.208059   223A      0.208845  
     224A      0.210944   225A      0.211817   226A      0.212238  
     227A      0.214057   228A      0.214644   229A      0.216848  
     230A      0.217779   231A      0.218835   232A      0.219149  
     233A      0.221157   234A      0.223155   235A      0.224312  
     236A      0.227376   237A      0.227998   238A      0.228166  
     239A      0.229466   240A      0.230681   241A      0.231735  
     242A      0.233363   243A      0.234958   244A      0.235479  
     245A      0.236888   246A      0.238187   247A      0.239202  
     248A      0.240974   249A      0.241469   250A      0.244159  
     251A      0.244766   252A      0.245667   253A      0.246644  
     254A      0.248524   255A      0.251030   256A      0.251894  
     257A      0.252921   258A      0.253884   259A      0.256429  
     260A      0.258392   261A      0.259632   262A      0.260900  
     263A      0.261848   264A      0.264764   265A      0.266300  
     266A      0.267029   267A      0.268689   268A      0.270256  
     269A      0.270995   270A      0.272155   271A      0.272539  
     272A      0.274360   273A      0.275179   274A      0.276327  
     275A      0.278175   276A      0.280374   277A      0.282668  
     278A      0.283756   279A      0.283856   280A      0.286573  
     281A      0.287604   282A      0.287666   283A      0.288612  
     284A      0.290115   285A      0.291027   286A      0.292666  
     287A      0.294414   288A      0.295405   289A      0.295697  
     290A      0.296493   291A      0.299008   292A      0.299646  
     293A      0.299867   294A      0.301176   295A      0.302561  
     296A      0.303399   297A      0.306494   298A      0.309129  
     299A      0.309658   300A      0.310491   301A      0.312694  
     302A      0.313788   303A      0.314807   304A      0.315596  
     305A      0.317305   306A      0.320046   307A      0.321795  
     308A      0.322524   309A      0.323209   310A      0.323741  
     311A      0.325202   312A      0.327838   313A      0.329769  
     314A      0.332156   315A      0.333281   316A      0.335003  
     317A      0.335501   318A      0.336216   319A      0.337030  
     320A      0.338986   321A      0.339941   322A      0.341291  
     323A      0.341709   324A      0.342363   325A      0.342677  
     326A      0.343603   327A      0.344307   328A      0.346601  
     329A      0.347741   330A      0.348108   331A      0.349826  
     332A      0.350966   333A      0.351891   334A      0.353012  
     335A      0.353560   336A      0.354216   337A      0.355259  
     338A      0.356506   339A      0.357398   340A      0.358195  
     341A      0.360183   342A      0.361434   343A      0.363229  
     344A      0.363834   345A      0.364552   346A      0.366107  
     347A      0.367935   348A      0.368907   349A      0.370096  
     350A      0.370238   351A      0.370446   352A      0.372000  
     353A      0.372622   354A      0.374405   355A      0.375244  
     356A      0.376514   357A      0.378159   358A      0.378871  
     359A      0.379046   360A      0.379795   361A      0.380824  
     362A      0.382093   363A      0.383329   364A      0.383907  
     365A      0.384927   366A      0.385650   367A      0.386662  
     368A      0.387385   369A      0.388457   370A      0.388959  
     371A      0.390722   372A      0.391873   373A      0.392362  
     374A      0.393029   375A      0.394024   376A      0.395832  
     377A      0.396704   378A      0.397552   379A      0.398155  
     380A      0.398880   381A      0.401367   382A      0.401977  
     383A      0.402651   384A      0.404083   385A      0.404115  
     386A      0.405206   387A      0.405640   388A      0.405970  
     389A      0.406761   390A      0.409614   391A      0.409913  
     392A      0.412499   393A      0.412681   394A      0.413344  
     395A      0.414812   396A      0.415964   397A      0.416518  
     398A      0.418061   399A      0.419417   400A      0.419994  
     401A      0.420123   402A      0.421950   403A      0.422275  
     404A      0.423533   405A      0.424844   406A      0.426394  
     407A      0.427460   408A      0.428920   409A      0.429294  
     410A      0.429389   411A      0.430696   412A      0.433557  
     413A      0.434741   414A      0.435883   415A      0.436315  
     416A      0.437473   417A      0.440354   418A      0.440696  
     419A      0.441058   420A      0.442712   421A      0.443800  
     422A      0.444199   423A      0.446723   424A      0.448541  
     425A      0.449677   426A      0.450000   427A      0.451708  
     428A      0.452565   429A      0.453581   430A      0.454080  
     431A      0.455886   432A      0.456497   433A      0.458793  
     434A      0.460455   435A      0.461584   436A      0.462004  
     437A      0.462617   438A      0.464169   439A      0.464621  
     440A      0.465746   441A      0.467921   442A      0.468302  
     443A      0.470459   444A      0.471563   445A      0.472877  
     446A      0.473184   447A      0.473629   448A      0.475073  
     449A      0.476374   450A      0.477166   451A      0.477480  
     452A      0.478944   453A      0.481638   454A      0.483408  
     455A      0.483934   456A      0.484178   457A      0.485176  
     458A      0.485925   459A      0.489085   460A      0.490751  
     461A      0.491412   462A      0.492385   463A      0.492514  
     464A      0.493819   465A      0.493952   466A      0.495061  
     467A      0.496045   468A      0.496353   469A      0.498731  
     470A      0.499231   471A      0.500916   472A      0.501215  
     473A      0.502802   474A      0.504973   475A      0.506938  
     476A      0.508387   477A      0.509479   478A      0.511303  
     479A      0.511813   480A      0.513448   481A      0.514843  
     482A      0.515208   483A      0.516734   484A      0.517497  
     485A      0.517719   486A      0.518668   487A      0.519511  
     488A      0.520795   489A      0.522513   490A      0.522873  
     491A      0.524660   492A      0.524832   493A      0.526922  
     494A      0.528056   495A      0.529013   496A      0.530787  
     497A      0.531447   498A      0.532811   499A      0.533933  
     500A      0.534516   501A      0.535472   502A      0.536280  
     503A      0.536546   504A      0.537258   505A      0.538877  
     506A      0.539802   507A      0.541328   508A      0.542253  
     509A      0.543288   510A      0.543828   511A      0.544696  
     512A      0.547110   513A      0.548889   514A      0.549626  
     515A      0.549958   516A      0.551294   517A      0.552403  
     518A      0.553138   519A      0.553976   520A      0.554417  
     521A      0.556338   522A      0.558310   523A      0.560316  
     524A      0.560697   525A      0.562133   526A      0.562917  
     527A      0.564544   528A      0.565750   529A      0.567501  
     530A      0.568496   531A      0.568869   532A      0.571720  
     533A      0.572923   534A      0.574194   535A      0.574463  
     536A      0.576704   537A      0.577713   538A      0.580986  
     539A      0.581484   540A      0.583417   541A      0.584223  
     542A      0.585152   543A      0.587237   544A      0.588894  
     545A      0.590148   546A      0.590554   547A      0.592478  
     548A      0.592802   549A      0.593944   550A      0.595409  
     551A      0.597112   552A      0.597423   553A      0.598745  
     554A      0.599394   555A      0.602668   556A      0.603651  
     557A      0.604622   558A      0.605560   559A      0.606458  
     560A      0.608418   561A      0.609258   562A      0.612310  
     563A      0.613630   564A      0.613964   565A      0.614123  
     566A      0.616112   567A      0.616423   568A      0.619446  
     569A      0.621791   570A      0.622512   571A      0.624567  
     572A      0.625156   573A      0.625753   574A      0.627471  
     575A      0.628061   576A      0.629520   577A      0.630584  
     578A      0.631635   579A      0.633146   580A      0.633632  
     581A      0.634984   582A      0.635409   583A      0.636028  
     584A      0.636643   585A      0.637265   586A      0.638402  
     587A      0.639596   588A      0.640400   589A      0.641173  
     590A      0.641972   591A      0.642633   592A      0.644686  
     593A      0.646175   594A      0.647484   595A      0.649341  
     596A      0.649812   597A      0.651221   598A      0.652054  
     599A      0.652766   600A      0.654715   601A      0.657149  
     602A      0.658702   603A      0.660200   604A      0.661205  
     605A      0.662610   606A      0.664007   607A      0.665158  
     608A      0.667740   609A      0.668363   610A      0.671072  
     611A      0.671828   612A      0.672129   613A      0.675371  
     614A      0.676916   615A      0.677707   616A      0.680492  
     617A      0.682119   618A      0.684027   619A      0.684215  
     620A      0.684734   621A      0.685858   622A      0.686319  
     623A      0.688883   624A      0.690190   625A      0.690727  
     626A      0.691954   627A      0.692746   628A      0.694469  
     629A      0.697557   630A      0.698067   631A      0.699998  
     632A      0.700453   633A      0.701235   634A      0.702454  
     635A      0.704085   636A      0.705392   637A      0.706705  
     638A      0.707706   639A      0.708400   640A      0.709005  
     641A      0.711594   642A      0.713461   643A      0.715057  
     644A      0.715410   645A      0.715598   646A      0.717184  
     647A      0.717403   648A      0.718792   649A      0.719697  
     650A      0.721163   651A      0.722796   652A      0.723102  
     653A      0.725189   654A      0.726168   655A      0.726699  
     656A      0.727206   657A      0.727800   658A      0.728122  
     659A      0.729627   660A      0.730183   661A      0.731950  
     662A      0.732561   663A      0.733494   664A      0.734227  
     665A      0.737215   666A      0.738024   667A      0.738231  
     668A      0.741652   669A      0.742633   670A      0.744376  
     671A      0.745945   672A      0.746929   673A      0.748091  
     674A      0.749432   675A      0.750142   676A      0.750607  
     677A      0.753188   678A      0.754496   679A      0.756203  
     680A      0.756717   681A      0.757998   682A      0.759422  
     683A      0.760116   684A      0.760840   685A      0.761901  
     686A      0.762439   687A      0.765883   688A      0.769372  
     689A      0.770151   690A      0.771291   691A      0.772883  
     692A      0.773321   693A      0.775210   694A      0.776180  
     695A      0.776965   696A      0.779243   697A      0.780238  
     698A      0.781281   699A      0.781616   700A      0.784181  
     701A      0.785232   702A      0.786604   703A      0.787091  
     704A      0.787503   705A      0.789789   706A      0.790281  
     707A      0.792428   708A      0.794136   709A      0.796383  
     710A      0.797154   711A      0.798408   712A      0.799447  
     713A      0.799914   714A      0.800566   715A      0.802632  
     716A      0.803268   717A      0.804709   718A      0.805520  
     719A      0.806092   720A      0.806738   721A      0.809886  
     722A      0.810773   723A      0.812346   724A      0.815430  
     725A      0.816160   726A      0.817815   727A      0.819050  
     728A      0.821399   729A      0.823657   730A      0.824853  
     731A      0.825597   732A      0.828408   733A      0.828686  
     734A      0.831347   735A      0.834224   736A      0.834710  
     737A      0.836472   738A      0.837705   739A      0.838897  
     740A      0.839578   741A      0.841356   742A      0.843063  
     743A      0.843242   744A      0.845006   745A      0.845521  
     746A      0.847445   747A      0.847947   748A      0.850037  
     749A      0.850367   750A      0.850895   751A      0.852321  
     752A      0.853801   753A      0.855296   754A      0.857929  
     755A      0.858941   756A      0.860909   757A      0.861673  
     758A      0.862505   759A      0.863547   760A      0.865569  
     761A      0.866364   762A      0.868222   763A      0.869061  
     764A      0.870066   765A      0.871912   766A      0.872112  
     767A      0.874050   768A      0.874349   769A      0.877309  
     770A      0.879019   771A      0.880072   772A      0.881313  
     773A      0.881832   774A      0.884268   775A      0.884547  
     776A      0.886036   777A      0.888046   778A      0.888496  
     779A      0.889330   780A      0.890401   781A      0.893652  
     782A      0.894585   783A      0.896644   784A      0.897956  
     785A      0.898655   786A      0.901221   787A      0.901776  
     788A      0.903465   789A      0.905280   790A      0.906538  
     791A      0.906842   792A      0.909986   793A      0.911449  
     794A      0.912933   795A      0.914563   796A      0.914872  
     797A      0.915470   798A      0.918031   799A      0.919386  
     800A      0.920547   801A      0.922392   802A      0.923716  
     803A      0.925089   804A      0.925930   805A      0.927475  
     806A      0.928238   807A      0.929220   808A      0.930625  
     809A      0.931459   810A      0.932993   811A      0.933584  
     812A      0.934261   813A      0.935255   814A      0.936506  
     815A      0.937479   816A      0.938313   817A      0.939300  
     818A      0.940960   819A      0.943856   820A      0.944467  
     821A      0.945820   822A      0.946671   823A      0.947277  
     824A      0.947702   825A      0.949724   826A      0.951434  
     827A      0.953987   828A      0.955783   829A      0.956860  
     830A      0.958618   831A      0.961127   832A      0.962106  
     833A      0.963604   834A      0.966252   835A      0.967301  
     836A      0.968708   837A      0.969446   838A      0.969915  
     839A      0.971724   840A      0.972174   841A      0.974144  
     842A      0.974877   843A      0.976023   844A      0.976587  
     845A      0.978093   846A      0.980665   847A      0.981364  
     848A      0.983505   849A      0.984135   850A      0.984861  
     851A      0.986889   852A      0.988708   853A      0.991893  
     854A      0.992334   855A      0.995037   856A      0.996743  
     857A      0.999099   858A      1.000278   859A      1.000420  
     860A      1.003513   861A      1.004191   862A      1.006672  
     863A      1.008778   864A      1.009171   865A      1.009704  
     866A      1.011155   867A      1.013865   868A      1.015536  
     869A      1.018074   870A      1.018549   871A      1.020481  
     872A      1.020685   873A      1.022976   874A      1.024353  
     875A      1.025095   876A      1.026475   877A      1.028745  
     878A      1.029006   879A      1.029594   880A      1.031318  
     881A      1.034189   882A      1.034476   883A      1.036302  
     884A      1.036725   885A      1.038742   886A      1.039909  
     887A      1.042309   888A      1.043028   889A      1.046000  
     890A      1.047189   891A      1.049581   892A      1.051679  
     893A      1.055122   894A      1.056592   895A      1.056763  
     896A      1.058520   897A      1.058881   898A      1.060362  
     899A      1.061164   900A      1.061709   901A      1.063829  
     902A      1.064135   903A      1.065470   904A      1.066198  
     905A      1.066878   906A      1.067992   907A      1.070253  
     908A      1.071547   909A      1.073835   910A      1.074819  
     911A      1.076179   912A      1.077681   913A      1.079580  
     914A      1.080946   915A      1.082368   916A      1.082931  
     917A      1.083886   918A      1.088371   919A      1.089484  
     920A      1.091010   921A      1.093799   922A      1.095045  
     923A      1.095430   924A      1.096588   925A      1.097891  
     926A      1.098234   927A      1.099573   928A      1.100330  
     929A      1.101566   930A      1.102944   931A      1.103880  
     932A      1.106846   933A      1.107419   934A      1.110110  
     935A      1.111697   936A      1.112468   937A      1.114605  
     938A      1.116072   939A      1.117072   940A      1.118296  
     941A      1.119757   942A      1.120730   943A      1.121389  
     944A      1.122690   945A      1.125017   946A      1.126212  
     947A      1.127282   948A      1.128897   949A      1.131688  
     950A      1.133395   951A      1.134094   952A      1.135547  
     953A      1.136651   954A      1.138320   955A      1.140392  
     956A      1.141737   957A      1.143332   958A      1.143587  
     959A      1.144017   960A      1.146559   961A      1.149276  
     962A      1.150130   963A      1.151497   964A      1.153022  
     965A      1.153840   966A      1.155749   967A      1.155963  
     968A      1.156891   969A      1.158544   970A      1.160054  
     971A      1.160618   972A      1.162465   973A      1.164057  
     974A      1.164772   975A      1.165865   976A      1.166419  
     977A      1.168780   978A      1.169201   979A      1.170159  
     980A      1.171954   981A      1.174935   982A      1.175409  
     983A      1.177093   984A      1.177564   985A      1.180536  
     986A      1.183275   987A      1.184023   988A      1.186303  
     989A      1.187087   990A      1.187640   991A      1.189636  
     992A      1.190724   993A      1.192142   994A      1.192590  
     995A      1.193660   996A      1.195240   997A      1.196868  
     998A      1.197655   999A      1.199318  1000A      1.199965  
    1001A      1.200963  1002A      1.203562  1003A      1.204487  
    1004A      1.205851  1005A      1.207041  1006A      1.207559  
    1007A      1.208317  1008A      1.212001  1009A      1.212815  
    1010A      1.214033  1011A      1.215118  1012A      1.215676  
    1013A      1.216699  1014A      1.218190  1015A      1.219170  
    1016A      1.220273  1017A      1.221372  1018A      1.221754  
    1019A      1.222943  1020A      1.225131  1021A      1.225889  
    1022A      1.227498  1023A      1.228884  1024A      1.230616  
    1025A      1.232814  1026A      1.233771  1027A      1.235344  
    1028A      1.236721  1029A      1.238365  1030A      1.238783  
    1031A      1.240137  1032A      1.240982  1033A      1.243365  
    1034A      1.244478  1035A      1.246207  1036A      1.246989  
    1037A      1.247925  1038A      1.251497  1039A      1.253025  
    1040A      1.254342  1041A      1.255524  1042A      1.258610  
    1043A      1.260077  1044A      1.260908  1045A      1.261344  
    1046A      1.263513  1047A      1.263836  1048A      1.265291  
    1049A      1.266774  1050A      1.266797  1051A      1.268547  
    1052A      1.269627  1053A      1.270445  1054A      1.271532  
    1055A      1.272483  1056A      1.273410  1057A      1.274447  
    1058A      1.276663  1059A      1.276900  1060A      1.277472  
    1061A      1.278281  1062A      1.280020  1063A      1.280827  
    1064A      1.282905  1065A      1.284207  1066A      1.284948  
    1067A      1.285134  1068A      1.286118  1069A      1.288212  
    1070A      1.288958  1071A      1.290067  1072A      1.291075  
    1073A      1.292947  1074A      1.293550  1075A      1.295480  
    1076A      1.297588  1077A      1.298358  1078A      1.298989  
    1079A      1.301881  1080A      1.302429  1081A      1.303924  
    1082A      1.304254  1083A      1.306007  1084A      1.307086  
    1085A      1.309506  1086A      1.310339  1087A      1.311601  
    1088A      1.312317  1089A      1.313639  1090A      1.314587  
    1091A      1.316277  1092A      1.316860  1093A      1.317379  
    1094A      1.319237  1095A      1.322340  1096A      1.322918  
    1097A      1.325772  1098A      1.326728  1099A      1.327590  
    1100A      1.328552  1101A      1.330114  1102A      1.330956  
    1103A      1.333884  1104A      1.334798  1105A      1.335496  
    1106A      1.337099  1107A      1.338404  1108A      1.339926  
    1109A      1.341388  1110A      1.341961  1111A      1.343330  
    1112A      1.345901  1113A      1.346808  1114A      1.347354  
    1115A      1.348847  1116A      1.349738  1117A      1.352233  
    1118A      1.352959  1119A      1.353532  1120A      1.354053  
    1121A      1.355926  1122A      1.356538  1123A      1.357483  
    1124A      1.360396  1125A      1.362494  1126A      1.362949  
    1127A      1.364684  1128A      1.366097  1129A      1.368831  
    1130A      1.369853  1131A      1.371611  1132A      1.372293  
    1133A      1.374846  1134A      1.376511  1135A      1.377584  
    1136A      1.379005  1137A      1.380790  1138A      1.381792  
    1139A      1.384677  1140A      1.384941  1141A      1.387592  
    1142A      1.388260  1143A      1.389454  1144A      1.390102  
    1145A      1.391603  1146A      1.392728  1147A      1.394208  
    1148A      1.394577  1149A      1.395559  1150A      1.397093  
    1151A      1.398807  1152A      1.399727  1153A      1.400616  
    1154A      1.402107  1155A      1.403212  1156A      1.404145  
    1157A      1.405605  1158A      1.406392  1159A      1.407490  
    1160A      1.408129  1161A      1.410337  1162A      1.411232  
    1163A      1.412635  1164A      1.413189  1165A      1.414250  
    1166A      1.416840  1167A      1.417655  1168A      1.418207  
    1169A      1.419709  1170A      1.419869  1171A      1.421926  
    1172A      1.422326  1173A      1.422487  1174A      1.424620  
    1175A      1.426247  1176A      1.427279  1177A      1.427636  
    1178A      1.430115  1179A      1.431903  1180A      1.432437  
    1181A      1.433870  1182A      1.435591  1183A      1.436580  
    1184A      1.437085  1185A      1.437992  1186A      1.439940  
    1187A      1.441189  1188A      1.444095  1189A      1.444648  
    1190A      1.448719  1191A      1.448791  1192A      1.450914  
    1193A      1.451148  1194A      1.452209  1195A      1.454499  
    1196A      1.455090  1197A      1.455633  1198A      1.458222  
    1199A      1.458524  1200A      1.459662  1201A      1.461803  
    1202A      1.463440  1203A      1.467364  1204A      1.467679  
    1205A      1.468370  1206A      1.470802  1207A      1.471518  
    1208A      1.473535  1209A      1.476082  1210A      1.477084  
    1211A      1.477800  1212A      1.479093  1213A      1.479877  
    1214A      1.482179  1215A      1.483787  1216A      1.484663  
    1217A      1.485855  1218A      1.487248  1219A      1.488479  
    1220A      1.489385  1221A      1.490481  1222A      1.491899  
    1223A      1.495189  1224A      1.496305  1225A      1.498502  
    1226A      1.502198  1227A      1.503167  1228A      1.503673  
    1229A      1.504759  1230A      1.505583  1231A      1.508026  
    1232A      1.509788  1233A      1.513043  1234A      1.514467  
    1235A      1.516311  1236A      1.517251  1237A      1.520070  
    1238A      1.520838  1239A      1.523414  1240A      1.526616  
    1241A      1.529747  1242A      1.531950  1243A      1.533196  
    1244A      1.534880  1245A      1.535984  1246A      1.537096  
    1247A      1.538666  1248A      1.539523  1249A      1.541823  
    1250A      1.544697  1251A      1.544772  1252A      1.547262  
    1253A      1.549702  1254A      1.552236  1255A      1.553087  
    1256A      1.554237  1257A      1.556510  1258A      1.559456  
    1259A      1.559666  1260A      1.562090  1261A      1.562615  
    1262A      1.564020  1263A      1.565615  1264A      1.567337  
    1265A      1.569977  1266A      1.571793  1267A      1.573654  
    1268A      1.574043  1269A      1.577523  1270A      1.578320  
    1271A      1.579749  1272A      1.581054  1273A      1.582654  
    1274A      1.583857  1275A      1.585250  1276A      1.586314  
    1277A      1.587302  1278A      1.588156  1279A      1.589512  
    1280A      1.592572  1281A      1.593511  1282A      1.593817  
    1283A      1.595548  1284A      1.596974  1285A      1.599107  
    1286A      1.599412  1287A      1.601122  1288A      1.603562  
    1289A      1.603999  1290A      1.604722  1291A      1.606486  
    1292A      1.607374  1293A      1.608644  1294A      1.610951  
    1295A      1.611553  1296A      1.612475  1297A      1.614589  
    1298A      1.616506  1299A      1.617868  1300A      1.619786  
    1301A      1.620638  1302A      1.622688  1303A      1.624996  
    1304A      1.626132  1305A      1.626672  1306A      1.628806  
    1307A      1.629618  1308A      1.633271  1309A      1.633732  
    1310A      1.634072  1311A      1.635742  1312A      1.637545  
    1313A      1.638127  1314A      1.640440  1315A      1.640992  
    1316A      1.643751  1317A      1.644345  1318A      1.645708  
    1319A      1.647569  1320A      1.648046  1321A      1.648868  
    1322A      1.650665  1323A      1.651640  1324A      1.652137  
    1325A      1.654609  1326A      1.656326  1327A      1.657421  
    1328A      1.657674  1329A      1.658915  1330A      1.660024  
    1331A      1.661456  1332A      1.663122  1333A      1.664121  
    1334A      1.665489  1335A      1.668166  1336A      1.670186  
    1337A      1.671615  1338A      1.672695  1339A      1.674808  
    1340A      1.675837  1341A      1.676571  1342A      1.676888  
    1343A      1.680374  1344A      1.681354  1345A      1.682046  
    1346A      1.682923  1347A      1.684207  1348A      1.686367  
    1349A      1.687478  1350A      1.689638  1351A      1.690745  
    1352A      1.691292  1353A      1.692889  1354A      1.693700  
    1355A      1.695487  1356A      1.697888  1357A      1.699572  
    1358A      1.701010  1359A      1.702130  1360A      1.702939  
    1361A      1.703845  1362A      1.705599  1363A      1.707041  
    1364A      1.708885  1365A      1.709103  1366A      1.711372  
    1367A      1.715038  1368A      1.715995  1369A      1.717275  
    1370A      1.717977  1371A      1.721145  1372A      1.722570  
    1373A      1.723621  1374A      1.724932  1375A      1.725249  
    1376A      1.727119  1377A      1.728295  1378A      1.728889  
    1379A      1.730331  1380A      1.731924  1381A      1.732528  
    1382A      1.734159  1383A      1.735223  1384A      1.737255  
    1385A      1.738702  1386A      1.739905  1387A      1.740518  
    1388A      1.742090  1389A      1.744832  1390A      1.745537  
    1391A      1.746008  1392A      1.747145  1393A      1.749693  
    1394A      1.751324  1395A      1.752367  1396A      1.754045  
    1397A      1.755567  1398A      1.757914  1399A      1.758631  
    1400A      1.759249  1401A      1.760426  1402A      1.761357  
    1403A      1.763501  1404A      1.764950  1405A      1.765754  
    1406A      1.766954  1407A      1.768877  1408A      1.770049  
    1409A      1.771672  1410A      1.773906  1411A      1.774517  
    1412A      1.776862  1413A      1.778562  1414A      1.779339  
    1415A      1.781684  1416A      1.782214  1417A      1.782503  
    1418A      1.783340  1419A      1.784567  1420A      1.787575  
    1421A      1.787972  1422A      1.789838  1423A      1.790045  
    1424A      1.791371  1425A      1.793055  1426A      1.793674  
    1427A      1.798484  1428A      1.798779  1429A      1.800174  
    1430A      1.802447  1431A      1.804132  1432A      1.804618  
    1433A      1.806509  1434A      1.807695  1435A      1.809224  
    1436A      1.811851  1437A      1.812968  1438A      1.814913  
    1439A      1.815889  1440A      1.816946  1441A      1.817263  
    1442A      1.818721  1443A      1.821755  1444A      1.822410  
    1445A      1.826354  1446A      1.828799  1447A      1.829180  
    1448A      1.830599  1449A      1.831733  1450A      1.832486  
    1451A      1.834333  1452A      1.837474  1453A      1.839972  
    1454A      1.841476  1455A      1.841856  1456A      1.842983  
    1457A      1.844375  1458A      1.846528  1459A      1.848372  
    1460A      1.849144  1461A      1.850727  1462A      1.852077  
    1463A      1.853749  1464A      1.855666  1465A      1.856154  
    1466A      1.856631  1467A      1.859049  1468A      1.859652  
    1469A      1.861064  1470A      1.863062  1471A      1.866445  
    1472A      1.866848  1473A      1.869200  1474A      1.873103  
    1475A      1.874028  1476A      1.875610  1477A      1.877792  
    1478A      1.878527  1479A      1.880907  1480A      1.882134  
    1481A      1.883050  1482A      1.885270  1483A      1.885977  
    1484A      1.887345  1485A      1.888897  1486A      1.890323  
    1487A      1.893455  1488A      1.894797  1489A      1.895228  
    1490A      1.897078  1491A      1.898017  1492A      1.902422  
    1493A      1.903711  1494A      1.904779  1495A      1.905913  
    1496A      1.909240  1497A      1.910121  1498A      1.911102  
    1499A      1.912013  1500A      1.914474  1501A      1.916392  
    1502A      1.918974  1503A      1.920522  1504A      1.920968  
    1505A      1.922491  1506A      1.923366  1507A      1.924848  
    1508A      1.925708  1509A      1.927299  1510A      1.929182  
    1511A      1.930754  1512A      1.932404  1513A      1.933054  
    1514A      1.934782  1515A      1.937156  1516A      1.940759  
    1517A      1.943013  1518A      1.945153  1519A      1.945513  
    1520A      1.950501  1521A      1.951950  1522A      1.953134  
    1523A      1.955200  1524A      1.957468  1525A      1.958549  
    1526A      1.961414  1527A      1.963398  1528A      1.964327  
    1529A      1.965685  1530A      1.967352  1531A      1.970541  
    1532A      1.972345  1533A      1.973205  1534A      1.975481  
    1535A      1.975818  1536A      1.978198  1537A      1.981482  
    1538A      1.982854  1539A      1.984397  1540A      1.986291  
    1541A      1.988476  1542A      1.990837  1543A      1.992675  
    1544A      1.993099  1545A      1.994451  1546A      1.995855  
    1547A      1.996871  1548A      1.998077  1549A      1.998903  
    1550A      2.001455  1551A      2.002633  1552A      2.003356  
    1553A      2.003848  1554A      2.005142  1555A      2.007629  
    1556A      2.008889  1557A      2.010504  1558A      2.013161  
    1559A      2.014640  1560A      2.015808  1561A      2.016749  
    1562A      2.018536  1563A      2.019478  1564A      2.023130  
    1565A      2.024192  1566A      2.025067  1567A      2.027569  
    1568A      2.028103  1569A      2.030465  1570A      2.031814  
    1571A      2.032657  1572A      2.035359  1573A      2.035817  
    1574A      2.037121  1575A      2.040402  1576A      2.041153  
    1577A      2.042783  1578A      2.044201  1579A      2.045304  
    1580A      2.047645  1581A      2.048683  1582A      2.049588  
    1583A      2.051578  1584A      2.052908  1585A      2.053551  
    1586A      2.055930  1587A      2.058403  1588A      2.059628  
    1589A      2.060927  1590A      2.062441  1591A      2.062614  
    1592A      2.063452  1593A      2.066561  1594A      2.067099  
    1595A      2.068565  1596A      2.070735  1597A      2.073059  
    1598A      2.073960  1599A      2.074332  1600A      2.076907  
    1601A      2.078439  1602A      2.080601  1603A      2.081738  
    1604A      2.084650  1605A      2.085720  1606A      2.088293  
    1607A      2.089205  1608A      2.090782  1609A      2.091706  
    1610A      2.095140  1611A      2.096322  1612A      2.099876  
    1613A      2.100506  1614A      2.101461  1615A      2.101872  
    1616A      2.105184  1617A      2.106906  1618A      2.108937  
    1619A      2.109858  1620A      2.112100  1621A      2.113366  
    1622A      2.116020  1623A      2.118056  1624A      2.119653  
    1625A      2.120712  1626A      2.122402  1627A      2.124073  
    1628A      2.125447  1629A      2.126419  1630A      2.127435  
    1631A      2.129061  1632A      2.130635  1633A      2.133233  
    1634A      2.134108  1635A      2.136349  1636A      2.138151  
    1637A      2.138878  1638A      2.140502  1639A      2.142860  
    1640A      2.143221  1641A      2.146439  1642A      2.147905  
    1643A      2.148231  1644A      2.152861  1645A      2.153973  
    1646A      2.156676  1647A      2.157689  1648A      2.162174  
    1649A      2.163726  1650A      2.164261  1651A      2.164752  
    1652A      2.166065  1653A      2.168808  1654A      2.170807  
    1655A      2.173527  1656A      2.174757  1657A      2.176948  
    1658A      2.178966  1659A      2.181956  1660A      2.183613  
    1661A      2.186139  1662A      2.188517  1663A      2.188713  
    1664A      2.190294  1665A      2.192163  1666A      2.192900  
    1667A      2.194265  1668A      2.195877  1669A      2.196342  
    1670A      2.199528  1671A      2.201271  1672A      2.203891  
    1673A      2.208184  1674A      2.209431  1675A      2.212794  
    1676A      2.213604  1677A      2.215085  1678A      2.217072  
    1679A      2.220153  1680A      2.223213  1681A      2.225628  
    1682A      2.229623  1683A      2.231135  1684A      2.233182  
    1685A      2.235999  1686A      2.237032  1687A      2.240679  
    1688A      2.242716  1689A      2.244729  1690A      2.245165  
    1691A      2.248558  1692A      2.250672  1693A      2.251316  
    1694A      2.252594  1695A      2.256272  1696A      2.257468  
    1697A      2.258006  1698A      2.261502  1699A      2.262940  
    1700A      2.264341  1701A      2.265717  1702A      2.266387  
    1703A      2.270547  1704A      2.270662  1705A      2.271967  
    1706A      2.273820  1707A      2.276026  1708A      2.278154  
    1709A      2.278744  1710A      2.279974  1711A      2.281779  
    1712A      2.284029  1713A      2.286114  1714A      2.289947  
    1715A      2.291518  1716A      2.293537  1717A      2.293922  
    1718A      2.297007  1719A      2.299371  1720A      2.300727  
    1721A      2.301677  1722A      2.302546  1723A      2.305667  
    1724A      2.308337  1725A      2.309684  1726A      2.311191  
    1727A      2.312858  1728A      2.313560  1729A      2.315503  
    1730A      2.316955  1731A      2.319888  1732A      2.322311  
    1733A      2.323145  1734A      2.324745  1735A      2.326939  
    1736A      2.328545  1737A      2.331049  1738A      2.333380  
    1739A      2.336086  1740A      2.338601  1741A      2.339696  
    1742A      2.342207  1743A      2.344645  1744A      2.345173  
    1745A      2.345331  1746A      2.347180  1747A      2.349215  
    1748A      2.351462  1749A      2.354548  1750A      2.355469  
    1751A      2.358650  1752A      2.361249  1753A      2.361958  
    1754A      2.363221  1755A      2.366182  1756A      2.367816  
    1757A      2.369307  1758A      2.371936  1759A      2.374199  
    1760A      2.375383  1761A      2.376179  1762A      2.378703  
    1763A      2.379771  1764A      2.382456  1765A      2.383367  
    1766A      2.384054  1767A      2.386979  1768A      2.387823  
    1769A      2.389726  1770A      2.391808  1771A      2.392492  
    1772A      2.394744  1773A      2.396387  1774A      2.396856  
    1775A      2.399137  1776A      2.399630  1777A      2.401025  
    1778A      2.402902  1779A      2.404937  1780A      2.408027  
    1781A      2.411142  1782A      2.411243  1783A      2.413341  
    1784A      2.415822  1785A      2.416793  1786A      2.418971  
    1787A      2.420757  1788A      2.422123  1789A      2.424243  
    1790A      2.425546  1791A      2.427360  1792A      2.429027  
    1793A      2.430878  1794A      2.433597  1795A      2.434357  
    1796A      2.435674  1797A      2.438271  1798A      2.440668  
    1799A      2.441973  1800A      2.443203  1801A      2.448223  
    1802A      2.450893  1803A      2.452664  1804A      2.453495  
    1805A      2.456426  1806A      2.457676  1807A      2.460014  
    1808A      2.461785  1809A      2.464413  1810A      2.465964  
    1811A      2.467403  1812A      2.469080  1813A      2.472640  
    1814A      2.472702  1815A      2.475557  1816A      2.476241  
    1817A      2.478543  1818A      2.479130  1819A      2.480703  
    1820A      2.484643  1821A      2.485226  1822A      2.486127  
    1823A      2.488553  1824A      2.490040  1825A      2.492255  
    1826A      2.497223  1827A      2.499124  1828A      2.500933  
    1829A      2.504895  1830A      2.509230  1831A      2.512661  
    1832A      2.513814  1833A      2.519465  1834A      2.520774  
    1835A      2.521648  1836A      2.524518  1837A      2.526278  
    1838A      2.529513  1839A      2.533337  1840A      2.534331  
    1841A      2.540878  1842A      2.542132  1843A      2.543301  
    1844A      2.545556  1845A      2.547995  1846A      2.549546  
    1847A      2.553675  1848A      2.556080  1849A      2.560814  
    1850A      2.560941  1851A      2.562110  1852A      2.566394  
    1853A      2.567477  1854A      2.567877  1855A      2.569705  
    1856A      2.570509  1857A      2.571769  1858A      2.574732  
    1859A      2.577605  1860A      2.579580  1861A      2.582394  
    1862A      2.584852  1863A      2.586110  1864A      2.588037  
    1865A      2.589144  1866A      2.592706  1867A      2.594026  
    1868A      2.595060  1869A      2.596281  1870A      2.598574  
    1871A      2.599975  1872A      2.603557  1873A      2.605583  
    1874A      2.608076  1875A      2.609089  1876A      2.610182  
    1877A      2.613380  1878A      2.613619  1879A      2.616525  
    1880A      2.618233  1881A      2.619751  1882A      2.621906  
    1883A      2.624885  1884A      2.625905  1885A      2.630534  
    1886A      2.631722  1887A      2.632667  1888A      2.635079  
    1889A      2.637461  1890A      2.640029  1891A      2.645108  
    1892A      2.648868  1893A      2.651371  1894A      2.652024  
    1895A      2.654137  1896A      2.658179  1897A      2.661817  
    1898A      2.665604  1899A      2.669637  1900A      2.673077  
    1901A      2.677533  1902A      2.679028  1903A      2.679587  
    1904A      2.681397  1905A      2.683517  1906A      2.684003  
    1907A      2.687631  1908A      2.688857  1909A      2.691395  
    1910A      2.693923  1911A      2.695584  1912A      2.698486  
    1913A      2.702968  1914A      2.704673  1915A      2.706918  
    1916A      2.707677  1917A      2.711740  1918A      2.712505  
    1919A      2.714718  1920A      2.718665  1921A      2.720855  
    1922A      2.725258  1923A      2.725993  1924A      2.727469  
    1925A      2.728832  1926A      2.732974  1927A      2.734506  
    1928A      2.736167  1929A      2.737553  1930A      2.738967  
    1931A      2.741694  1932A      2.742255  1933A      2.745128  
    1934A      2.745727  1935A      2.748687  1936A      2.750367  
    1937A      2.760176  1938A      2.761616  1939A      2.763056  
    1940A      2.767989  1941A      2.769800  1942A      2.770551  
    1943A      2.775627  1944A      2.781024  1945A      2.782708  
    1946A      2.785260  1947A      2.788657  1948A      2.793132  
    1949A      2.795195  1950A      2.796405  1951A      2.799192  
    1952A      2.800642  1953A      2.802217  1954A      2.803528  
    1955A      2.807276  1956A      2.810010  1957A      2.815546  
    1958A      2.818281  1959A      2.821095  1960A      2.822975  
    1961A      2.824168  1962A      2.830205  1963A      2.830538  
    1964A      2.834027  1965A      2.836874  1966A      2.838367  
    1967A      2.840736  1968A      2.841991  1969A      2.843987  
    1970A      2.847102  1971A      2.849094  1972A      2.851012  
    1973A      2.851904  1974A      2.853111  1975A      2.855639  
    1976A      2.859042  1977A      2.862415  1978A      2.867451  
    1979A      2.869200  1980A      2.878656  1981A      2.879223  
    1982A      2.883693  1983A      2.884061  1984A      2.886792  
    1985A      2.890340  1986A      2.892744  1987A      2.896958  
    1988A      2.898241  1989A      2.899893  1990A      2.900907  
    1991A      2.904158  1992A      2.905556  1993A      2.909814  
    1994A      2.912484  1995A      2.914840  1996A      2.915924  
    1997A      2.917771  1998A      2.920971  1999A      2.922963  
    2000A      2.924922  2001A      2.930222  2002A      2.935349  
    2003A      2.936544  2004A      2.938055  2005A      2.943895  
    2006A      2.944988  2007A      2.949833  2008A      2.958176  
    2009A      2.959026  2010A      2.965917  2011A      2.968638  
    2012A      2.971879  2013A      2.972591  2014A      2.980634  
    2015A      2.985853  2016A      2.991630  2017A      2.992971  
    2018A      2.999515  2019A      3.001389  2020A      3.011721  
    2021A      3.013621  2022A      3.016475  2023A      3.017901  
    2024A      3.021381  2025A      3.025995  2026A      3.033794  
    2027A      3.036336  2028A      3.046151  2029A      3.049643  
    2030A      3.051136  2031A      3.055301  2032A      3.060466  
    2033A      3.061981  2034A      3.066954  2035A      3.069625  
    2036A      3.070942  2037A      3.071071  2038A      3.076205  
    2039A      3.079632  2040A      3.080746  2041A      3.083180  
    2042A      3.088023  2043A      3.091630  2044A      3.094741  
    2045A      3.098118  2046A      3.105433  2047A      3.107782  
    2048A      3.108777  2049A      3.110142  2050A      3.118125  
    2051A      3.121888  2052A      3.124111  2053A      3.129213  
    2054A      3.133797  2055A      3.139336  2056A      3.145261  
    2057A      3.146791  2058A      3.148442  2059A      3.161636  
    2060A      3.163933  2061A      3.166113  2062A      3.168598  
    2063A      3.175080  2064A      3.177243  2065A      3.178235  
    2066A      3.185748  2067A      3.188122  2068A      3.191526  
    2069A      3.194626  2070A      3.196618  2071A      3.199423  
    2072A      3.209756  2073A      3.210578  2074A      3.220913  
    2075A      3.225247  2076A      3.228463  2077A      3.235175  
    2078A      3.236857  2079A      3.244249  2080A      3.245418  
    2081A      3.253764  2082A      3.254346  2083A      3.256662  
    2084A      3.264798  2085A      3.272101  2086A      3.277019  
    2087A      3.278707  2088A      3.283106  2089A      3.289625  
    2090A      3.292269  2091A      3.297738  2092A      3.312095  
    2093A      3.320182  2094A      3.324061  2095A      3.325818  
    2096A      3.329820  2097A      3.336745  2098A      3.344896  
    2099A      3.346946  2100A      3.356273  2101A      3.368372  
    2102A      3.371901  2103A      3.382242  2104A      3.389374  
    2105A      3.395223  2106A      3.411959  2107A      3.414311  
    2108A      3.415575  2109A      3.416733  2110A      3.420207  
    2111A      3.433317  2112A      3.443806  2113A      3.454381  
    2114A      3.460640  2115A      3.464974  2116A      3.469517  
    2117A      3.470863  2118A      3.474296  2119A      3.490293  
    2120A      3.507408  2121A      3.511288  2122A      3.518102  
    2123A      3.518909  2124A      3.527095  2125A      3.532544  
    2126A      3.537501  2127A      3.540570  2128A      3.545682  
    2129A      3.548312  2130A      3.549971  2131A      3.559897  
    2132A      3.568235  2133A      3.580942  2134A      3.583005  
    2135A      3.588045  2136A      3.597252  2137A      3.600997  
    2138A      3.609113  2139A      3.613750  2140A      3.621481  
    2141A      3.625683  2142A      3.628307  2143A      3.635217  
    2144A      3.648074  2145A      3.650030  2146A      3.657753  
    2147A      3.664728  2148A      3.671018  2149A      3.673843  
    2150A      3.675993  2151A      3.680382  2152A      3.682522  
    2153A      3.687216  2154A      3.689786  2155A      3.690117  
    2156A      3.697096  2157A      3.700855  2158A      3.704479  
    2159A      3.707134  2160A      3.711699  2161A      3.712933  
    2162A      3.714478  2163A      3.717000  2164A      3.726339  
    2165A      3.728988  2166A      3.734806  2167A      3.743165  
    2168A      3.747236  2169A      3.752079  2170A      3.752780  
    2171A      3.754475  2172A      3.761758  2173A      3.765289  
    2174A      3.768186  2175A      3.773493  2176A      3.775251  
    2177A      3.786112  2178A      3.792573  2179A      3.795725  
    2180A      3.800150  2181A      3.805718  2182A      3.814293  
    2183A      3.815152  2184A      3.817758  2185A      3.826678  
    2186A      3.829306  2187A      3.831926  2188A      3.832813  
    2189A      3.841685  2190A      3.844087  2191A      3.845689  
    2192A      3.848555  2193A      3.851417  2194A      3.852877  
    2195A      3.857919  2196A      3.859826  2197A      3.860627  
    2198A      3.866010  2199A      3.867092  2200A      3.871356  
    2201A      3.874339  2202A      3.878759  2203A      3.889875  
    2204A      3.894696  2205A      3.901841  2206A      3.903730  
    2207A      3.908058  2208A      3.909059  2209A      3.918468  
    2210A      3.923676  2211A      3.925541  2212A      3.929934  
    2213A      3.932080  2214A      3.937493  2215A      3.947849  
    2216A      3.948057  2217A      3.950893  2218A      3.951331  
    2219A      3.955249  2220A      3.960437  2221A      3.966866  
    2222A      3.970927  2223A      3.975495  2224A      3.981583  
    2225A      3.983477  2226A      3.985514  2227A      3.989138  
    2228A      3.991274  2229A      3.992798  2230A      3.994765  
    2231A      3.997004  2232A      4.001767  2233A      4.003271  
    2234A      4.006113  2235A      4.007874  2236A      4.009523  
    2237A      4.013052  2238A      4.014206  2239A      4.015735  
    2240A      4.018780  2241A      4.022906  2242A      4.025785  
    2243A      4.030508  2244A      4.032046  2245A      4.034825  
    2246A      4.035933  2247A      4.039809  2248A      4.041968  
    2249A      4.044289  2250A      4.045620  2251A      4.048574  
    2252A      4.050103  2253A      4.054304  2254A      4.056526  
    2255A      4.060038  2256A      4.065142  2257A      4.068475  
    2258A      4.072772  2259A      4.076859  2260A      4.078776  
    2261A      4.081324  2262A      4.086244  2263A      4.088230  
    2264A      4.088918  2265A      4.091932  2266A      4.092997  
    2267A      4.095527  2268A      4.097193  2269A      4.103815  
    2270A      4.105397  2271A      4.111939  2272A      4.113916  
    2273A      4.115713  2274A      4.119997  2275A      4.124710  
    2276A      4.126582  2277A      4.130231  2278A      4.131605  
    2279A      4.132017  2280A      4.135240  2281A      4.137347  
    2282A      4.137675  2283A      4.141491  2284A      4.144397  
    2285A      4.145903  2286A      4.149412  2287A      4.150421  
    2288A      4.153365  2289A      4.156295  2290A      4.157236  
    2291A      4.158388  2292A      4.163268  2293A      4.165831  
    2294A      4.167843  2295A      4.169503  2296A      4.170221  
    2297A      4.176569  2298A      4.178692  2299A      4.182125  
    2300A      4.183987  2301A      4.186599  2302A      4.190231  
    2303A      4.192418  2304A      4.192720  2305A      4.196974  
    2306A      4.200174  2307A      4.203973  2308A      4.204374  
    2309A      4.208436  2310A      4.210141  2311A      4.214432  
    2312A      4.214946  2313A      4.216117  2314A      4.221285  
    2315A      4.223653  2316A      4.226423  2317A      4.227237  
    2318A      4.229787  2319A      4.231990  2320A      4.234319  
    2321A      4.235897  2322A      4.239073  2323A      4.240931  
    2324A      4.242739  2325A      4.244780  2326A      4.247615  
    2327A      4.248921  2328A      4.250670  2329A      4.252230  
    2330A      4.256387  2331A      4.256999  2332A      4.262283  
    2333A      4.268017  2334A      4.268112  2335A      4.271782  
    2336A      4.273114  2337A      4.274114  2338A      4.277701  
    2339A      4.278961  2340A      4.283183  2341A      4.284695  
    2342A      4.286713  2343A      4.288676  2344A      4.290721  
    2345A      4.292266  2346A      4.294812  2347A      4.298851  
    2348A      4.301044  2349A      4.304253  2350A      4.309136  
    2351A      4.313794  2352A      4.315641  2353A      4.319634  
    2354A      4.320053  2355A      4.324505  2356A      4.326555  
    2357A      4.328024  2358A      4.331245  2359A      4.334101  
    2360A      4.336313  2361A      4.338532  2362A      4.341551  
    2363A      4.344361  2364A      4.346612  2365A      4.347331  
    2366A      4.350046  2367A      4.351350  2368A      4.352773  
    2369A      4.355747  2370A      4.359478  2371A      4.360645  
    2372A      4.362276  2373A      4.364521  2374A      4.366586  
    2375A      4.369827  2376A      4.372797  2377A      4.373633  
    2378A      4.376706  2379A      4.377208  2380A      4.380888  
    2381A      4.383021  2382A      4.385417  2383A      4.386094  
    2384A      4.386536  2385A      4.390767  2386A      4.391671  
    2387A      4.395116  2388A      4.398007  2389A      4.398502  
    2390A      4.402484  2391A      4.403237  2392A      4.406428  
    2393A      4.408406  2394A      4.411350  2395A      4.412820  
    2396A      4.414024  2397A      4.416570  2398A      4.417783  
    2399A      4.422783  2400A      4.423408  2401A      4.425161  
    2402A      4.430154  2403A      4.430608  2404A      4.433171  
    2405A      4.437845  2406A      4.440286  2407A      4.441090  
    2408A      4.443092  2409A      4.443379  2410A      4.448650  
    2411A      4.451133  2412A      4.452425  2413A      4.455328  
    2414A      4.457031  2415A      4.458295  2416A      4.460898  
    2417A      4.463335  2418A      4.465853  2419A      4.467477  
    2420A      4.468909  2421A      4.471562  2422A      4.475719  
    2423A      4.476940  2424A      4.478504  2425A      4.480800  
    2426A      4.481629  2427A      4.483877  2428A      4.484563  
    2429A      4.487521  2430A      4.488343  2431A      4.489867  
    2432A      4.493135  2433A      4.494190  2434A      4.497939  
    2435A      4.499706  2436A      4.503265  2437A      4.503580  
    2438A      4.506323  2439A      4.508065  2440A      4.509699  
    2441A      4.512989  2442A      4.515073  2443A      4.518120  
    2444A      4.519761  2445A      4.521819  2446A      4.529572  
    2447A      4.530005  2448A      4.533711  2449A      4.536824  
    2450A      4.537316  2451A      4.538241  2452A      4.543502  
    2453A      4.544284  2454A      4.546454  2455A      4.550937  
    2456A      4.553092  2457A      4.554240  2458A      4.559018  
    2459A      4.562410  2460A      4.565619  2461A      4.568669  
    2462A      4.570531  2463A      4.576700  2464A      4.579381  
    2465A      4.582074  2466A      4.582597  2467A      4.583797  
    2468A      4.588649  2469A      4.589970  2470A      4.594978  
    2471A      4.595483  2472A      4.597952  2473A      4.598423  
    2474A      4.601223  2475A      4.603658  2476A      4.605194  
    2477A      4.606527  2478A      4.607469  2479A      4.611503  
    2480A      4.612223  2481A      4.614488  2482A      4.616200  
    2483A      4.617006  2484A      4.619805  2485A      4.621327  
    2486A      4.626090  2487A      4.628871  2488A      4.630755  
    2489A      4.632341  2490A      4.635131  2491A      4.637489  
    2492A      4.639357  2493A      4.642234  2494A      4.645420  
    2495A      4.647124  2496A      4.651290  2497A      4.652176  
    2498A      4.658735  2499A      4.660514  2500A      4.663903  
    2501A      4.665926  2502A      4.667608  2503A      4.673224  
    2504A      4.675420  2505A      4.679111  2506A      4.679888  
    2507A      4.682379  2508A      4.686041  2509A      4.688546  
    2510A      4.694531  2511A      4.694898  2512A      4.700568  
    2513A      4.704365  2514A      4.706163  2515A      4.707056  
    2516A      4.712350  2517A      4.713640  2518A      4.715538  
    2519A      4.718794  2520A      4.720916  2521A      4.723780  
    2522A      4.726395  2523A      4.731299  2524A      4.732620  
    2525A      4.735552  2526A      4.737297  2527A      4.738700  
    2528A      4.744552  2529A      4.745871  2530A      4.749462  
    2531A      4.752737  2532A      4.753931  2533A      4.756507  
    2534A      4.759554  2535A      4.761608  2536A      4.763509  
    2537A      4.768220  2538A      4.769198  2539A      4.772245  
    2540A      4.776868  2541A      4.778703  2542A      4.779944  
    2543A      4.781311  2544A      4.785869  2545A      4.787787  
    2546A      4.789301  2547A      4.793244  2548A      4.794321  
    2549A      4.797119  2550A      4.800993  2551A      4.803480  
    2552A      4.805451  2553A      4.808742  2554A      4.810314  
    2555A      4.811888  2556A      4.814568  2557A      4.815119  
    2558A      4.816667  2559A      4.824580  2560A      4.827798  
    2561A      4.830377  2562A      4.831423  2563A      4.834452  
    2564A      4.835072  2565A      4.838160  2566A      4.839394  
    2567A      4.840404  2568A      4.844318  2569A      4.845425  
    2570A      4.848240  2571A      4.849685  2572A      4.855088  
    2573A      4.857429  2574A      4.859145  2575A      4.864244  
    2576A      4.866501  2577A      4.868292  2578A      4.869999  
    2579A      4.871916  2580A      4.874789  2581A      4.878402  
    2582A      4.880539  2583A      4.883656  2584A      4.887707  
    2585A      4.889723  2586A      4.890703  2587A      4.892214  
    2588A      4.894499  2589A      4.896126  2590A      4.901845  
    2591A      4.904409  2592A      4.906414  2593A      4.908014  
    2594A      4.911558  2595A      4.913417  2596A      4.915471  
    2597A      4.919165  2598A      4.922381  2599A      4.925345  
    2600A      4.928354  2601A      4.928699  2602A      4.930954  
    2603A      4.935169  2604A      4.938428  2605A      4.940343  
    2606A      4.942229  2607A      4.944859  2608A      4.945637  
    2609A      4.951750  2610A      4.952388  2611A      4.954058  
    2612A      4.957033  2613A      4.958311  2614A      4.959591  
    2615A      4.961745  2616A      4.963943  2617A      4.966212  
    2618A      4.969068  2619A      4.972049  2620A      4.973024  
    2621A      4.978381  2622A      4.979810  2623A      4.980526  
    2624A      4.983192  2625A      4.985981  2626A      4.991752  
    2627A      4.993119  2628A      4.994765  2629A      4.996199  
    2630A      4.999449  2631A      4.999735  2632A      5.000672  
    2633A      5.004208  2634A      5.008388  2635A      5.009739  
    2636A      5.013500  2637A      5.015033  2638A      5.018744  
    2639A      5.020596  2640A      5.022987  2641A      5.027015  
    2642A      5.028413  2643A      5.030890  2644A      5.032254  
    2645A      5.034202  2646A      5.037714  2647A      5.039769  
    2648A      5.041639  2649A      5.044137  2650A      5.045613  
    2651A      5.049151  2652A      5.050639  2653A      5.052141  
    2654A      5.054491  2655A      5.055027  2656A      5.058158  
    2657A      5.060199  2658A      5.062262  2659A      5.064815  
    2660A      5.066734  2661A      5.072141  2662A      5.072777  
    2663A      5.074462  2664A      5.076484  2665A      5.077982  
    2666A      5.078854  2667A      5.080919  2668A      5.083142  
    2669A      5.084337  2670A      5.085265  2671A      5.088135  
    2672A      5.089124  2673A      5.089806  2674A      5.091539  
    2675A      5.094798  2676A      5.095409  2677A      5.096557  
    2678A      5.097871  2679A      5.099536  2680A      5.102388  
    2681A      5.104223  2682A      5.106677  2683A      5.108769  
    2684A      5.109538  2685A      5.110248  2686A      5.114375  
    2687A      5.116252  2688A      5.118189  2689A      5.119322  
    2690A      5.122484  2691A      5.124173  2692A      5.125870  
    2693A      5.127100  2694A      5.129250  2695A      5.130914  
    2696A      5.132215  2697A      5.134679  2698A      5.137788  
    2699A      5.139284  2700A      5.143600  2701A      5.145081  
    2702A      5.145766  2703A      5.147684  2704A      5.148984  
    2705A      5.151939  2706A      5.153845  2707A      5.156611  
    2708A      5.157393  2709A      5.160160  2710A      5.160583  
    2711A      5.164456  2712A      5.167013  2713A      5.172019  
    2714A      5.175605  2715A      5.177187  2716A      5.178159  
    2717A      5.180048  2718A      5.182901  2719A      5.183925  
    2720A      5.188812  2721A      5.194585  2722A      5.195348  
    2723A      5.198365  2724A      5.199813  2725A      5.200727  
    2726A      5.205133  2727A      5.208674  2728A      5.210791  
    2729A      5.213987  2730A      5.216767  2731A      5.219169  
    2732A      5.223961  2733A      5.228355  2734A      5.229991  
    2735A      5.230500  2736A      5.234321  2737A      5.238059  
    2738A      5.239480  2739A      5.240047  2740A      5.243961  
    2741A      5.251425  2742A      5.256450  2743A      5.261748  
    2744A      5.263475  2745A      5.267628  2746A      5.268426  
    2747A      5.269740  2748A      5.274259  2749A      5.279515  
    2750A      5.279784  2751A      5.281831  2752A      5.282843  
    2753A      5.284596  2754A      5.287581  2755A      5.291470  
    2756A      5.292118  2757A      5.298094  2758A      5.299953  
    2759A      5.303529  2760A      5.308351  2761A      5.309723  
    2762A      5.312373  2763A      5.314904  2764A      5.319341  
    2765A      5.321382  2766A      5.323283  2767A      5.324780  
    2768A      5.327426  2769A      5.330046  2770A      5.334035  
    2771A      5.335637  2772A      5.337982  2773A      5.339325  
    2774A      5.340480  2775A      5.342722  2776A      5.345538  
    2777A      5.346461  2778A      5.348743  2779A      5.352779  
    2780A      5.354975  2781A      5.356323  2782A      5.358073  
    2783A      5.359412  2784A      5.361838  2785A      5.363703  
    2786A      5.368028  2787A      5.373617  2788A      5.374851  
    2789A      5.377388  2790A      5.378990  2791A      5.382969  
    2792A      5.384230  2793A      5.386275  2794A      5.387886  
    2795A      5.388813  2796A      5.391313  2797A      5.392837  
    2798A      5.395164  2799A      5.395585  2800A      5.400896  
    2801A      5.403560  2802A      5.406248  2803A      5.407266  
    2804A      5.411173  2805A      5.413761  2806A      5.416270  
    2807A      5.417702  2808A      5.419275  2809A      5.422695  
    2810A      5.423803  2811A      5.427498  2812A      5.429788  
    2813A      5.430367  2814A      5.431390  2815A      5.434804  
    2816A      5.436556  2817A      5.440448  2818A      5.441842  
    2819A      5.442888  2820A      5.448112  2821A      5.452059  
    2822A      5.453175  2823A      5.454460  2824A      5.455301  
    2825A      5.457385  2826A      5.460270  2827A      5.463042  
    2828A      5.464673  2829A      5.464837  2830A      5.469895  
    2831A      5.471899  2832A      5.473338  2833A      5.476875  
    2834A      5.479901  2835A      5.482642  2836A      5.483613  
    2837A      5.488471  2838A      5.490428  2839A      5.492576  
    2840A      5.496080  2841A      5.500423  2842A      5.502444  
    2843A      5.507195  2844A      5.508514  2845A      5.511551  
    2846A      5.512431  2847A      5.517643  2848A      5.520503  
    2849A      5.523358  2850A      5.528762  2851A      5.531363  
    2852A      5.537001  2853A      5.537488  2854A      5.540070  
    2855A      5.543174  2856A      5.547553  2857A      5.550209  
    2858A      5.551891  2859A      5.555883  2860A      5.559389  
    2861A      5.563747  2862A      5.564247  2863A      5.566467  
    2864A      5.569469  2865A      5.571295  2866A      5.572593  
    2867A      5.575751  2868A      5.578051  2869A      5.580877  
    2870A      5.582026  2871A      5.584403  2872A      5.584861  
    2873A      5.590178  2874A      5.592047  2875A      5.596670  
    2876A      5.598687  2877A      5.600664  2878A      5.604089  
    2879A      5.604653  2880A      5.606083  2881A      5.609783  
    2882A      5.610750  2883A      5.613290  2884A      5.613704  
    2885A      5.615109  2886A      5.619203  2887A      5.620974  
    2888A      5.622099  2889A      5.625346  2890A      5.626457  
    2891A      5.627998  2892A      5.630142  2893A      5.632604  
    2894A      5.634247  2895A      5.635330  2896A      5.636702  
    2897A      5.637290  2898A      5.642041  2899A      5.643572  
    2900A      5.646023  2901A      5.648297  2902A      5.649832  
    2903A      5.653509  2904A      5.655462  2905A      5.657270  
    2906A      5.658959  2907A      5.660356  2908A      5.662739  
    2909A      5.663133  2910A      5.668333  2911A      5.674477  
    2912A      5.679713  2913A      5.681633  2914A      5.684985  
    2915A      5.685438  2916A      5.689537  2917A      5.692440  
    2918A      5.692864  2919A      5.695672  2920A      5.697069  
    2921A      5.701186  2922A      5.703937  2923A      5.709684  
    2924A      5.710014  2925A      5.713175  2926A      5.718639  
    2927A      5.722271  2928A      5.723261  2929A      5.727267  
    2930A      5.728753  2931A      5.729924  2932A      5.732302  
    2933A      5.735954  2934A      5.738330  2935A      5.742364  
    2936A      5.742932  2937A      5.743634  2938A      5.747382  
    2939A      5.749611  2940A      5.751591  2941A      5.754892  
    2942A      5.756203  2943A      5.758643  2944A      5.762057  
    2945A      5.764117  2946A      5.765552  2947A      5.766674  
    2948A      5.767249  2949A      5.770238  2950A      5.772755  
    2951A      5.774873  2952A      5.778784  2953A      5.780722  
    2954A      5.783591  2955A      5.784624  2956A      5.786448  
    2957A      5.792464  2958A      5.798046  2959A      5.798464  
    2960A      5.801081  2961A      5.803300  2962A      5.804422  
    2963A      5.808870  2964A      5.811100  2965A      5.816033  
    2966A      5.819538  2967A      5.822632  2968A      5.825280  
    2969A      5.829316  2970A      5.830383  2971A      5.834569  
    2972A      5.838630  2973A      5.841269  2974A      5.842470  
    2975A      5.843214  2976A      5.847862  2977A      5.851990  
    2978A      5.855421  2979A      5.858900  2980A      5.859338  
    2981A      5.864197  2982A      5.866073  2983A      5.868824  
    2984A      5.871665  2985A      5.874331  2986A      5.877426  
    2987A      5.878499  2988A      5.879786  2989A      5.884419  
    2990A      5.887014  2991A      5.887357  2992A      5.890887  
    2993A      5.893086  2994A      5.897866  2995A      5.899277  
    2996A      5.902619  2997A      5.903206  2998A      5.907774  
    2999A      5.910857  3000A      5.911950  3001A      5.916140  
    3002A      5.918725  3003A      5.920531  3004A      5.921293  
    3005A      5.925413  3006A      5.927491  3007A      5.930194  
    3008A      5.933572  3009A      5.937843  3010A      5.941128  
    3011A      5.942950  3012A      5.943978  3013A      5.949053  
    3014A      5.950514  3015A      5.958473  3016A      5.960367  
    3017A      5.965163  3018A      5.970650  3019A      5.971386  
    3020A      5.979878  3021A      5.983011  3022A      5.985356  
    3023A      5.986971  3024A      5.989630  3025A      5.991869  
    3026A      5.993300  3027A      5.995908  3028A      5.999322  
    3029A      6.000179  3030A      6.001883  3031A      6.005423  
    3032A      6.010947  3033A      6.015322  3034A      6.017619  
    3035A      6.019230  3036A      6.023058  3037A      6.024921  
    3038A      6.028097  3039A      6.033119  3040A      6.034011  
    3041A      6.036272  3042A      6.040368  3043A      6.042493  
    3044A      6.045429  3045A      6.047134  3046A      6.057168  
    3047A      6.058739  3048A      6.061205  3049A      6.067143  
    3050A      6.067629  3051A      6.070208  3052A      6.071994  
    3053A      6.077221  3054A      6.080043  3055A      6.082930  
    3056A      6.085462  3057A      6.088730  3058A      6.090022  
    3059A      6.092392  3060A      6.092977  3061A      6.094263  
    3062A      6.095599  3063A      6.100688  3064A      6.102439  
    3065A      6.110368  3066A      6.111065  3067A      6.114658  
    3068A      6.117312  3069A      6.118089  3070A      6.121843  
    3071A      6.123906  3072A      6.126351  3073A      6.141760  
    3074A      6.142896  3075A      6.151657  3076A      6.156457  
    3077A      6.158283  3078A      6.160018  3079A      6.162305  
    3080A      6.169073  3081A      6.171911  3082A      6.177457  
    3083A      6.178496  3084A      6.182896  3085A      6.190234  
    3086A      6.191701  3087A      6.196348  3088A      6.199004  
    3089A      6.203030  3090A      6.210670  3091A      6.215003  
    3092A      6.217606  3093A      6.220978  3094A      6.222952  
    3095A      6.228414  3096A      6.230856  3097A      6.232108  
    3098A      6.235901  3099A      6.236992  3100A      6.239052  
    3101A      6.244625  3102A      6.245936  3103A      6.251399  
    3104A      6.257169  3105A      6.261772  3106A      6.265952  
    3107A      6.271875  3108A      6.274437  3109A      6.281647  
    3110A      6.285532  3111A      6.290785  3112A      6.292445  
    3113A      6.294301  3114A      6.294658  3115A      6.299290  
    3116A      6.303313  3117A      6.306824  3118A      6.307985  
    3119A      6.314896  3120A      6.318011  3121A      6.322323  
    3122A      6.329301  3123A      6.330594  3124A      6.334531  
    3125A      6.335934  3126A      6.338036  3127A      6.342505  
    3128A      6.346743  3129A      6.349092  3130A      6.351448  
    3131A      6.355109  3132A      6.357461  3133A      6.360437  
    3134A      6.363750  3135A      6.367438  3136A      6.371727  
    3137A      6.374512  3138A      6.381353  3139A      6.383310  
    3140A      6.385341  3141A      6.386952  3142A      6.397279  
    3143A      6.399432  3144A      6.406059  3145A      6.409311  
    3146A      6.416455  3147A      6.421597  3148A      6.422636  
    3149A      6.423254  3150A      6.429046  3151A      6.437380  
    3152A      6.452614  3153A      6.456949  3154A      6.460809  
    3155A      6.469628  3156A      6.481160  3157A      6.494096  
    3158A      6.499686  3159A      6.510133  3160A      6.529160  
    3161A      6.534251  3162A      6.544610  3163A      6.551796  
    3164A      6.555945  3165A      6.566853  3166A      6.572379  
    3167A      6.574029  3168A      6.581591  3169A      6.587996  
    3170A      6.590539  3171A      6.607108  3172A      6.614267  
    3173A      6.633849  3174A      6.644452  3175A      6.655798  
    3176A      6.657906  3177A      6.680849  3178A      6.683922  
    3179A      6.689379  3180A      6.700429  3181A      6.707061  
    3182A      6.710302  3183A      6.719369  3184A      6.727540  
    3185A      6.731408  3186A      6.764167  3187A      6.770840  
    3188A      6.772871  3189A      6.788233  3190A      6.798542  
    3191A      6.817041  3192A      6.822592  3193A      6.827167  
    3194A      6.837934  3195A      6.839947  3196A      6.856696  
    3197A      6.865663  3198A      6.867180  3199A      6.869456  
    3200A      6.879226  3201A      6.896414  3202A      6.898317  
    3203A      6.901980  3204A      6.906965  3205A      6.915506  
    3206A      6.917551  3207A      6.926654  3208A      6.942431  
    3209A      6.948693  3210A      6.954366  3211A      6.973588  
    3212A      6.984040  3213A      7.001013  3214A      7.008945  
    3215A      7.016583  3216A      7.021982  3217A      7.033011  
    3218A      7.038818  3219A      7.047358  3220A      7.054026  
    3221A      7.055671  3222A      7.067418  3223A      7.071093  
    3224A      7.071645  3225A      7.073614  3226A      7.082505  
    3227A      7.090000  3228A      7.103068  3229A      7.106796  
    3230A      7.115329  3231A      7.127306  3232A      7.141494  
    3233A      7.159726  3234A      7.162414  3235A      7.164581  
    3236A      7.186689  3237A      7.188655  3238A      7.203034  
    3239A      7.224526  3240A      7.232159  3241A      7.236034  
    3242A      7.237519  3243A      7.239247  3244A      7.258786  
    3245A      7.264859  3246A      7.273666  3247A      7.287132  
    3248A      7.300606  3249A      7.311732  3250A      7.315896  
    3251A      7.336023  3252A      7.350182  3253A      7.364493  
    3254A      7.391583  3255A      7.393796  3256A      7.397458  
    3257A      7.442312  3258A      7.461547  3259A      7.463016  
    3260A      7.474271  3261A      7.494264  3262A      7.549327  
    3263A      7.590234  3264A      7.621765  3265A      7.627661  
    3266A      7.652696  3267A      7.658321  3268A      7.676158  
    3269A      7.677091  3270A      7.693966  3271A      7.694530  
    3272A      7.703873  3273A      7.710104  3274A      7.719487  
    3275A      7.723568  3276A      7.732868  3277A      7.757106  
    3278A      7.767723  3279A      7.779215  3280A      7.837665  
    3281A      7.858129  3282A      7.863394  3283A      7.872337  
    3284A      7.875924  3285A      7.902132  3286A      7.913170  
    3287A      7.944782  3288A      7.950836  3289A      7.957398  
    3290A      7.961785  3291A      7.972436  3292A      7.981186  
    3293A      7.995179  3294A      7.996681  3295A      8.009077  
    3296A      8.017561  3297A      8.022295  3298A      8.027054  
    3299A      8.032641  3300A      8.042912  3301A      8.054047  
    3302A      8.064367  3303A      8.085077  3304A      8.087492  
    3305A      8.097834  3306A      8.131843  3307A      8.164671  
    3308A      8.188536  3309A      8.209170  3310A      8.215973  
    3311A      8.233796  3312A      8.235914  3313A      8.351953  
    3314A      8.364210  3315A      8.406647  3316A      8.410259  
    3317A      8.509226  3318A      8.535459  3319A      8.556447  
    3320A      8.564162  3321A      8.588655  3322A      8.598456  
    3323A      8.613813  3324A      8.620864  3325A      8.639433  
    3326A      8.643787  3327A      8.667514  3328A      8.669256  
    3329A      8.697923  3330A      8.698721  3331A      8.750984  
    3332A      8.752596  3333A      9.077337  3334A      9.104004  
    3335A      9.192757  3336A      9.285644  3337A      9.350072  
    3338A      9.394597  3339A      9.414459  3340A      9.446105  
    3341A      9.454938  3342A      9.456250  3343A      9.499441  
    3344A      9.500768  3345A      9.552670  3346A      9.710382  
    3347A      9.876512  3348A     10.017532  3349A     10.119758  
    3350A     10.502351  3351A     10.505003  3352A     10.565881  
    3353A     10.571246  3354A     10.601388  3355A     10.617464  
    3356A     10.636796  3357A     10.678143  3358A     10.706475  
    3359A     10.769338  3360A     10.790216  3361A     10.891476  
    3362A     10.906317  3363A     10.912885  3364A     11.013241  
    3365A     11.068147  3366A     11.120322  3367A     11.132599  
    3368A     18.112699  3369A     18.117470  3370A     18.355231  
    3371A     18.397865  3372A     18.472567  3373A     18.514696  
    3374A     18.615657  3375A     18.669625  3376A     18.711395  
    3377A     18.735307  3378A     18.793563  3379A     19.015524  
    3380A     19.035445  3381A     19.082905  3382A     19.510670  
    3383A     19.842353  3384A     20.106261  3385A     20.115778  
    3386A     53.583076  3387A     53.601533  3388A     54.148869  
    3389A     54.233553  3390A     54.369335  3391A     54.511129  
    3392A     54.710288  3393A     54.744700  3394A     54.816531  
    3395A     54.983729  3396A     55.008876  3397A     55.273986  
    3398A     55.292494  3399A     55.399142  3400A     56.211325  
    3401A     56.856944  3402A     57.388401  3403A     57.394308  

    Final Occupation by Irrep:
              A 
    DOCC [    73 ]
    NA   [    73 ]
    NB   [    73 ]

  @DF-RHF Final Energy:  -704.02488299516972

   => Energetics <=

    Nuclear Repulsion Energy =           1177.1969194446960500
    One-Electron Energy =               -3287.2458747742944070
    Two-Electron Energy =                1406.0240723344286380
    Total Energy =                       -704.0248829951697189

Computation Completed


Properties will be evaluated at   0.000000,   0.000000,   0.000000 [a0]

Properties computed using the SCF density matrix


 Multipole Moments:

 ------------------------------------------------------------------------------------
     Multipole            Electronic (a.u.)      Nuclear  (a.u.)        Total (a.u.)
 ------------------------------------------------------------------------------------

 L = 1.  Multiply by 2.5417464519 to convert [e a0] to [Debye]
 Dipole X            :      -3183.4303716         3183.4307411            0.0003695
 Dipole Y            :      -2003.1111766         2003.1115827            0.0004061
 Dipole Z            :       -566.0006206          565.9994308           -0.0011898
 Magnitude           :                                                    0.0013104

 ------------------------------------------------------------------------------------

*** tstop() called on atl1-1-03-004-7-1.pace.gatech.edu at Sat Jun 13 17:35:43 2026
Module time:
	user time   =   19985.72 seconds =     333.10 minutes
	system time =     141.70 seconds =       2.36 minutes
	total time  =       2067 seconds =      34.45 minutes
Total time:
	user time   =   19985.72 seconds =     333.10 minutes
	system time =     141.70 seconds =       2.36 minutes
	total time  =       2067 seconds =      34.45 minutes

*** tstart() called on atl1-1-03-004-7-1.pace.gatech.edu
*** at Sat Jun 13 17:35:43 2026


  //>>>>>>>>>>>>>>>>>>>>>>>>>>>>>>>>>>>//
  //               DFMP2               //
  //<<<<<<<<<<<<<<<<<<<<<<<<<<<<<<<<<<<//

   => Loading Basis Set <=

    Name: (AUG-CC-PVTZ AUX)
    Role: RIFIT
    Keyword: DF_BASIS_MP2
    atoms 1-18, 57-74   entry C          line   148 file /storage/home/hcoda1/5/vlita3/.conda/envs/p4_qcml/share/psi4/basis/aug-cc-pvtz-ri.gbs 
    atoms 19-56, 75-112 entry H          line    30 file /storage/home/hcoda1/5/vlita3/.conda/envs/p4_qcml/share/psi4/basis/aug-cc-pvtz-ri.gbs 

	 --------------------------------------------------------
	                          DF-MP2                         
	      2nd-Order Density-Fitted Moller-Plesset Theory     
	              RMP2 Wavefunction,  10 Threads             
	                                                         
	        Rob Parrish, Justin Turney, Andy Simmonett,      
	           Ed Hohenstein, and C. David Sherrill          
	 --------------------------------------------------------

   => Auxiliary Basis Set <=

  Basis Set: (AUG-CC-PVTZ AUX)
    Blend: AUG-CC-PVTZ-RI
    Number of shells: 2072
    Number of basis functions: 7312
    Number of Cartesian functions: 9076
    Spherical Harmonics?: true
    Max angular momentum: 4

	 --------------------------------------------------------
	                 NBF =  3404, NAUX =  7312
	 --------------------------------------------------------
	   CLASS    FOCC     OCC    AOCC    AVIR     VIR    FVIR
	   PAIRS       0      73      73    3330    3330       0
	 --------------------------------------------------------

	-----------------------------------------------------------
	 ==================> DF-MP2 Energies <==================== 
	-----------------------------------------------------------
	 Reference Energy          =    -704.0248829951697189 [Eh]
	 Singles Energy            =      -0.0000000000000000 [Eh]
	 Same-Spin Energy          =      -0.7612053259428182 [Eh]
	 Opposite-Spin Energy      =      -2.8026341962694392 [Eh]
	 Correlation Energy        =      -3.5638395222122572 [Eh]
	 Total Energy              =    -707.5887225173819388 [Eh]
	-----------------------------------------------------------
	 ================> DF-SCS-MP2 Energies <================== 
	-----------------------------------------------------------
	 SCS Same-Spin Scale       =       0.3333333333333333 [-]
	 SCS Opposite-Spin Scale   =       1.2000000000000000 [-]
	 SCS Same-Spin Energy      =      -0.2537351086476061 [Eh]
	 SCS Opposite-Spin Energy  =      -3.3631610355233268 [Eh]
	 SCS Correlation Energy    =      -3.6168961441709326 [Eh]
	 SCS Total Energy          =    -707.6417791393406560 [Eh]
	-----------------------------------------------------------


*** tstop() called on atl1-1-03-004-7-1.pace.gatech.edu at Sat Jun 13 17:58:34 2026
Module time:
	user time   =   11611.49 seconds =     193.52 minutes
	system time =      90.91 seconds =       1.52 minutes
	total time  =       1371 seconds =      22.85 minutes
Total time:
	user time   =   31597.21 seconds =     526.62 minutes
	system time =     232.61 seconds =       3.88 minutes
	total time  =       3438 seconds =      57.30 minutes

    Psi4 stopped on: Saturday, 13 June 2026 05:58PM
    Psi4 wall time for execution: 0:57:17.90

*** Psi4 exiting successfully. Buy a developer a beer!
