
    -----------------------------------------------------------------------
          Psi4: An Open-Source Ab Initio Electronic Structure Package
                               Psi4 1.9.1 release

                         Git: Rev {} zzzzzzz 


    D. G. A. Smith, L. A. Burns, A. C. Simmonett, R. M. Parrish,
    M. C. Schieber, R. Galvelis, P. Kraus, H. Kruse, R. Di Remigio,
    A. Alenaizan, A. M. James, S. Lehtola, J. P. Misiewicz, M. Scheurer,
    R. A. Shaw, J. B. Schriber, Y. Xie, Z. L. Glick, D. A. Sirianni,
    J. S. O'Brien, J. M. Waldrop, A. Kumar, E. G. Hohenstein,
    B. P. Pritchard, B. R. Brooks, H. F. Schaefer III, A. Yu. Sokolov,
    K. Patkowski, A. E. DePrince III, U. Bozkaya, R. A. King,
    F. A. Evangelista, J. M. Turney, T. D. Crawford, C. D. Sherrill,
    J. Chem. Phys. 152(18) 184108 (2020). https://doi.org/10.1063/5.0006002

                            Additional Code Authors
    E. T. Seidl, C. L. Janssen, E. F. Valeev, M. L. Leininger,
    J. F. Gonthier, R. M. Richard, H. R. McAlexander, M. Saitow, X. Wang,
    P. Verma, M. H. Lechner, A. Jiang, S. Behnle, A. G. Heide,
    M. F. Herbst, and D. L. Poole

             Previous Authors, Complete List of Code Contributors,
                       and Citations for Specific Modules
    https://github.com/psi4/psi4/blob/master/codemeta.json
    https://github.com/psi4/psi4/graphs/contributors
    http://psicode.org/psi4manual/master/introduction.html#citing-psifour

    -----------------------------------------------------------------------


    Psi4 started on: Monday, 15 June 2026 10:18AM

    Process ID: 671471
    Host:       atl1-1-02-003-27-2.pace.gatech.edu
    PSIDATADIR: /storage/home/hcoda1/5/vlita3/.conda/envs/p4_qcml/share/psi4
    Memory:     250.0 GiB
    Threads:    10
    
  ==> Input QCSchema <==

--------------------------------------------------------------------------
{'driver': 'energy',
 'extras': {},
 'id': '338',
 'keywords': {},
 'model': {'basis': 'aug-cc-pvtz', 'method': 'mp2'},
 'molecule': {'extras': {},
              'fix_com': True,
              'fix_orientation': True,
              'fragment_charges': [0.0, 0.0],
              'fragment_multiplicities': [1, 1],
              'fragments': [[0, 1, 2, 3, 4, 5, 6, 7, 8, 9, 10, 11, 12, 13, 14, 15, 16, 17, 18, 19, 20, 21, 22, 23, 24,
                             25, 26, 27, 28, 29, 30, 31, 32, 33, 34, 35, 36, 37, 38, 39, 40, 41, 42, 43],
                            [44, 45, 46, 47, 48, 49, 50, 51, 52, 53, 54, 55, 56, 57, 58, 59, 60, 61, 62, 63, 64, 65, 66,
                             67, 68, 69, 70, 71, 72, 73, 74, 75, 76, 77, 78, 79, 80, 81, 82, 83, 84, 85, 86, 87]],
              'geometry': [25.47963781, 23.08351049, 43.1296896, 24.89690954, 20.52012331, 43.887087, 25.07057198,
                           18.48699404, 42.07353641, 25.8424877, 19.04880944, 39.52013663, 26.46903607, 21.61452675,
                           38.85199593, 26.30318821, 23.59330066, 40.54460103, 24.46577176, 15.9279092, 42.77036087,
                           23.76811717, 15.37695629, 45.40838081, 23.59859476, 17.38880058, 47.22265844, 24.1081018,
                           20.02007671, 46.44346413, 22.96694077, 16.77267612, 49.77192758, 22.51062738, 14.29130626,
                           50.58597185, 22.67427055, 12.32177999, 48.76231557, 23.27971306, 12.86309326, 46.25226043,
                           25.97467497, 17.0727052, 37.71068154, 25.34789586, 14.59123463, 38.39437083, 24.59969708,
                           14.0277518, 40.88784347, 25.20039992, 25.0588727, 44.92111126, 24.35321071, 24.59525103,
                           47.39946073, 23.84084877, 22.08099208, 48.12795237, 21.86046838, 13.69556932, 53.32235171,
                           24.04555383, 26.76370654, 49.27889773, 26.50915633, 27.41178979, 50.73375129, 26.93108599,
                           26.27094839, 39.72356046, 27.10311578, 21.98163565, 36.89906984, 22.32265299, 10.34583799,
                           49.33666834, 23.39372081, 11.28300305, 44.90489504, 26.57612038, 17.51973959, 35.76596134,
                           25.43664936, 13.06203906, 36.97800898, 24.12002947, 12.05854919, 41.3527408, 25.62817825,
                           27.01761767, 44.36171793, 23.18724332, 21.75219607, 50.07608394, 23.27013145, 12.38510294,
                           54.17857328, 21.79629273, 15.42803966, 54.50687769, 19.98705402, 12.74487252, 53.47527914,
                           22.53167906, 26.28198386, 50.6619148, 23.38069793, 28.48102898, 48.25612267, 27.19569266,
                           25.7565067, 51.83310019, 28.04156267, 27.96965392, 49.40821263, 28.39145441, 27.1428651,
                           40.95513515, 25.23456206, 27.51897461, 39.79892028, 27.66207922, 26.29954115, 37.75755015,
                           26.2022166, 29.00071195, 52.0780899, 22.83611537, 18.29134925, 51.1881473, 30.81342193,
                           18.71017989, 45.99359029, 31.5788239, 19.74555973, 43.58027113, 32.18922921, 22.39746574,
                           43.36009841, 32.04731473, 23.98056161, 45.57578145, 31.25562095, 22.88485355, 47.94186375,
                           30.64065655, 20.36296812, 48.19759324, 32.96098858, 23.46875558, 40.98068543, 32.9776879,
                           21.8498177, 38.71563215, 32.39688051, 19.20754673, 38.92783428, 31.75108262, 18.1119644,
                           41.41040042, 32.38510148, 17.70859001, 36.6883681, 32.89884869, 18.70388423, 34.28627015,
                           33.46045747, 21.32787429, 34.10603582, 33.50020544, 22.84413785, 36.26471359, 32.71084168,
                           26.57519902, 45.39430813, 33.51746054, 27.59229626, 43.0833912, 33.64071365, 26.05933156,
                           40.9078722, 30.26834315, 16.09166271, 46.16720061, 30.49746548, 14.47431826, 44.06910385,
                           31.23964841, 15.50757785, 41.72580743, 32.85245858, 17.05660123, 31.93007182, 30.0352396,
                           11.64386798, 44.33912194, 32.45644731, 10.16276856, 45.08627623, 29.83741229, 19.30937345,
                           50.74453249, 31.15944353, 24.13692378, 49.60598037, 33.86115259, 22.17547238, 32.24063318,
                           33.92403613, 24.86828461, 36.03931452, 32.60693264, 27.77144276, 47.1004289, 34.05705016,
                           29.60331272, 42.95688301, 34.27807476, 26.92308174, 39.12655219, 29.64722791, 15.28713696,
                           47.98302787, 31.38145507, 14.21615321, 40.10268471, 34.735737, 17.01308892, 30.98680081,
                           32.31443775, 15.0754773, 32.37170495, 31.48589123, 17.79122297, 30.50534659, 29.28049933,
                           10.88478084, 42.52649407, 28.54357618, 11.31799443, 45.78690148, 33.97269455, 10.41059171,
                           43.64975571, 33.2192207, 10.84125701, 46.92494523, 31.18221652, 17.84465276, 51.44063809,
                           27.94896357, 18.39273342, 50.64394079, 29.74125873, 20.82714016, 52.19033882, 32.06613232,
                           8.10297733, 45.26704002, 31.91846208, 15.68652669, 36.81860417],
              'id': 5,
              'identifiers': {'molecular_formula': 'C48H40',
                              'molecule_hash': '15b64246f541ee1ce312b171a08939958d334f77'},
              'molecular_charge': 0.0,
              'molecular_multiplicity': 1,
              'name': 'C48H40',
              'provenance': {'creator': 'QCElemental',
                             'routine': 'qcelemental.molparse.from_string',
                             'version': '0.29.0'},
              'schema_name': 'qcschema_molecule',
              'schema_version': 2,
              'symbols': ['C', 'C', 'C', 'C', 'C', 'C', 'C', 'C', 'C', 'C', 'C', 'C', 'C', 'C', 'C', 'C', 'C', 'C', 'C',
                          'C', 'C', 'C', 'C', 'C', 'H', 'H', 'H', 'H', 'H', 'H', 'H', 'H', 'H', 'H', 'H', 'H', 'H', 'H',
                          'H', 'H', 'H', 'H', 'H', 'H', 'C', 'C', 'C', 'C', 'C', 'C', 'C', 'C', 'C', 'C', 'C', 'C', 'C',
                          'C', 'C', 'C', 'C', 'C', 'C', 'C', 'C', 'C', 'C', 'C', 'H', 'H', 'H', 'H', 'H', 'H', 'H', 'H',
                          'H', 'H', 'H', 'H', 'H', 'H', 'H', 'H', 'H', 'H', 'H', 'H'],
              'validated': True},
 'protocols': {},
 'provenance': {'creator': 'QCElemental', 'routine': 'qcelemental.models.results', 'version': '0.29.0'},
 'schema_name': 'qcschema_input',
 'schema_version': 1}
--------------------------------------------------------------------------

Scratch directory: /tmp/tmp5s3r9iry_psi_scratch/
    SCF Algorithm Type (re)set to DF.
   => Libint2 <=

    Primary   basis highest AM E, G, H:  6, 6, 3
    Auxiliary basis highest AM E, G, H:  7, 7, 4
    Onebody   basis highest AM E, G, H:  -, -, -
    Solid Harmonics ordering:            Gaussian

*** tstart() called on atl1-1-02-003-27-2.pace.gatech.edu
*** at Mon Jun 15 10:18:07 2026

   => Loading Basis Set <=

    Name: AUG-CC-PVTZ
    Role: ORBITAL
    Keyword: BASIS
    atoms 1-24, 45-68  entry C          line   239 file /storage/home/hcoda1/5/vlita3/.conda/envs/p4_qcml/share/psi4/basis/aug-cc-pvtz.gbs 
    atoms 25-44, 69-88 entry H          line    40 file /storage/home/hcoda1/5/vlita3/.conda/envs/p4_qcml/share/psi4/basis/aug-cc-pvtz.gbs 


         ---------------------------------------------------------
                                   SCF
               by Justin Turney, Rob Parrish, Andy Simmonett
                          and Daniel G. A. Smith
                              RHF Reference
                       10 Threads, 256000 MiB Core
         ---------------------------------------------------------

  ==> Geometry <==

    Molecular point group: c1
    Full point group: C1

    Geometry (in Bohr), charge = 0, multiplicity = 1:

       Center              X                  Y                   Z               Mass       
    ------------   -----------------  -----------------  -----------------  -----------------
         C           25.479637810000    23.083510490000    43.129689600000    12.000000000000
         C           24.896909540000    20.520123310000    43.887087000000    12.000000000000
         C           25.070571980000    18.486994040000    42.073536410000    12.000000000000
         C           25.842487700000    19.048809440000    39.520136630000    12.000000000000
         C           26.469036070000    21.614526750000    38.851995930000    12.000000000000
         C           26.303188210000    23.593300660000    40.544601030000    12.000000000000
         C           24.465771760000    15.927909200000    42.770360870000    12.000000000000
         C           23.768117170000    15.376956290000    45.408380810000    12.000000000000
         C           23.598594760000    17.388800580000    47.222658440000    12.000000000000
         C           24.108101800000    20.020076710000    46.443464130000    12.000000000000
         C           22.966940770000    16.772676120000    49.771927580000    12.000000000000
         C           22.510627380000    14.291306260000    50.585971850000    12.000000000000
         C           22.674270550000    12.321779990000    48.762315570000    12.000000000000
         C           23.279713060000    12.863093260000    46.252260430000    12.000000000000
         C           25.974674970000    17.072705200000    37.710681540000    12.000000000000
         C           25.347895860000    14.591234630000    38.394370830000    12.000000000000
         C           24.599697080000    14.027751800000    40.887843470000    12.000000000000
         C           25.200399920000    25.058872700000    44.921111260000    12.000000000000
         C           24.353210710000    24.595251030000    47.399460730000    12.000000000000
         C           23.840848770000    22.080992080000    48.127952370000    12.000000000000
         C           21.860468380000    13.695569320000    53.322351710000    12.000000000000
         C           24.045553830000    26.763706540000    49.278897730000    12.000000000000
         C           26.509156330000    27.411789790000    50.733751290000    12.000000000000
         C           26.931085990000    26.270948390000    39.723560460000    12.000000000000
         H           27.103115780000    21.981635650000    36.899069840000     1.007825032230
         H           22.322652990000    10.345837990000    49.336668340000     1.007825032230
         H           23.393720810000    11.283003050000    44.904895040000     1.007825032230
         H           26.576120380000    17.519739590000    35.765961340000     1.007825032230
         H           25.436649360000    13.062039060000    36.978008980000     1.007825032230
         H           24.120029470000    12.058549190000    41.352740800000     1.007825032230
         H           25.628178250000    27.017617670000    44.361717930000     1.007825032230
         H           23.187243320000    21.752196070000    50.076083940000     1.007825032230
         H           23.270131450000    12.385102940000    54.178573280000     1.007825032230
         H           21.796292730000    15.428039660000    54.506877690000     1.007825032230
         H           19.987054020000    12.744872520000    53.475279140000     1.007825032230
         H           22.531679060000    26.281983860000    50.661914800000     1.007825032230
         H           23.380697930000    28.481028980000    48.256122670000     1.007825032230
         H           27.195692660000    25.756506700000    51.833100190000     1.007825032230
         H           28.041562670000    27.969653920000    49.408212630000     1.007825032230
         H           28.391454410000    27.142865100000    40.955135150000     1.007825032230
         H           25.234562060000    27.518974610000    39.798920280000     1.007825032230
         H           27.662079220000    26.299541150000    37.757550150000     1.007825032230
         H           26.202216600000    29.000711950000    52.078089900000     1.007825032230
         H           22.836115370000    18.291349250000    51.188147300000     1.007825032230
         C           30.813421930000    18.710179890000    45.993590290000    12.000000000000
         C           31.578823900000    19.745559730000    43.580271130000    12.000000000000
         C           32.189229210000    22.397465740000    43.360098410000    12.000000000000
         C           32.047314730000    23.980561610000    45.575781450000    12.000000000000
         C           31.255620950000    22.884853550000    47.941863750000    12.000000000000
         C           30.640656550000    20.362968120000    48.197593240000    12.000000000000
         C           32.960988580000    23.468755580000    40.980685430000    12.000000000000
         C           32.977687900000    21.849817700000    38.715632150000    12.000000000000
         C           32.396880510000    19.207546730000    38.927834280000    12.000000000000
         C           31.751082620000    18.111964400000    41.410400420000    12.000000000000
         C           32.385101480000    17.708590010000    36.688368100000    12.000000000000
         C           32.898848690000    18.703884230000    34.286270150000    12.000000000000
         C           33.460457470000    21.327874290000    34.106035820000    12.000000000000
         C           33.500205440000    22.844137850000    36.264713590000    12.000000000000
         C           32.710841680000    26.575199020000    45.394308130000    12.000000000000
         C           33.517460540000    27.592296260000    43.083391200000    12.000000000000
         C           33.640713650000    26.059331560000    40.907872200000    12.000000000000
         C           30.268343150000    16.091662710000    46.167200610000    12.000000000000
         C           30.497465480000    14.474318260000    44.069103850000    12.000000000000
         C           31.239648410000    15.507577850000    41.725807430000    12.000000000000
         C           32.852458580000    17.056601230000    31.930071820000    12.000000000000
         C           30.035239600000    11.643867980000    44.339121940000    12.000000000000
         C           32.456447310000    10.162768560000    45.086276230000    12.000000000000
         C           29.837412290000    19.309373450000    50.744532490000    12.000000000000
         H           31.159443530000    24.136923780000    49.605980370000     1.007825032230
         H           33.861152590000    22.175472380000    32.240633180000     1.007825032230
         H           33.924036130000    24.868284610000    36.039314520000     1.007825032230
         H           32.606932640000    27.771442760000    47.100428900000     1.007825032230
         H           34.057050160000    29.603312720000    42.956883010000     1.007825032230
         H           34.278074760000    26.923081740000    39.126552190000     1.007825032230
         H           29.647227910000    15.287136960000    47.983027870000     1.007825032230
         H           31.381455070000    14.216153210000    40.102684710000     1.007825032230
         H           34.735737000000    17.013088920000    30.986800810000     1.007825032230
         H           32.314437750000    15.075477300000    32.371704950000     1.007825032230
         H           31.485891230000    17.791222970000    30.505346590000     1.007825032230
         H           29.280499330000    10.884780840000    42.526494070000     1.007825032230
         H           28.543576180000    11.317994430000    45.786901480000     1.007825032230
         H           33.972694550000    10.410591710000    43.649755710000     1.007825032230
         H           33.219220700000    10.841257010000    46.924945230000     1.007825032230
         H           31.182216520000    17.844652760000    51.440638090000     1.007825032230
         H           27.948963570000    18.392733420000    50.643940790000     1.007825032230
         H           29.741258730000    20.827140160000    52.190338820000     1.007825032230
         H           32.066132320000     8.102977330000    45.267040020000     1.007825032230
         H           31.918462080000    15.686526690000    36.818604170000     1.007825032230

  Running in c1 symmetry.

  Rotational constants: A =      0.00210  B =      0.00003  C =      0.00003 [cm^-1]
  Rotational constants: A =     62.96897  B =      0.94325  C =      0.93874 [MHz]
  Nuclear repulsion = 6199.614502676580742

  Charge       = 0
  Multiplicity = 1
  Electrons    = 328
  Nalpha       = 164
  Nbeta        = 164

  ==> Algorithm <==

  SCF Algorithm Type is DF.
  DIIS enabled.
  MOM disabled.
  Fractional occupation disabled.
  Guess Type is SAD.
  Energy threshold   = 1.00e-08
  Density threshold  = 1.00e-08
  Integral threshold = 1.00e-12

  ==> Primary Basis <==

  Basis Set: AUG-CC-PVTZ
    Blend: AUG-CC-PVTZ
    Number of shells: 1032
    Number of basis functions: 3128
    Number of Cartesian functions: 3640
    Spherical Harmonics?: true
    Max angular momentum: 3

   => Loading Basis Set <=

    Name: (AUG-CC-PVTZ AUX)
    Role: JKFIT
    Keyword: DF_BASIS_SCF
    atoms 1-24, 45-68  entry C          line   162 file /storage/home/hcoda1/5/vlita3/.conda/envs/p4_qcml/share/psi4/basis/aug-cc-pvtz-jkfit.gbs 
    atoms 25-44, 69-88 entry H          line    70 file /storage/home/hcoda1/5/vlita3/.conda/envs/p4_qcml/share/psi4/basis/aug-cc-pvtz-jkfit.gbs 

  ==> Integral Setup <==

  ==> DiskDFJK: Density-Fitted J/K Matrices <==

    J tasked:                  Yes
    K tasked:                  Yes
    wK tasked:                  No
    OpenMP threads:             10
    Integrals threads:          10
    Memory [MiB]:           192000
    Algorithm:                Disk
    Integral Cache:           NONE
    Schwarz Cutoff:          1E-12
    Fitting Condition:       1E-10

   => Auxiliary Basis Set <=

  Basis Set: (AUG-CC-PVTZ AUX)
    Blend: AUG-CC-PVTZ-JKFIT
    Number of shells: 2000
    Number of basis functions: 6832
    Number of Cartesian functions: 8488
    Spherical Harmonics?: true
    Max angular momentum: 4

  Minimum eigenvalue in the overlap matrix is 6.3711160731E-10.
  Reciprocal condition number of the overlap matrix is 1.7895063395E-11.
    Using canonical orthogonalization.
  Overall, 29 of 3128 possible MOs eliminated.


  ==> Pre-Iterations <==

  SCF Guess: Superposition of Atomic Densities via on-the-fly atomic UHF (no occupation information).

   -------------------------
    Irrep   Nso     Nmo    
   -------------------------
     A       3128    3099 
   -------------------------
    Total    3128    3099
   -------------------------

  ==> Iterations <==

                           Total Energy        Delta E     RMS |[F,P]|

   @DF-RHF iter SAD: -1842.33456633588935   -1.84233e+03   0.00000e+00 
   @DF-RHF iter   1: -1840.39657117904767    1.93800e+00   4.33238e-04 DIIS/ADIIS
   @DF-RHF iter   2: -1841.40837733210901   -1.01181e+00   1.93844e-04 DIIS/ADIIS
   @DF-RHF iter   3: -1841.59189940799479   -1.83522e-01   7.02047e-05 DIIS
   @DF-RHF iter   4: -1841.61518239819884   -2.32830e-02   3.71389e-05 DIIS
   @DF-RHF iter   5: -1841.62262789962097   -7.44550e-03   6.47712e-06 DIIS
   @DF-RHF iter   6: -1841.62290197155448   -2.74072e-04   2.39649e-06 DIIS
   @DF-RHF iter   7: -1841.62295419126531   -5.22197e-05   7.54168e-07 DIIS
   @DF-RHF iter   8: -1841.62296230954530   -8.11828e-06   3.44547e-07 DIIS
   @DF-RHF iter   9: -1841.62296440885143   -2.09931e-06   1.58651e-07 DIIS
   @DF-RHF iter  10: -1841.62296486963373   -4.60782e-07   6.62962e-08 DIIS
   @DF-RHF iter  11: -1841.62296494382304   -7.41893e-08   3.26611e-08 DIIS
   @DF-RHF iter  12: -1841.62296496427393   -2.04509e-08   1.87783e-08 DIIS
   @DF-RHF iter  13: -1841.62296497481930   -1.05454e-08   1.06226e-08 DIIS
   @DF-RHF iter  14: -1841.62296497930106   -4.48176e-09   5.20989e-09 DIIS
  Energy and wave function converged.


  ==> Post-Iterations <==

    Orbital Energies [Eh]
    ---------------------

    Doubly Occupied:                                                      

       1A    -11.254732     2A    -11.251770     3A    -11.251631  
       4A    -11.251072     5A    -11.250706     6A    -11.250309  
       7A    -11.249783     8A    -11.249093     9A    -11.248631  
      10A    -11.247055    11A    -11.245273    12A    -11.245092  
      13A    -11.244817    14A    -11.244312    15A    -11.244116  
      16A    -11.243624    17A    -11.243394    18A    -11.243214  
      19A    -11.242514    20A    -11.242302    21A    -11.242163  
      22A    -11.241658    23A    -11.241616    24A    -11.239795  
      25A    -11.239368    26A    -11.238528    27A    -11.238233  
      28A    -11.237885    29A    -11.237776    30A    -11.237655  
      31A    -11.237402    32A    -11.236861    33A    -11.236257  
      34A    -11.236065    35A    -11.235792    36A    -11.235229  
      37A    -11.233949    38A    -11.233575    39A    -11.231370  
      40A    -11.230972    41A    -11.229171    42A    -11.229164  
      43A    -11.228014    44A    -11.227764    45A    -11.227556  
      46A    -11.226678    47A    -11.222224    48A    -11.222148  
      49A     -1.186990    50A     -1.182240    51A     -1.146734  
      52A     -1.145341    53A     -1.135380    54A     -1.132238  
      55A     -1.095745    56A     -1.094280    57A     -1.075104  
      58A     -1.073242    59A     -1.049622    60A     -1.047865  
      61A     -1.025696    62A     -1.023868    63A     -1.020189  
      64A     -1.019362    65A     -1.002475    66A     -1.000937  
      67A     -0.970114    68A     -0.968346    69A     -0.963916  
      70A     -0.961364    71A     -0.926398    72A     -0.925043  
      73A     -0.922656    74A     -0.920024    75A     -0.865557  
      76A     -0.862402    77A     -0.851334    78A     -0.849359  
      79A     -0.830612    80A     -0.830018    81A     -0.820298  
      82A     -0.819715    83A     -0.811542    84A     -0.809279  
      85A     -0.780825    86A     -0.779925    87A     -0.737952  
      88A     -0.736031    89A     -0.713793    90A     -0.713310  
      91A     -0.702753    92A     -0.700706    93A     -0.674241  
      94A     -0.673327    95A     -0.666599    96A     -0.664995  
      97A     -0.635486    98A     -0.634786    99A     -0.632961  
     100A     -0.631119   101A     -0.627153   102A     -0.625915  
     103A     -0.611518   104A     -0.609917   105A     -0.606655  
     106A     -0.604507   107A     -0.590645   108A     -0.589311  
     109A     -0.583653   110A     -0.580112   111A     -0.577262  
     112A     -0.573590   113A     -0.572592   114A     -0.571044  
     115A     -0.569909   116A     -0.569098   117A     -0.567833  
     118A     -0.563431   119A     -0.558315   120A     -0.557817  
     121A     -0.549974   122A     -0.549289   123A     -0.541595  
     124A     -0.536003   125A     -0.534759   126A     -0.533756  
     127A     -0.530278   128A     -0.529507   129A     -0.524670  
     130A     -0.522055   131A     -0.517359   132A     -0.514753  
     133A     -0.511353   134A     -0.508628   135A     -0.505953  
     136A     -0.504850   137A     -0.494049   138A     -0.491874  
     139A     -0.490714   140A     -0.487407   141A     -0.485599  
     142A     -0.482823   143A     -0.481094   144A     -0.476078  
     145A     -0.471253   146A     -0.466286   147A     -0.452332  
     148A     -0.450746   149A     -0.449820   150A     -0.449231  
     151A     -0.414686   152A     -0.407579   153A     -0.385205  
     154A     -0.373641   155A     -0.372224   156A     -0.362262  
     157A     -0.324792   158A     -0.321180   159A     -0.313723  
     160A     -0.308701   161A     -0.273580   162A     -0.270701  
     163A     -0.253096   164A     -0.250430  

    Virtual:                                                              

     165A      0.021756   166A      0.023444   167A      0.024584  
     168A      0.030355   169A      0.030379   170A      0.031856  
     171A      0.036593   172A      0.037556   173A      0.039722  
     174A      0.040631   175A      0.045193   176A      0.046139  
     177A      0.046979   178A      0.050523   179A      0.053387  
     180A      0.054157   181A      0.055061   182A      0.057498  
     183A      0.058466   184A      0.060477   185A      0.062919  
     186A      0.065185   187A      0.065815   188A      0.067705  
     189A      0.069578   190A      0.070374   191A      0.073241  
     192A      0.077473   193A      0.078621   194A      0.079390  
     195A      0.081545   196A      0.083185   197A      0.084089  
     198A      0.084470   199A      0.087238   200A      0.088988  
     201A      0.090722   202A      0.091380   203A      0.094911  
     204A      0.095339   205A      0.096265   206A      0.097371  
     207A      0.098975   208A      0.099681   209A      0.102211  
     210A      0.105130   211A      0.105831   212A      0.107495  
     213A      0.108155   214A      0.109032   215A      0.111839  
     216A      0.113032   217A      0.113525   218A      0.114462  
     219A      0.116375   220A      0.117316   221A      0.118479  
     222A      0.119908   223A      0.121467   224A      0.122107  
     225A      0.123157   226A      0.126449   227A      0.126880  
     228A      0.127970   229A      0.128646   230A      0.132484  
     231A      0.133825   232A      0.134552   233A      0.136793  
     234A      0.138750   235A      0.140120   236A      0.141417  
     237A      0.143116   238A      0.143453   239A      0.144706  
     240A      0.145946   241A      0.146651   242A      0.148671  
     243A      0.149524   244A      0.150558   245A      0.152483  
     246A      0.153567   247A      0.156635   248A      0.156950  
     249A      0.160166   250A      0.161062   251A      0.162149  
     252A      0.162623   253A      0.163909   254A      0.166232  
     255A      0.166537   256A      0.166859   257A      0.168239  
     258A      0.169542   259A      0.170726   260A      0.170957  
     261A      0.173562   262A      0.175027   263A      0.176704  
     264A      0.178486   265A      0.179674   266A      0.180649  
     267A      0.181577   268A      0.183127   269A      0.185508  
     270A      0.186446   271A      0.187787   272A      0.189554  
     273A      0.190322   274A      0.192391   275A      0.193572  
     276A      0.194350   277A      0.195565   278A      0.197676  
     279A      0.199623   280A      0.202007   281A      0.202542  
     282A      0.204918   283A      0.205150   284A      0.207053  
     285A      0.208052   286A      0.208796   287A      0.211864  
     288A      0.212412   289A      0.213446   290A      0.215460  
     291A      0.218437   292A      0.219727   293A      0.221102  
     294A      0.221410   295A      0.223721   296A      0.225053  
     297A      0.225556   298A      0.226396   299A      0.228706  
     300A      0.229629   301A      0.231349   302A      0.233615  
     303A      0.235247   304A      0.235603   305A      0.238796  
     306A      0.239980   307A      0.241098   308A      0.241843  
     309A      0.244262   310A      0.244556   311A      0.247323  
     312A      0.248226   313A      0.249695   314A      0.250375  
     315A      0.251737   316A      0.252373   317A      0.254285  
     318A      0.255514   319A      0.257097   320A      0.257841  
     321A      0.260763   322A      0.261258   323A      0.262935  
     324A      0.263590   325A      0.266177   326A      0.266623  
     327A      0.267887   328A      0.270228   329A      0.271347  
     330A      0.272063   331A      0.274163   332A      0.274822  
     333A      0.275374   334A      0.277740   335A      0.278340  
     336A      0.279383   337A      0.281097   338A      0.281715  
     339A      0.282488   340A      0.282521   341A      0.285783  
     342A      0.287523   343A      0.288038   344A      0.288246  
     345A      0.290442   346A      0.291409   347A      0.292900  
     348A      0.294634   349A      0.294685   350A      0.296955  
     351A      0.298156   352A      0.298862   353A      0.301277  
     354A      0.302296   355A      0.303038   356A      0.303874  
     357A      0.304905   358A      0.305712   359A      0.308347  
     360A      0.309873   361A      0.311011   362A      0.311264  
     363A      0.312570   364A      0.314603   365A      0.316597  
     366A      0.317845   367A      0.320097   368A      0.320580  
     369A      0.321480   370A      0.322050   371A      0.323028  
     372A      0.324655   373A      0.326037   374A      0.326931  
     375A      0.328581   376A      0.330295   377A      0.331311  
     378A      0.331904   379A      0.334641   380A      0.334778  
     381A      0.337971   382A      0.339765   383A      0.340686  
     384A      0.340769   385A      0.342246   386A      0.343118  
     387A      0.344780   388A      0.346349   389A      0.346790  
     390A      0.348318   391A      0.349633   392A      0.350756  
     393A      0.352088   394A      0.353266   395A      0.354462  
     396A      0.355034   397A      0.355600   398A      0.356598  
     399A      0.357634   400A      0.360184   401A      0.361402  
     402A      0.363096   403A      0.364145   404A      0.365672  
     405A      0.368133   406A      0.368870   407A      0.370900  
     408A      0.371864   409A      0.373620   410A      0.374138  
     411A      0.375541   412A      0.377220   413A      0.378786  
     414A      0.381238   415A      0.381616   416A      0.382606  
     417A      0.384067   418A      0.385502   419A      0.386991  
     420A      0.388164   421A      0.391781   422A      0.392198  
     423A      0.393117   424A      0.393846   425A      0.394904  
     426A      0.395464   427A      0.396845   428A      0.397875  
     429A      0.400383   430A      0.400981   431A      0.402099  
     432A      0.402810   433A      0.405034   434A      0.405968  
     435A      0.407319   436A      0.408945   437A      0.410985  
     438A      0.411729   439A      0.411907   440A      0.413310  
     441A      0.414928   442A      0.416025   443A      0.418410  
     444A      0.419401   445A      0.420616   446A      0.421726  
     447A      0.422610   448A      0.424053   449A      0.424985  
     450A      0.426229   451A      0.426705   452A      0.429137  
     453A      0.431489   454A      0.432674   455A      0.433812  
     456A      0.434069   457A      0.435387   458A      0.437009  
     459A      0.437828   460A      0.438546   461A      0.439267  
     462A      0.441412   463A      0.442265   464A      0.443855  
     465A      0.446070   466A      0.446530   467A      0.447955  
     468A      0.448461   469A      0.449931   470A      0.452083  
     471A      0.453646   472A      0.454907   473A      0.455085  
     474A      0.457159   475A      0.457696   476A      0.460372  
     477A      0.462139   478A      0.462666   479A      0.465822  
     480A      0.467586   481A      0.468026   482A      0.468980  
     483A      0.470258   484A      0.471814   485A      0.473868  
     486A      0.475154   487A      0.477642   488A      0.478583  
     489A      0.479516   490A      0.481928   491A      0.483132  
     492A      0.483793   493A      0.485435   494A      0.486584  
     495A      0.488566   496A      0.489926   497A      0.491814  
     498A      0.493127   499A      0.493568   500A      0.494630  
     501A      0.495965   502A      0.496285   503A      0.497414  
     504A      0.498380   505A      0.499663   506A      0.501064  
     507A      0.501489   508A      0.502820   509A      0.503579  
     510A      0.505275   511A      0.507659   512A      0.508033  
     513A      0.508916   514A      0.509193   515A      0.511144  
     516A      0.512186   517A      0.512474   518A      0.515100  
     519A      0.516061   520A      0.516873   521A      0.518534  
     522A      0.518630   523A      0.520637   524A      0.521951  
     525A      0.523394   526A      0.524677   527A      0.524979  
     528A      0.525675   529A      0.527146   530A      0.528947  
     531A      0.529913   532A      0.530856   533A      0.531342  
     534A      0.532571   535A      0.533217   536A      0.535435  
     537A      0.537094   538A      0.538092   539A      0.538293  
     540A      0.538887   541A      0.539793   542A      0.540882  
     543A      0.542108   544A      0.542730   545A      0.543620  
     546A      0.543709   547A      0.544922   548A      0.547336  
     549A      0.548404   550A      0.549514   551A      0.550533  
     552A      0.551207   553A      0.552374   554A      0.553085  
     555A      0.555212   556A      0.556042   557A      0.556523  
     558A      0.558371   559A      0.559207   560A      0.560573  
     561A      0.561699   562A      0.562320   563A      0.563151  
     564A      0.564383   565A      0.565413   566A      0.566869  
     567A      0.567262   568A      0.568378   569A      0.569165  
     570A      0.570049   571A      0.571608   572A      0.572087  
     573A      0.573844   574A      0.574655   575A      0.575270  
     576A      0.578299   577A      0.579325   578A      0.579939  
     579A      0.581086   580A      0.582292   581A      0.583662  
     582A      0.585050   583A      0.585609   584A      0.586401  
     585A      0.586604   586A      0.589205   587A      0.590789  
     588A      0.591180   589A      0.592469   590A      0.593532  
     591A      0.595377   592A      0.596389   593A      0.596802  
     594A      0.598905   595A      0.599565   596A      0.601770  
     597A      0.602065   598A      0.603900   599A      0.605496  
     600A      0.606491   601A      0.607129   602A      0.607913  
     603A      0.610141   604A      0.612728   605A      0.613082  
     606A      0.614832   607A      0.615323   608A      0.616474  
     609A      0.617214   610A      0.618752   611A      0.619794  
     612A      0.621288   613A      0.621965   614A      0.622986  
     615A      0.624525   616A      0.626077   617A      0.626603  
     618A      0.629364   619A      0.630692   620A      0.632779  
     621A      0.633510   622A      0.635132   623A      0.635650  
     624A      0.636948   625A      0.638069   626A      0.639746  
     627A      0.640265   628A      0.640865   629A      0.643420  
     630A      0.644848   631A      0.646459   632A      0.648361  
     633A      0.650922   634A      0.651628   635A      0.652710  
     636A      0.653541   637A      0.655560   638A      0.657330  
     639A      0.658017   640A      0.659984   641A      0.661610  
     642A      0.663204   643A      0.664002   644A      0.666209  
     645A      0.667800   646A      0.668530   647A      0.672311  
     648A      0.673250   649A      0.675384   650A      0.677312  
     651A      0.678024   652A      0.679655   653A      0.680996  
     654A      0.682610   655A      0.684627   656A      0.684825  
     657A      0.686313   658A      0.688613   659A      0.690770  
     660A      0.691211   661A      0.692719   662A      0.694765  
     663A      0.695656   664A      0.696705   665A      0.699651  
     666A      0.700959   667A      0.702921   668A      0.704323  
     669A      0.706447   670A      0.708333   671A      0.710157  
     672A      0.711424   673A      0.713124   674A      0.715652  
     675A      0.717840   676A      0.718660   677A      0.719354  
     678A      0.724390   679A      0.724921   680A      0.726907  
     681A      0.728673   682A      0.730405   683A      0.731298  
     684A      0.733717   685A      0.735268   686A      0.736276  
     687A      0.736872   688A      0.739656   689A      0.741440  
     690A      0.742578   691A      0.744552   692A      0.745628  
     693A      0.748919   694A      0.750150   695A      0.750993  
     696A      0.753107   697A      0.755113   698A      0.756919  
     699A      0.757583   700A      0.759020   701A      0.761096  
     702A      0.761353   703A      0.765654   704A      0.766747  
     705A      0.767980   706A      0.769625   707A      0.771656  
     708A      0.773211   709A      0.775597   710A      0.776719  
     711A      0.777287   712A      0.780531   713A      0.782033  
     714A      0.783042   715A      0.783939   716A      0.786582  
     717A      0.788416   718A      0.791377   719A      0.791649  
     720A      0.793986   721A      0.795310   722A      0.797332  
     723A      0.798862   724A      0.800533   725A      0.801553  
     726A      0.802244   727A      0.803353   728A      0.805339  
     729A      0.808301   730A      0.809972   731A      0.810503  
     732A      0.812929   733A      0.815131   734A      0.817082  
     735A      0.818549   736A      0.820194   737A      0.821000  
     738A      0.821312   739A      0.824066   740A      0.825315  
     741A      0.825924   742A      0.827132   743A      0.829224  
     744A      0.830786   745A      0.832620   746A      0.834202  
     747A      0.835473   748A      0.837758   749A      0.838672  
     750A      0.839615   751A      0.843405   752A      0.844063  
     753A      0.846408   754A      0.847090   755A      0.848051  
     756A      0.849436   757A      0.852966   758A      0.855161  
     759A      0.855366   760A      0.857945   761A      0.859415  
     762A      0.860301   763A      0.862241   764A      0.863803  
     765A      0.865550   766A      0.866434   767A      0.868267  
     768A      0.869851   769A      0.870835   770A      0.872386  
     771A      0.873798   772A      0.875077   773A      0.877137  
     774A      0.877651   775A      0.880615   776A      0.881386  
     777A      0.884777   778A      0.885509   779A      0.886264  
     780A      0.887211   781A      0.889040   782A      0.891610  
     783A      0.892055   784A      0.893308   785A      0.894925  
     786A      0.896625   787A      0.897818   788A      0.898660  
     789A      0.899591   790A      0.901011   791A      0.903457  
     792A      0.904383   793A      0.905818   794A      0.906945  
     795A      0.909127   796A      0.909574   797A      0.911284  
     798A      0.912784   799A      0.913314   800A      0.916227  
     801A      0.917735   802A      0.920524   803A      0.921926  
     804A      0.922361   805A      0.923514   806A      0.924854  
     807A      0.926126   808A      0.927306   809A      0.928376  
     810A      0.928987   811A      0.930907   812A      0.933480  
     813A      0.934425   814A      0.935883   815A      0.937501  
     816A      0.938986   817A      0.939217   818A      0.940807  
     819A      0.942190   820A      0.943606   821A      0.945358  
     822A      0.947168   823A      0.947832   824A      0.949277  
     825A      0.951609   826A      0.953263   827A      0.955429  
     828A      0.956189   829A      0.957652   830A      0.958967  
     831A      0.959748   832A      0.961410   833A      0.961715  
     834A      0.962912   835A      0.964389   836A      0.966138  
     837A      0.966860   838A      0.969054   839A      0.971067  
     840A      0.973494   841A      0.974387   842A      0.975074  
     843A      0.975657   844A      0.977186   845A      0.978600  
     846A      0.979091   847A      0.980001   848A      0.982986  
     849A      0.984101   850A      0.985223   851A      0.986938  
     852A      0.988034   853A      0.989691   854A      0.990218  
     855A      0.991575   856A      0.994226   857A      0.994310  
     858A      0.996300   859A      0.997162   860A      0.998540  
     861A      0.998842   862A      1.000939   863A      1.001756  
     864A      1.002777   865A      1.003546   866A      1.005355  
     867A      1.006602   868A      1.008523   869A      1.010016  
     870A      1.011407   871A      1.011910   872A      1.013748  
     873A      1.015040   874A      1.017170   875A      1.018381  
     876A      1.019799   877A      1.020738   878A      1.021565  
     879A      1.023500   880A      1.025212   881A      1.026666  
     882A      1.027578   883A      1.029455   884A      1.030760  
     885A      1.032840   886A      1.033574   887A      1.034753  
     888A      1.036352   889A      1.037543   890A      1.038540  
     891A      1.041685   892A      1.043327   893A      1.043700  
     894A      1.044248   895A      1.045636   896A      1.045973  
     897A      1.046954   898A      1.047437   899A      1.050593  
     900A      1.051047   901A      1.052187   902A      1.053261  
     903A      1.054601   904A      1.055240   905A      1.058013  
     906A      1.061152   907A      1.062197   908A      1.063352  
     909A      1.064710   910A      1.065551   911A      1.065903  
     912A      1.067507   913A      1.069659   914A      1.071012  
     915A      1.073204   916A      1.074567   917A      1.075745  
     918A      1.077244   919A      1.078649   920A      1.079971  
     921A      1.080820   922A      1.082510   923A      1.084128  
     924A      1.084252   925A      1.084969   926A      1.087516  
     927A      1.088399   928A      1.089668   929A      1.090744  
     930A      1.092392   931A      1.094097   932A      1.095480  
     933A      1.096311   934A      1.097681   935A      1.100118  
     936A      1.103141   937A      1.104331   938A      1.106106  
     939A      1.106995   940A      1.108639   941A      1.111436  
     942A      1.112286   943A      1.114222   944A      1.114805  
     945A      1.116394   946A      1.118532   947A      1.119305  
     948A      1.119730   949A      1.121526   950A      1.122660  
     951A      1.124014   952A      1.125318   953A      1.125744  
     954A      1.126452   955A      1.129285   956A      1.131415  
     957A      1.132379   958A      1.133643   959A      1.135698  
     960A      1.136642   961A      1.137556   962A      1.138114  
     963A      1.140758   964A      1.141487   965A      1.144309  
     966A      1.145055   967A      1.145720   968A      1.147297  
     969A      1.149103   970A      1.150597   971A      1.152826  
     972A      1.155083   973A      1.155426   974A      1.156735  
     975A      1.158476   976A      1.159557   977A      1.160984  
     978A      1.161339   979A      1.164796   980A      1.165114  
     981A      1.168404   982A      1.169760   983A      1.172241  
     984A      1.172603   985A      1.174409   986A      1.175214  
     987A      1.176925   988A      1.177917   989A      1.179254  
     990A      1.181285   991A      1.181712   992A      1.182391  
     993A      1.183157   994A      1.185846   995A      1.186261  
     996A      1.187892   997A      1.190692   998A      1.191178  
     999A      1.192433  1000A      1.195515  1001A      1.196375  
    1002A      1.198242  1003A      1.198634  1004A      1.200502  
    1005A      1.201249  1006A      1.203596  1007A      1.205118  
    1008A      1.205296  1009A      1.206765  1010A      1.207877  
    1011A      1.210950  1012A      1.211935  1013A      1.212460  
    1014A      1.214498  1015A      1.216736  1016A      1.218935  
    1017A      1.220229  1018A      1.221848  1019A      1.223306  
    1020A      1.224684  1021A      1.225988  1022A      1.228060  
    1023A      1.228620  1024A      1.230217  1025A      1.231676  
    1026A      1.232555  1027A      1.234220  1028A      1.235535  
    1029A      1.237192  1030A      1.239401  1031A      1.240867  
    1032A      1.241509  1033A      1.244076  1034A      1.244576  
    1035A      1.246456  1036A      1.246517  1037A      1.248885  
    1038A      1.249994  1039A      1.250987  1040A      1.253608  
    1041A      1.255488  1042A      1.257620  1043A      1.258430  
    1044A      1.260840  1045A      1.263488  1046A      1.264675  
    1047A      1.265792  1048A      1.267122  1049A      1.268362  
    1050A      1.269977  1051A      1.270810  1052A      1.271040  
    1053A      1.273108  1054A      1.275209  1055A      1.277412  
    1056A      1.279543  1057A      1.281523  1058A      1.282462  
    1059A      1.283523  1060A      1.285031  1061A      1.288385  
    1062A      1.289246  1063A      1.290394  1064A      1.292402  
    1065A      1.293580  1066A      1.295830  1067A      1.296747  
    1068A      1.297553  1069A      1.300348  1070A      1.302674  
    1071A      1.304129  1072A      1.307193  1073A      1.308128  
    1074A      1.308662  1075A      1.310096  1076A      1.312798  
    1077A      1.313179  1078A      1.315441  1079A      1.318404  
    1080A      1.319403  1081A      1.321821  1082A      1.322642  
    1083A      1.323353  1084A      1.324410  1085A      1.326342  
    1086A      1.327378  1087A      1.328539  1088A      1.330603  
    1089A      1.331890  1090A      1.334740  1091A      1.335923  
    1092A      1.338101  1093A      1.340481  1094A      1.342992  
    1095A      1.344426  1096A      1.345565  1097A      1.346087  
    1098A      1.348231  1099A      1.351469  1100A      1.352229  
    1101A      1.352992  1102A      1.354616  1103A      1.356282  
    1104A      1.358964  1105A      1.360091  1106A      1.363090  
    1107A      1.365273  1108A      1.366876  1109A      1.368302  
    1110A      1.368761  1111A      1.370423  1112A      1.371182  
    1113A      1.373172  1114A      1.373774  1115A      1.377464  
    1116A      1.378620  1117A      1.380771  1118A      1.382180  
    1119A      1.385304  1120A      1.386478  1121A      1.388254  
    1122A      1.389505  1123A      1.391394  1124A      1.393339  
    1125A      1.395653  1126A      1.396046  1127A      1.398735  
    1128A      1.400543  1129A      1.402173  1130A      1.404191  
    1131A      1.404577  1132A      1.407508  1133A      1.408172  
    1134A      1.409755  1135A      1.409896  1136A      1.414391  
    1137A      1.415277  1138A      1.416262  1139A      1.417293  
    1140A      1.419608  1141A      1.420564  1142A      1.421594  
    1143A      1.424074  1144A      1.425297  1145A      1.426812  
    1146A      1.430020  1147A      1.432277  1148A      1.436818  
    1149A      1.437801  1150A      1.438466  1151A      1.440563  
    1152A      1.442814  1153A      1.444780  1154A      1.445056  
    1155A      1.446295  1156A      1.448176  1157A      1.448891  
    1158A      1.451398  1159A      1.454184  1160A      1.454306  
    1161A      1.456764  1162A      1.458962  1163A      1.459327  
    1164A      1.460900  1165A      1.462848  1166A      1.465300  
    1167A      1.466873  1168A      1.469483  1169A      1.470378  
    1170A      1.472797  1171A      1.473858  1172A      1.475000  
    1173A      1.476184  1174A      1.477121  1175A      1.481624  
    1176A      1.482407  1177A      1.482507  1178A      1.486387  
    1179A      1.488471  1180A      1.488892  1181A      1.490414  
    1182A      1.491901  1183A      1.493842  1184A      1.496587  
    1185A      1.496982  1186A      1.498599  1187A      1.501362  
    1188A      1.501917  1189A      1.504136  1190A      1.505775  
    1191A      1.508572  1192A      1.509844  1193A      1.510948  
    1194A      1.512135  1195A      1.513750  1196A      1.516674  
    1197A      1.517535  1198A      1.518928  1199A      1.521614  
    1200A      1.524182  1201A      1.524715  1202A      1.526877  
    1203A      1.528198  1204A      1.531014  1205A      1.532615  
    1206A      1.533764  1207A      1.535318  1208A      1.535622  
    1209A      1.538712  1210A      1.540170  1211A      1.541433  
    1212A      1.542336  1213A      1.544558  1214A      1.546853  
    1215A      1.548120  1216A      1.549709  1217A      1.551732  
    1218A      1.556130  1219A      1.558909  1220A      1.559311  
    1221A      1.560534  1222A      1.561630  1223A      1.564572  
    1224A      1.566240  1225A      1.567219  1226A      1.569924  
    1227A      1.572010  1228A      1.573797  1229A      1.574210  
    1230A      1.575979  1231A      1.578085  1232A      1.578974  
    1233A      1.579612  1234A      1.579981  1235A      1.582083  
    1236A      1.582642  1237A      1.585270  1238A      1.585379  
    1239A      1.588060  1240A      1.591407  1241A      1.592313  
    1242A      1.594682  1243A      1.596385  1244A      1.599268  
    1245A      1.600277  1246A      1.600890  1247A      1.602120  
    1248A      1.603142  1249A      1.604016  1250A      1.605299  
    1251A      1.608076  1252A      1.611966  1253A      1.614316  
    1254A      1.615078  1255A      1.617618  1256A      1.619574  
    1257A      1.621129  1258A      1.623347  1259A      1.624116  
    1260A      1.624868  1261A      1.626520  1262A      1.628874  
    1263A      1.630821  1264A      1.632235  1265A      1.633745  
    1266A      1.634520  1267A      1.637196  1268A      1.639287  
    1269A      1.640483  1270A      1.642193  1271A      1.643976  
    1272A      1.646123  1273A      1.647773  1274A      1.650268  
    1275A      1.651580  1276A      1.653175  1277A      1.655000  
    1278A      1.655786  1279A      1.657385  1280A      1.658408  
    1281A      1.659924  1282A      1.660881  1283A      1.663653  
    1284A      1.663934  1285A      1.665004  1286A      1.667201  
    1287A      1.667925  1288A      1.669088  1289A      1.670012  
    1290A      1.672648  1291A      1.675208  1292A      1.675498  
    1293A      1.679056  1294A      1.679464  1295A      1.681078  
    1296A      1.683657  1297A      1.684258  1298A      1.685483  
    1299A      1.686549  1300A      1.687528  1301A      1.689607  
    1302A      1.690919  1303A      1.692423  1304A      1.694109  
    1305A      1.696523  1306A      1.697365  1307A      1.698890  
    1308A      1.701226  1309A      1.702991  1310A      1.703484  
    1311A      1.706205  1312A      1.706832  1313A      1.707512  
    1314A      1.709377  1315A      1.711890  1316A      1.713370  
    1317A      1.713759  1318A      1.715544  1319A      1.717165  
    1320A      1.720127  1321A      1.720910  1322A      1.722407  
    1323A      1.725022  1324A      1.726672  1325A      1.727245  
    1326A      1.729178  1327A      1.730285  1328A      1.732041  
    1329A      1.732694  1330A      1.736395  1331A      1.738041  
    1332A      1.739479  1333A      1.741105  1334A      1.743367  
    1335A      1.745661  1336A      1.746686  1337A      1.747010  
    1338A      1.749160  1339A      1.750180  1340A      1.752686  
    1341A      1.754187  1342A      1.756303  1343A      1.757284  
    1344A      1.757993  1345A      1.762336  1346A      1.764106  
    1347A      1.764492  1348A      1.764867  1349A      1.766225  
    1350A      1.767914  1351A      1.771001  1352A      1.771269  
    1353A      1.773661  1354A      1.774615  1355A      1.775062  
    1356A      1.776677  1357A      1.777671  1358A      1.781716  
    1359A      1.782672  1360A      1.783922  1361A      1.785508  
    1362A      1.786700  1363A      1.787315  1364A      1.789687  
    1365A      1.791394  1366A      1.792416  1367A      1.793227  
    1368A      1.795539  1369A      1.796288  1370A      1.799364  
    1371A      1.799744  1372A      1.801262  1373A      1.802954  
    1374A      1.804734  1375A      1.806872  1376A      1.808830  
    1377A      1.810484  1378A      1.810809  1379A      1.813430  
    1380A      1.815090  1381A      1.818788  1382A      1.819820  
    1383A      1.820500  1384A      1.822940  1385A      1.824429  
    1386A      1.824944  1387A      1.827994  1388A      1.829516  
    1389A      1.830224  1390A      1.831596  1391A      1.834348  
    1392A      1.835826  1393A      1.837531  1394A      1.839232  
    1395A      1.840520  1396A      1.841432  1397A      1.842085  
    1398A      1.842925  1399A      1.844800  1400A      1.846733  
    1401A      1.847250  1402A      1.848704  1403A      1.851099  
    1404A      1.852910  1405A      1.855707  1406A      1.857309  
    1407A      1.858480  1408A      1.858987  1409A      1.862056  
    1410A      1.862432  1411A      1.865120  1412A      1.866833  
    1413A      1.869348  1414A      1.871586  1415A      1.874691  
    1416A      1.875585  1417A      1.876927  1418A      1.878863  
    1419A      1.881368  1420A      1.882757  1421A      1.884447  
    1422A      1.886710  1423A      1.888819  1424A      1.889427  
    1425A      1.892532  1426A      1.893957  1427A      1.895909  
    1428A      1.897112  1429A      1.899937  1430A      1.900554  
    1431A      1.903240  1432A      1.903346  1433A      1.904680  
    1434A      1.904920  1435A      1.907223  1436A      1.910886  
    1437A      1.911422  1438A      1.913827  1439A      1.916801  
    1440A      1.917545  1441A      1.919010  1442A      1.921268  
    1443A      1.923098  1444A      1.924655  1445A      1.926212  
    1446A      1.927872  1447A      1.929759  1448A      1.931809  
    1449A      1.932953  1450A      1.934603  1451A      1.936011  
    1452A      1.938532  1453A      1.939723  1454A      1.941603  
    1455A      1.942456  1456A      1.943056  1457A      1.946660  
    1458A      1.947385  1459A      1.948712  1460A      1.951448  
    1461A      1.952271  1462A      1.953586  1463A      1.956357  
    1464A      1.956949  1465A      1.957743  1466A      1.962451  
    1467A      1.963748  1468A      1.965119  1469A      1.968212  
    1470A      1.970283  1471A      1.973242  1472A      1.974560  
    1473A      1.977117  1474A      1.979687  1475A      1.980513  
    1476A      1.982106  1477A      1.985947  1478A      1.986351  
    1479A      1.988046  1480A      1.989852  1481A      1.992917  
    1482A      1.995787  1483A      1.998370  1484A      1.998556  
    1485A      1.999719  1486A      2.000882  1487A      2.002848  
    1488A      2.003878  1489A      2.006071  1490A      2.009877  
    1491A      2.010921  1492A      2.014485  1493A      2.015295  
    1494A      2.017864  1495A      2.020929  1496A      2.024787  
    1497A      2.027206  1498A      2.027636  1499A      2.029991  
    1500A      2.031281  1501A      2.032620  1502A      2.033592  
    1503A      2.036694  1504A      2.040647  1505A      2.042977  
    1506A      2.044232  1507A      2.045785  1508A      2.048799  
    1509A      2.050020  1510A      2.052772  1511A      2.055164  
    1512A      2.056031  1513A      2.057113  1514A      2.058398  
    1515A      2.060023  1516A      2.062563  1517A      2.063667  
    1518A      2.065559  1519A      2.068808  1520A      2.071726  
    1521A      2.073271  1522A      2.075187  1523A      2.076503  
    1524A      2.078766  1525A      2.081235  1526A      2.082904  
    1527A      2.084542  1528A      2.086528  1529A      2.089873  
    1530A      2.092767  1531A      2.093583  1532A      2.094369  
    1533A      2.097001  1534A      2.099860  1535A      2.101722  
    1536A      2.102082  1537A      2.105712  1538A      2.108856  
    1539A      2.112829  1540A      2.113674  1541A      2.115814  
    1542A      2.116998  1543A      2.117688  1544A      2.119441  
    1545A      2.122224  1546A      2.123889  1547A      2.125085  
    1548A      2.126399  1549A      2.129282  1550A      2.130902  
    1551A      2.131699  1552A      2.135742  1553A      2.138040  
    1554A      2.139866  1555A      2.140626  1556A      2.142747  
    1557A      2.144731  1558A      2.147820  1559A      2.150424  
    1560A      2.155662  1561A      2.156385  1562A      2.158487  
    1563A      2.159897  1564A      2.161387  1565A      2.164968  
    1566A      2.166578  1567A      2.167735  1568A      2.168963  
    1569A      2.170703  1570A      2.173942  1571A      2.176173  
    1572A      2.179526  1573A      2.180613  1574A      2.185081  
    1575A      2.186907  1576A      2.187559  1577A      2.191200  
    1578A      2.191956  1579A      2.192954  1580A      2.195364  
    1581A      2.197198  1582A      2.198008  1583A      2.202001  
    1584A      2.202778  1585A      2.205503  1586A      2.207017  
    1587A      2.209448  1588A      2.211228  1589A      2.212104  
    1590A      2.214937  1591A      2.216919  1592A      2.219696  
    1593A      2.220565  1594A      2.224520  1595A      2.226457  
    1596A      2.227864  1597A      2.230202  1598A      2.233345  
    1599A      2.234937  1600A      2.238243  1601A      2.239521  
    1602A      2.241856  1603A      2.242715  1604A      2.247480  
    1605A      2.248701  1606A      2.250001  1607A      2.253321  
    1608A      2.255513  1609A      2.257523  1610A      2.258433  
    1611A      2.259764  1612A      2.263953  1613A      2.264986  
    1614A      2.266837  1615A      2.268304  1616A      2.270613  
    1617A      2.272366  1618A      2.277350  1619A      2.279036  
    1620A      2.280499  1621A      2.280878  1622A      2.283220  
    1623A      2.284203  1624A      2.286142  1625A      2.287022  
    1626A      2.289355  1627A      2.291116  1628A      2.293880  
    1629A      2.294826  1630A      2.295862  1631A      2.296438  
    1632A      2.299744  1633A      2.301745  1634A      2.304263  
    1635A      2.305080  1636A      2.308879  1637A      2.310833  
    1638A      2.313384  1639A      2.314691  1640A      2.316044  
    1641A      2.317004  1642A      2.319147  1643A      2.321971  
    1644A      2.325506  1645A      2.325546  1646A      2.330830  
    1647A      2.331620  1648A      2.333302  1649A      2.335925  
    1650A      2.337744  1651A      2.340625  1652A      2.341322  
    1653A      2.345284  1654A      2.346860  1655A      2.348656  
    1656A      2.350976  1657A      2.352247  1658A      2.356090  
    1659A      2.357741  1660A      2.358118  1661A      2.360133  
    1662A      2.363347  1663A      2.363742  1664A      2.365185  
    1665A      2.366985  1666A      2.370128  1667A      2.373805  
    1668A      2.376337  1669A      2.378903  1670A      2.379848  
    1671A      2.382205  1672A      2.384663  1673A      2.385621  
    1674A      2.387284  1675A      2.390076  1676A      2.391428  
    1677A      2.392282  1678A      2.394444  1679A      2.396026  
    1680A      2.399189  1681A      2.402635  1682A      2.405182  
    1683A      2.406745  1684A      2.408443  1685A      2.413209  
    1686A      2.414109  1687A      2.417376  1688A      2.420160  
    1689A      2.421711  1690A      2.423190  1691A      2.424869  
    1692A      2.428972  1693A      2.430042  1694A      2.432745  
    1695A      2.436832  1696A      2.438944  1697A      2.440403  
    1698A      2.442755  1699A      2.444684  1700A      2.450096  
    1701A      2.450788  1702A      2.454191  1703A      2.455236  
    1704A      2.457514  1705A      2.458032  1706A      2.461571  
    1707A      2.463179  1708A      2.465085  1709A      2.467488  
    1710A      2.469460  1711A      2.472443  1712A      2.474804  
    1713A      2.477200  1714A      2.482189  1715A      2.482636  
    1716A      2.485963  1717A      2.486777  1718A      2.488457  
    1719A      2.493636  1720A      2.494210  1721A      2.496591  
    1722A      2.497826  1723A      2.499578  1724A      2.501942  
    1725A      2.504357  1726A      2.507796  1727A      2.510300  
    1728A      2.512128  1729A      2.516047  1730A      2.517077  
    1731A      2.519200  1732A      2.519708  1733A      2.520876  
    1734A      2.522345  1735A      2.526421  1736A      2.531190  
    1737A      2.533686  1738A      2.535650  1739A      2.539617  
    1740A      2.542033  1741A      2.542128  1742A      2.543767  
    1743A      2.546086  1744A      2.551358  1745A      2.554058  
    1746A      2.556984  1747A      2.558939  1748A      2.560735  
    1749A      2.564850  1750A      2.565650  1751A      2.566930  
    1752A      2.569472  1753A      2.572568  1754A      2.574275  
    1755A      2.578662  1756A      2.579574  1757A      2.581399  
    1758A      2.583204  1759A      2.585280  1760A      2.588930  
    1761A      2.592404  1762A      2.593730  1763A      2.597328  
    1764A      2.601778  1765A      2.603941  1766A      2.605035  
    1767A      2.606656  1768A      2.608902  1769A      2.611898  
    1770A      2.615621  1771A      2.617095  1772A      2.620280  
    1773A      2.621304  1774A      2.624810  1775A      2.626472  
    1776A      2.631016  1777A      2.634535  1778A      2.636737  
    1779A      2.638376  1780A      2.641913  1781A      2.644639  
    1782A      2.646988  1783A      2.648305  1784A      2.652561  
    1785A      2.654416  1786A      2.657404  1787A      2.660669  
    1788A      2.662531  1789A      2.663465  1790A      2.668966  
    1791A      2.671139  1792A      2.675135  1793A      2.675465  
    1794A      2.679119  1795A      2.681865  1796A      2.683878  
    1797A      2.688197  1798A      2.689303  1799A      2.692094  
    1800A      2.696028  1801A      2.698088  1802A      2.701046  
    1803A      2.702276  1804A      2.711025  1805A      2.713467  
    1806A      2.714904  1807A      2.720080  1808A      2.721988  
    1809A      2.723701  1810A      2.726590  1811A      2.730488  
    1812A      2.734370  1813A      2.738390  1814A      2.742723  
    1815A      2.744348  1816A      2.747717  1817A      2.749109  
    1818A      2.750576  1819A      2.753217  1820A      2.760958  
    1821A      2.763546  1822A      2.765844  1823A      2.767841  
    1824A      2.768745  1825A      2.771249  1826A      2.777981  
    1827A      2.781913  1828A      2.787810  1829A      2.792865  
    1830A      2.797195  1831A      2.797993  1832A      2.798996  
    1833A      2.801506  1834A      2.805087  1835A      2.806542  
    1836A      2.811155  1837A      2.812839  1838A      2.818213  
    1839A      2.820827  1840A      2.823154  1841A      2.826523  
    1842A      2.830580  1843A      2.834050  1844A      2.836692  
    1845A      2.838718  1846A      2.842374  1847A      2.850701  
    1848A      2.854583  1849A      2.856170  1850A      2.860492  
    1851A      2.866493  1852A      2.868484  1853A      2.870212  
    1854A      2.873968  1855A      2.877009  1856A      2.879432  
    1857A      2.882921  1858A      2.885226  1859A      2.890149  
    1860A      2.891711  1861A      2.896422  1862A      2.902220  
    1863A      2.905525  1864A      2.906541  1865A      2.909121  
    1866A      2.915070  1867A      2.917898  1868A      2.923537  
    1869A      2.928166  1870A      2.932538  1871A      2.936144  
    1872A      2.937262  1873A      2.940138  1874A      2.945372  
    1875A      2.947543  1876A      2.952987  1877A      2.954138  
    1878A      2.958343  1879A      2.960907  1880A      2.966730  
    1881A      2.970958  1882A      2.973397  1883A      2.983097  
    1884A      2.988206  1885A      2.994558  1886A      2.995012  
    1887A      2.996961  1888A      3.002974  1889A      3.009275  
    1890A      3.015501  1891A      3.018466  1892A      3.020565  
    1893A      3.026194  1894A      3.034163  1895A      3.044729  
    1896A      3.047590  1897A      3.051720  1898A      3.055014  
    1899A      3.062714  1900A      3.066906  1901A      3.067976  
    1902A      3.075474  1903A      3.080418  1904A      3.090769  
    1905A      3.102099  1906A      3.103849  1907A      3.105443  
    1908A      3.111078  1909A      3.117761  1910A      3.118875  
    1911A      3.121696  1912A      3.123190  1913A      3.128719  
    1914A      3.139101  1915A      3.142838  1916A      3.146420  
    1917A      3.152546  1918A      3.156753  1919A      3.159369  
    1920A      3.162629  1921A      3.172807  1922A      3.177641  
    1923A      3.192235  1924A      3.195754  1925A      3.199634  
    1926A      3.206966  1927A      3.209699  1928A      3.216396  
    1929A      3.221511  1930A      3.230188  1931A      3.235841  
    1932A      3.240123  1933A      3.256552  1934A      3.259132  
    1935A      3.265704  1936A      3.282747  1937A      3.290559  
    1938A      3.302319  1939A      3.304942  1940A      3.311043  
    1941A      3.324335  1942A      3.329360  1943A      3.334397  
    1944A      3.341114  1945A      3.348994  1946A      3.352374  
    1947A      3.355203  1948A      3.361240  1949A      3.363947  
    1950A      3.370614  1951A      3.374074  1952A      3.379479  
    1953A      3.381711  1954A      3.384194  1955A      3.391337  
    1956A      3.395430  1957A      3.400093  1958A      3.404685  
    1959A      3.413848  1960A      3.414479  1961A      3.417949  
    1962A      3.420219  1963A      3.429655  1964A      3.432024  
    1965A      3.436132  1966A      3.438414  1967A      3.440854  
    1968A      3.447679  1969A      3.448440  1970A      3.456253  
    1971A      3.457777  1972A      3.463804  1973A      3.468447  
    1974A      3.471509  1975A      3.478157  1976A      3.479227  
    1977A      3.484113  1978A      3.486160  1979A      3.490556  
    1980A      3.491941  1981A      3.494668  1982A      3.498193  
    1983A      3.499544  1984A      3.501996  1985A      3.508485  
    1986A      3.511219  1987A      3.514237  1988A      3.517272  
    1989A      3.523517  1990A      3.524880  1991A      3.527295  
    1992A      3.532977  1993A      3.533643  1994A      3.538820  
    1995A      3.540577  1996A      3.543783  1997A      3.544733  
    1998A      3.549989  1999A      3.551851  2000A      3.556571  
    2001A      3.559376  2002A      3.562414  2003A      3.564726  
    2004A      3.566698  2005A      3.570005  2006A      3.572023  
    2007A      3.575647  2008A      3.577589  2009A      3.580817  
    2010A      3.583026  2011A      3.584929  2012A      3.587309  
    2013A      3.588817  2014A      3.594406  2015A      3.596571  
    2016A      3.599118  2017A      3.600959  2018A      3.603078  
    2019A      3.606190  2020A      3.608851  2021A      3.609368  
    2022A      3.615386  2023A      3.615992  2024A      3.617975  
    2025A      3.618607  2026A      3.621860  2027A      3.624517  
    2028A      3.626077  2029A      3.629855  2030A      3.633095  
    2031A      3.635189  2032A      3.638152  2033A      3.639837  
    2034A      3.641500  2035A      3.644410  2036A      3.645961  
    2037A      3.650805  2038A      3.651372  2039A      3.652724  
    2040A      3.654837  2041A      3.658202  2042A      3.660283  
    2043A      3.663020  2044A      3.665504  2045A      3.665615  
    2046A      3.669445  2047A      3.670625  2048A      3.677187  
    2049A      3.678337  2050A      3.682254  2051A      3.683013  
    2052A      3.685371  2053A      3.686310  2054A      3.689181  
    2055A      3.691728  2056A      3.694394  2057A      3.696863  
    2058A      3.698376  2059A      3.698992  2060A      3.701153  
    2061A      3.705501  2062A      3.707266  2063A      3.709212  
    2064A      3.710792  2065A      3.713833  2066A      3.715418  
    2067A      3.716370  2068A      3.717985  2069A      3.721297  
    2070A      3.722178  2071A      3.722687  2072A      3.728167  
    2073A      3.729007  2074A      3.732425  2075A      3.735308  
    2076A      3.736388  2077A      3.738854  2078A      3.742473  
    2079A      3.744112  2080A      3.746555  2081A      3.747922  
    2082A      3.748794  2083A      3.750743  2084A      3.753903  
    2085A      3.755999  2086A      3.759071  2087A      3.761562  
    2088A      3.763091  2089A      3.763338  2090A      3.768381  
    2091A      3.769569  2092A      3.769905  2093A      3.771966  
    2094A      3.773830  2095A      3.775029  2096A      3.778546  
    2097A      3.779732  2098A      3.780722  2099A      3.784383  
    2100A      3.786357  2101A      3.786664  2102A      3.788548  
    2103A      3.791584  2104A      3.794403  2105A      3.796074  
    2106A      3.800517  2107A      3.800750  2108A      3.802138  
    2109A      3.803182  2110A      3.806573  2111A      3.810795  
    2112A      3.811510  2113A      3.812785  2114A      3.815412  
    2115A      3.818692  2116A      3.821567  2117A      3.822287  
    2118A      3.825893  2119A      3.826651  2120A      3.829600  
    2121A      3.833213  2122A      3.833475  2123A      3.836400  
    2124A      3.837747  2125A      3.839409  2126A      3.840546  
    2127A      3.843480  2128A      3.846067  2129A      3.849358  
    2130A      3.852349  2131A      3.853229  2132A      3.854463  
    2133A      3.856815  2134A      3.858667  2135A      3.860123  
    2136A      3.862190  2137A      3.864295  2138A      3.865250  
    2139A      3.868540  2140A      3.871085  2141A      3.873797  
    2142A      3.874793  2143A      3.876627  2144A      3.880328  
    2145A      3.881708  2146A      3.884175  2147A      3.885638  
    2148A      3.887499  2149A      3.889142  2150A      3.889945  
    2151A      3.893040  2152A      3.896464  2153A      3.897505  
    2154A      3.901691  2155A      3.904856  2156A      3.906804  
    2157A      3.908106  2158A      3.911833  2159A      3.914127  
    2160A      3.915019  2161A      3.916596  2162A      3.918136  
    2163A      3.920625  2164A      3.922115  2165A      3.924175  
    2166A      3.925665  2167A      3.928765  2168A      3.929267  
    2169A      3.931734  2170A      3.933460  2171A      3.938422  
    2172A      3.939184  2173A      3.942903  2174A      3.945102  
    2175A      3.946707  2176A      3.949359  2177A      3.950170  
    2178A      3.952723  2179A      3.954315  2180A      3.958157  
    2181A      3.959021  2182A      3.960412  2183A      3.964162  
    2184A      3.965532  2185A      3.966942  2186A      3.967965  
    2187A      3.970722  2188A      3.971237  2189A      3.972155  
    2190A      3.975764  2191A      3.980114  2192A      3.981655  
    2193A      3.983336  2194A      3.987718  2195A      3.988763  
    2196A      3.988875  2197A      3.990198  2198A      3.993267  
    2199A      3.996426  2200A      3.997024  2201A      3.997593  
    2202A      4.001294  2203A      4.003710  2204A      4.005159  
    2205A      4.007262  2206A      4.009139  2207A      4.012421  
    2208A      4.015354  2209A      4.017291  2210A      4.020815  
    2211A      4.023924  2212A      4.024957  2213A      4.028756  
    2214A      4.029099  2215A      4.032214  2216A      4.034125  
    2217A      4.038498  2218A      4.039536  2219A      4.040794  
    2220A      4.042961  2221A      4.045530  2222A      4.047293  
    2223A      4.050039  2224A      4.051531  2225A      4.055389  
    2226A      4.055683  2227A      4.056323  2228A      4.058962  
    2229A      4.062129  2230A      4.065232  2231A      4.066238  
    2232A      4.068454  2233A      4.069518  2234A      4.072087  
    2235A      4.073761  2236A      4.077386  2237A      4.079074  
    2238A      4.081046  2239A      4.082516  2240A      4.085009  
    2241A      4.085897  2242A      4.087623  2243A      4.089870  
    2244A      4.092818  2245A      4.096030  2246A      4.097080  
    2247A      4.098729  2248A      4.098956  2249A      4.102166  
    2250A      4.104650  2251A      4.107045  2252A      4.108026  
    2253A      4.109829  2254A      4.111107  2255A      4.111572  
    2256A      4.113057  2257A      4.115196  2258A      4.118880  
    2259A      4.122477  2260A      4.125440  2261A      4.127275  
    2262A      4.128494  2263A      4.130669  2264A      4.131126  
    2265A      4.133225  2266A      4.135019  2267A      4.136486  
    2268A      4.138537  2269A      4.140860  2270A      4.144412  
    2271A      4.144689  2272A      4.147241  2273A      4.148924  
    2274A      4.151101  2275A      4.152584  2276A      4.155981  
    2277A      4.158142  2278A      4.160661  2279A      4.161498  
    2280A      4.163478  2281A      4.164755  2282A      4.166579  
    2283A      4.168041  2284A      4.169746  2285A      4.171809  
    2286A      4.172829  2287A      4.175153  2288A      4.176019  
    2289A      4.179417  2290A      4.181984  2291A      4.183584  
    2292A      4.186522  2293A      4.187169  2294A      4.189273  
    2295A      4.190535  2296A      4.191741  2297A      4.194027  
    2298A      4.197854  2299A      4.200443  2300A      4.203000  
    2301A      4.204972  2302A      4.206365  2303A      4.208063  
    2304A      4.211369  2305A      4.212020  2306A      4.214236  
    2307A      4.215745  2308A      4.217037  2309A      4.221085  
    2310A      4.222507  2311A      4.222696  2312A      4.224631  
    2313A      4.228117  2314A      4.229841  2315A      4.231140  
    2316A      4.233734  2317A      4.236217  2318A      4.237171  
    2319A      4.241665  2320A      4.242612  2321A      4.245980  
    2322A      4.249019  2323A      4.249544  2324A      4.251964  
    2325A      4.254788  2326A      4.256705  2327A      4.259106  
    2328A      4.259516  2329A      4.261264  2330A      4.263459  
    2331A      4.266619  2332A      4.268509  2333A      4.271636  
    2334A      4.275700  2335A      4.277668  2336A      4.277958  
    2337A      4.280002  2338A      4.281890  2339A      4.282864  
    2340A      4.284439  2341A      4.286574  2342A      4.289649  
    2343A      4.293155  2344A      4.294006  2345A      4.297479  
    2346A      4.298359  2347A      4.299998  2348A      4.303979  
    2349A      4.304941  2350A      4.307842  2351A      4.309291  
    2352A      4.313029  2353A      4.314974  2354A      4.316795  
    2355A      4.317635  2356A      4.319978  2357A      4.321365  
    2358A      4.323825  2359A      4.326601  2360A      4.327558  
    2361A      4.329195  2362A      4.333051  2363A      4.334757  
    2364A      4.336889  2365A      4.340596  2366A      4.340955  
    2367A      4.342957  2368A      4.344855  2369A      4.345586  
    2370A      4.349520  2371A      4.351345  2372A      4.352983  
    2373A      4.354576  2374A      4.355098  2375A      4.359862  
    2376A      4.361629  2377A      4.363376  2378A      4.365276  
    2379A      4.366332  2380A      4.369728  2381A      4.371532  
    2382A      4.375115  2383A      4.376568  2384A      4.378110  
    2385A      4.380547  2386A      4.382791  2387A      4.383221  
    2388A      4.388687  2389A      4.389088  2390A      4.390891  
    2391A      4.392637  2392A      4.394626  2393A      4.398396  
    2394A      4.399997  2395A      4.400999  2396A      4.404535  
    2397A      4.406640  2398A      4.410059  2399A      4.411470  
    2400A      4.412915  2401A      4.413909  2402A      4.417787  
    2403A      4.419601  2404A      4.420608  2405A      4.423209  
    2406A      4.429166  2407A      4.430027  2408A      4.431109  
    2409A      4.432749  2410A      4.434245  2411A      4.436030  
    2412A      4.438599  2413A      4.439140  2414A      4.441421  
    2415A      4.448608  2416A      4.449324  2417A      4.449515  
    2418A      4.452821  2419A      4.453650  2420A      4.455461  
    2421A      4.457416  2422A      4.458219  2423A      4.461272  
    2424A      4.464013  2425A      4.466438  2426A      4.468994  
    2427A      4.469658  2428A      4.470437  2429A      4.474970  
    2430A      4.476274  2431A      4.479209  2432A      4.482093  
    2433A      4.483842  2434A      4.484487  2435A      4.487147  
    2436A      4.489103  2437A      4.490894  2438A      4.491764  
    2439A      4.492502  2440A      4.495619  2441A      4.497882  
    2442A      4.498650  2443A      4.501853  2444A      4.502571  
    2445A      4.506376  2446A      4.509151  2447A      4.509779  
    2448A      4.512340  2449A      4.515240  2450A      4.516056  
    2451A      4.517002  2452A      4.522789  2453A      4.526543  
    2454A      4.528321  2455A      4.530101  2456A      4.530270  
    2457A      4.534848  2458A      4.536347  2459A      4.537541  
    2460A      4.539824  2461A      4.543833  2462A      4.546072  
    2463A      4.547942  2464A      4.549919  2465A      4.552493  
    2466A      4.554492  2467A      4.557982  2468A      4.559983  
    2469A      4.560959  2470A      4.563271  2471A      4.564910  
    2472A      4.566331  2473A      4.568202  2474A      4.572870  
    2475A      4.573678  2476A      4.577636  2477A      4.578721  
    2478A      4.581235  2479A      4.582130  2480A      4.584507  
    2481A      4.586563  2482A      4.588892  2483A      4.590542  
    2484A      4.591647  2485A      4.594875  2486A      4.597121  
    2487A      4.599834  2488A      4.601786  2489A      4.605648  
    2490A      4.607107  2491A      4.610262  2492A      4.612522  
    2493A      4.612779  2494A      4.615215  2495A      4.618789  
    2496A      4.622297  2497A      4.624489  2498A      4.626860  
    2499A      4.627079  2500A      4.629631  2501A      4.632974  
    2502A      4.633877  2503A      4.635736  2504A      4.639877  
    2505A      4.644358  2506A      4.645001  2507A      4.646675  
    2508A      4.651219  2509A      4.651898  2510A      4.653908  
    2511A      4.656266  2512A      4.658925  2513A      4.662780  
    2514A      4.664434  2515A      4.668438  2516A      4.670684  
    2517A      4.673566  2518A      4.674952  2519A      4.677769  
    2520A      4.679635  2521A      4.681759  2522A      4.683774  
    2523A      4.687219  2524A      4.688721  2525A      4.691223  
    2526A      4.692480  2527A      4.695631  2528A      4.698014  
    2529A      4.701058  2530A      4.702392  2531A      4.705685  
    2532A      4.706776  2533A      4.711381  2534A      4.712410  
    2535A      4.714918  2536A      4.718559  2537A      4.719082  
    2538A      4.721270  2539A      4.722172  2540A      4.725251  
    2541A      4.726492  2542A      4.731422  2543A      4.732852  
    2544A      4.735330  2545A      4.736003  2546A      4.739172  
    2547A      4.739708  2548A      4.741344  2549A      4.745875  
    2550A      4.748673  2551A      4.752445  2552A      4.753745  
    2553A      4.756186  2554A      4.758311  2555A      4.759983  
    2556A      4.761728  2557A      4.764658  2558A      4.765789  
    2559A      4.767102  2560A      4.772097  2561A      4.773509  
    2562A      4.776169  2563A      4.777478  2564A      4.781393  
    2565A      4.783309  2566A      4.785415  2567A      4.788938  
    2568A      4.790773  2569A      4.792759  2570A      4.795041  
    2571A      4.795453  2572A      4.799903  2573A      4.801062  
    2574A      4.803091  2575A      4.805497  2576A      4.808247  
    2577A      4.811346  2578A      4.813640  2579A      4.816341  
    2580A      4.817411  2581A      4.821021  2582A      4.823568  
    2583A      4.826599  2584A      4.829332  2585A      4.831032  
    2586A      4.832661  2587A      4.837781  2588A      4.838530  
    2589A      4.841516  2590A      4.841973  2591A      4.844561  
    2592A      4.847612  2593A      4.853100  2594A      4.854414  
    2595A      4.855822  2596A      4.858438  2597A      4.862499  
    2598A      4.863249  2599A      4.865713  2600A      4.866607  
    2601A      4.870241  2602A      4.873613  2603A      4.879500  
    2604A      4.880607  2605A      4.880852  2606A      4.883675  
    2607A      4.886361  2608A      4.888099  2609A      4.889861  
    2610A      4.895736  2611A      4.897320  2612A      4.899450  
    2613A      4.901393  2614A      4.905046  2615A      4.906463  
    2616A      4.908874  2617A      4.911023  2618A      4.911467  
    2619A      4.912945  2620A      4.917720  2621A      4.920421  
    2622A      4.920969  2623A      4.924195  2624A      4.926086  
    2625A      4.926842  2626A      4.931831  2627A      4.932908  
    2628A      4.936292  2629A      4.937485  2630A      4.940610  
    2631A      4.943833  2632A      4.945487  2633A      4.948491  
    2634A      4.952754  2635A      4.953857  2636A      4.957025  
    2637A      4.960040  2638A      4.962431  2639A      4.964654  
    2640A      4.966269  2641A      4.967386  2642A      4.971048  
    2643A      4.973643  2644A      4.976936  2645A      4.980278  
    2646A      4.981919  2647A      4.985738  2648A      4.986963  
    2649A      4.989344  2650A      4.991026  2651A      4.994753  
    2652A      4.996480  2653A      4.997604  2654A      5.002314  
    2655A      5.004427  2656A      5.006998  2657A      5.011502  
    2658A      5.011945  2659A      5.013791  2660A      5.016785  
    2661A      5.023914  2662A      5.025638  2663A      5.031536  
    2664A      5.031742  2665A      5.034889  2666A      5.036271  
    2667A      5.040334  2668A      5.043738  2669A      5.045684  
    2670A      5.048989  2671A      5.052252  2672A      5.053854  
    2673A      5.055716  2674A      5.060671  2675A      5.062672  
    2676A      5.063744  2677A      5.066897  2678A      5.067130  
    2679A      5.073117  2680A      5.075860  2681A      5.079679  
    2682A      5.084056  2683A      5.085755  2684A      5.087149  
    2685A      5.089679  2686A      5.093717  2687A      5.095311  
    2688A      5.096738  2689A      5.100093  2690A      5.103390  
    2691A      5.107648  2692A      5.109539  2693A      5.111143  
    2694A      5.114066  2695A      5.115586  2696A      5.120357  
    2697A      5.120888  2698A      5.123296  2699A      5.124509  
    2700A      5.128660  2701A      5.130946  2702A      5.132385  
    2703A      5.139243  2704A      5.139689  2705A      5.142541  
    2706A      5.144943  2707A      5.149422  2708A      5.152378  
    2709A      5.154613  2710A      5.155859  2711A      5.158586  
    2712A      5.159899  2713A      5.164682  2714A      5.167494  
    2715A      5.170055  2716A      5.170889  2717A      5.173681  
    2718A      5.177986  2719A      5.179359  2720A      5.184549  
    2721A      5.187715  2722A      5.189685  2723A      5.191000  
    2724A      5.193856  2725A      5.195888  2726A      5.202460  
    2727A      5.206177  2728A      5.207319  2729A      5.211608  
    2730A      5.215236  2731A      5.216504  2732A      5.218323  
    2733A      5.220924  2734A      5.223564  2735A      5.227939  
    2736A      5.231839  2737A      5.234145  2738A      5.236173  
    2739A      5.238450  2740A      5.244010  2741A      5.246343  
    2742A      5.248715  2743A      5.248925  2744A      5.250782  
    2745A      5.252476  2746A      5.256307  2747A      5.262001  
    2748A      5.263828  2749A      5.268336  2750A      5.269282  
    2751A      5.271103  2752A      5.272789  2753A      5.280494  
    2754A      5.282109  2755A      5.285926  2756A      5.286539  
    2757A      5.289237  2758A      5.291284  2759A      5.295357  
    2760A      5.301299  2761A      5.303981  2762A      5.308156  
    2763A      5.309170  2764A      5.312713  2765A      5.316842  
    2766A      5.319433  2767A      5.321340  2768A      5.323709  
    2769A      5.327488  2770A      5.331064  2771A      5.336107  
    2772A      5.339563  2773A      5.343324  2774A      5.344343  
    2775A      5.347166  2776A      5.348224  2777A      5.354846  
    2778A      5.355626  2779A      5.360386  2780A      5.368066  
    2781A      5.368965  2782A      5.372254  2783A      5.376770  
    2784A      5.381803  2785A      5.383972  2786A      5.384999  
    2787A      5.385674  2788A      5.391841  2789A      5.392845  
    2790A      5.395725  2791A      5.397806  2792A      5.399871  
    2793A      5.406506  2794A      5.408743  2795A      5.417144  
    2796A      5.418293  2797A      5.424084  2798A      5.429598  
    2799A      5.430271  2800A      5.435114  2801A      5.436528  
    2802A      5.438434  2803A      5.446847  2804A      5.451030  
    2805A      5.453201  2806A      5.459821  2807A      5.462206  
    2808A      5.463805  2809A      5.464480  2810A      5.468498  
    2811A      5.474031  2812A      5.482532  2813A      5.484572  
    2814A      5.487770  2815A      5.490745  2816A      5.496082  
    2817A      5.497973  2818A      5.501742  2819A      5.504613  
    2820A      5.506382  2821A      5.509702  2822A      5.516372  
    2823A      5.522382  2824A      5.523310  2825A      5.524813  
    2826A      5.530646  2827A      5.538634  2828A      5.546510  
    2829A      5.548601  2830A      5.550487  2831A      5.555160  
    2832A      5.558313  2833A      5.562813  2834A      5.567311  
    2835A      5.570090  2836A      5.575226  2837A      5.578818  
    2838A      5.581706  2839A      5.582256  2840A      5.589647  
    2841A      5.593610  2842A      5.597453  2843A      5.603624  
    2844A      5.606361  2845A      5.609320  2846A      5.614127  
    2847A      5.620053  2848A      5.621252  2849A      5.624524  
    2850A      5.626401  2851A      5.629904  2852A      5.631348  
    2853A      5.638380  2854A      5.639983  2855A      5.648079  
    2856A      5.660237  2857A      5.663147  2858A      5.668788  
    2859A      5.673047  2860A      5.677717  2861A      5.681943  
    2862A      5.687822  2863A      5.691786  2864A      5.693316  
    2865A      5.697340  2866A      5.700249  2867A      5.702473  
    2868A      5.706981  2869A      5.709973  2870A      5.714213  
    2871A      5.715500  2872A      5.717170  2873A      5.719065  
    2874A      5.723542  2875A      5.729603  2876A      5.732177  
    2877A      5.740594  2878A      5.746047  2879A      5.754583  
    2880A      5.756193  2881A      5.759208  2882A      5.763244  
    2883A      5.774861  2884A      5.781146  2885A      5.782818  
    2886A      5.787329  2887A      5.792412  2888A      5.799594  
    2889A      5.805120  2890A      5.806035  2891A      5.809606  
    2892A      5.818123  2893A      5.822688  2894A      5.830803  
    2895A      5.838739  2896A      5.844980  2897A      5.854541  
    2898A      5.856165  2899A      5.858379  2900A      5.875157  
    2901A      5.878755  2902A      5.886151  2903A      5.894938  
    2904A      5.906499  2905A      5.919926  2906A      5.925414  
    2907A      5.929168  2908A      5.934845  2909A      5.951428  
    2910A      5.954256  2911A      5.961371  2912A      5.967850  
    2913A      5.974050  2914A      5.982508  2915A      5.993422  
    2916A      6.004046  2917A      6.007768  2918A      6.023679  
    2919A      6.032971  2920A      6.039437  2921A      6.051249  
    2922A      6.055302  2923A      6.057643  2924A      6.077654  
    2925A      6.083318  2926A      6.085001  2927A      6.095217  
    2928A      6.099618  2929A      6.107677  2930A      6.109716  
    2931A      6.119591  2932A      6.129846  2933A      6.134662  
    2934A      6.160727  2935A      6.172291  2936A      6.173562  
    2937A      6.180215  2938A      6.192819  2939A      6.197623  
    2940A      6.205877  2941A      6.212087  2942A      6.214941  
    2943A      6.224226  2944A      6.230323  2945A      6.241931  
    2946A      6.250101  2947A      6.256853  2948A      6.262424  
    2949A      6.266903  2950A      6.269304  2951A      6.271231  
    2952A      6.281016  2953A      6.290315  2954A      6.310350  
    2955A      6.326134  2956A      6.326863  2957A      6.342064  
    2958A      6.345076  2959A      6.360222  2960A      6.361412  
    2961A      6.367175  2962A      6.370179  2963A      6.379284  
    2964A      6.394052  2965A      6.409949  2966A      6.421470  
    2967A      6.432305  2968A      6.441258  2969A      6.449507  
    2970A      6.475421  2971A      6.479362  2972A      6.487096  
    2973A      6.495577  2974A      6.525950  2975A      6.540564  
    2976A      6.553234  2977A      6.555613  2978A      6.579956  
    2979A      6.584231  2980A      6.608791  2981A      6.611007  
    2982A      6.622183  2983A      6.627478  2984A      6.635471  
    2985A      6.642752  2986A      6.651451  2987A      6.656349  
    2988A      6.664681  2989A      6.668606  2990A      6.677470  
    2991A      6.684981  2992A      6.687912  2993A      6.704947  
    2994A      6.711175  2995A      6.718542  2996A      6.731960  
    2997A      6.739430  2998A      6.745793  2999A      6.747963  
    3000A      6.754219  3001A      6.760496  3002A      6.806829  
    3003A      6.812559  3004A      6.826368  3005A      6.829206  
    3006A      6.832488  3007A      6.840667  3008A      6.850298  
    3009A      6.854794  3010A      6.869063  3011A      6.879198  
    3012A      6.882972  3013A      6.896006  3014A      6.904715  
    3015A      6.909492  3016A      6.915421  3017A      6.930916  
    3018A      6.934645  3019A      6.936379  3020A      6.944616  
    3021A      6.952576  3022A      6.965693  3023A      6.978823  
    3024A      6.987471  3025A      6.993919  3026A      7.009598  
    3027A      7.016266  3028A      7.029453  3029A      7.035819  
    3030A      7.041126  3031A      7.042479  3032A      7.055514  
    3033A      7.061681  3034A      7.068938  3035A      7.072541  
    3036A      7.077989  3037A      7.092043  3038A      7.106653  
    3039A      7.116163  3040A      7.120209  3041A      7.123155  
    3042A      7.133299  3043A      7.134143  3044A      7.141454  
    3045A      7.164588  3046A      7.169516  3047A      7.193078  
    3048A      7.247295  3049A      7.250401  3050A      7.359266  
    3051A      7.359770  3052A     15.904880  3053A     15.992693  
    3054A     16.324618  3055A     16.395919  3056A     16.736719  
    3057A     16.782093  3058A     17.197556  3059A     17.242307  
    3060A     17.505103  3061A     17.573703  3062A     17.793343  
    3063A     17.842547  3064A     17.943807  3065A     18.096083  
    3066A     18.330479  3067A     18.448728  3068A     18.819858  
    3069A     18.858368  3070A     19.133277  3071A     19.223735  
    3072A     19.587444  3073A     19.688734  3074A     19.970626  
    3075A     20.045099  3076A     20.366849  3077A     20.440499  
    3078A     20.935921  3079A     21.013051  3080A     21.469338  
    3081A     21.564342  3082A     21.839447  3083A     22.095291  
    3084A     22.223099  3085A     22.358720  3086A     22.519111  
    3087A     22.586509  3088A     22.629533  3089A     22.635705  
    3090A     22.875049  3091A     22.956971  3092A     23.036342  
    3093A     23.109269  3094A     23.621061  3095A     23.672524  
    3096A     23.827405  3097A     23.938162  3098A     24.014629  
    3099A     24.065605  

    Final Occupation by Irrep:
              A 
    DOCC [   164 ]
    NA   [   164 ]
    NB   [   164 ]

  @DF-RHF Final Energy: -1841.62296497930106

   => Energetics <=

    Nuclear Repulsion Energy =           6199.6145026765807415
    One-Electron Energy =              -14847.8177739556467714
    Two-Electron Energy =                6806.5803062997647430
    Total Energy =                      -1841.6229649793012868

Computation Completed


Properties will be evaluated at   0.000000,   0.000000,   0.000000 [a0]

Properties computed using the SCF density matrix


 Multipole Moments:

 ------------------------------------------------------------------------------------
     Multipole            Electronic (a.u.)      Nuclear  (a.u.)        Total (a.u.)
 ------------------------------------------------------------------------------------

 L = 1.  Multiply by 2.5417464519 to convert [e a0] to [Debye]
 Dipole X            :      -9279.8207803         9279.6775776           -0.1432027
 Dipole Y            :      -6403.6021650         6403.4265459           -0.1756191
 Dipole Z            :     -14279.0198173        14279.2482355            0.2284182
 Magnitude           :                                                    0.3217514

 ------------------------------------------------------------------------------------

*** tstop() called on atl1-1-02-003-27-2.pace.gatech.edu at Mon Jun 15 11:46:08 2026
Module time:
	user time   =   31827.17 seconds =     530.45 minutes
	system time =    2379.19 seconds =      39.65 minutes
	total time  =       5281 seconds =      88.02 minutes
Total time:
	user time   =   31827.17 seconds =     530.45 minutes
	system time =    2379.19 seconds =      39.65 minutes
	total time  =       5281 seconds =      88.02 minutes

*** tstart() called on atl1-1-02-003-27-2.pace.gatech.edu
*** at Mon Jun 15 11:46:08 2026


  //>>>>>>>>>>>>>>>>>>>>>>>>>>>>>>>>>>>//
  //               DFMP2               //
  //<<<<<<<<<<<<<<<<<<<<<<<<<<<<<<<<<<<//

   => Loading Basis Set <=

    Name: (AUG-CC-PVTZ AUX)
    Role: RIFIT
    Keyword: DF_BASIS_MP2
    atoms 1-24, 45-68  entry C          line   148 file /storage/home/hcoda1/5/vlita3/.conda/envs/p4_qcml/share/psi4/basis/aug-cc-pvtz-ri.gbs 
    atoms 25-44, 69-88 entry H          line    30 file /storage/home/hcoda1/5/vlita3/.conda/envs/p4_qcml/share/psi4/basis/aug-cc-pvtz-ri.gbs 

	 --------------------------------------------------------
	                          DF-MP2                         
	      2nd-Order Density-Fitted Moller-Plesset Theory     
	              RMP2 Wavefunction,  10 Threads             
	                                                         
	        Rob Parrish, Justin Turney, Andy Simmonett,      
	           Ed Hohenstein, and C. David Sherrill          
	 --------------------------------------------------------

   => Auxiliary Basis Set <=

  Basis Set: (AUG-CC-PVTZ AUX)
    Blend: AUG-CC-PVTZ-RI
    Number of shells: 1904
    Number of basis functions: 6928
    Number of Cartesian functions: 8728
    Spherical Harmonics?: true
    Max angular momentum: 4

	 --------------------------------------------------------
	                 NBF =  3128, NAUX =  6928
	 --------------------------------------------------------
	   CLASS    FOCC     OCC    AOCC    AVIR     VIR    FVIR
	   PAIRS       0     164     164    2935    2935       0
	 --------------------------------------------------------

	-----------------------------------------------------------
	 ==================> DF-MP2 Energies <==================== 
	-----------------------------------------------------------
	 Reference Energy          =   -1841.6229649793010594 [Eh]
	 Singles Energy            =      -0.0000000000000000 [Eh]
	 Same-Spin Energy          =      -2.1758539405906743 [Eh]
	 Opposite-Spin Energy      =      -6.6607597962887555 [Eh]
	 Correlation Energy        =      -8.8366137368794302 [Eh]
	 Total Energy              =   -1850.4595787161804310 [Eh]
	-----------------------------------------------------------
	 ================> DF-SCS-MP2 Energies <================== 
	-----------------------------------------------------------
	 SCS Same-Spin Scale       =       0.3333333333333333 [-]
	 SCS Opposite-Spin Scale   =       1.2000000000000000 [-]
	 SCS Same-Spin Energy      =      -0.7252846468635581 [Eh]
	 SCS Opposite-Spin Energy  =      -7.9929117555465066 [Eh]
	 SCS Correlation Energy    =      -8.7181964024100651 [Eh]
	 SCS Total Energy          =   -1850.3411613817111174 [Eh]
	-----------------------------------------------------------


*** tstop() called on atl1-1-02-003-27-2.pace.gatech.edu at Mon Jun 15 12:36:30 2026
Module time:
	user time   =   27688.02 seconds =     461.47 minutes
	system time =     131.73 seconds =       2.20 minutes
	total time  =       3022 seconds =      50.37 minutes
Total time:
	user time   =   59515.19 seconds =     991.92 minutes
	system time =    2510.92 seconds =      41.85 minutes
	total time  =       8303 seconds =     138.38 minutes

    Psi4 stopped on: Monday, 15 June 2026 12:36PM
    Psi4 wall time for execution: 2:18:27.61

*** Psi4 exiting successfully. Buy a developer a beer!
