
    -----------------------------------------------------------------------
          Psi4: An Open-Source Ab Initio Electronic Structure Package
                               Psi4 1.9.1 release

                         Git: Rev {} zzzzzzz 


    D. G. A. Smith, L. A. Burns, A. C. Simmonett, R. M. Parrish,
    M. C. Schieber, R. Galvelis, P. Kraus, H. Kruse, R. Di Remigio,
    A. Alenaizan, A. M. James, S. Lehtola, J. P. Misiewicz, M. Scheurer,
    R. A. Shaw, J. B. Schriber, Y. Xie, Z. L. Glick, D. A. Sirianni,
    J. S. O'Brien, J. M. Waldrop, A. Kumar, E. G. Hohenstein,
    B. P. Pritchard, B. R. Brooks, H. F. Schaefer III, A. Yu. Sokolov,
    K. Patkowski, A. E. DePrince III, U. Bozkaya, R. A. King,
    F. A. Evangelista, J. M. Turney, T. D. Crawford, C. D. Sherrill,
    J. Chem. Phys. 152(18) 184108 (2020). https://doi.org/10.1063/5.0006002

                            Additional Code Authors
    E. T. Seidl, C. L. Janssen, E. F. Valeev, M. L. Leininger,
    J. F. Gonthier, R. M. Richard, H. R. McAlexander, M. Saitow, X. Wang,
    P. Verma, M. H. Lechner, A. Jiang, S. Behnle, A. G. Heide,
    M. F. Herbst, and D. L. Poole

             Previous Authors, Complete List of Code Contributors,
                       and Citations for Specific Modules
    https://github.com/psi4/psi4/blob/master/codemeta.json
    https://github.com/psi4/psi4/graphs/contributors
    http://psicode.org/psi4manual/master/introduction.html#citing-psifour

    -----------------------------------------------------------------------


    Psi4 started on: Saturday, 13 June 2026 04:41PM

    Process ID: 3300959
    Host:       atl1-1-03-004-10-2.pace.gatech.edu
    PSIDATADIR: /storage/home/hcoda1/5/vlita3/.conda/envs/p4_qcml/share/psi4
    Memory:     250.0 GiB
    Threads:    10
    
  ==> Input QCSchema <==

--------------------------------------------------------------------------
{'driver': 'energy',
 'extras': {},
 'id': '269',
 'keywords': {},
 'model': {'basis': 'aug-cc-pvtz', 'method': 'mp2'},
 'molecule': {'extras': {},
              'fix_com': True,
              'fix_orientation': True,
              'fragment_charges': [0.0, 0.0],
              'fragment_multiplicities': [1, 1],
              'fragments': [[0, 1, 2, 3, 4, 5, 6, 7, 8, 9, 10, 11, 12, 13, 14, 15, 16, 17, 18, 19, 20, 21, 22, 23, 24,
                             25, 26, 27, 28, 29, 30, 31, 32, 33, 34, 35, 36, 37, 38, 39, 40, 41, 42, 43, 44, 45, 46, 47,
                             48, 49, 50, 51, 52, 53, 54, 55, 56, 57, 58, 59, 60, 61, 62, 63, 64, 65, 66, 67, 68, 69, 70,
                             71],
                            [72, 73, 74, 75, 76, 77, 78, 79, 80, 81, 82, 83, 84, 85, 86, 87, 88, 89, 90, 91]],
              'geometry': [-0.27392714, 6.18819166, -1.19323544, -2.46344698, 5.77825337, -2.60449614, -4.6940608,
                           5.39705781, -1.25234985, -4.71896739, 5.33938337, 1.40379628, -2.51326016, 5.65638493,
                           2.81229042, -0.29786241, 6.1264921, 1.46128175, -7.4236946, 4.94664159, -2.11437677,
                           -8.0102089, 2.21933216, -1.3518118, -8.03725088, 2.16388759, 1.30730308, -7.46490952,
                           4.85601033, 2.19433108, -8.21278754, 0.01810099, -2.78449255, -8.41651891, -2.24308601,
                           -1.44718061, -8.44656555, -2.29788807, 1.20944929, -8.27108559, -0.09424159, 2.64331111,
                           -8.82968863, 6.36030791, 0.05739419, 2.39027678, 6.99321499, -1.97848656, 2.35234998,
                           6.89052727, 2.33048585, 4.24147139, 4.87579576, 1.47132186, 4.26509297, 4.93957402,
                           -1.18371122, 5.91295305, 3.35513315, 2.83024282, 7.66850862, 1.97164575, 1.43096487,
                           7.69269711, 2.03631218, -1.22332744, 5.96134893, 3.48626124, -2.58482409, 2.91214355,
                           8.90127146, 0.22748523, 9.87956377, 0.34201964, -2.07607202, 9.16122218, -2.35520346,
                           -1.32189933, 9.13548411, -2.42066358, 1.33912796, 9.83927481, 0.23553924, 2.23913649,
                           8.55002806, -4.47912335, -2.729596, 7.90073706, -6.7005909, -1.42801501, 7.87418641,
                           -6.76523843, 1.20657123, 8.49702124, -4.61078057, 2.62830668, 11.77284258, 0.92596769,
                           0.1150709, -8.31764844, -5.08264518, 1.9809621, -5.66577687, -5.91321761, 1.16915466,
                           -5.63425624, -5.85826437, -1.48990165, -8.26696598, -4.99384695, -2.32929532, -3.49926256,
                           -6.47956853, 2.52781105, -1.27490751, -7.03089613, 1.18478458, -1.24350593, -6.97650981,
                           -1.44679133, -3.43540871, -6.36901955, -2.81856431, -9.87669139, -6.270716, -0.2182029,
                           -2.4529401, 5.84171037, -4.65828828, -2.54030214, 5.62747212, 4.86674397, -7.86022133,
                           5.46728004, -4.05896164, -7.93792687, 5.29540945, 4.15038659, -8.11773431, 0.05695332,
                           -4.83605482, -8.21892915, -0.14041005, 4.69617729, -8.40519945, 8.38335422, 0.10379812,
                           -10.87140543, 6.03249712, 0.03110168, 2.58575005, 7.68646102, -3.90969218, 2.51428061,
                           7.49055311, 4.29570653, 5.92036077, 3.32542665, 4.88460188, 6.00539845, 3.55672913,
                           -4.63769027, 1.57808761, 10.48166831, 0.25357668, 4.86729199, 9.57563912, 0.26070473,
                           10.52462179, 0.60197793, -4.01470426, 10.44833354, 0.39868497, 4.19987852, 8.5531839,
                           -4.43267388, -4.7823677, 7.42214502, -8.39155563, -2.48982755, 7.37512864, -8.50599744,
                           2.1742055, 8.4600204, -4.66543145, 4.68064374, 12.34503276, 2.91199237, 0.16959272,
                           13.42257349, -0.321261, 0.09956022, -8.86591468, -5.52843157, 3.91606055, -8.76902842,
                           -5.35979242, -4.29349555, -3.50574432, -6.49980749, 4.58215122, 0.4449946, -7.48906022,
                           2.20842844, 0.50076797, -7.39238184, -2.44683628, -3.39254972, -6.30418305, -4.87158167,
                           -11.84561594, -5.6407569, -0.22849246, -9.76051103, -8.33473156, -0.2592572, 0.45225115,
                           -0.84580551, -2.67537976, 2.67838443, -1.53842793, -1.2866805, 2.65068104, -1.59445642,
                           1.27425178, 0.39459182, -0.96458424, 2.64450164, -1.86313012, -0.39368286, 1.25325503,
                           -1.83502422, -0.33633346, -1.30877329, 0.51180775, -0.67721548, -5.30584073, 2.77402347,
                           -1.11680357, -6.67834882, 4.65792923, -1.46517081, -7.76197447, -1.67832057, -0.01779464,
                           -6.70601441, -3.49875233, 0.52904962, -7.81566159, 0.39835616, -0.91584254, 5.28048061,
                           2.63210503, -1.41763286, 6.67793308, 4.4946569, -1.81660506, 7.78079614, -1.82246132,
                           -0.32547131, 6.66298535, -3.66775054, 0.16586372, 7.75745803, 4.38153789, -2.03474371,
                           -2.30489896, 4.33176251, -2.13518265, 2.30622176, -3.59287959, 0.00412869, 2.26776584,
                           -3.54227272, 0.1076148, -2.34208877],
              'id': 12,
              'identifiers': {'molecular_formula': 'C54H34N4',
                              'molecule_hash': '4a657d34a675ca0620b0386855333ac1d6937145'},
              'masses': [12.0, 12.0, 12.0, 12.0, 12.0, 12.0, 12.0, 12.0, 12.0, 12.0, 12.0, 12.0, 12.0, 12.0, 12.0, 12.0,
                         12.0, 12.0, 12.0, 12.0, 12.0, 12.0, 12.0, 12.0, 12.0, 12.0, 12.0, 12.0, 12.0, 12.0, 12.0, 12.0,
                         12.0, 12.0, 12.0, 12.0, 12.0, 12.0, 12.0, 12.0, 12.0, 12.0, 1.00782503223, 1.00782503223,
                         1.00782503223, 1.00782503223, 1.00782503223, 1.00782503223, 1.00782503223, 1.00782503223,
                         1.00782503223, 1.00782503223, 1.00782503223, 1.00782503223, 1.00782503223, 1.00782503223,
                         1.00782503223, 1.00782503223, 1.00782503223, 1.00782503223, 1.00782503223, 1.00782503223,
                         1.00782503223, 1.00782503223, 1.00782503223, 1.00782503223, 1.00782503223, 1.00782503223,
                         1.00782503223, 1.00782503223, 1.00782503223, 1.00782503223, 12.0, 12.0, 12.0, 12.0, 12.0, 12.0,
                         12.0, 12.0, 14.00307400443, 12.0, 14.00307400443, 12.0, 12.0, 14.00307400443, 12.0,
                         14.00307400443, 1.00782503223, 1.00782503223, 1.00782503223, 1.00782503223],
              'molecular_charge': 0.0,
              'molecular_multiplicity': 1,
              'name': 'C54H34N4 ([0],[1])',
              'provenance': {'creator': 'QCElemental',
                             'routine': 'qcelemental.molparse.from_schema',
                             'version': '0.29.0'},
              'real': [True, True, True, True, True, True, True, True, True, True, True, True, True, True, True, True,
                       True, True, True, True, True, True, True, True, True, True, True, True, True, True, True, True,
                       True, True, True, True, True, True, True, True, True, True, True, True, True, True, True, True,
                       True, True, True, True, True, True, True, True, True, True, True, True, True, True, True, True,
                       True, True, True, True, True, True, True, True, False, False, False, False, False, False, False,
                       False, False, False, False, False, False, False, False, False, False, False, False, False],
              'schema_name': 'qcschema_molecule',
              'schema_version': 2,
              'symbols': ['C', 'C', 'C', 'C', 'C', 'C', 'C', 'C', 'C', 'C', 'C', 'C', 'C', 'C', 'C', 'C', 'C', 'C', 'C',
                          'C', 'C', 'C', 'C', 'C', 'C', 'C', 'C', 'C', 'C', 'C', 'C', 'C', 'C', 'C', 'C', 'C', 'C', 'C',
                          'C', 'C', 'C', 'C', 'H', 'H', 'H', 'H', 'H', 'H', 'H', 'H', 'H', 'H', 'H', 'H', 'H', 'H', 'H',
                          'H', 'H', 'H', 'H', 'H', 'H', 'H', 'H', 'H', 'H', 'H', 'H', 'H', 'H', 'H', 'C', 'C', 'C', 'C',
                          'C', 'C', 'C', 'C', 'N', 'C', 'N', 'C', 'C', 'N', 'C', 'N', 'H', 'H', 'H', 'H'],
              'validated': True},
 'protocols': {},
 'provenance': {'creator': 'QCElemental', 'routine': 'qcelemental.models.results', 'version': '0.29.0'},
 'schema_name': 'qcschema_input',
 'schema_version': 1}
--------------------------------------------------------------------------

Scratch directory: /tmp/tmpeikfrj6b_psi_scratch/
    SCF Algorithm Type (re)set to DF.
   => Libint2 <=

    Primary   basis highest AM E, G, H:  6, 6, 3
    Auxiliary basis highest AM E, G, H:  7, 7, 4
    Onebody   basis highest AM E, G, H:  -, -, -
    Solid Harmonics ordering:            Gaussian

*** tstart() called on atl1-1-03-004-10-2.pace.gatech.edu
*** at Sat Jun 13 16:41:32 2026

   => Loading Basis Set <=

    Name: AUG-CC-PVTZ
    Role: ORBITAL
    Keyword: BASIS
    atoms 1-42, 73-80, 82, 84-85, 87 entry C          line   239 file /storage/home/hcoda1/5/vlita3/.conda/envs/p4_qcml/share/psi4/basis/aug-cc-pvtz.gbs 
    atoms 43-72, 89-92               entry H          line    40 file /storage/home/hcoda1/5/vlita3/.conda/envs/p4_qcml/share/psi4/basis/aug-cc-pvtz.gbs 
    atoms 81, 83, 86, 88             entry N          line   285 file /storage/home/hcoda1/5/vlita3/.conda/envs/p4_qcml/share/psi4/basis/aug-cc-pvtz.gbs 


         ---------------------------------------------------------
                                   SCF
               by Justin Turney, Rob Parrish, Andy Simmonett
                          and Daniel G. A. Smith
                              RHF Reference
                       10 Threads, 256000 MiB Core
         ---------------------------------------------------------

  ==> Geometry <==

    Molecular point group: c1
    Full point group: C1

    Geometry (in Bohr), charge = 0, multiplicity = 1:

       Center              X                  Y                   Z               Mass       
    ------------   -----------------  -----------------  -----------------  -----------------
         C           -0.273927140000     6.188191660000    -1.193235440000    12.000000000000
         C           -2.463446980000     5.778253370000    -2.604496140000    12.000000000000
         C           -4.694060800000     5.397057810000    -1.252349850000    12.000000000000
         C           -4.718967390000     5.339383370000     1.403796280000    12.000000000000
         C           -2.513260160000     5.656384930000     2.812290420000    12.000000000000
         C           -0.297862410000     6.126492100000     1.461281750000    12.000000000000
         C           -7.423694600000     4.946641590000    -2.114376770000    12.000000000000
         C           -8.010208900000     2.219332160000    -1.351811800000    12.000000000000
         C           -8.037250880000     2.163887590000     1.307303080000    12.000000000000
         C           -7.464909520000     4.856010330000     2.194331080000    12.000000000000
         C           -8.212787540000     0.018100990000    -2.784492550000    12.000000000000
         C           -8.416518910000    -2.243086010000    -1.447180610000    12.000000000000
         C           -8.446565550000    -2.297888070000     1.209449290000    12.000000000000
         C           -8.271085590000    -0.094241590000     2.643311110000    12.000000000000
         C           -8.829688630000     6.360307910000     0.057394190000    12.000000000000
         C            2.390276780000     6.993214990000    -1.978486560000    12.000000000000
         C            2.352349980000     6.890527270000     2.330485850000    12.000000000000
         C            4.241471390000     4.875795760000     1.471321860000    12.000000000000
         C            4.265092970000     4.939574020000    -1.183711220000    12.000000000000
         C            5.912953050000     3.355133150000     2.830242820000    12.000000000000
         C            7.668508620000     1.971645750000     1.430964870000    12.000000000000
         C            7.692697110000     2.036312180000    -1.223327440000    12.000000000000
         C            5.961348930000     3.486261240000    -2.584824090000    12.000000000000
         C            2.912143550000     8.901271460000     0.227485230000    12.000000000000
         C            9.879563770000     0.342019640000    -2.076072020000    12.000000000000
         C            9.161222180000    -2.355203460000    -1.321899330000    12.000000000000
         C            9.135484110000    -2.420663580000     1.339127960000    12.000000000000
         C            9.839274810000     0.235539240000     2.239136490000    12.000000000000
         C            8.550028060000    -4.479123350000    -2.729596000000    12.000000000000
         C            7.900737060000    -6.700590900000    -1.428015010000    12.000000000000
         C            7.874186410000    -6.765238430000     1.206571230000    12.000000000000
         C            8.497021240000    -4.610780570000     2.628306680000    12.000000000000
         C           11.772842580000     0.925967690000     0.115070900000    12.000000000000
         C           -8.317648440000    -5.082645180000     1.980962100000    12.000000000000
         C           -5.665776870000    -5.913217610000     1.169154660000    12.000000000000
         C           -5.634256240000    -5.858264370000    -1.489901650000    12.000000000000
         C           -8.266965980000    -4.993846950000    -2.329295320000    12.000000000000
         C           -3.499262560000    -6.479568530000     2.527811050000    12.000000000000
         C           -1.274907510000    -7.030896130000     1.184784580000    12.000000000000
         C           -1.243505930000    -6.976509810000    -1.446791330000    12.000000000000
         C           -3.435408710000    -6.369019550000    -2.818564310000    12.000000000000
         C           -9.876691390000    -6.270716000000    -0.218202900000    12.000000000000
         H           -2.452940100000     5.841710370000    -4.658288280000     1.007825032230
         H           -2.540302140000     5.627472120000     4.866743970000     1.007825032230
         H           -7.860221330000     5.467280040000    -4.058961640000     1.007825032230
         H           -7.937926870000     5.295409450000     4.150386590000     1.007825032230
         H           -8.117734310000     0.056953320000    -4.836054820000     1.007825032230
         H           -8.218929150000    -0.140410050000     4.696177290000     1.007825032230
         H           -8.405199450000     8.383354220000     0.103798120000     1.007825032230
         H          -10.871405430000     6.032497120000     0.031101680000     1.007825032230
         H            2.585750050000     7.686461020000    -3.909692180000     1.007825032230
         H            2.514280610000     7.490553110000     4.295706530000     1.007825032230
         H            5.920360770000     3.325426650000     4.884601880000     1.007825032230
         H            6.005398450000     3.556729130000    -4.637690270000     1.007825032230
         H            1.578087610000    10.481668310000     0.253576680000     1.007825032230
         H            4.867291990000     9.575639120000     0.260704730000     1.007825032230
         H           10.524621790000     0.601977930000    -4.014704260000     1.007825032230
         H           10.448333540000     0.398684970000     4.199878520000     1.007825032230
         H            8.553183900000    -4.432673880000    -4.782367700000     1.007825032230
         H            7.422145020000    -8.391555630000    -2.489827550000     1.007825032230
         H            7.375128640000    -8.505997440000     2.174205500000     1.007825032230
         H            8.460020400000    -4.665431450000     4.680643740000     1.007825032230
         H           12.345032760000     2.911992370000     0.169592720000     1.007825032230
         H           13.422573490000    -0.321261000000     0.099560220000     1.007825032230
         H           -8.865914680000    -5.528431570000     3.916060550000     1.007825032230
         H           -8.769028420000    -5.359792420000    -4.293495550000     1.007825032230
         H           -3.505744320000    -6.499807490000     4.582151220000     1.007825032230
         H            0.444994600000    -7.489060220000     2.208428440000     1.007825032230
         H            0.500767970000    -7.392381840000    -2.446836280000     1.007825032230
         H           -3.392549720000    -6.304183050000    -4.871581670000     1.007825032230
         H          -11.845615940000    -5.640756900000    -0.228492460000     1.007825032230
         H           -9.760511030000    -8.334731560000    -0.259257200000     1.007825032230
      Gh(C)           0.452251150000    -0.845805510000    -2.675379760000    12.000000000000
      Gh(C)           2.678384430000    -1.538427930000    -1.286680500000    12.000000000000
      Gh(C)           2.650681040000    -1.594456420000     1.274251780000    12.000000000000
      Gh(C)           0.394591820000    -0.964584240000     2.644501640000    12.000000000000
      Gh(C)          -1.863130120000    -0.393682860000     1.253255030000    12.000000000000
      Gh(C)          -1.835024220000    -0.336333460000    -1.308773290000    12.000000000000
      Gh(C)           0.511807750000    -0.677215480000    -5.305840730000    12.000000000000
      Gh(C)           2.774023470000    -1.116803570000    -6.678348820000    12.000000000000
      Gh(N)           4.657929230000    -1.465170810000    -7.761974470000    14.003074004430
      Gh(C)          -1.678320570000    -0.017794640000    -6.706014410000    12.000000000000
      Gh(N)          -3.498752330000     0.529049620000    -7.815661590000    14.003074004430
      Gh(C)           0.398356160000    -0.915842540000     5.280480610000    12.000000000000
      Gh(C)           2.632105030000    -1.417632860000     6.677933080000    12.000000000000
      Gh(N)           4.494656900000    -1.816605060000     7.780796140000    14.003074004430
      Gh(C)          -1.822461320000    -0.325471310000     6.662985350000    12.000000000000
      Gh(N)          -3.667750540000     0.165863720000     7.757458030000    14.003074004430
      Gh(H)           4.381537890000    -2.034743710000    -2.304898960000     1.007825032230
      Gh(H)           4.331762510000    -2.135182650000     2.306221760000     1.007825032230
      Gh(H)          -3.592879590000     0.004128690000     2.267765840000     1.007825032230
      Gh(H)          -3.542272720000     0.107614800000    -2.342088770000     1.007825032230

  Running in c1 symmetry.

  Rotational constants: A =      0.00267  B =      0.00168  C =      0.00146 [cm^-1]
  Rotational constants: A =     80.12542  B =     50.33918  C =     43.84220 [MHz]
  Nuclear repulsion = 4480.390671897964239

  Charge       = 0
  Multiplicity = 1
  Electrons    = 282
  Nalpha       = 141
  Nbeta        = 141

  ==> Algorithm <==

  SCF Algorithm Type is DF.
  DIIS enabled.
  MOM disabled.
  Fractional occupation disabled.
  Guess Type is SAD.
  Energy threshold   = 1.00e-08
  Density threshold  = 1.00e-08
  Integral threshold = 1.00e-12

  ==> Primary Basis <==

  Basis Set: AUG-CC-PVTZ
    Blend: AUG-CC-PVTZ
    Number of shells: 1118
    Number of basis functions: 3450
    Number of Cartesian functions: 4040
    Spherical Harmonics?: true
    Max angular momentum: 3

   => Loading Basis Set <=

    Name: (AUG-CC-PVTZ AUX)
    Role: JKFIT
    Keyword: DF_BASIS_SCF
    atoms 1-42, 73-80, 82, 84-85, 87 entry C          line   162 file /storage/home/hcoda1/5/vlita3/.conda/envs/p4_qcml/share/psi4/basis/aug-cc-pvtz-jkfit.gbs 
    atoms 43-72, 89-92               entry H          line    70 file /storage/home/hcoda1/5/vlita3/.conda/envs/p4_qcml/share/psi4/basis/aug-cc-pvtz-jkfit.gbs 
    atoms 81, 83, 86, 88             entry N          line   224 file /storage/home/hcoda1/5/vlita3/.conda/envs/p4_qcml/share/psi4/basis/aug-cc-pvtz-jkfit.gbs 

  ==> Integral Setup <==

  ==> DiskDFJK: Density-Fitted J/K Matrices <==

    J tasked:                  Yes
    K tasked:                  Yes
    wK tasked:                  No
    OpenMP threads:             10
    Integrals threads:          10
    Memory [MiB]:           192000
    Algorithm:                Disk
    Integral Cache:           NONE
    Schwarz Cutoff:          1E-12
    Fitting Condition:       1E-10

   => Auxiliary Basis Set <=

  Basis Set: (AUG-CC-PVTZ AUX)
    Blend: AUG-CC-PVTZ-JKFIT
    Number of shells: 2216
    Number of basis functions: 7596
    Number of Cartesian functions: 9468
    Spherical Harmonics?: true
    Max angular momentum: 4

  Minimum eigenvalue in the overlap matrix is 3.2999283483E-10.
  Reciprocal condition number of the overlap matrix is 8.9829939844E-12.
    Using canonical orthogonalization.
  Overall, 31 of 3450 possible MOs eliminated.


  ==> Pre-Iterations <==

  SCF Guess: Superposition of Atomic Densities via on-the-fly atomic UHF (no occupation information).

   -------------------------
    Irrep   Nso     Nmo    
   -------------------------
     A       3450    3419 
   -------------------------
    Total    3450    3419
   -------------------------

  ==> Iterations <==

                           Total Energy        Delta E     RMS |[F,P]|

   @DF-RHF iter SAD: -1612.19116484849883   -1.61219e+03   0.00000e+00 
   @DF-RHF iter   1: -1607.28772481313354    4.90344e+00   3.82672e-04 DIIS/ADIIS
   @DF-RHF iter   2: -1608.11958125228784   -8.31856e-01   2.04811e-04 DIIS/ADIIS
   @DF-RHF iter   3: -1608.35960307210712   -2.40022e-01   5.28499e-05 DIIS
   @DF-RHF iter   4: -1608.37814372110211   -1.85406e-02   1.99488e-05 DIIS
   @DF-RHF iter   5: -1608.38081066645896   -2.66695e-03   4.62610e-06 DIIS
   @DF-RHF iter   6: -1608.38095918926047   -1.48523e-04   1.79509e-06 DIIS
   @DF-RHF iter   7: -1608.38098447440143   -2.52851e-05   4.82124e-07 DIIS
   @DF-RHF iter   8: -1608.38098696175393   -2.48735e-06   1.83994e-07 DIIS
   @DF-RHF iter   9: -1608.38098758194269   -6.20189e-07   7.70057e-08 DIIS
   @DF-RHF iter  10: -1608.38098777166829   -1.89726e-07   3.87826e-08 DIIS
   @DF-RHF iter  11: -1608.38098783277519   -6.11069e-08   1.70002e-08 DIIS
   @DF-RHF iter  12: -1608.38098784268755   -9.91236e-09   7.75890e-09 DIIS
  Energy and wave function converged.


  ==> Post-Iterations <==

    Orbital Energies [Eh]
    ---------------------

    Doubly Occupied:                                                      

       1A    -11.244280     2A    -11.244276     3A    -11.242009  
       4A    -11.241979     5A    -11.241079     6A    -11.241050  
       7A    -11.241047     8A    -11.241046     9A    -11.232326  
      10A    -11.232152    11A    -11.231373    12A    -11.230817  
      13A    -11.230669    14A    -11.230645    15A    -11.230322  
      16A    -11.230012    17A    -11.229303    18A    -11.229175  
      19A    -11.229040    20A    -11.228875    21A    -11.228741  
      22A    -11.228563    23A    -11.228541    24A    -11.228494  
      25A    -11.228284    26A    -11.228177    27A    -11.227767  
      28A    -11.227745    29A    -11.227500    30A    -11.227435  
      31A    -11.227407    32A    -11.227040    33A    -11.226858  
      34A    -11.226705    35A    -11.226296    36A    -11.226235  
      37A    -11.226020    38A    -11.225915    39A    -11.225182  
      40A    -11.225027    41A    -11.222769    42A    -11.221577  
      43A     -1.210888    44A     -1.206620    45A     -1.197666  
      46A     -1.186815    47A     -1.135121    48A     -1.125937  
      49A     -1.106960    50A     -1.083233    51A     -1.059216  
      52A     -1.038151    53A     -1.033296    54A     -1.023191  
      55A     -1.011310    56A     -1.002469    57A     -0.991962  
      58A     -0.981545    59A     -0.964525    60A     -0.961930  
      61A     -0.945116    62A     -0.944770    63A     -0.933089  
      64A     -0.922651    65A     -0.902304    66A     -0.850975  
      67A     -0.844505    68A     -0.833103    69A     -0.821947  
      70A     -0.816539    71A     -0.791719    72A     -0.787859  
      73A     -0.784345    74A     -0.782904    75A     -0.774035  
      76A     -0.763232    77A     -0.758878    78A     -0.731203  
      79A     -0.706752    80A     -0.698564    81A     -0.691580  
      82A     -0.686763    83A     -0.679121    84A     -0.671816  
      85A     -0.658840    86A     -0.654262    87A     -0.636703  
      88A     -0.622050    89A     -0.618488    90A     -0.618436  
      91A     -0.613567    92A     -0.613226    93A     -0.613061  
      94A     -0.611559    95A     -0.586326    96A     -0.580640  
      97A     -0.570706    98A     -0.569610    99A     -0.565733  
     100A     -0.562563   101A     -0.558219   102A     -0.557148  
     103A     -0.555569   104A     -0.553920   105A     -0.552984  
     106A     -0.539442   107A     -0.535320   108A     -0.531651  
     109A     -0.525204   110A     -0.520770   111A     -0.512352  
     112A     -0.509877   113A     -0.503141   114A     -0.493679  
     115A     -0.491311   116A     -0.484768   117A     -0.482763  
     118A     -0.476402   119A     -0.470862   120A     -0.468550  
     121A     -0.467282   122A     -0.466018   123A     -0.463736  
     124A     -0.462854   125A     -0.459668   126A     -0.457333  
     127A     -0.455614   128A     -0.454276   129A     -0.445040  
     130A     -0.442465   131A     -0.438945   132A     -0.334333  
     133A     -0.330995   134A     -0.325263   135A     -0.322320  
     136A     -0.322263   137A     -0.321101   138A     -0.318100  
     139A     -0.303181   140A     -0.284658   141A     -0.265758  

    Virtual:                                                              

     142A      0.021654   143A      0.023697   144A      0.026705  
     145A      0.027731   146A      0.032250   147A      0.033034  
     148A      0.034700   149A      0.034837   150A      0.036021  
     151A      0.043722   152A      0.044785   153A      0.045052  
     154A      0.045440   155A      0.046474   156A      0.048850  
     157A      0.049624   158A      0.056787   159A      0.058820  
     160A      0.059246   161A      0.060550   162A      0.062596  
     163A      0.062844   164A      0.064599   165A      0.065916  
     166A      0.070568   167A      0.073299   168A      0.076092  
     169A      0.078303   170A      0.079511   171A      0.079712  
     172A      0.082149   173A      0.082748   174A      0.087229  
     175A      0.087929   176A      0.093784   177A      0.093946  
     178A      0.097195   179A      0.098226   180A      0.098800  
     181A      0.101683   182A      0.101821   183A      0.103307  
     184A      0.103914   185A      0.104731   186A      0.106800  
     187A      0.106965   188A      0.107332   189A      0.109548  
     190A      0.110213   191A      0.111910   192A      0.112507  
     193A      0.113417   194A      0.115067   195A      0.116865  
     196A      0.117934   197A      0.118512   198A      0.118748  
     199A      0.119628   200A      0.122377   201A      0.122604  
     202A      0.123924   203A      0.124197   204A      0.125157  
     205A      0.125597   206A      0.126572   207A      0.128134  
     208A      0.131110   209A      0.132713   210A      0.133313  
     211A      0.135460   212A      0.136192   213A      0.137607  
     214A      0.139445   215A      0.140857   216A      0.141672  
     217A      0.142840   218A      0.144023   219A      0.144419  
     220A      0.145234   221A      0.145444   222A      0.146953  
     223A      0.149374   224A      0.150217   225A      0.151016  
     226A      0.153198   227A      0.154726   228A      0.155451  
     229A      0.156223   230A      0.156541   231A      0.156986  
     232A      0.158403   233A      0.160272   234A      0.161364  
     235A      0.163033   236A      0.163444   237A      0.165070  
     238A      0.167410   239A      0.167801   240A      0.168819  
     241A      0.169520   242A      0.172274   243A      0.172351  
     244A      0.174656   245A      0.175520   246A      0.175791  
     247A      0.179377   248A      0.180472   249A      0.181483  
     250A      0.182708   251A      0.183306   252A      0.185497  
     253A      0.185780   254A      0.188478   255A      0.188564  
     256A      0.189350   257A      0.191579   258A      0.193012  
     259A      0.196134   260A      0.196674   261A      0.196987  
     262A      0.197918   263A      0.199359   264A      0.200110  
     265A      0.203299   266A      0.204686   267A      0.206441  
     268A      0.209531   269A      0.211024   270A      0.211526  
     271A      0.212458   272A      0.215294   273A      0.217806  
     274A      0.218824   275A      0.219336   276A      0.222931  
     277A      0.222969   278A      0.223635   279A      0.224416  
     280A      0.225191   281A      0.225229   282A      0.227591  
     283A      0.229245   284A      0.229967   285A      0.231872  
     286A      0.232911   287A      0.236496   288A      0.237157  
     289A      0.238015   290A      0.239692   291A      0.240548  
     292A      0.243095   293A      0.243487   294A      0.244956  
     295A      0.245377   296A      0.246352   297A      0.247046  
     298A      0.248800   299A      0.249275   300A      0.250671  
     301A      0.251469   302A      0.252115   303A      0.253842  
     304A      0.255192   305A      0.255475   306A      0.256454  
     307A      0.257844   308A      0.257896   309A      0.258371  
     310A      0.259097   311A      0.260752   312A      0.261342  
     313A      0.261499   314A      0.263620   315A      0.264839  
     316A      0.266206   317A      0.266351   318A      0.267719  
     319A      0.267876   320A      0.269780   321A      0.270220  
     322A      0.270492   323A      0.270980   324A      0.272366  
     325A      0.273066   326A      0.273961   327A      0.275040  
     328A      0.275946   329A      0.278452   330A      0.279685  
     331A      0.281256   332A      0.281411   333A      0.281932  
     334A      0.283219   335A      0.284603   336A      0.285435  
     337A      0.285887   338A      0.288813   339A      0.289231  
     340A      0.290818   341A      0.291625   342A      0.292775  
     343A      0.293115   344A      0.294595   345A      0.295088  
     346A      0.295904   347A      0.296793   348A      0.296931  
     349A      0.298329   350A      0.299170   351A      0.300128  
     352A      0.303240   353A      0.304481   354A      0.305691  
     355A      0.307013   356A      0.307466   357A      0.307579  
     358A      0.308994   359A      0.309255   360A      0.310101  
     361A      0.311311   362A      0.311682   363A      0.313461  
     364A      0.315035   365A      0.315353   366A      0.316245  
     367A      0.318054   368A      0.318361   369A      0.319346  
     370A      0.319765   371A      0.320743   372A      0.321248  
     373A      0.322466   374A      0.323421   375A      0.325857  
     376A      0.326769   377A      0.327101   378A      0.328265  
     379A      0.328958   380A      0.333196   381A      0.333415  
     382A      0.334471   383A      0.334870   384A      0.335845  
     385A      0.337263   386A      0.339033   387A      0.340479  
     388A      0.341625   389A      0.344128   390A      0.345503  
     391A      0.347485   392A      0.348965   393A      0.349171  
     394A      0.351931   395A      0.352579   396A      0.354751  
     397A      0.354901   398A      0.355458   399A      0.357204  
     400A      0.360054   401A      0.360356   402A      0.360549  
     403A      0.363939   404A      0.365605   405A      0.367480  
     406A      0.368384   407A      0.370150   408A      0.373164  
     409A      0.374011   410A      0.374367   411A      0.377549  
     412A      0.379028   413A      0.381797   414A      0.382518  
     415A      0.383622   416A      0.385045   417A      0.387582  
     418A      0.388012   419A      0.388774   420A      0.391255  
     421A      0.392699   422A      0.393638   423A      0.394094  
     424A      0.396291   425A      0.397722   426A      0.398141  
     427A      0.398893   428A      0.401772   429A      0.404641  
     430A      0.406820   431A      0.409905   432A      0.410742  
     433A      0.412292   434A      0.413497   435A      0.413587  
     436A      0.416367   437A      0.417736   438A      0.419435  
     439A      0.419734   440A      0.420430   441A      0.421176  
     442A      0.422599   443A      0.425192   444A      0.426089  
     445A      0.427464   446A      0.429381   447A      0.430520  
     448A      0.430720   449A      0.431021   450A      0.432343  
     451A      0.433771   452A      0.434975   453A      0.437728  
     454A      0.438708   455A      0.440081   456A      0.441913  
     457A      0.443867   458A      0.444429   459A      0.445058  
     460A      0.447413   461A      0.449956   462A      0.450366  
     463A      0.451437   464A      0.451762   465A      0.454141  
     466A      0.454261   467A      0.456220   468A      0.456454  
     469A      0.459671   470A      0.460772   471A      0.463066  
     472A      0.463951   473A      0.465023   474A      0.466383  
     475A      0.466719   476A      0.470617   477A      0.471348  
     478A      0.472080   479A      0.474816   480A      0.475417  
     481A      0.475505   482A      0.477494   483A      0.478740  
     484A      0.479618   485A      0.479981   486A      0.481923  
     487A      0.483046   488A      0.484292   489A      0.486360  
     490A      0.486605   491A      0.488494   492A      0.489375  
     493A      0.489932   494A      0.493007   495A      0.493597  
     496A      0.493991   497A      0.495031   498A      0.495742  
     499A      0.498145   500A      0.498919   501A      0.499663  
     502A      0.501477   503A      0.501864   504A      0.503345  
     505A      0.503941   506A      0.504136   507A      0.504972  
     508A      0.505324   509A      0.507498   510A      0.508384  
     511A      0.510827   512A      0.512389   513A      0.512592  
     514A      0.513585   515A      0.516265   516A      0.516672  
     517A      0.517120   518A      0.517262   519A      0.520570  
     520A      0.520768   521A      0.522689   522A      0.523160  
     523A      0.523734   524A      0.526921   525A      0.527066  
     526A      0.528976   527A      0.529426   528A      0.530420  
     529A      0.531244   530A      0.531643   531A      0.531966  
     532A      0.534485   533A      0.535171   534A      0.536185  
     535A      0.536595   536A      0.536826   537A      0.538592  
     538A      0.541479   539A      0.542060   540A      0.542636  
     541A      0.542969   542A      0.543687   543A      0.545375  
     544A      0.546622   545A      0.547935   546A      0.547994  
     547A      0.549607   548A      0.550735   549A      0.550936  
     550A      0.553721   551A      0.554105   552A      0.554469  
     553A      0.554721   554A      0.556835   555A      0.557476  
     556A      0.559782   557A      0.561338   558A      0.562305  
     559A      0.563014   560A      0.564592   561A      0.565458  
     562A      0.568044   563A      0.569159   564A      0.570310  
     565A      0.571906   566A      0.572039   567A      0.572792  
     568A      0.573307   569A      0.573727   570A      0.575070  
     571A      0.576692   572A      0.576980   573A      0.579311  
     574A      0.579779   575A      0.582715   576A      0.582838  
     577A      0.583442   578A      0.583936   579A      0.584389  
     580A      0.586254   581A      0.586483   582A      0.588798  
     583A      0.589591   584A      0.592040   585A      0.592637  
     586A      0.593274   587A      0.594169   588A      0.595924  
     589A      0.596590   590A      0.597605   591A      0.599104  
     592A      0.601924   593A      0.602691   594A      0.603305  
     595A      0.604020   596A      0.605142   597A      0.605948  
     598A      0.606764   599A      0.607030   600A      0.609672  
     601A      0.610179   602A      0.611377   603A      0.612302  
     604A      0.612937   605A      0.613325   606A      0.615614  
     607A      0.615974   608A      0.616544   609A      0.617270  
     610A      0.618981   611A      0.621055   612A      0.621595  
     613A      0.622447   614A      0.624703   615A      0.625439  
     616A      0.627442   617A      0.627943   618A      0.629259  
     619A      0.629430   620A      0.631292   621A      0.633835  
     622A      0.633860   623A      0.634833   624A      0.637420  
     625A      0.637680   626A      0.638346   627A      0.641059  
     628A      0.641346   629A      0.643545   630A      0.643997  
     631A      0.645610   632A      0.646548   633A      0.648256  
     634A      0.648911   635A      0.650052   636A      0.650236  
     637A      0.651973   638A      0.653604   639A      0.655372  
     640A      0.656784   641A      0.657518   642A      0.657869  
     643A      0.660084   644A      0.662020   645A      0.663118  
     646A      0.663975   647A      0.665228   648A      0.667819  
     649A      0.668862   650A      0.669172   651A      0.670876  
     652A      0.671746   653A      0.673893   654A      0.673944  
     655A      0.678847   656A      0.680230   657A      0.680452  
     658A      0.682585   659A      0.683933   660A      0.684456  
     661A      0.684895   662A      0.687748   663A      0.687848  
     664A      0.689597   665A      0.689744   666A      0.691951  
     667A      0.693806   668A      0.696612   669A      0.697451  
     670A      0.698748   671A      0.700746   672A      0.701729  
     673A      0.702924   674A      0.703785   675A      0.705504  
     676A      0.708528   677A      0.709222   678A      0.713375  
     679A      0.713984   680A      0.715958   681A      0.717042  
     682A      0.718516   683A      0.719448   684A      0.721175  
     685A      0.722300   686A      0.722478   687A      0.722616  
     688A      0.724586   689A      0.728125   690A      0.728682  
     691A      0.732686   692A      0.733006   693A      0.733170  
     694A      0.734551   695A      0.734885   696A      0.736291  
     697A      0.738381   698A      0.738889   699A      0.743959  
     700A      0.744202   701A      0.745443   702A      0.745693  
     703A      0.747249   704A      0.747711   705A      0.749456  
     706A      0.751574   707A      0.753528   708A      0.753793  
     709A      0.755685   710A      0.756061   711A      0.757002  
     712A      0.757839   713A      0.760162   714A      0.761614  
     715A      0.762051   716A      0.762391   717A      0.765196  
     718A      0.769351   719A      0.770976   720A      0.772798  
     721A      0.773211   722A      0.774492   723A      0.778003  
     724A      0.780068   725A      0.780500   726A      0.781545  
     727A      0.782310   728A      0.784065   729A      0.786498  
     730A      0.788089   731A      0.788752   732A      0.789681  
     733A      0.790599   734A      0.795183   735A      0.797278  
     736A      0.797429   737A      0.798486   738A      0.800091  
     739A      0.801949   740A      0.804713   741A      0.805753  
     742A      0.806367   743A      0.807762   744A      0.809555  
     745A      0.812647   746A      0.813262   747A      0.817229  
     748A      0.817606   749A      0.819093   750A      0.821372  
     751A      0.821725   752A      0.821893   753A      0.824866  
     754A      0.826829   755A      0.827658   756A      0.828543  
     757A      0.831116   758A      0.831576   759A      0.831807  
     760A      0.833843   761A      0.835953   762A      0.837531  
     763A      0.838901   764A      0.840220   765A      0.840435  
     766A      0.842697   767A      0.843452   768A      0.844695  
     769A      0.847037   770A      0.848305   771A      0.848768  
     772A      0.851028   773A      0.852768   774A      0.854032  
     775A      0.854909   776A      0.855906   777A      0.859128  
     778A      0.862258   779A      0.862798   780A      0.863780  
     781A      0.864845   782A      0.866768   783A      0.867450  
     784A      0.867951   785A      0.869998   786A      0.870589  
     787A      0.873263   788A      0.873918   789A      0.874578  
     790A      0.876587   791A      0.878170   792A      0.878306  
     793A      0.879777   794A      0.881954   795A      0.883215  
     796A      0.885517   797A      0.888309   798A      0.890289  
     799A      0.892091   800A      0.893159   801A      0.894483  
     802A      0.896677   803A      0.898116   804A      0.898551  
     805A      0.901260   806A      0.902168   807A      0.902873  
     808A      0.904533   809A      0.906343   810A      0.907240  
     811A      0.910252   812A      0.911261   813A      0.912111  
     814A      0.912362   815A      0.914066   816A      0.914520  
     817A      0.914966   818A      0.918601   819A      0.919290  
     820A      0.921484   821A      0.922627   822A      0.923822  
     823A      0.924134   824A      0.924911   825A      0.925663  
     826A      0.928020   827A      0.928983   828A      0.930367  
     829A      0.931209   830A      0.934226   831A      0.936147  
     832A      0.936408   833A      0.936798   834A      0.938622  
     835A      0.940225   836A      0.943538   837A      0.944678  
     838A      0.946145   839A      0.946683   840A      0.948371  
     841A      0.950924   842A      0.952737   843A      0.953355  
     844A      0.954024   845A      0.955204   846A      0.956574  
     847A      0.957245   848A      0.958697   849A      0.960051  
     850A      0.960747   851A      0.961689   852A      0.962084  
     853A      0.965030   854A      0.965852   855A      0.965889  
     856A      0.966553   857A      0.968517   858A      0.968734  
     859A      0.970629   860A      0.973088   861A      0.975288  
     862A      0.976315   863A      0.977137   864A      0.977482  
     865A      0.980802   866A      0.981406   867A      0.981789  
     868A      0.983740   869A      0.985294   870A      0.986098  
     871A      0.986820   872A      0.987132   873A      0.988567  
     874A      0.991663   875A      0.992494   876A      0.993478  
     877A      0.994411   878A      0.995742   879A      0.996404  
     880A      0.997702   881A      1.000852   882A      1.001024  
     883A      1.001416   884A      1.002832   885A      1.004050  
     886A      1.004301   887A      1.006816   888A      1.007522  
     889A      1.008841   890A      1.011670   891A      1.013159  
     892A      1.013528   893A      1.015378   894A      1.016564  
     895A      1.017145   896A      1.019027   897A      1.020218  
     898A      1.021099   899A      1.021587   900A      1.022139  
     901A      1.023599   902A      1.025353   903A      1.025629  
     904A      1.027166   905A      1.027824   906A      1.028628  
     907A      1.030313   908A      1.031097   909A      1.033546  
     910A      1.034533   911A      1.034786   912A      1.036334  
     913A      1.036866   914A      1.038975   915A      1.040291  
     916A      1.040845   917A      1.042459   918A      1.044147  
     919A      1.044968   920A      1.045431   921A      1.049115  
     922A      1.049943   923A      1.051008   924A      1.051858  
     925A      1.052454   926A      1.054013   927A      1.055781  
     928A      1.056733   929A      1.057626   930A      1.058029  
     931A      1.058672   932A      1.062563   933A      1.062889  
     934A      1.063512   935A      1.065831   936A      1.068679  
     937A      1.068915   938A      1.070913   939A      1.072971  
     940A      1.074221   941A      1.076591   942A      1.076829  
     943A      1.077411   944A      1.077778   945A      1.080912  
     946A      1.081246   947A      1.082331   948A      1.082547  
     949A      1.084166   950A      1.087747   951A      1.087922  
     952A      1.089631   953A      1.090375   954A      1.092605  
     955A      1.093615   956A      1.095444   957A      1.095475  
     958A      1.095910   959A      1.097940   960A      1.100901  
     961A      1.102940   962A      1.103287   963A      1.106123  
     964A      1.106487   965A      1.107501   966A      1.110789  
     967A      1.113013   968A      1.115322   969A      1.116822  
     970A      1.117886   971A      1.118080   972A      1.118445  
     973A      1.119191   974A      1.120932   975A      1.121438  
     976A      1.123902   977A      1.127670   978A      1.128875  
     979A      1.129993   980A      1.131449   981A      1.132392  
     982A      1.132981   983A      1.133973   984A      1.137244  
     985A      1.138520   986A      1.139123   987A      1.140812  
     988A      1.140961   989A      1.141837   990A      1.146685  
     991A      1.148836   992A      1.151163   993A      1.152423  
     994A      1.153444   995A      1.155865   996A      1.157366  
     997A      1.157539   998A      1.158065   999A      1.160640  
    1000A      1.161255  1001A      1.162119  1002A      1.162616  
    1003A      1.165212  1004A      1.165597  1005A      1.168308  
    1006A      1.170632  1007A      1.170795  1008A      1.171125  
    1009A      1.172845  1010A      1.173133  1011A      1.176935  
    1012A      1.178308  1013A      1.179726  1014A      1.181848  
    1015A      1.182918  1016A      1.183348  1017A      1.184892  
    1018A      1.185795  1019A      1.188435  1020A      1.191501  
    1021A      1.192285  1022A      1.193776  1023A      1.194799  
    1024A      1.195492  1025A      1.196402  1026A      1.198216  
    1027A      1.198875  1028A      1.199304  1029A      1.201821  
    1030A      1.203609  1031A      1.204414  1032A      1.209328  
    1033A      1.209509  1034A      1.211296  1035A      1.211928  
    1036A      1.212975  1037A      1.215551  1038A      1.215775  
    1039A      1.217052  1040A      1.218641  1041A      1.220862  
    1042A      1.221567  1043A      1.223502  1044A      1.223804  
    1045A      1.225831  1046A      1.228281  1047A      1.229994  
    1048A      1.231283  1049A      1.237164  1050A      1.237690  
    1051A      1.238633  1052A      1.239848  1053A      1.242065  
    1054A      1.242156  1055A      1.244896  1056A      1.245641  
    1057A      1.247243  1058A      1.248276  1059A      1.249658  
    1060A      1.252508  1061A      1.253648  1062A      1.257015  
    1063A      1.259583  1064A      1.261466  1065A      1.262627  
    1066A      1.263199  1067A      1.265540  1068A      1.266830  
    1069A      1.268810  1070A      1.270314  1071A      1.270984  
    1072A      1.272246  1073A      1.274771  1074A      1.275484  
    1075A      1.278240  1076A      1.279222  1077A      1.280020  
    1078A      1.281763  1079A      1.282197  1080A      1.283059  
    1081A      1.283824  1082A      1.286247  1083A      1.287703  
    1084A      1.288246  1085A      1.290348  1086A      1.293055  
    1087A      1.295358  1088A      1.297680  1089A      1.298764  
    1090A      1.299449  1091A      1.300523  1092A      1.302739  
    1093A      1.303512  1094A      1.305734  1095A      1.306441  
    1096A      1.307544  1097A      1.308316  1098A      1.311091  
    1099A      1.312178  1100A      1.313813  1101A      1.315374  
    1102A      1.318278  1103A      1.319922  1104A      1.320459  
    1105A      1.321973  1106A      1.322332  1107A      1.325232  
    1108A      1.328477  1109A      1.330435  1110A      1.330930  
    1111A      1.332553  1112A      1.333127  1113A      1.334242  
    1114A      1.336590  1115A      1.339889  1116A      1.340043  
    1117A      1.341534  1118A      1.341733  1119A      1.344140  
    1120A      1.347623  1121A      1.348234  1122A      1.350362  
    1123A      1.351908  1124A      1.352779  1125A      1.353877  
    1126A      1.354871  1127A      1.357074  1128A      1.358394  
    1129A      1.361503  1130A      1.362524  1131A      1.365791  
    1132A      1.366336  1133A      1.369182  1134A      1.370513  
    1135A      1.371775  1136A      1.372400  1137A      1.373660  
    1138A      1.375019  1139A      1.376862  1140A      1.379686  
    1141A      1.380489  1142A      1.381171  1143A      1.384197  
    1144A      1.385145  1145A      1.385864  1146A      1.386774  
    1147A      1.387269  1148A      1.391261  1149A      1.393547  
    1150A      1.395165  1151A      1.395584  1152A      1.396647  
    1153A      1.399252  1154A      1.400609  1155A      1.401713  
    1156A      1.402246  1157A      1.405484  1158A      1.407676  
    1159A      1.407801  1160A      1.408123  1161A      1.413608  
    1162A      1.415454  1163A      1.416615  1164A      1.418362  
    1165A      1.419020  1166A      1.421152  1167A      1.422543  
    1168A      1.422959  1169A      1.424726  1170A      1.425684  
    1171A      1.427117  1172A      1.427632  1173A      1.429896  
    1174A      1.433810  1175A      1.434299  1176A      1.437439  
    1177A      1.437977  1178A      1.438693  1179A      1.439014  
    1180A      1.442181  1181A      1.444372  1182A      1.446903  
    1183A      1.447303  1184A      1.448846  1185A      1.449446  
    1186A      1.451483  1187A      1.452170  1188A      1.453405  
    1189A      1.456352  1190A      1.458591  1191A      1.459353  
    1192A      1.461066  1193A      1.462787  1194A      1.464032  
    1195A      1.466782  1196A      1.469032  1197A      1.470546  
    1198A      1.471007  1199A      1.471671  1200A      1.475825  
    1201A      1.478582  1202A      1.479409  1203A      1.479780  
    1204A      1.480089  1205A      1.482309  1206A      1.483765  
    1207A      1.484966  1208A      1.485118  1209A      1.485765  
    1210A      1.487345  1211A      1.488277  1212A      1.490901  
    1213A      1.491559  1214A      1.495670  1215A      1.498648  
    1216A      1.499016  1217A      1.500380  1218A      1.500612  
    1219A      1.503537  1220A      1.504246  1221A      1.505046  
    1222A      1.510281  1223A      1.510609  1224A      1.511781  
    1225A      1.513519  1226A      1.514389  1227A      1.516328  
    1228A      1.517968  1229A      1.518622  1230A      1.521033  
    1231A      1.521480  1232A      1.522742  1233A      1.525978  
    1234A      1.526981  1235A      1.528282  1236A      1.530059  
    1237A      1.531745  1238A      1.532753  1239A      1.535737  
    1240A      1.536163  1241A      1.539391  1242A      1.541215  
    1243A      1.542048  1244A      1.543968  1245A      1.545972  
    1246A      1.546288  1247A      1.546951  1248A      1.551017  
    1249A      1.552067  1250A      1.553198  1251A      1.554957  
    1252A      1.555444  1253A      1.557975  1254A      1.558403  
    1255A      1.561774  1256A      1.561999  1257A      1.563870  
    1258A      1.566165  1259A      1.567063  1260A      1.568797  
    1261A      1.571758  1262A      1.572628  1263A      1.574786  
    1264A      1.577012  1265A      1.578405  1266A      1.579800  
    1267A      1.581705  1268A      1.582427  1269A      1.582623  
    1270A      1.583595  1271A      1.586456  1272A      1.587149  
    1273A      1.587615  1274A      1.592046  1275A      1.593083  
    1276A      1.594698  1277A      1.595391  1278A      1.598353  
    1279A      1.598741  1280A      1.600925  1281A      1.603356  
    1282A      1.605258  1283A      1.607207  1284A      1.608389  
    1285A      1.609146  1286A      1.610600  1287A      1.614907  
    1288A      1.615703  1289A      1.616051  1290A      1.617009  
    1291A      1.618312  1292A      1.620327  1293A      1.621009  
    1294A      1.622865  1295A      1.624684  1296A      1.625848  
    1297A      1.626926  1298A      1.631546  1299A      1.633017  
    1300A      1.633489  1301A      1.634882  1302A      1.638874  
    1303A      1.640464  1304A      1.641064  1305A      1.641498  
    1306A      1.643002  1307A      1.644182  1308A      1.646355  
    1309A      1.647383  1310A      1.650116  1311A      1.651074  
    1312A      1.651885  1313A      1.653936  1314A      1.656156  
    1315A      1.657883  1316A      1.658600  1317A      1.659258  
    1318A      1.661830  1319A      1.665459  1320A      1.666173  
    1321A      1.667976  1322A      1.668600  1323A      1.671058  
    1324A      1.671866  1325A      1.672813  1326A      1.674606  
    1327A      1.675321  1328A      1.677813  1329A      1.681568  
    1330A      1.682540  1331A      1.683989  1332A      1.684939  
    1333A      1.686088  1334A      1.686714  1335A      1.687275  
    1336A      1.688339  1337A      1.691710  1338A      1.692218  
    1339A      1.693217  1340A      1.695668  1341A      1.696377  
    1342A      1.700039  1343A      1.700858  1344A      1.703348  
    1345A      1.704916  1346A      1.705356  1347A      1.706628  
    1348A      1.710996  1349A      1.711425  1350A      1.713410  
    1351A      1.714114  1352A      1.715317  1353A      1.716866  
    1354A      1.717050  1355A      1.720382  1356A      1.722734  
    1357A      1.723521  1358A      1.724562  1359A      1.726520  
    1360A      1.726972  1361A      1.729461  1362A      1.730524  
    1363A      1.732708  1364A      1.733339  1365A      1.736052  
    1366A      1.736233  1367A      1.737242  1368A      1.740010  
    1369A      1.742853  1370A      1.743924  1371A      1.744263  
    1372A      1.746807  1373A      1.747361  1374A      1.748444  
    1375A      1.749840  1376A      1.750747  1377A      1.753265  
    1378A      1.753416  1379A      1.757392  1380A      1.758674  
    1381A      1.759600  1382A      1.761336  1383A      1.761716  
    1384A      1.763191  1385A      1.764457  1386A      1.767710  
    1387A      1.768177  1388A      1.769294  1389A      1.771528  
    1390A      1.773786  1391A      1.775584  1392A      1.776695  
    1393A      1.779371  1394A      1.779885  1395A      1.781169  
    1396A      1.782331  1397A      1.784724  1398A      1.785000  
    1399A      1.785209  1400A      1.786408  1401A      1.788449  
    1402A      1.790118  1403A      1.791308  1404A      1.792062  
    1405A      1.792933  1406A      1.795384  1407A      1.795690  
    1408A      1.797396  1409A      1.800886  1410A      1.804856  
    1411A      1.806821  1412A      1.808495  1413A      1.809395  
    1414A      1.810616  1415A      1.811094  1416A      1.813181  
    1417A      1.815570  1418A      1.816951  1419A      1.818479  
    1420A      1.819645  1421A      1.821600  1422A      1.822581  
    1423A      1.822993  1424A      1.824397  1425A      1.827074  
    1426A      1.828233  1427A      1.828810  1428A      1.829812  
    1429A      1.831776  1430A      1.834770  1431A      1.835285  
    1432A      1.836069  1433A      1.836481  1434A      1.839005  
    1435A      1.841692  1436A      1.842510  1437A      1.844309  
    1438A      1.850387  1439A      1.852193  1440A      1.854361  
    1441A      1.855069  1442A      1.855732  1443A      1.857100  
    1444A      1.857647  1445A      1.859211  1446A      1.860641  
    1447A      1.861753  1448A      1.863110  1449A      1.864186  
    1450A      1.866988  1451A      1.869142  1452A      1.871517  
    1453A      1.873528  1454A      1.874341  1455A      1.876494  
    1456A      1.878520  1457A      1.878967  1458A      1.880450  
    1459A      1.883084  1460A      1.883986  1461A      1.885495  
    1462A      1.886724  1463A      1.889012  1464A      1.890396  
    1465A      1.892888  1466A      1.893476  1467A      1.895698  
    1468A      1.896363  1469A      1.898752  1470A      1.902233  
    1471A      1.902573  1472A      1.903161  1473A      1.904491  
    1474A      1.905968  1475A      1.908388  1476A      1.909532  
    1477A      1.910100  1478A      1.912263  1479A      1.913517  
    1480A      1.915364  1481A      1.916230  1482A      1.917229  
    1483A      1.921201  1484A      1.921901  1485A      1.924509  
    1486A      1.924928  1487A      1.927453  1488A      1.927818  
    1489A      1.929895  1490A      1.931893  1491A      1.935079  
    1492A      1.935398  1493A      1.936382  1494A      1.937847  
    1495A      1.938698  1496A      1.939629  1497A      1.942223  
    1498A      1.943086  1499A      1.944573  1500A      1.945100  
    1501A      1.951189  1502A      1.952111  1503A      1.955646  
    1504A      1.956866  1505A      1.958636  1506A      1.960165  
    1507A      1.961835  1508A      1.963938  1509A      1.964777  
    1510A      1.965047  1511A      1.965702  1512A      1.969627  
    1513A      1.970589  1514A      1.971927  1515A      1.972535  
    1516A      1.975800  1517A      1.976546  1518A      1.977903  
    1519A      1.980582  1520A      1.980828  1521A      1.980945  
    1522A      1.982714  1523A      1.984671  1524A      1.988302  
    1525A      1.989511  1526A      1.992522  1527A      1.993366  
    1528A      1.994257  1529A      1.994471  1530A      1.995858  
    1531A      1.999775  1532A      2.001721  1533A      2.002089  
    1534A      2.002577  1535A      2.004450  1536A      2.005319  
    1537A      2.006489  1538A      2.011962  1539A      2.013799  
    1540A      2.014540  1541A      2.016200  1542A      2.017192  
    1543A      2.017684  1544A      2.020659  1545A      2.021956  
    1546A      2.023730  1547A      2.026787  1548A      2.027612  
    1549A      2.028681  1550A      2.032332  1551A      2.033369  
    1552A      2.034954  1553A      2.035958  1554A      2.038686  
    1555A      2.039825  1556A      2.041166  1557A      2.043031  
    1558A      2.045065  1559A      2.045676  1560A      2.046291  
    1561A      2.050459  1562A      2.051512  1563A      2.051724  
    1564A      2.053984  1565A      2.056646  1566A      2.056995  
    1567A      2.057941  1568A      2.059609  1569A      2.064055  
    1570A      2.065492  1571A      2.066557  1572A      2.067217  
    1573A      2.068435  1574A      2.070349  1575A      2.070565  
    1576A      2.072277  1577A      2.073403  1578A      2.077478  
    1579A      2.077968  1580A      2.078812  1581A      2.080222  
    1582A      2.082565  1583A      2.083293  1584A      2.088198  
    1585A      2.088639  1586A      2.089206  1587A      2.091163  
    1588A      2.092143  1589A      2.093267  1590A      2.095056  
    1591A      2.095550  1592A      2.097313  1593A      2.099881  
    1594A      2.101283  1595A      2.101601  1596A      2.105019  
    1597A      2.105930  1598A      2.106418  1599A      2.107686  
    1600A      2.109616  1601A      2.109788  1602A      2.112081  
    1603A      2.113652  1604A      2.116840  1605A      2.119008  
    1606A      2.119359  1607A      2.121136  1608A      2.122303  
    1609A      2.124176  1610A      2.127318  1611A      2.128924  
    1612A      2.129295  1613A      2.130391  1614A      2.130498  
    1615A      2.133660  1616A      2.136373  1617A      2.137739  
    1618A      2.137916  1619A      2.138999  1620A      2.141633  
    1621A      2.142761  1622A      2.144069  1623A      2.144310  
    1624A      2.146554  1625A      2.146841  1626A      2.150763  
    1627A      2.151639  1628A      2.155455  1629A      2.158859  
    1630A      2.161405  1631A      2.162366  1632A      2.167394  
    1633A      2.169211  1634A      2.169330  1635A      2.170746  
    1636A      2.171370  1637A      2.172680  1638A      2.174718  
    1639A      2.177819  1640A      2.178032  1641A      2.179947  
    1642A      2.180686  1643A      2.183227  1644A      2.184950  
    1645A      2.185404  1646A      2.190108  1647A      2.191752  
    1648A      2.192270  1649A      2.194667  1650A      2.196394  
    1651A      2.197493  1652A      2.198069  1653A      2.200030  
    1654A      2.200493  1655A      2.203818  1656A      2.204153  
    1657A      2.207005  1658A      2.207322  1659A      2.209240  
    1660A      2.209891  1661A      2.212222  1662A      2.215086  
    1663A      2.218579  1664A      2.220782  1665A      2.221807  
    1666A      2.222903  1667A      2.224101  1668A      2.225963  
    1669A      2.228699  1670A      2.230001  1671A      2.230767  
    1672A      2.233614  1673A      2.235001  1674A      2.236938  
    1675A      2.240043  1676A      2.240646  1677A      2.241058  
    1678A      2.245665  1679A      2.246096  1680A      2.248222  
    1681A      2.251166  1682A      2.252546  1683A      2.253572  
    1684A      2.254015  1685A      2.256839  1686A      2.258053  
    1687A      2.259401  1688A      2.260585  1689A      2.261465  
    1690A      2.265211  1691A      2.265682  1692A      2.268969  
    1693A      2.269055  1694A      2.269192  1695A      2.272346  
    1696A      2.274606  1697A      2.278233  1698A      2.280789  
    1699A      2.282198  1700A      2.283653  1701A      2.283922  
    1702A      2.284084  1703A      2.289531  1704A      2.289616  
    1705A      2.291448  1706A      2.292432  1707A      2.296895  
    1708A      2.299813  1709A      2.300356  1710A      2.302177  
    1711A      2.304183  1712A      2.306782  1713A      2.308730  
    1714A      2.308977  1715A      2.309262  1716A      2.313067  
    1717A      2.313632  1718A      2.319126  1719A      2.319740  
    1720A      2.323278  1721A      2.326627  1722A      2.327452  
    1723A      2.329206  1724A      2.331296  1725A      2.333441  
    1726A      2.333543  1727A      2.336242  1728A      2.339308  
    1729A      2.340187  1730A      2.341084  1731A      2.342163  
    1732A      2.342565  1733A      2.345712  1734A      2.348306  
    1735A      2.349170  1736A      2.351100  1737A      2.351431  
    1738A      2.354890  1739A      2.356480  1740A      2.358427  
    1741A      2.358496  1742A      2.359418  1743A      2.361067  
    1744A      2.364883  1745A      2.368250  1746A      2.368815  
    1747A      2.370931  1748A      2.371536  1749A      2.374799  
    1750A      2.375906  1751A      2.379734  1752A      2.380577  
    1753A      2.382078  1754A      2.383493  1755A      2.386377  
    1756A      2.389252  1757A      2.390904  1758A      2.393707  
    1759A      2.394279  1760A      2.394828  1761A      2.396343  
    1762A      2.401603  1763A      2.404097  1764A      2.405585  
    1765A      2.406087  1766A      2.410040  1767A      2.410500  
    1768A      2.410904  1769A      2.411795  1770A      2.413374  
    1771A      2.416271  1772A      2.416758  1773A      2.421201  
    1774A      2.424520  1775A      2.424979  1776A      2.426413  
    1777A      2.426675  1778A      2.430406  1779A      2.433333  
    1780A      2.433721  1781A      2.435827  1782A      2.436394  
    1783A      2.439507  1784A      2.439911  1785A      2.443916  
    1786A      2.446197  1787A      2.446945  1788A      2.448939  
    1789A      2.452975  1790A      2.453496  1791A      2.456292  
    1792A      2.457158  1793A      2.458995  1794A      2.462357  
    1795A      2.466779  1796A      2.467923  1797A      2.470100  
    1798A      2.472337  1799A      2.473330  1800A      2.474114  
    1801A      2.477513  1802A      2.479594  1803A      2.481933  
    1804A      2.483967  1805A      2.485295  1806A      2.486760  
    1807A      2.488803  1808A      2.489872  1809A      2.493035  
    1810A      2.494134  1811A      2.495408  1812A      2.499202  
    1813A      2.503836  1814A      2.505356  1815A      2.506497  
    1816A      2.507796  1817A      2.510128  1818A      2.510713  
    1819A      2.513810  1820A      2.516045  1821A      2.520577  
    1822A      2.522892  1823A      2.524143  1824A      2.526123  
    1825A      2.526805  1826A      2.529746  1827A      2.530021  
    1828A      2.533831  1829A      2.535750  1830A      2.536894  
    1831A      2.539848  1832A      2.540771  1833A      2.543048  
    1834A      2.544390  1835A      2.549918  1836A      2.550254  
    1837A      2.551518  1838A      2.551857  1839A      2.553673  
    1840A      2.557407  1841A      2.560159  1842A      2.561600  
    1843A      2.566338  1844A      2.568695  1845A      2.569495  
    1846A      2.573669  1847A      2.574208  1848A      2.578669  
    1849A      2.579925  1850A      2.581798  1851A      2.583335  
    1852A      2.583984  1853A      2.584657  1854A      2.588507  
    1855A      2.589076  1856A      2.590282  1857A      2.591446  
    1858A      2.592962  1859A      2.593988  1860A      2.595101  
    1861A      2.598785  1862A      2.601969  1863A      2.607802  
    1864A      2.609297  1865A      2.611356  1866A      2.614872  
    1867A      2.617258  1868A      2.618414  1869A      2.621304  
    1870A      2.622962  1871A      2.625352  1872A      2.626807  
    1873A      2.626933  1874A      2.631685  1875A      2.633252  
    1876A      2.634386  1877A      2.635846  1878A      2.638730  
    1879A      2.641407  1880A      2.645244  1881A      2.646640  
    1882A      2.647211  1883A      2.649124  1884A      2.652775  
    1885A      2.656503  1886A      2.657497  1887A      2.658727  
    1888A      2.663139  1889A      2.663650  1890A      2.664165  
    1891A      2.666474  1892A      2.668364  1893A      2.673633  
    1894A      2.677672  1895A      2.678562  1896A      2.681835  
    1897A      2.682503  1898A      2.684720  1899A      2.685528  
    1900A      2.688616  1901A      2.691494  1902A      2.692264  
    1903A      2.696218  1904A      2.697126  1905A      2.698316  
    1906A      2.700797  1907A      2.703384  1908A      2.706731  
    1909A      2.710417  1910A      2.712448  1911A      2.712927  
    1912A      2.713308  1913A      2.715974  1914A      2.718905  
    1915A      2.719794  1916A      2.723000  1917A      2.726611  
    1918A      2.730869  1919A      2.732912  1920A      2.734270  
    1921A      2.735989  1922A      2.737050  1923A      2.737962  
    1924A      2.739538  1925A      2.740076  1926A      2.745544  
    1927A      2.747560  1928A      2.751728  1929A      2.752757  
    1930A      2.755500  1931A      2.759757  1932A      2.760045  
    1933A      2.766097  1934A      2.767089  1935A      2.770381  
    1936A      2.771360  1937A      2.772839  1938A      2.774910  
    1939A      2.779885  1940A      2.781002  1941A      2.782871  
    1942A      2.783205  1943A      2.788683  1944A      2.789337  
    1945A      2.790726  1946A      2.796791  1947A      2.797436  
    1948A      2.798747  1949A      2.799369  1950A      2.803000  
    1951A      2.805599  1952A      2.807106  1953A      2.809199  
    1954A      2.810899  1955A      2.812683  1956A      2.815524  
    1957A      2.817671  1958A      2.819129  1959A      2.820773  
    1960A      2.822205  1961A      2.825868  1962A      2.827893  
    1963A      2.835231  1964A      2.836020  1965A      2.837568  
    1966A      2.840783  1967A      2.842253  1968A      2.843485  
    1969A      2.845817  1970A      2.848050  1971A      2.852848  
    1972A      2.855825  1973A      2.856411  1974A      2.860036  
    1975A      2.861236  1976A      2.863911  1977A      2.870782  
    1978A      2.871253  1979A      2.872958  1980A      2.874486  
    1981A      2.877701  1982A      2.879455  1983A      2.882309  
    1984A      2.885723  1985A      2.886559  1986A      2.891593  
    1987A      2.892959  1988A      2.894671  1989A      2.897529  
    1990A      2.898440  1991A      2.901025  1992A      2.904466  
    1993A      2.905874  1994A      2.910589  1995A      2.913656  
    1996A      2.919206  1997A      2.921783  1998A      2.923947  
    1999A      2.929010  2000A      2.932826  2001A      2.938557  
    2002A      2.939269  2003A      2.941674  2004A      2.942106  
    2005A      2.942248  2006A      2.947280  2007A      2.949544  
    2008A      2.953839  2009A      2.957759  2010A      2.959516  
    2011A      2.960704  2012A      2.964121  2013A      2.965553  
    2014A      2.965917  2015A      2.970876  2016A      2.973794  
    2017A      2.979552  2018A      2.980343  2019A      2.981283  
    2020A      2.985113  2021A      2.990493  2022A      2.994690  
    2023A      2.994858  2024A      2.998576  2025A      3.001719  
    2026A      3.005033  2027A      3.009615  2028A      3.011246  
    2029A      3.016614  2030A      3.017356  2031A      3.020741  
    2032A      3.030845  2033A      3.033801  2034A      3.036273  
    2035A      3.038249  2036A      3.041382  2037A      3.043942  
    2038A      3.047026  2039A      3.049252  2040A      3.050971  
    2041A      3.056317  2042A      3.060765  2043A      3.065923  
    2044A      3.069889  2045A      3.072610  2046A      3.073514  
    2047A      3.079471  2048A      3.081583  2049A      3.082531  
    2050A      3.088895  2051A      3.097504  2052A      3.105663  
    2053A      3.108230  2054A      3.111051  2055A      3.112271  
    2056A      3.113593  2057A      3.121071  2058A      3.123118  
    2059A      3.132513  2060A      3.132800  2061A      3.133784  
    2062A      3.138477  2063A      3.143936  2064A      3.145973  
    2065A      3.147391  2066A      3.150357  2067A      3.156748  
    2068A      3.161577  2069A      3.172369  2070A      3.174479  
    2071A      3.176739  2072A      3.183620  2073A      3.188390  
    2074A      3.201269  2075A      3.203168  2076A      3.207070  
    2077A      3.209093  2078A      3.211653  2079A      3.215108  
    2080A      3.224888  2081A      3.229490  2082A      3.231961  
    2083A      3.232825  2084A      3.240708  2085A      3.241448  
    2086A      3.242272  2087A      3.252419  2088A      3.256850  
    2089A      3.262206  2090A      3.278806  2091A      3.279263  
    2092A      3.284364  2093A      3.285726  2094A      3.301321  
    2095A      3.301924  2096A      3.302365  2097A      3.308978  
    2098A      3.316868  2099A      3.320228  2100A      3.328591  
    2101A      3.333071  2102A      3.336269  2103A      3.338689  
    2104A      3.341628  2105A      3.351142  2106A      3.358065  
    2107A      3.363170  2108A      3.364618  2109A      3.375122  
    2110A      3.375456  2111A      3.386857  2112A      3.387873  
    2113A      3.393675  2114A      3.395340  2115A      3.395938  
    2116A      3.404470  2117A      3.405618  2118A      3.418025  
    2119A      3.423695  2120A      3.425048  2121A      3.433859  
    2122A      3.439257  2123A      3.443444  2124A      3.446413  
    2125A      3.448499  2126A      3.449293  2127A      3.456119  
    2128A      3.459849  2129A      3.462666  2130A      3.467787  
    2131A      3.469099  2132A      3.478134  2133A      3.479189  
    2134A      3.485345  2135A      3.486295  2136A      3.491483  
    2137A      3.494970  2138A      3.501410  2139A      3.509060  
    2140A      3.509739  2141A      3.511614  2142A      3.516310  
    2143A      3.522747  2144A      3.524113  2145A      3.528932  
    2146A      3.532617  2147A      3.536696  2148A      3.545090  
    2149A      3.548977  2150A      3.551588  2151A      3.555010  
    2152A      3.559437  2153A      3.561817  2154A      3.563109  
    2155A      3.564078  2156A      3.566150  2157A      3.570216  
    2158A      3.575379  2159A      3.583056  2160A      3.585965  
    2161A      3.587565  2162A      3.587928  2163A      3.590537  
    2164A      3.595605  2165A      3.595748  2166A      3.599752  
    2167A      3.603719  2168A      3.608978  2169A      3.609411  
    2170A      3.615343  2171A      3.619931  2172A      3.622699  
    2173A      3.625488  2174A      3.629439  2175A      3.629822  
    2176A      3.634724  2177A      3.635585  2178A      3.638086  
    2179A      3.640299  2180A      3.641587  2181A      3.645791  
    2182A      3.648672  2183A      3.653880  2184A      3.654972  
    2185A      3.659784  2186A      3.660095  2187A      3.661463  
    2188A      3.663884  2189A      3.668798  2190A      3.669757  
    2191A      3.672536  2192A      3.673067  2193A      3.676061  
    2194A      3.679943  2195A      3.682847  2196A      3.683483  
    2197A      3.687906  2198A      3.691658  2199A      3.692337  
    2200A      3.695083  2201A      3.700035  2202A      3.701842  
    2203A      3.703039  2204A      3.706288  2205A      3.706984  
    2206A      3.711895  2207A      3.713839  2208A      3.716881  
    2209A      3.720257  2210A      3.721394  2211A      3.728116  
    2212A      3.729271  2213A      3.729681  2214A      3.733395  
    2215A      3.735721  2216A      3.741303  2217A      3.742499  
    2218A      3.743055  2219A      3.744135  2220A      3.751046  
    2221A      3.751700  2222A      3.752656  2223A      3.756876  
    2224A      3.758060  2225A      3.761463  2226A      3.762179  
    2227A      3.764715  2228A      3.766561  2229A      3.769217  
    2230A      3.771115  2231A      3.775818  2232A      3.778181  
    2233A      3.779149  2234A      3.781805  2235A      3.782012  
    2236A      3.786068  2237A      3.786936  2238A      3.791633  
    2239A      3.792184  2240A      3.793995  2241A      3.801944  
    2242A      3.803799  2243A      3.806001  2244A      3.807781  
    2245A      3.813692  2246A      3.815560  2247A      3.816316  
    2248A      3.818913  2249A      3.822122  2250A      3.824499  
    2251A      3.826306  2252A      3.827789  2253A      3.829050  
    2254A      3.829885  2255A      3.836833  2256A      3.837135  
    2257A      3.839151  2258A      3.844202  2259A      3.844882  
    2260A      3.846110  2261A      3.848714  2262A      3.852865  
    2263A      3.853183  2264A      3.856371  2265A      3.857200  
    2266A      3.857664  2267A      3.862386  2268A      3.865033  
    2269A      3.866160  2270A      3.871398  2271A      3.872405  
    2272A      3.872733  2273A      3.873251  2274A      3.879346  
    2275A      3.880075  2276A      3.880944  2277A      3.882100  
    2278A      3.885675  2279A      3.887901  2280A      3.890042  
    2281A      3.893343  2282A      3.896028  2283A      3.899879  
    2284A      3.903914  2285A      3.904632  2286A      3.905087  
    2287A      3.906004  2288A      3.908073  2289A      3.908744  
    2290A      3.911990  2291A      3.914059  2292A      3.916775  
    2293A      3.921245  2294A      3.922968  2295A      3.925846  
    2296A      3.926855  2297A      3.928429  2298A      3.929637  
    2299A      3.934458  2300A      3.936838  2301A      3.937697  
    2302A      3.938031  2303A      3.941914  2304A      3.943805  
    2305A      3.945240  2306A      3.949192  2307A      3.950126  
    2308A      3.951064  2309A      3.952515  2310A      3.953832  
    2311A      3.961393  2312A      3.962467  2313A      3.967246  
    2314A      3.969475  2315A      3.972803  2316A      3.975014  
    2317A      3.976097  2318A      3.978321  2319A      3.979931  
    2320A      3.980200  2321A      3.982969  2322A      3.985093  
    2323A      3.988447  2324A      3.990301  2325A      3.992985  
    2326A      3.994380  2327A      3.994836  2328A      3.998430  
    2329A      4.000800  2330A      4.001881  2331A      4.005621  
    2332A      4.007487  2333A      4.009698  2334A      4.010175  
    2335A      4.011236  2336A      4.014986  2337A      4.017532  
    2338A      4.018868  2339A      4.021069  2340A      4.024492  
    2341A      4.026033  2342A      4.026969  2343A      4.032165  
    2344A      4.032939  2345A      4.038166  2346A      4.040631  
    2347A      4.043879  2348A      4.044550  2349A      4.045328  
    2350A      4.049519  2351A      4.049891  2352A      4.051362  
    2353A      4.054844  2354A      4.055390  2355A      4.060503  
    2356A      4.061467  2357A      4.062348  2358A      4.065734  
    2359A      4.067772  2360A      4.068668  2361A      4.071879  
    2362A      4.075241  2363A      4.076303  2364A      4.079316  
    2365A      4.081693  2366A      4.082880  2367A      4.084467  
    2368A      4.088818  2369A      4.090081  2370A      4.090324  
    2371A      4.091917  2372A      4.095659  2373A      4.097424  
    2374A      4.101741  2375A      4.102222  2376A      4.105727  
    2377A      4.106196  2378A      4.106288  2379A      4.106784  
    2380A      4.108565  2381A      4.114713  2382A      4.115215  
    2383A      4.118598  2384A      4.119844  2385A      4.122818  
    2386A      4.123245  2387A      4.124738  2388A      4.125249  
    2389A      4.128096  2390A      4.128884  2391A      4.130210  
    2392A      4.131021  2393A      4.137583  2394A      4.138554  
    2395A      4.141440  2396A      4.143754  2397A      4.144898  
    2398A      4.145450  2399A      4.146210  2400A      4.148405  
    2401A      4.149673  2402A      4.154151  2403A      4.156028  
    2404A      4.157451  2405A      4.159688  2406A      4.161858  
    2407A      4.165211  2408A      4.167038  2409A      4.171681  
    2410A      4.172464  2411A      4.173236  2412A      4.177029  
    2413A      4.178561  2414A      4.180921  2415A      4.183107  
    2416A      4.185401  2417A      4.190437  2418A      4.193611  
    2419A      4.195454  2420A      4.197599  2421A      4.199179  
    2422A      4.200733  2423A      4.202937  2424A      4.206525  
    2425A      4.207265  2426A      4.208998  2427A      4.212962  
    2428A      4.215759  2429A      4.217877  2430A      4.220435  
    2431A      4.223521  2432A      4.224683  2433A      4.228139  
    2434A      4.228906  2435A      4.231022  2436A      4.231352  
    2437A      4.232572  2438A      4.234789  2439A      4.236684  
    2440A      4.240566  2441A      4.241126  2442A      4.243534  
    2443A      4.247937  2444A      4.249914  2445A      4.252445  
    2446A      4.255039  2447A      4.258666  2448A      4.259263  
    2449A      4.260053  2450A      4.262560  2451A      4.267837  
    2452A      4.268177  2453A      4.272266  2454A      4.273210  
    2455A      4.277305  2456A      4.277604  2457A      4.281263  
    2458A      4.281790  2459A      4.285240  2460A      4.288869  
    2461A      4.289403  2462A      4.290514  2463A      4.293042  
    2464A      4.295422  2465A      4.296503  2466A      4.299844  
    2467A      4.301127  2468A      4.304749  2469A      4.307082  
    2470A      4.307743  2471A      4.309509  2472A      4.312455  
    2473A      4.314515  2474A      4.315727  2475A      4.319528  
    2476A      4.321708  2477A      4.322605  2478A      4.324657  
    2479A      4.326538  2480A      4.327962  2481A      4.330290  
    2482A      4.335382  2483A      4.336691  2484A      4.338043  
    2485A      4.341267  2486A      4.341883  2487A      4.344561  
    2488A      4.346544  2489A      4.346952  2490A      4.349543  
    2491A      4.350310  2492A      4.354232  2493A      4.354655  
    2494A      4.359955  2495A      4.360243  2496A      4.364031  
    2497A      4.366043  2498A      4.367694  2499A      4.370899  
    2500A      4.373551  2501A      4.374639  2502A      4.375382  
    2503A      4.375625  2504A      4.377041  2505A      4.383463  
    2506A      4.386387  2507A      4.387251  2508A      4.387668  
    2509A      4.391084  2510A      4.392393  2511A      4.392734  
    2512A      4.394334  2513A      4.397600  2514A      4.403189  
    2515A      4.403555  2516A      4.405353  2517A      4.407595  
    2518A      4.408625  2519A      4.412531  2520A      4.414006  
    2521A      4.418234  2522A      4.418810  2523A      4.419800  
    2524A      4.423085  2525A      4.424735  2526A      4.425417  
    2527A      4.428803  2528A      4.431715  2529A      4.432179  
    2530A      4.432823  2531A      4.436774  2532A      4.439471  
    2533A      4.440811  2534A      4.441639  2535A      4.444419  
    2536A      4.445175  2537A      4.448887  2538A      4.452979  
    2539A      4.453398  2540A      4.457540  2541A      4.458977  
    2542A      4.461073  2543A      4.462623  2544A      4.464194  
    2545A      4.466764  2546A      4.469363  2547A      4.471144  
    2548A      4.472288  2549A      4.473116  2550A      4.474942  
    2551A      4.476989  2552A      4.479214  2553A      4.482565  
    2554A      4.483714  2555A      4.487531  2556A      4.488142  
    2557A      4.489168  2558A      4.492057  2559A      4.495424  
    2560A      4.495767  2561A      4.499321  2562A      4.500505  
    2563A      4.502659  2564A      4.507715  2565A      4.508676  
    2566A      4.509352  2567A      4.512983  2568A      4.513756  
    2569A      4.515019  2570A      4.519019  2571A      4.519626  
    2572A      4.523884  2573A      4.524586  2574A      4.526446  
    2575A      4.528755  2576A      4.529969  2577A      4.531467  
    2578A      4.533126  2579A      4.537295  2580A      4.538014  
    2581A      4.538471  2582A      4.544757  2583A      4.545465  
    2584A      4.548217  2585A      4.549094  2586A      4.552711  
    2587A      4.554756  2588A      4.555642  2589A      4.561082  
    2590A      4.561510  2591A      4.563863  2592A      4.565435  
    2593A      4.567079  2594A      4.569276  2595A      4.571659  
    2596A      4.572682  2597A      4.573697  2598A      4.576112  
    2599A      4.577496  2600A      4.580554  2601A      4.581411  
    2602A      4.583477  2603A      4.587175  2604A      4.591301  
    2605A      4.594892  2606A      4.595094  2607A      4.596121  
    2608A      4.599290  2609A      4.599863  2610A      4.600620  
    2611A      4.605480  2612A      4.609888  2613A      4.610682  
    2614A      4.612506  2615A      4.613353  2616A      4.614158  
    2617A      4.615334  2618A      4.618477  2619A      4.620902  
    2620A      4.622614  2621A      4.623232  2622A      4.624366  
    2623A      4.626123  2624A      4.630460  2625A      4.631993  
    2626A      4.634431  2627A      4.635250  2628A      4.639755  
    2629A      4.643159  2630A      4.644009  2631A      4.646566  
    2632A      4.646927  2633A      4.652057  2634A      4.654446  
    2635A      4.655564  2636A      4.657428  2637A      4.658098  
    2638A      4.658585  2639A      4.665510  2640A      4.669264  
    2641A      4.670884  2642A      4.671106  2643A      4.672361  
    2644A      4.672873  2645A      4.675331  2646A      4.676798  
    2647A      4.683428  2648A      4.683874  2649A      4.686104  
    2650A      4.692837  2651A      4.693988  2652A      4.695389  
    2653A      4.698575  2654A      4.701520  2655A      4.705566  
    2656A      4.705693  2657A      4.706602  2658A      4.709849  
    2659A      4.710520  2660A      4.711592  2661A      4.713655  
    2662A      4.716572  2663A      4.717264  2664A      4.723476  
    2665A      4.724754  2666A      4.729150  2667A      4.729454  
    2668A      4.733088  2669A      4.736166  2670A      4.737177  
    2671A      4.738523  2672A      4.740385  2673A      4.741438  
    2674A      4.744241  2675A      4.745456  2676A      4.748569  
    2677A      4.751812  2678A      4.754146  2679A      4.755930  
    2680A      4.756501  2681A      4.758038  2682A      4.758447  
    2683A      4.766138  2684A      4.769477  2685A      4.772447  
    2686A      4.776271  2687A      4.777891  2688A      4.779598  
    2689A      4.782077  2690A      4.783191  2691A      4.784306  
    2692A      4.787858  2693A      4.789139  2694A      4.792025  
    2695A      4.793561  2696A      4.799594  2697A      4.801360  
    2698A      4.805596  2699A      4.806140  2700A      4.807784  
    2701A      4.810877  2702A      4.814245  2703A      4.817635  
    2704A      4.821829  2705A      4.823082  2706A      4.824727  
    2707A      4.826675  2708A      4.827760  2709A      4.834715  
    2710A      4.838651  2711A      4.839908  2712A      4.842841  
    2713A      4.848390  2714A      4.850546  2715A      4.854645  
    2716A      4.857922  2717A      4.859370  2718A      4.862574  
    2719A      4.863260  2720A      4.866397  2721A      4.869705  
    2722A      4.872125  2723A      4.874024  2724A      4.874471  
    2725A      4.877975  2726A      4.881374  2727A      4.887194  
    2728A      4.891918  2729A      4.892178  2730A      4.893829  
    2731A      4.896090  2732A      4.897938  2733A      4.903140  
    2734A      4.904327  2735A      4.907741  2736A      4.908062  
    2737A      4.911509  2738A      4.912883  2739A      4.919322  
    2740A      4.921595  2741A      4.924546  2742A      4.928215  
    2743A      4.928807  2744A      4.936148  2745A      4.939790  
    2746A      4.941392  2747A      4.944415  2748A      4.945074  
    2749A      4.947654  2750A      4.949839  2751A      4.951937  
    2752A      4.957410  2753A      4.959242  2754A      4.960234  
    2755A      4.965759  2756A      4.966888  2757A      4.971371  
    2758A      4.972291  2759A      4.972802  2760A      4.973733  
    2761A      4.976407  2762A      4.978191  2763A      4.985026  
    2764A      4.986576  2765A      4.989588  2766A      4.989939  
    2767A      4.991996  2768A      4.992828  2769A      4.994730  
    2770A      4.998760  2771A      5.001353  2772A      5.005772  
    2773A      5.006641  2774A      5.009475  2775A      5.009808  
    2776A      5.011931  2777A      5.015788  2778A      5.016616  
    2779A      5.019666  2780A      5.023196  2781A      5.024529  
    2782A      5.025644  2783A      5.026410  2784A      5.030747  
    2785A      5.032382  2786A      5.035286  2787A      5.042239  
    2788A      5.045077  2789A      5.046234  2790A      5.048179  
    2791A      5.050669  2792A      5.052699  2793A      5.053263  
    2794A      5.059367  2795A      5.060304  2796A      5.062534  
    2797A      5.063818  2798A      5.065634  2799A      5.067976  
    2800A      5.072622  2801A      5.074197  2802A      5.075411  
    2803A      5.078725  2804A      5.088811  2805A      5.090759  
    2806A      5.092401  2807A      5.096402  2808A      5.097141  
    2809A      5.098037  2810A      5.103553  2811A      5.107126  
    2812A      5.111593  2813A      5.116637  2814A      5.117731  
    2815A      5.123350  2816A      5.124143  2817A      5.126984  
    2818A      5.127812  2819A      5.133053  2820A      5.133637  
    2821A      5.135644  2822A      5.138517  2823A      5.141342  
    2824A      5.143929  2825A      5.147232  2826A      5.149828  
    2827A      5.154215  2828A      5.156400  2829A      5.158126  
    2830A      5.160409  2831A      5.160925  2832A      5.168654  
    2833A      5.169169  2834A      5.170376  2835A      5.171304  
    2836A      5.177968  2837A      5.178338  2838A      5.180950  
    2839A      5.185133  2840A      5.187747  2841A      5.192579  
    2842A      5.193664  2843A      5.201537  2844A      5.201691  
    2845A      5.203029  2846A      5.206796  2847A      5.213067  
    2848A      5.214525  2849A      5.221117  2850A      5.223110  
    2851A      5.224793  2852A      5.225813  2853A      5.234798  
    2854A      5.236096  2855A      5.238850  2856A      5.240744  
    2857A      5.244385  2858A      5.246326  2859A      5.247017  
    2860A      5.249287  2861A      5.252527  2862A      5.252905  
    2863A      5.256790  2864A      5.259608  2865A      5.260606  
    2866A      5.268571  2867A      5.269170  2868A      5.275378  
    2869A      5.277225  2870A      5.279176  2871A      5.279413  
    2872A      5.283900  2873A      5.287123  2874A      5.287683  
    2875A      5.289775  2876A      5.292146  2877A      5.293452  
    2878A      5.295543  2879A      5.296103  2880A      5.307878  
    2881A      5.308450  2882A      5.311031  2883A      5.312207  
    2884A      5.313572  2885A      5.315481  2886A      5.319207  
    2887A      5.322414  2888A      5.324298  2889A      5.326288  
    2890A      5.328944  2891A      5.329064  2892A      5.333867  
    2893A      5.337014  2894A      5.337452  2895A      5.340981  
    2896A      5.345774  2897A      5.346991  2898A      5.348763  
    2899A      5.354361  2900A      5.357851  2901A      5.359234  
    2902A      5.362469  2903A      5.363110  2904A      5.366329  
    2905A      5.371657  2906A      5.372426  2907A      5.374129  
    2908A      5.375514  2909A      5.377686  2910A      5.380956  
    2911A      5.384884  2912A      5.387747  2913A      5.387998  
    2914A      5.389609  2915A      5.392784  2916A      5.397656  
    2917A      5.398909  2918A      5.406555  2919A      5.410265  
    2920A      5.411848  2921A      5.418766  2922A      5.419597  
    2923A      5.422989  2924A      5.423344  2925A      5.427068  
    2926A      5.432643  2927A      5.434730  2928A      5.439902  
    2929A      5.440251  2930A      5.446037  2931A      5.449608  
    2932A      5.449917  2933A      5.453118  2934A      5.454950  
    2935A      5.455865  2936A      5.462891  2937A      5.464806  
    2938A      5.468334  2939A      5.475506  2940A      5.476553  
    2941A      5.480945  2942A      5.481554  2943A      5.485898  
    2944A      5.489211  2945A      5.490875  2946A      5.495371  
    2947A      5.501272  2948A      5.504098  2949A      5.506698  
    2950A      5.507770  2951A      5.515168  2952A      5.516538  
    2953A      5.519092  2954A      5.519738  2955A      5.521784  
    2956A      5.524558  2957A      5.529093  2958A      5.535593  
    2959A      5.536118  2960A      5.536836  2961A      5.540765  
    2962A      5.544359  2963A      5.546373  2964A      5.548862  
    2965A      5.552137  2966A      5.554608  2967A      5.559486  
    2968A      5.562602  2969A      5.567714  2970A      5.568331  
    2971A      5.569663  2972A      5.575297  2973A      5.577627  
    2974A      5.582837  2975A      5.592164  2976A      5.592574  
    2977A      5.598243  2978A      5.600336  2979A      5.604801  
    2980A      5.606149  2981A      5.607911  2982A      5.609807  
    2983A      5.615706  2984A      5.615873  2985A      5.620501  
    2986A      5.621711  2987A      5.626141  2988A      5.627561  
    2989A      5.636645  2990A      5.636787  2991A      5.638309  
    2992A      5.645212  2993A      5.646664  2994A      5.649711  
    2995A      5.650315  2996A      5.653934  2997A      5.659985  
    2998A      5.661169  2999A      5.665188  3000A      5.667498  
    3001A      5.669928  3002A      5.670525  3003A      5.674885  
    3004A      5.676470  3005A      5.680395  3006A      5.685937  
    3007A      5.689192  3008A      5.692629  3009A      5.700567  
    3010A      5.702004  3011A      5.707147  3012A      5.708747  
    3013A      5.711416  3014A      5.715226  3015A      5.716295  
    3016A      5.720723  3017A      5.726130  3018A      5.729036  
    3019A      5.733150  3020A      5.734254  3021A      5.741032  
    3022A      5.743012  3023A      5.744844  3024A      5.746403  
    3025A      5.748405  3026A      5.749483  3027A      5.752585  
    3028A      5.759815  3029A      5.763263  3030A      5.767187  
    3031A      5.768282  3032A      5.770338  3033A      5.772164  
    3034A      5.775532  3035A      5.781247  3036A      5.781662  
    3037A      5.784941  3038A      5.788911  3039A      5.789086  
    3040A      5.797702  3041A      5.798137  3042A      5.798882  
    3043A      5.802896  3044A      5.807881  3045A      5.812147  
    3046A      5.813012  3047A      5.816202  3048A      5.818120  
    3049A      5.824633  3050A      5.826551  3051A      5.833278  
    3052A      5.836732  3053A      5.844893  3054A      5.850786  
    3055A      5.856266  3056A      5.857403  3057A      5.863380  
    3058A      5.867027  3059A      5.868043  3060A      5.875249  
    3061A      5.879890  3062A      5.880724  3063A      5.883170  
    3064A      5.885745  3065A      5.886683  3066A      5.891067  
    3067A      5.898470  3068A      5.904142  3069A      5.910425  
    3070A      5.917773  3071A      5.917994  3072A      5.925086  
    3073A      5.935268  3074A      5.936255  3075A      5.939390  
    3076A      5.949728  3077A      5.951023  3078A      5.953381  
    3079A      5.958237  3080A      5.962092  3081A      5.964354  
    3082A      5.967919  3083A      5.968467  3084A      5.970137  
    3085A      5.973745  3086A      5.974494  3087A      5.986420  
    3088A      5.991915  3089A      5.994623  3090A      5.998365  
    3091A      5.999468  3092A      6.000816  3093A      6.007335  
    3094A      6.025342  3095A      6.032305  3096A      6.032940  
    3097A      6.035791  3098A      6.047800  3099A      6.049961  
    3100A      6.057125  3101A      6.061457  3102A      6.064012  
    3103A      6.071224  3104A      6.073894  3105A      6.081880  
    3106A      6.085355  3107A      6.085782  3108A      6.098912  
    3109A      6.100950  3110A      6.101790  3111A      6.103798  
    3112A      6.106610  3113A      6.115694  3114A      6.124228  
    3115A      6.124749  3116A      6.127447  3117A      6.140434  
    3118A      6.143061  3119A      6.143665  3120A      6.146941  
    3121A      6.154224  3122A      6.164248  3123A      6.176279  
    3124A      6.178652  3125A      6.184530  3126A      6.196354  
    3127A      6.203484  3128A      6.205458  3129A      6.216387  
    3130A      6.216857  3131A      6.227347  3132A      6.229936  
    3133A      6.243532  3134A      6.244765  3135A      6.247616  
    3136A      6.255181  3137A      6.260930  3138A      6.275174  
    3139A      6.276289  3140A      6.280133  3141A      6.282364  
    3142A      6.286808  3143A      6.287732  3144A      6.292419  
    3145A      6.301735  3146A      6.302669  3147A      6.304436  
    3148A      6.308042  3149A      6.310021  3150A      6.311671  
    3151A      6.316981  3152A      6.318858  3153A      6.322785  
    3154A      6.326710  3155A      6.328781  3156A      6.330500  
    3157A      6.334628  3158A      6.337111  3159A      6.340428  
    3160A      6.344015  3161A      6.354804  3162A      6.355636  
    3163A      6.357061  3164A      6.364443  3165A      6.369765  
    3166A      6.390317  3167A      6.393629  3168A      6.397095  
    3169A      6.413581  3170A      6.418480  3171A      6.433733  
    3172A      6.444657  3173A      6.459756  3174A      6.476270  
    3175A      6.481908  3176A      6.504715  3177A      6.515389  
    3178A      6.520776  3179A      6.526453  3180A      6.530610  
    3181A      6.567271  3182A      6.569554  3183A      6.576982  
    3184A      6.577430  3185A      6.591383  3186A      6.617349  
    3187A      6.617952  3188A      6.621160  3189A      6.632041  
    3190A      6.643263  3191A      6.651453  3192A      6.664844  
    3193A      6.671022  3194A      6.675558  3195A      6.685592  
    3196A      6.687394  3197A      6.699891  3198A      6.703898  
    3199A      6.714854  3200A      6.720492  3201A      6.721122  
    3202A      6.727123  3203A      6.747795  3204A      6.760213  
    3205A      6.762386  3206A      6.772488  3207A      6.779278  
    3208A      6.786500  3209A      6.795918  3210A      6.803479  
    3211A      6.819606  3212A      6.831503  3213A      6.846992  
    3214A      6.850255  3215A      6.860306  3216A      6.862062  
    3217A      6.878747  3218A      6.884237  3219A      6.884601  
    3220A      6.889657  3221A      6.917218  3222A      6.934340  
    3223A      6.944002  3224A      6.955312  3225A      6.971665  
    3226A      6.989110  3227A      6.999639  3228A      7.002056  
    3229A      7.005134  3230A      7.010649  3231A      7.013844  
    3232A      7.014507  3233A      7.024987  3234A      7.031287  
    3235A      7.039027  3236A      7.047717  3237A      7.056050  
    3238A      7.065272  3239A      7.070538  3240A      7.086898  
    3241A      7.098113  3242A      7.099080  3243A      7.107714  
    3244A      7.114630  3245A      7.119822  3246A      7.125356  
    3247A      7.128906  3248A      7.137945  3249A      7.147270  
    3250A      7.155473  3251A      7.167161  3252A      7.168239  
    3253A      7.171034  3254A      7.192066  3255A      7.209855  
    3256A      7.256071  3257A      7.272169  3258A      7.281081  
    3259A      7.286816  3260A      7.291712  3261A      7.291886  
    3262A      7.304710  3263A      7.308466  3264A      7.314721  
    3265A      7.327080  3266A      7.345076  3267A      7.366393  
    3268A      7.369477  3269A      7.372601  3270A      7.375219  
    3271A      7.389585  3272A      7.421194  3273A      7.458940  
    3274A      7.483528  3275A      7.498269  3276A      7.502123  
    3277A      7.521271  3278A      7.540618  3279A      7.542306  
    3280A      7.555399  3281A      7.556908  3282A      7.572910  
    3283A      7.573446  3284A      7.616097  3285A      7.619128  
    3286A      7.625483  3287A      7.626829  3288A      7.639536  
    3289A      7.653268  3290A      7.656737  3291A      7.715503  
    3292A      7.748964  3293A      7.777231  3294A      7.836173  
    3295A      7.844067  3296A      7.920310  3297A      7.956107  
    3298A      7.962937  3299A      8.040126  3300A      8.042858  
    3301A      8.051989  3302A      8.158250  3303A      8.170741  
    3304A      8.172649  3305A      8.177472  3306A      8.212898  
    3307A      8.215248  3308A      8.229410  3309A      8.238662  
    3310A      8.305956  3311A      8.336170  3312A      8.395142  
    3313A      8.471803  3314A      8.489713  3315A      8.534463  
    3316A      8.632875  3317A      8.708065  3318A      8.710012  
    3319A      8.737997  3320A      8.794934  3321A      8.860165  
    3322A      8.960009  3323A      9.165877  3324A      9.462077  
    3325A      9.618999  3326A      9.665629  3327A      9.785282  
    3328A      9.896390  3329A      9.910236  3330A      9.986949  
    3331A     10.098363  3332A     10.150236  3333A     10.191868  
    3334A     10.221217  3335A     10.301910  3336A     10.340390  
    3337A     10.367120  3338A     10.405233  3339A     10.406543  
    3340A     10.476162  3341A     10.503007  3342A     10.518161  
    3343A     10.542173  3344A     10.731323  3345A     10.955324  
    3346A     10.987412  3347A     11.051551  3348A     11.578485  
    3349A     11.726470  3350A     11.859031  3351A     11.904813  
    3352A     11.986289  3353A     12.179195  3354A     12.353463  
    3355A     12.361963  3356A     12.677750  3357A     12.738693  
    3358A     13.667878  3359A     13.771161  3360A     13.824976  
    3361A     13.859907  3362A     16.566141  3363A     16.631381  
    3364A     16.881887  3365A     16.949819  3366A     17.127450  
    3367A     17.455216  3368A     17.505965  3369A     18.489771  
    3370A     18.566589  3371A     18.869347  3372A     18.901773  
    3373A     18.995444  3374A     19.000693  3375A     19.087659  
    3376A     19.127144  3377A     19.291426  3378A     19.371842  
    3379A     19.497501  3380A     19.563337  3381A     19.889671  
    3382A     20.318806  3383A     20.750188  3384A     20.791834  
    3385A     21.239598  3386A     21.253598  3387A     21.459276  
    3388A     21.662551  3389A     21.752466  3390A     21.944795  
    3391A     22.088109  3392A     22.144248  3393A     22.206110  
    3394A     22.282981  3395A     22.329413  3396A     22.355123  
    3397A     22.460768  3398A     22.488309  3399A     22.571767  
    3400A     22.704544  3401A     22.949622  3402A     23.052243  
    3403A     23.325581  3404A     51.949562  3405A     52.268141  
    3406A     52.429832  3407A     53.955573  3408A     55.648292  
    3409A     56.459108  3410A     57.523089  3411A     61.392766  
    3412A     61.649592  3413A     62.506571  3414A     63.749385  
    3415A     64.365740  3416A     65.519579  3417A     65.992743  
    3418A     66.263839  3419A     66.493184  

    Final Occupation by Irrep:
              A 
    DOCC [   141 ]
    NA   [   141 ]
    NB   [   141 ]

  @DF-RHF Final Energy: -1608.38098784268755

   => Energetics <=

    Nuclear Repulsion Energy =           4480.3906718979642392
    One-Electron Energy =              -11100.9527761050449044
    Two-Electron Energy =                5012.1811163643933469
    Total Energy =                      -1608.3809878426873183

Computation Completed


Properties will be evaluated at   0.000000,   0.000000,   0.000000 [a0]

Properties computed using the SCF density matrix


 Multipole Moments:

 ------------------------------------------------------------------------------------
     Multipole            Electronic (a.u.)      Nuclear  (a.u.)        Total (a.u.)
 ------------------------------------------------------------------------------------

 L = 1.  Multiply by 2.5417464519 to convert [e a0] to [Debye]
 Dipole X            :         55.3630638          -55.2647875            0.0982763
 Dipole Y            :        -81.5168747           82.0981714            0.5812967
 Dipole Z            :         -1.2360117            1.2497874            0.0137756
 Magnitude           :                                                    0.5897066

 ------------------------------------------------------------------------------------

*** tstop() called on atl1-1-03-004-10-2.pace.gatech.edu at Sat Jun 13 18:50:35 2026
Module time:
	user time   =   45113.62 seconds =     751.89 minutes
	system time =    3464.65 seconds =      57.74 minutes
	total time  =       7743 seconds =     129.05 minutes
Total time:
	user time   =   45113.62 seconds =     751.89 minutes
	system time =    3464.65 seconds =      57.74 minutes
	total time  =       7743 seconds =     129.05 minutes

*** tstart() called on atl1-1-03-004-10-2.pace.gatech.edu
*** at Sat Jun 13 18:50:35 2026


  //>>>>>>>>>>>>>>>>>>>>>>>>>>>>>>>>>>>//
  //               DFMP2               //
  //<<<<<<<<<<<<<<<<<<<<<<<<<<<<<<<<<<<//

   => Loading Basis Set <=

    Name: (AUG-CC-PVTZ AUX)
    Role: RIFIT
    Keyword: DF_BASIS_MP2
    atoms 1-42, 73-80, 82, 84-85, 87 entry C          line   148 file /storage/home/hcoda1/5/vlita3/.conda/envs/p4_qcml/share/psi4/basis/aug-cc-pvtz-ri.gbs 
    atoms 43-72, 89-92               entry H          line    30 file /storage/home/hcoda1/5/vlita3/.conda/envs/p4_qcml/share/psi4/basis/aug-cc-pvtz-ri.gbs 
    atoms 81, 83, 86, 88             entry N          line   206 file /storage/home/hcoda1/5/vlita3/.conda/envs/p4_qcml/share/psi4/basis/aug-cc-pvtz-ri.gbs 

	 --------------------------------------------------------
	                          DF-MP2                         
	      2nd-Order Density-Fitted Moller-Plesset Theory     
	              RMP2 Wavefunction,  10 Threads             
	                                                         
	        Rob Parrish, Justin Turney, Andy Simmonett,      
	           Ed Hohenstein, and C. David Sherrill          
	 --------------------------------------------------------

   => Auxiliary Basis Set <=

  Basis Set: (AUG-CC-PVTZ AUX)
    Blend: AUG-CC-PVTZ-RI
    Number of shells: 2100
    Number of basis functions: 7712
    Number of Cartesian functions: 9758
    Spherical Harmonics?: true
    Max angular momentum: 4

	 --------------------------------------------------------
	                 NBF =  3450, NAUX =  7712
	 --------------------------------------------------------
	   CLASS    FOCC     OCC    AOCC    AVIR     VIR    FVIR
	   PAIRS       0     141     141    3278    3278       0
	 --------------------------------------------------------

	-----------------------------------------------------------
	 ==================> DF-MP2 Energies <==================== 
	-----------------------------------------------------------
	 Reference Energy          =   -1608.3809878426875457 [Eh]
	 Singles Energy            =      -0.0000000000000000 [Eh]
	 Same-Spin Energy          =      -1.8888448351979708 [Eh]
	 Opposite-Spin Energy      =      -5.7413396793123770 [Eh]
	 Correlation Energy        =      -7.6301845145103480 [Eh]
	 Total Energy              =   -1616.0111723571978928 [Eh]
	-----------------------------------------------------------
	 ================> DF-SCS-MP2 Energies <================== 
	-----------------------------------------------------------
	 SCS Same-Spin Scale       =       0.3333333333333333 [-]
	 SCS Opposite-Spin Scale   =       1.2000000000000000 [-]
	 SCS Same-Spin Energy      =      -0.6296149450659903 [Eh]
	 SCS Opposite-Spin Energy  =      -6.8896076151748522 [Eh]
	 SCS Correlation Energy    =      -7.5192225602408422 [Eh]
	 SCS Total Energy          =   -1615.9002104029284510 [Eh]
	-----------------------------------------------------------


*** tstop() called on atl1-1-03-004-10-2.pace.gatech.edu at Sat Jun 13 19:48:16 2026
Module time:
	user time   =   30867.76 seconds =     514.46 minutes
	system time =     205.24 seconds =       3.42 minutes
	total time  =       3461 seconds =      57.68 minutes
Total time:
	user time   =   75981.38 seconds =    1266.36 minutes
	system time =    3669.89 seconds =      61.16 minutes
	total time  =      11204 seconds =     186.73 minutes

    Psi4 stopped on: Saturday, 13 June 2026 07:48PM
    Psi4 wall time for execution: 3:06:50.24

*** Psi4 exiting successfully. Buy a developer a beer!
