
    -----------------------------------------------------------------------
          Psi4: An Open-Source Ab Initio Electronic Structure Package
                               Psi4 1.9.1 release

                         Git: Rev {} zzzzzzz 


    D. G. A. Smith, L. A. Burns, A. C. Simmonett, R. M. Parrish,
    M. C. Schieber, R. Galvelis, P. Kraus, H. Kruse, R. Di Remigio,
    A. Alenaizan, A. M. James, S. Lehtola, J. P. Misiewicz, M. Scheurer,
    R. A. Shaw, J. B. Schriber, Y. Xie, Z. L. Glick, D. A. Sirianni,
    J. S. O'Brien, J. M. Waldrop, A. Kumar, E. G. Hohenstein,
    B. P. Pritchard, B. R. Brooks, H. F. Schaefer III, A. Yu. Sokolov,
    K. Patkowski, A. E. DePrince III, U. Bozkaya, R. A. King,
    F. A. Evangelista, J. M. Turney, T. D. Crawford, C. D. Sherrill,
    J. Chem. Phys. 152(18) 184108 (2020). https://doi.org/10.1063/5.0006002

                            Additional Code Authors
    E. T. Seidl, C. L. Janssen, E. F. Valeev, M. L. Leininger,
    J. F. Gonthier, R. M. Richard, H. R. McAlexander, M. Saitow, X. Wang,
    P. Verma, M. H. Lechner, A. Jiang, S. Behnle, A. G. Heide,
    M. F. Herbst, and D. L. Poole

             Previous Authors, Complete List of Code Contributors,
                       and Citations for Specific Modules
    https://github.com/psi4/psi4/blob/master/codemeta.json
    https://github.com/psi4/psi4/graphs/contributors
    http://psicode.org/psi4manual/master/introduction.html#citing-psifour

    -----------------------------------------------------------------------


    Psi4 started on: Monday, 15 June 2026 10:18AM

    Process ID: 1496504
    Host:       atl1-1-03-004-13-1.pace.gatech.edu
    PSIDATADIR: /storage/home/hcoda1/5/vlita3/.conda/envs/p4_qcml/share/psi4
    Memory:     250.0 GiB
    Threads:    10
    
  ==> Input QCSchema <==

--------------------------------------------------------------------------
{'driver': 'energy',
 'extras': {},
 'id': '337',
 'keywords': {},
 'model': {'basis': 'aug-cc-pvtz', 'method': 'mp2'},
 'molecule': {'extras': {},
              'fix_com': True,
              'fix_orientation': True,
              'fragment_charges': [0.0, 0.0],
              'fragment_multiplicities': [1, 1],
              'fragments': [[0, 1, 2, 3, 4, 5, 6, 7, 8, 9, 10, 11, 12, 13, 14, 15, 16, 17, 18, 19, 20, 21, 22, 23, 24,
                             25, 26, 27, 28, 29, 30, 31, 32, 33, 34, 35, 36, 37, 38, 39, 40, 41, 42, 43],
                            [44, 45, 46, 47, 48, 49, 50, 51, 52, 53, 54, 55, 56, 57, 58, 59, 60, 61, 62, 63, 64, 65, 66,
                             67, 68, 69, 70, 71, 72, 73, 74, 75, 76, 77, 78, 79, 80, 81, 82, 83, 84, 85, 86, 87]],
              'geometry': [25.47963781, 23.08351049, 43.1296896, 24.89690954, 20.52012331, 43.887087, 25.07057198,
                           18.48699404, 42.07353641, 25.8424877, 19.04880944, 39.52013663, 26.46903607, 21.61452675,
                           38.85199593, 26.30318821, 23.59330066, 40.54460103, 24.46577176, 15.9279092, 42.77036087,
                           23.76811717, 15.37695629, 45.40838081, 23.59859476, 17.38880058, 47.22265844, 24.1081018,
                           20.02007671, 46.44346413, 22.96694077, 16.77267612, 49.77192758, 22.51062738, 14.29130626,
                           50.58597185, 22.67427055, 12.32177999, 48.76231557, 23.27971306, 12.86309326, 46.25226043,
                           25.97467497, 17.0727052, 37.71068154, 25.34789586, 14.59123463, 38.39437083, 24.59969708,
                           14.0277518, 40.88784347, 25.20039992, 25.0588727, 44.92111126, 24.35321071, 24.59525103,
                           47.39946073, 23.84084877, 22.08099208, 48.12795237, 21.86046838, 13.69556932, 53.32235171,
                           24.04555383, 26.76370654, 49.27889773, 26.50915633, 27.41178979, 50.73375129, 26.93108599,
                           26.27094839, 39.72356046, 27.10311578, 21.98163565, 36.89906984, 22.32265299, 10.34583799,
                           49.33666834, 23.39372081, 11.28300305, 44.90489504, 26.57612038, 17.51973959, 35.76596134,
                           25.43664936, 13.06203906, 36.97800898, 24.12002947, 12.05854919, 41.3527408, 25.62817825,
                           27.01761767, 44.36171793, 23.18724332, 21.75219607, 50.07608394, 23.27013145, 12.38510294,
                           54.17857328, 21.79629273, 15.42803966, 54.50687769, 19.98705402, 12.74487252, 53.47527914,
                           22.53167906, 26.28198386, 50.6619148, 23.38069793, 28.48102898, 48.25612267, 27.19569266,
                           25.7565067, 51.83310019, 28.04156267, 27.96965392, 49.40821263, 28.39145441, 27.1428651,
                           40.95513515, 25.23456206, 27.51897461, 39.79892028, 27.66207922, 26.29954115, 37.75755015,
                           26.2022166, 29.00071195, 52.0780899, 22.83611537, 18.29134925, 51.1881473, 30.81342193,
                           18.71017989, 45.99359029, 31.5788239, 19.74555973, 43.58027113, 32.18922921, 22.39746574,
                           43.36009841, 32.04731473, 23.98056161, 45.57578145, 31.25562095, 22.88485355, 47.94186375,
                           30.64065655, 20.36296812, 48.19759324, 32.96098858, 23.46875558, 40.98068543, 32.9776879,
                           21.8498177, 38.71563215, 32.39688051, 19.20754673, 38.92783428, 31.75108262, 18.1119644,
                           41.41040042, 32.38510148, 17.70859001, 36.6883681, 32.89884869, 18.70388423, 34.28627015,
                           33.46045747, 21.32787429, 34.10603582, 33.50020544, 22.84413785, 36.26471359, 32.71084168,
                           26.57519902, 45.39430813, 33.51746054, 27.59229626, 43.0833912, 33.64071365, 26.05933156,
                           40.9078722, 30.26834315, 16.09166271, 46.16720061, 30.49746548, 14.47431826, 44.06910385,
                           31.23964841, 15.50757785, 41.72580743, 32.85245858, 17.05660123, 31.93007182, 30.0352396,
                           11.64386798, 44.33912194, 32.45644731, 10.16276856, 45.08627623, 29.83741229, 19.30937345,
                           50.74453249, 31.15944353, 24.13692378, 49.60598037, 33.86115259, 22.17547238, 32.24063318,
                           33.92403613, 24.86828461, 36.03931452, 32.60693264, 27.77144276, 47.1004289, 34.05705016,
                           29.60331272, 42.95688301, 34.27807476, 26.92308174, 39.12655219, 29.64722791, 15.28713696,
                           47.98302787, 31.38145507, 14.21615321, 40.10268471, 34.735737, 17.01308892, 30.98680081,
                           32.31443775, 15.0754773, 32.37170495, 31.48589123, 17.79122297, 30.50534659, 29.28049933,
                           10.88478084, 42.52649407, 28.54357618, 11.31799443, 45.78690148, 33.97269455, 10.41059171,
                           43.64975571, 33.2192207, 10.84125701, 46.92494523, 31.18221652, 17.84465276, 51.44063809,
                           27.94896357, 18.39273342, 50.64394079, 29.74125873, 20.82714016, 52.19033882, 32.06613232,
                           8.10297733, 45.26704002, 31.91846208, 15.68652669, 36.81860417],
              'id': 16,
              'identifiers': {'molecular_formula': 'C48H40',
                              'molecule_hash': 'c7032f6b2da4c5ceb2b85b46228cc9bc6b33b25c'},
              'masses': [12.0, 12.0, 12.0, 12.0, 12.0, 12.0, 12.0, 12.0, 12.0, 12.0, 12.0, 12.0, 12.0, 12.0, 12.0, 12.0,
                         12.0, 12.0, 12.0, 12.0, 12.0, 12.0, 12.0, 12.0, 1.00782503223, 1.00782503223, 1.00782503223,
                         1.00782503223, 1.00782503223, 1.00782503223, 1.00782503223, 1.00782503223, 1.00782503223,
                         1.00782503223, 1.00782503223, 1.00782503223, 1.00782503223, 1.00782503223, 1.00782503223,
                         1.00782503223, 1.00782503223, 1.00782503223, 1.00782503223, 1.00782503223, 12.0, 12.0, 12.0,
                         12.0, 12.0, 12.0, 12.0, 12.0, 12.0, 12.0, 12.0, 12.0, 12.0, 12.0, 12.0, 12.0, 12.0, 12.0, 12.0,
                         12.0, 12.0, 12.0, 12.0, 12.0, 1.00782503223, 1.00782503223, 1.00782503223, 1.00782503223,
                         1.00782503223, 1.00782503223, 1.00782503223, 1.00782503223, 1.00782503223, 1.00782503223,
                         1.00782503223, 1.00782503223, 1.00782503223, 1.00782503223, 1.00782503223, 1.00782503223,
                         1.00782503223, 1.00782503223, 1.00782503223, 1.00782503223],
              'molecular_charge': 0.0,
              'molecular_multiplicity': 1,
              'name': 'C48H40 ([0],[1])',
              'provenance': {'creator': 'QCElemental',
                             'routine': 'qcelemental.molparse.from_schema',
                             'version': '0.29.0'},
              'real': [True, True, True, True, True, True, True, True, True, True, True, True, True, True, True, True,
                       True, True, True, True, True, True, True, True, True, True, True, True, True, True, True, True,
                       True, True, True, True, True, True, True, True, True, True, True, True, False, False, False,
                       False, False, False, False, False, False, False, False, False, False, False, False, False, False,
                       False, False, False, False, False, False, False, False, False, False, False, False, False, False,
                       False, False, False, False, False, False, False, False, False, False, False, False, False],
              'schema_name': 'qcschema_molecule',
              'schema_version': 2,
              'symbols': ['C', 'C', 'C', 'C', 'C', 'C', 'C', 'C', 'C', 'C', 'C', 'C', 'C', 'C', 'C', 'C', 'C', 'C', 'C',
                          'C', 'C', 'C', 'C', 'C', 'H', 'H', 'H', 'H', 'H', 'H', 'H', 'H', 'H', 'H', 'H', 'H', 'H', 'H',
                          'H', 'H', 'H', 'H', 'H', 'H', 'C', 'C', 'C', 'C', 'C', 'C', 'C', 'C', 'C', 'C', 'C', 'C', 'C',
                          'C', 'C', 'C', 'C', 'C', 'C', 'C', 'C', 'C', 'C', 'C', 'H', 'H', 'H', 'H', 'H', 'H', 'H', 'H',
                          'H', 'H', 'H', 'H', 'H', 'H', 'H', 'H', 'H', 'H', 'H', 'H'],
              'validated': True},
 'protocols': {},
 'provenance': {'creator': 'QCElemental', 'routine': 'qcelemental.models.results', 'version': '0.29.0'},
 'schema_name': 'qcschema_input',
 'schema_version': 1}
--------------------------------------------------------------------------

Scratch directory: /tmp/tmp5lucq76__psi_scratch/
    SCF Algorithm Type (re)set to DF.
   => Libint2 <=

    Primary   basis highest AM E, G, H:  6, 6, 3
    Auxiliary basis highest AM E, G, H:  7, 7, 4
    Onebody   basis highest AM E, G, H:  -, -, -
    Solid Harmonics ordering:            Gaussian

*** tstart() called on atl1-1-03-004-13-1.pace.gatech.edu
*** at Mon Jun 15 10:18:07 2026

   => Loading Basis Set <=

    Name: AUG-CC-PVTZ
    Role: ORBITAL
    Keyword: BASIS
    atoms 1-24, 45-68  entry C          line   239 file /storage/home/hcoda1/5/vlita3/.conda/envs/p4_qcml/share/psi4/basis/aug-cc-pvtz.gbs 
    atoms 25-44, 69-88 entry H          line    40 file /storage/home/hcoda1/5/vlita3/.conda/envs/p4_qcml/share/psi4/basis/aug-cc-pvtz.gbs 


         ---------------------------------------------------------
                                   SCF
               by Justin Turney, Rob Parrish, Andy Simmonett
                          and Daniel G. A. Smith
                              RHF Reference
                       10 Threads, 256000 MiB Core
         ---------------------------------------------------------

  ==> Geometry <==

    Molecular point group: c1
    Full point group: C1

    Geometry (in Bohr), charge = 0, multiplicity = 1:

       Center              X                  Y                   Z               Mass       
    ------------   -----------------  -----------------  -----------------  -----------------
         C           25.479637810000    23.083510490000    43.129689600000    12.000000000000
         C           24.896909540000    20.520123310000    43.887087000000    12.000000000000
         C           25.070571980000    18.486994040000    42.073536410000    12.000000000000
         C           25.842487700000    19.048809440000    39.520136630000    12.000000000000
         C           26.469036070000    21.614526750000    38.851995930000    12.000000000000
         C           26.303188210000    23.593300660000    40.544601030000    12.000000000000
         C           24.465771760000    15.927909200000    42.770360870000    12.000000000000
         C           23.768117170000    15.376956290000    45.408380810000    12.000000000000
         C           23.598594760000    17.388800580000    47.222658440000    12.000000000000
         C           24.108101800000    20.020076710000    46.443464130000    12.000000000000
         C           22.966940770000    16.772676120000    49.771927580000    12.000000000000
         C           22.510627380000    14.291306260000    50.585971850000    12.000000000000
         C           22.674270550000    12.321779990000    48.762315570000    12.000000000000
         C           23.279713060000    12.863093260000    46.252260430000    12.000000000000
         C           25.974674970000    17.072705200000    37.710681540000    12.000000000000
         C           25.347895860000    14.591234630000    38.394370830000    12.000000000000
         C           24.599697080000    14.027751800000    40.887843470000    12.000000000000
         C           25.200399920000    25.058872700000    44.921111260000    12.000000000000
         C           24.353210710000    24.595251030000    47.399460730000    12.000000000000
         C           23.840848770000    22.080992080000    48.127952370000    12.000000000000
         C           21.860468380000    13.695569320000    53.322351710000    12.000000000000
         C           24.045553830000    26.763706540000    49.278897730000    12.000000000000
         C           26.509156330000    27.411789790000    50.733751290000    12.000000000000
         C           26.931085990000    26.270948390000    39.723560460000    12.000000000000
         H           27.103115780000    21.981635650000    36.899069840000     1.007825032230
         H           22.322652990000    10.345837990000    49.336668340000     1.007825032230
         H           23.393720810000    11.283003050000    44.904895040000     1.007825032230
         H           26.576120380000    17.519739590000    35.765961340000     1.007825032230
         H           25.436649360000    13.062039060000    36.978008980000     1.007825032230
         H           24.120029470000    12.058549190000    41.352740800000     1.007825032230
         H           25.628178250000    27.017617670000    44.361717930000     1.007825032230
         H           23.187243320000    21.752196070000    50.076083940000     1.007825032230
         H           23.270131450000    12.385102940000    54.178573280000     1.007825032230
         H           21.796292730000    15.428039660000    54.506877690000     1.007825032230
         H           19.987054020000    12.744872520000    53.475279140000     1.007825032230
         H           22.531679060000    26.281983860000    50.661914800000     1.007825032230
         H           23.380697930000    28.481028980000    48.256122670000     1.007825032230
         H           27.195692660000    25.756506700000    51.833100190000     1.007825032230
         H           28.041562670000    27.969653920000    49.408212630000     1.007825032230
         H           28.391454410000    27.142865100000    40.955135150000     1.007825032230
         H           25.234562060000    27.518974610000    39.798920280000     1.007825032230
         H           27.662079220000    26.299541150000    37.757550150000     1.007825032230
         H           26.202216600000    29.000711950000    52.078089900000     1.007825032230
         H           22.836115370000    18.291349250000    51.188147300000     1.007825032230
      Gh(C)          30.813421930000    18.710179890000    45.993590290000    12.000000000000
      Gh(C)          31.578823900000    19.745559730000    43.580271130000    12.000000000000
      Gh(C)          32.189229210000    22.397465740000    43.360098410000    12.000000000000
      Gh(C)          32.047314730000    23.980561610000    45.575781450000    12.000000000000
      Gh(C)          31.255620950000    22.884853550000    47.941863750000    12.000000000000
      Gh(C)          30.640656550000    20.362968120000    48.197593240000    12.000000000000
      Gh(C)          32.960988580000    23.468755580000    40.980685430000    12.000000000000
      Gh(C)          32.977687900000    21.849817700000    38.715632150000    12.000000000000
      Gh(C)          32.396880510000    19.207546730000    38.927834280000    12.000000000000
      Gh(C)          31.751082620000    18.111964400000    41.410400420000    12.000000000000
      Gh(C)          32.385101480000    17.708590010000    36.688368100000    12.000000000000
      Gh(C)          32.898848690000    18.703884230000    34.286270150000    12.000000000000
      Gh(C)          33.460457470000    21.327874290000    34.106035820000    12.000000000000
      Gh(C)          33.500205440000    22.844137850000    36.264713590000    12.000000000000
      Gh(C)          32.710841680000    26.575199020000    45.394308130000    12.000000000000
      Gh(C)          33.517460540000    27.592296260000    43.083391200000    12.000000000000
      Gh(C)          33.640713650000    26.059331560000    40.907872200000    12.000000000000
      Gh(C)          30.268343150000    16.091662710000    46.167200610000    12.000000000000
      Gh(C)          30.497465480000    14.474318260000    44.069103850000    12.000000000000
      Gh(C)          31.239648410000    15.507577850000    41.725807430000    12.000000000000
      Gh(C)          32.852458580000    17.056601230000    31.930071820000    12.000000000000
      Gh(C)          30.035239600000    11.643867980000    44.339121940000    12.000000000000
      Gh(C)          32.456447310000    10.162768560000    45.086276230000    12.000000000000
      Gh(C)          29.837412290000    19.309373450000    50.744532490000    12.000000000000
      Gh(H)          31.159443530000    24.136923780000    49.605980370000     1.007825032230
      Gh(H)          33.861152590000    22.175472380000    32.240633180000     1.007825032230
      Gh(H)          33.924036130000    24.868284610000    36.039314520000     1.007825032230
      Gh(H)          32.606932640000    27.771442760000    47.100428900000     1.007825032230
      Gh(H)          34.057050160000    29.603312720000    42.956883010000     1.007825032230
      Gh(H)          34.278074760000    26.923081740000    39.126552190000     1.007825032230
      Gh(H)          29.647227910000    15.287136960000    47.983027870000     1.007825032230
      Gh(H)          31.381455070000    14.216153210000    40.102684710000     1.007825032230
      Gh(H)          34.735737000000    17.013088920000    30.986800810000     1.007825032230
      Gh(H)          32.314437750000    15.075477300000    32.371704950000     1.007825032230
      Gh(H)          31.485891230000    17.791222970000    30.505346590000     1.007825032230
      Gh(H)          29.280499330000    10.884780840000    42.526494070000     1.007825032230
      Gh(H)          28.543576180000    11.317994430000    45.786901480000     1.007825032230
      Gh(H)          33.972694550000    10.410591710000    43.649755710000     1.007825032230
      Gh(H)          33.219220700000    10.841257010000    46.924945230000     1.007825032230
      Gh(H)          31.182216520000    17.844652760000    51.440638090000     1.007825032230
      Gh(H)          27.948963570000    18.392733420000    50.643940790000     1.007825032230
      Gh(H)          29.741258730000    20.827140160000    52.190338820000     1.007825032230
      Gh(H)          32.066132320000     8.102977330000    45.267040020000     1.007825032230
      Gh(H)          31.918462080000    15.686526690000    36.818604170000     1.007825032230

  Running in c1 symmetry.

  Rotational constants: A =      0.00210  B =      0.00003  C =      0.00003 [cm^-1]
  Rotational constants: A =     62.96897  B =      0.94325  C =      0.93874 [MHz]
  Nuclear repulsion = 1863.800486968835230

  Charge       = 0
  Multiplicity = 1
  Electrons    = 164
  Nalpha       = 82
  Nbeta        = 82

  ==> Algorithm <==

  SCF Algorithm Type is DF.
  DIIS enabled.
  MOM disabled.
  Fractional occupation disabled.
  Guess Type is SAD.
  Energy threshold   = 1.00e-08
  Density threshold  = 1.00e-08
  Integral threshold = 1.00e-12

  ==> Primary Basis <==

  Basis Set: AUG-CC-PVTZ
    Blend: AUG-CC-PVTZ
    Number of shells: 1032
    Number of basis functions: 3128
    Number of Cartesian functions: 3640
    Spherical Harmonics?: true
    Max angular momentum: 3

   => Loading Basis Set <=

    Name: (AUG-CC-PVTZ AUX)
    Role: JKFIT
    Keyword: DF_BASIS_SCF
    atoms 1-24, 45-68  entry C          line   162 file /storage/home/hcoda1/5/vlita3/.conda/envs/p4_qcml/share/psi4/basis/aug-cc-pvtz-jkfit.gbs 
    atoms 25-44, 69-88 entry H          line    70 file /storage/home/hcoda1/5/vlita3/.conda/envs/p4_qcml/share/psi4/basis/aug-cc-pvtz-jkfit.gbs 

  ==> Integral Setup <==

  ==> DiskDFJK: Density-Fitted J/K Matrices <==

    J tasked:                  Yes
    K tasked:                  Yes
    wK tasked:                  No
    OpenMP threads:             10
    Integrals threads:          10
    Memory [MiB]:           192000
    Algorithm:                Disk
    Integral Cache:           NONE
    Schwarz Cutoff:          1E-12
    Fitting Condition:       1E-10

   => Auxiliary Basis Set <=

  Basis Set: (AUG-CC-PVTZ AUX)
    Blend: AUG-CC-PVTZ-JKFIT
    Number of shells: 2000
    Number of basis functions: 6832
    Number of Cartesian functions: 8488
    Spherical Harmonics?: true
    Max angular momentum: 4

  Minimum eigenvalue in the overlap matrix is 6.3711160731E-10.
  Reciprocal condition number of the overlap matrix is 1.7895063395E-11.
    Using canonical orthogonalization.
  Overall, 29 of 3128 possible MOs eliminated.


  ==> Pre-Iterations <==

  SCF Guess: Superposition of Atomic Densities via on-the-fly atomic UHF (no occupation information).

   -------------------------
    Irrep   Nso     Nmo    
   -------------------------
     A       3128    3099 
   -------------------------
    Total    3128    3099
   -------------------------

  ==> Iterations <==

                           Total Energy        Delta E     RMS |[F,P]|

   @DF-RHF iter SAD:  -920.64409306474181   -9.20644e+02   0.00000e+00 
   @DF-RHF iter   1:  -920.21657454703177    4.27519e-01   3.04539e-04 ADIIS/DIIS
   @DF-RHF iter   2:  -920.74209021855177   -5.25516e-01   1.18457e-04 ADIIS/DIIS
   @DF-RHF iter   3:  -920.81685137331442   -7.47612e-02   2.90534e-05 DIIS
   @DF-RHF iter   4:  -920.82341242528298   -6.56105e-03   1.14874e-05 DIIS
   @DF-RHF iter   5:  -920.82415726613544   -7.44841e-04   3.02290e-06 DIIS
   @DF-RHF iter   6:  -920.82422835231432   -7.10862e-05   1.09713e-06 DIIS
   @DF-RHF iter   7:  -920.82424061111601   -1.22588e-05   3.87427e-07 DIIS
   @DF-RHF iter   8:  -920.82424315982803   -2.54871e-06   1.73133e-07 DIIS
   @DF-RHF iter   9:  -920.82424380278076   -6.42953e-07   7.90188e-08 DIIS
   @DF-RHF iter  10:  -920.82424392031760   -1.17537e-07   3.58577e-08 DIIS
   @DF-RHF iter  11:  -920.82424394891370   -2.85961e-08   1.89428e-08 DIIS
   @DF-RHF iter  12:  -920.82424395910778   -1.01941e-08   1.07622e-08 DIIS
   @DF-RHF iter  13:  -920.82424396432020   -5.21243e-09   4.56147e-09 DIIS
  Energy and wave function converged.


  ==> Post-Iterations <==

    Orbital Energies [Eh]
    ---------------------

    Doubly Occupied:                                                      

       1A    -11.256728     2A    -11.255944     3A    -11.254929  
       4A    -11.252714     5A    -11.252619     6A    -11.251881  
       7A    -11.251310     8A    -11.251085     9A    -11.250014  
      10A    -11.249088    11A    -11.247787    12A    -11.243669  
      13A    -11.242357    14A    -11.240273    15A    -11.240250  
      16A    -11.239867    17A    -11.239568    18A    -11.238683  
      19A    -11.238593    20A    -11.238171    21A    -11.237300  
      22A    -11.236240    23A    -11.234895    24A    -11.227986  
      25A     -1.189780    26A     -1.149112    27A     -1.139300  
      28A     -1.100627    29A     -1.078513    30A     -1.052491  
      31A     -1.029502    32A     -1.024742    33A     -1.004719  
      34A     -0.974580    35A     -0.967479    36A     -0.928889  
      37A     -0.927108    38A     -0.868562    39A     -0.855048  
      40A     -0.833642    41A     -0.825019    42A     -0.815245  
      43A     -0.784070    44A     -0.741012    45A     -0.718812  
      46A     -0.706932    47A     -0.678844    48A     -0.669708  
      49A     -0.639151    50A     -0.635871    51A     -0.630796  
      52A     -0.614140    53A     -0.610601    54A     -0.593032  
      55A     -0.582927    56A     -0.576566    57A     -0.576295  
      58A     -0.572472    59A     -0.570837    60A     -0.563543  
      61A     -0.553772    62A     -0.544875    63A     -0.538868  
      64A     -0.535337    65A     -0.527833    66A     -0.522191  
      67A     -0.512720    68A     -0.510737    69A     -0.495823  
      70A     -0.489623    71A     -0.488423    72A     -0.483460  
      73A     -0.478221    74A     -0.456741    75A     -0.455435  
      76A     -0.414977    77A     -0.382595    78A     -0.375948  
      79A     -0.321364    80A     -0.319787    81A     -0.278153  
      82A     -0.257592  

    Virtual:                                                              

      83A      0.016721    84A      0.021094    85A      0.021592  
      86A      0.026671    87A      0.029243    88A      0.029666  
      89A      0.033728    90A      0.034800    91A      0.039014  
      92A      0.039610    93A      0.041480    94A      0.044778  
      95A      0.045848    96A      0.049002    97A      0.050826  
      98A      0.053297    99A      0.053692   100A      0.054280  
     101A      0.056819   102A      0.060058   103A      0.061204  
     104A      0.061925   105A      0.063688   106A      0.065498  
     107A      0.067801   108A      0.068862   109A      0.070418  
     110A      0.071532   111A      0.074640   112A      0.075990  
     113A      0.077107   114A      0.079998   115A      0.080727  
     116A      0.081297   117A      0.083043   118A      0.085404  
     119A      0.087660   120A      0.089336   121A      0.090211  
     122A      0.091740   123A      0.092995   124A      0.094381  
     125A      0.096285   126A      0.099368   127A      0.099810  
     128A      0.100505   129A      0.101610   130A      0.104436  
     131A      0.104791   132A      0.107003   133A      0.108440  
     134A      0.110085   135A      0.110860   136A      0.113314  
     137A      0.114295   138A      0.115011   139A      0.115517  
     140A      0.116707   141A      0.118566   142A      0.121273  
     143A      0.121966   144A      0.123630   145A      0.124991  
     146A      0.125460   147A      0.129108   148A      0.130467  
     149A      0.131352   150A      0.132796   151A      0.136345  
     152A      0.136673   153A      0.137467   154A      0.139102  
     155A      0.140453   156A      0.141021   157A      0.142981  
     158A      0.144623   159A      0.144887   160A      0.146191  
     161A      0.147554   162A      0.149354   163A      0.149730  
     164A      0.151698   165A      0.153390   166A      0.154139  
     167A      0.156498   168A      0.157739   169A      0.159796  
     170A      0.160230   171A      0.162460   172A      0.163849  
     173A      0.165064   174A      0.165644   175A      0.167355  
     176A      0.167738   177A      0.169407   178A      0.170805  
     179A      0.171085   180A      0.172892   181A      0.175409  
     182A      0.176543   183A      0.177333   184A      0.179774  
     185A      0.179940   186A      0.180899   187A      0.183370  
     188A      0.184279   189A      0.185568   190A      0.186588  
     191A      0.187459   192A      0.189107   193A      0.190865  
     194A      0.192602   195A      0.194001   196A      0.194851  
     197A      0.196685   198A      0.197093   199A      0.198658  
     200A      0.201428   201A      0.202007   202A      0.203093  
     203A      0.203999   204A      0.205263   205A      0.206634  
     206A      0.207653   207A      0.209324   208A      0.211215  
     209A      0.212342   210A      0.214848   211A      0.216371  
     212A      0.217867   213A      0.218690   214A      0.220740  
     215A      0.221296   216A      0.223002   217A      0.224646  
     218A      0.226717   219A      0.228042   220A      0.229059  
     221A      0.229979   222A      0.231404   223A      0.233004  
     224A      0.234623   225A      0.235272   226A      0.236773  
     227A      0.237906   228A      0.239266   229A      0.239823  
     230A      0.242476   231A      0.242709   232A      0.243106  
     233A      0.246477   234A      0.246936   235A      0.249421  
     236A      0.253289   237A      0.253639   238A      0.254186  
     239A      0.255628   240A      0.257984   241A      0.258340  
     242A      0.259343   243A      0.259885   244A      0.261696  
     245A      0.263387   246A      0.264455   247A      0.266666  
     248A      0.269024   249A      0.269240   250A      0.270877  
     251A      0.271844   252A      0.272592   253A      0.273311  
     254A      0.276100   255A      0.278026   256A      0.278675  
     257A      0.279933   258A      0.281792   259A      0.283439  
     260A      0.283635   261A      0.286208   262A      0.287291  
     263A      0.288037   264A      0.289690   265A      0.290785  
     266A      0.291473   267A      0.292022   268A      0.292621  
     269A      0.294802   270A      0.295520   271A      0.297409  
     272A      0.298291   273A      0.300153   274A      0.300565  
     275A      0.302618   276A      0.303551   277A      0.306740  
     278A      0.307223   279A      0.307625   280A      0.309983  
     281A      0.311809   282A      0.312422   283A      0.313582  
     284A      0.315389   285A      0.316355   286A      0.317254  
     287A      0.317934   288A      0.318356   289A      0.322381  
     290A      0.323222   291A      0.324562   292A      0.326133  
     293A      0.328619   294A      0.330670   295A      0.331421  
     296A      0.332903   297A      0.333732   298A      0.334717  
     299A      0.337806   300A      0.338748   301A      0.339163  
     302A      0.340538   303A      0.341445   304A      0.343775  
     305A      0.344396   306A      0.346271   307A      0.346869  
     308A      0.348721   309A      0.349864   310A      0.352086  
     311A      0.353781   312A      0.354149   313A      0.355774  
     314A      0.357886   315A      0.358940   316A      0.361310  
     317A      0.361790   318A      0.363585   319A      0.363705  
     320A      0.365438   321A      0.366229   322A      0.367518  
     323A      0.369237   324A      0.370299   325A      0.371354  
     326A      0.373602   327A      0.375673   328A      0.377364  
     329A      0.378639   330A      0.378881   331A      0.380875  
     332A      0.383062   333A      0.384341   334A      0.385243  
     335A      0.387841   336A      0.388724   337A      0.389621  
     338A      0.391074   339A      0.394004   340A      0.394341  
     341A      0.395353   342A      0.396819   343A      0.397683  
     344A      0.399979   345A      0.400743   346A      0.402253  
     347A      0.402664   348A      0.404740   349A      0.405534  
     350A      0.405984   351A      0.408686   352A      0.409808  
     353A      0.410692   354A      0.413272   355A      0.413978  
     356A      0.414407   357A      0.415667   358A      0.417930  
     359A      0.418354   360A      0.419466   361A      0.420123  
     362A      0.421635   363A      0.423283   364A      0.425322  
     365A      0.425881   366A      0.426681   367A      0.428896  
     368A      0.429927   369A      0.431683   370A      0.431908  
     371A      0.432837   372A      0.434078   373A      0.435301  
     374A      0.435976   375A      0.437212   376A      0.438563  
     377A      0.441416   378A      0.443052   379A      0.444375  
     380A      0.445573   381A      0.445926   382A      0.448240  
     383A      0.449918   384A      0.450273   385A      0.452688  
     386A      0.453128   387A      0.455952   388A      0.457126  
     389A      0.457541   390A      0.458011   391A      0.459505  
     392A      0.462061   393A      0.463032   394A      0.465294  
     395A      0.465928   396A      0.468566   397A      0.469083  
     398A      0.471281   399A      0.472107   400A      0.473777  
     401A      0.475187   402A      0.476486   403A      0.477500  
     404A      0.479979   405A      0.480599   406A      0.482395  
     407A      0.484036   408A      0.486158   409A      0.486717  
     410A      0.487230   411A      0.488779   412A      0.490800  
     413A      0.492053   414A      0.493806   415A      0.495013  
     416A      0.495839   417A      0.497065   418A      0.499039  
     419A      0.499702   420A      0.500675   421A      0.501080  
     422A      0.503624   423A      0.504490   424A      0.505144  
     425A      0.505719   426A      0.507471   427A      0.508585  
     428A      0.509963   429A      0.510534   430A      0.511480  
     431A      0.512773   432A      0.515085   433A      0.515857  
     434A      0.516219   435A      0.517943   436A      0.518541  
     437A      0.519683   438A      0.519977   439A      0.522252  
     440A      0.523216   441A      0.525236   442A      0.526331  
     443A      0.527295   444A      0.528341   445A      0.529746  
     446A      0.530976   447A      0.532084   448A      0.533044  
     449A      0.534126   450A      0.536403   451A      0.537262  
     452A      0.538931   453A      0.539790   454A      0.540594  
     455A      0.543052   456A      0.544213   457A      0.545096  
     458A      0.546200   459A      0.546810   460A      0.548154  
     461A      0.551140   462A      0.551623   463A      0.553010  
     464A      0.554923   465A      0.555395   466A      0.557271  
     467A      0.557808   468A      0.558411   469A      0.559936  
     470A      0.560703   471A      0.561957   472A      0.562390  
     473A      0.563921   474A      0.565666   475A      0.566173  
     476A      0.568863   477A      0.569622   478A      0.571340  
     479A      0.572773   480A      0.573168   481A      0.575381  
     482A      0.576229   483A      0.578121   484A      0.579028  
     485A      0.581407   486A      0.582481   487A      0.583552  
     488A      0.584541   489A      0.585632   490A      0.587103  
     491A      0.589505   492A      0.590234   493A      0.591375  
     494A      0.593009   495A      0.593374   496A      0.594391  
     497A      0.594881   498A      0.597521   499A      0.599207  
     500A      0.599743   501A      0.601460   502A      0.601910  
     503A      0.603068   504A      0.604143   505A      0.605361  
     506A      0.609641   507A      0.610733   508A      0.611384  
     509A      0.613856   510A      0.615220   511A      0.617108  
     512A      0.617698   513A      0.617951   514A      0.619225  
     515A      0.621663   516A      0.621990   517A      0.623456  
     518A      0.623783   519A      0.626157   520A      0.630326  
     521A      0.631296   522A      0.631813   523A      0.632182  
     524A      0.633946   525A      0.635480   526A      0.637122  
     527A      0.638006   528A      0.638860   529A      0.641334  
     530A      0.641708   531A      0.644091   532A      0.645393  
     533A      0.647358   534A      0.648142   535A      0.649460  
     536A      0.650557   537A      0.652667   538A      0.653549  
     539A      0.655404   540A      0.657003   541A      0.658014  
     542A      0.659509   543A      0.660368   544A      0.662862  
     545A      0.663572   546A      0.666114   547A      0.668236  
     548A      0.669428   549A      0.670289   550A      0.672841  
     551A      0.675833   552A      0.676558   553A      0.677558  
     554A      0.678781   555A      0.680622   556A      0.680777  
     557A      0.683417   558A      0.684260   559A      0.686709  
     560A      0.686932   561A      0.689061   562A      0.690447  
     563A      0.692286   564A      0.693598   565A      0.694451  
     566A      0.696154   567A      0.698669   568A      0.699251  
     569A      0.700803   570A      0.703025   571A      0.704457  
     572A      0.705766   573A      0.707524   574A      0.708708  
     575A      0.711081   576A      0.712374   577A      0.713375  
     578A      0.716104   579A      0.717825   580A      0.720507  
     581A      0.721591   582A      0.721863   583A      0.723605  
     584A      0.726167   585A      0.726361   586A      0.728119  
     587A      0.728967   588A      0.729745   589A      0.732478  
     590A      0.732858   591A      0.733648   592A      0.735091  
     593A      0.736042   594A      0.739151   595A      0.741030  
     596A      0.741420   597A      0.743286   598A      0.746231  
     599A      0.747421   600A      0.748009   601A      0.751522  
     602A      0.752881   603A      0.753475   604A      0.757077  
     605A      0.757352   606A      0.757867   607A      0.759618  
     608A      0.761010   609A      0.762518   610A      0.763686  
     611A      0.764926   612A      0.766916   613A      0.771118  
     614A      0.772138   615A      0.773682   616A      0.775607  
     617A      0.776243   618A      0.778260   619A      0.779856  
     620A      0.780013   621A      0.781437   622A      0.783938  
     623A      0.785383   624A      0.788037   625A      0.788469  
     626A      0.790612   627A      0.791885   628A      0.792838  
     629A      0.793317   630A      0.795025   631A      0.797532  
     632A      0.799210   633A      0.801934   634A      0.802727  
     635A      0.804234   636A      0.805154   637A      0.805758  
     638A      0.807437   639A      0.809417   640A      0.810411  
     641A      0.811438   642A      0.813645   643A      0.816817  
     644A      0.817490   645A      0.818867   646A      0.820184  
     647A      0.821594   648A      0.823483   649A      0.825392  
     650A      0.826226   651A      0.827156   652A      0.828705  
     653A      0.830277   654A      0.832136   655A      0.832915  
     656A      0.833882   657A      0.835201   658A      0.837554  
     659A      0.839689   660A      0.841387   661A      0.842849  
     662A      0.844211   663A      0.845646   664A      0.848095  
     665A      0.849427   666A      0.850598   667A      0.852573  
     668A      0.855391   669A      0.856767   670A      0.857238  
     671A      0.859754   672A      0.862090   673A      0.862572  
     674A      0.864731   675A      0.866552   676A      0.868228  
     677A      0.869680   678A      0.870211   679A      0.871780  
     680A      0.873187   681A      0.874863   682A      0.875877  
     683A      0.878591   684A      0.880342   685A      0.881405  
     686A      0.883811   687A      0.884543   688A      0.887303  
     689A      0.888826   690A      0.889853   691A      0.891453  
     692A      0.893086   693A      0.894958   694A      0.896095  
     695A      0.897142   696A      0.898678   697A      0.899592  
     698A      0.901217   699A      0.903928   700A      0.904248  
     701A      0.906383   702A      0.906901   703A      0.908423  
     704A      0.912221   705A      0.912526   706A      0.913307  
     707A      0.915902   708A      0.918301   709A      0.919586  
     710A      0.921850   711A      0.922364   712A      0.925244  
     713A      0.927012   714A      0.929642   715A      0.929991  
     716A      0.930662   717A      0.931674   718A      0.933187  
     719A      0.934904   720A      0.937397   721A      0.938109  
     722A      0.940358   723A      0.941409   724A      0.942815  
     725A      0.945816   726A      0.946814   727A      0.947866  
     728A      0.948773   729A      0.949396   730A      0.950847  
     731A      0.953136   732A      0.954258   733A      0.955706  
     734A      0.957136   735A      0.958618   736A      0.960435  
     737A      0.961114   738A      0.964552   739A      0.965656  
     740A      0.967528   741A      0.969141   742A      0.970840  
     743A      0.971891   744A      0.974425   745A      0.975219  
     746A      0.976742   747A      0.977537   748A      0.979072  
     749A      0.979968   750A      0.981512   751A      0.982779  
     752A      0.984191   753A      0.984978   754A      0.987499  
     755A      0.988225   756A      0.990161   757A      0.991809  
     758A      0.992739   759A      0.993993   760A      0.996395  
     761A      0.998760   762A      1.000000   763A      1.001290  
     764A      1.001968   765A      1.003510   766A      1.005419  
     767A      1.006627   768A      1.006794   769A      1.010154  
     770A      1.010712   771A      1.013546   772A      1.013871  
     773A      1.015324   774A      1.015794   775A      1.018389  
     776A      1.021042   777A      1.022275   778A      1.024765  
     779A      1.024907   780A      1.027001   781A      1.027938  
     782A      1.028971   783A      1.030180   784A      1.032460  
     785A      1.033805   786A      1.035347   787A      1.035975  
     788A      1.038649   789A      1.039624   790A      1.040437  
     791A      1.042846   792A      1.043797   793A      1.044449  
     794A      1.045357   795A      1.047420   796A      1.048552  
     797A      1.050924   798A      1.053042   799A      1.054441  
     800A      1.056026   801A      1.056799   802A      1.058097  
     803A      1.060660   804A      1.061035   805A      1.062579  
     806A      1.064684   807A      1.066825   808A      1.069073  
     809A      1.071172   810A      1.072061   811A      1.072566  
     812A      1.074620   813A      1.076118   814A      1.078003  
     815A      1.078605   816A      1.080099   817A      1.082846  
     818A      1.085337   819A      1.085539   820A      1.087988  
     821A      1.089326   822A      1.091846   823A      1.092265  
     824A      1.093537   825A      1.095448   826A      1.096156  
     827A      1.098374   828A      1.098932   829A      1.101800  
     830A      1.103163   831A      1.104125   832A      1.105461  
     833A      1.107208   834A      1.109216   835A      1.109325  
     836A      1.112144   837A      1.113795   838A      1.115722  
     839A      1.116279   840A      1.118432   841A      1.119081  
     842A      1.120351   843A      1.121452   844A      1.124316  
     845A      1.125279   846A      1.126451   847A      1.128975  
     848A      1.130319   849A      1.131570   850A      1.132158  
     851A      1.135789   852A      1.136193   853A      1.137715  
     854A      1.138896   855A      1.141196   856A      1.141859  
     857A      1.142827   858A      1.143760   859A      1.145174  
     860A      1.147305   861A      1.149059   862A      1.150790  
     863A      1.152187   864A      1.153327   865A      1.155812  
     866A      1.156945   867A      1.157754   868A      1.159109  
     869A      1.160715   870A      1.162489   871A      1.164119  
     872A      1.165731   873A      1.168583   874A      1.170351  
     875A      1.172538   876A      1.172875   877A      1.173255  
     878A      1.175881   879A      1.177240   880A      1.177721  
     881A      1.179731   882A      1.181786   883A      1.182681  
     884A      1.183988   885A      1.186219   886A      1.187095  
     887A      1.189734   888A      1.191068   889A      1.193033  
     890A      1.193960   891A      1.195294   892A      1.196230  
     893A      1.198016   894A      1.199597   895A      1.200275  
     896A      1.202981   897A      1.205070   898A      1.206446  
     899A      1.207008   900A      1.209153   901A      1.211082  
     902A      1.212329   903A      1.214233   904A      1.216073  
     905A      1.216892   906A      1.218133   907A      1.220233  
     908A      1.221258   909A      1.221814   910A      1.222762  
     911A      1.225680   912A      1.226966   913A      1.228527  
     914A      1.230338   915A      1.232326   916A      1.233379  
     917A      1.234258   918A      1.236530   919A      1.238487  
     920A      1.239460   921A      1.241462   922A      1.242709  
     923A      1.244039   924A      1.246057   925A      1.247122  
     926A      1.248507   927A      1.249436   928A      1.252219  
     929A      1.255035   930A      1.256571   931A      1.257638  
     932A      1.259222   933A      1.261422   934A      1.262371  
     935A      1.266218   936A      1.267609   937A      1.267995  
     938A      1.270172   939A      1.272117   940A      1.272632  
     941A      1.273941   942A      1.274456   943A      1.278105  
     944A      1.280029   945A      1.280658   946A      1.283243  
     947A      1.284980   948A      1.285813   949A      1.286407  
     950A      1.287943   951A      1.289930   952A      1.292845  
     953A      1.293366   954A      1.294059   955A      1.295546  
     956A      1.297098   957A      1.297899   958A      1.299438  
     959A      1.303179   960A      1.304239   961A      1.304775  
     962A      1.307233   963A      1.308868   964A      1.310842  
     965A      1.312935   966A      1.314705   967A      1.315676  
     968A      1.316569   969A      1.320444   970A      1.323482  
     971A      1.324377   972A      1.325514   973A      1.326581  
     974A      1.327937   975A      1.328839   976A      1.330635  
     977A      1.331139   978A      1.332182   979A      1.333312  
     980A      1.336291   981A      1.337798   982A      1.340660  
     983A      1.341643   984A      1.342335   985A      1.345335  
     986A      1.348243   987A      1.349498   988A      1.349557  
     989A      1.351321   990A      1.352780   991A      1.355039  
     992A      1.356998   993A      1.358288   994A      1.360193  
     995A      1.361571   996A      1.363052   997A      1.363830  
     998A      1.364756   999A      1.366217  1000A      1.367028  
    1001A      1.369158  1002A      1.370439  1003A      1.372373  
    1004A      1.374384  1005A      1.375784  1006A      1.378988  
    1007A      1.380595  1008A      1.381077  1009A      1.381414  
    1010A      1.383852  1011A      1.384765  1012A      1.386463  
    1013A      1.387866  1014A      1.390213  1015A      1.391591  
    1016A      1.392412  1017A      1.394916  1018A      1.395517  
    1019A      1.397936  1020A      1.399815  1021A      1.401040  
    1022A      1.404298  1023A      1.405069  1024A      1.406746  
    1025A      1.408552  1026A      1.410470  1027A      1.413002  
    1028A      1.413849  1029A      1.416247  1030A      1.417282  
    1031A      1.420739  1032A      1.421462  1033A      1.422474  
    1034A      1.424416  1035A      1.424943  1036A      1.425348  
    1037A      1.427897  1038A      1.430223  1039A      1.432030  
    1040A      1.434074  1041A      1.436960  1042A      1.437139  
    1043A      1.439535  1044A      1.440941  1045A      1.443443  
    1046A      1.443996  1047A      1.444611  1048A      1.448043  
    1049A      1.448330  1050A      1.450145  1051A      1.451526  
    1052A      1.452416  1053A      1.455027  1054A      1.458253  
    1055A      1.458678  1056A      1.459819  1057A      1.462202  
    1058A      1.464600  1059A      1.467322  1060A      1.469051  
    1061A      1.469937  1062A      1.471702  1063A      1.472285  
    1064A      1.473958  1065A      1.475268  1066A      1.476843  
    1067A      1.478557  1068A      1.479018  1069A      1.480628  
    1070A      1.483224  1071A      1.485884  1072A      1.486454  
    1073A      1.488063  1074A      1.489894  1075A      1.491934  
    1076A      1.494071  1077A      1.494486  1078A      1.495869  
    1079A      1.498132  1080A      1.500315  1081A      1.501893  
    1082A      1.505256  1083A      1.505726  1084A      1.507001  
    1085A      1.509132  1086A      1.510616  1087A      1.512153  
    1088A      1.514393  1089A      1.515057  1090A      1.516042  
    1091A      1.517349  1092A      1.518298  1093A      1.520197  
    1094A      1.521142  1095A      1.523861  1096A      1.526270  
    1097A      1.527923  1098A      1.528957  1099A      1.530635  
    1100A      1.531617  1101A      1.532933  1102A      1.535307  
    1103A      1.535805  1104A      1.537155  1105A      1.538558  
    1106A      1.542156  1107A      1.543636  1108A      1.544319  
    1109A      1.545910  1110A      1.548946  1111A      1.549402  
    1112A      1.551990  1113A      1.554173  1114A      1.555317  
    1115A      1.557141  1116A      1.559149  1117A      1.561739  
    1118A      1.563926  1119A      1.564739  1120A      1.566247  
    1121A      1.568079  1122A      1.569793  1123A      1.571943  
    1124A      1.574712  1125A      1.575381  1126A      1.576921  
    1127A      1.577934  1128A      1.578912  1129A      1.581920  
    1130A      1.582320  1131A      1.582862  1132A      1.585537  
    1133A      1.587560  1134A      1.589346  1135A      1.590750  
    1136A      1.591551  1137A      1.594554  1138A      1.595031  
    1139A      1.596436  1140A      1.599431  1141A      1.600299  
    1142A      1.601302  1143A      1.602167  1144A      1.605110  
    1145A      1.606455  1146A      1.608681  1147A      1.611046  
    1148A      1.611723  1149A      1.613669  1150A      1.614352  
    1151A      1.617234  1152A      1.619479  1153A      1.619801  
    1154A      1.621737  1155A      1.622508  1156A      1.626425  
    1157A      1.627897  1158A      1.628778  1159A      1.631039  
    1160A      1.632573  1161A      1.633307  1162A      1.635501  
    1163A      1.635930  1164A      1.637140  1165A      1.638205  
    1166A      1.640003  1167A      1.642648  1168A      1.643370  
    1169A      1.645636  1170A      1.648884  1171A      1.650676  
    1172A      1.652186  1173A      1.653888  1174A      1.656393  
    1175A      1.658813  1176A      1.659951  1177A      1.659995  
    1178A      1.662281  1179A      1.665446  1180A      1.666398  
    1181A      1.667798  1182A      1.669957  1183A      1.672133  
    1184A      1.673898  1185A      1.675989  1186A      1.676242  
    1187A      1.678256  1188A      1.679021  1189A      1.680109  
    1190A      1.683478  1191A      1.683914  1192A      1.686346  
    1193A      1.688156  1194A      1.690319  1195A      1.691261  
    1196A      1.692844  1197A      1.693617  1198A      1.695503  
    1199A      1.697760  1200A      1.700195  1201A      1.701674  
    1202A      1.702025  1203A      1.703539  1204A      1.704913  
    1205A      1.706583  1206A      1.707636  1207A      1.710013  
    1208A      1.711256  1209A      1.712562  1210A      1.714120  
    1211A      1.715622  1212A      1.716412  1213A      1.718256  
    1214A      1.719234  1215A      1.722028  1216A      1.724887  
    1217A      1.725866  1218A      1.727903  1219A      1.729176  
    1220A      1.730519  1221A      1.731475  1222A      1.734584  
    1223A      1.736075  1224A      1.737448  1225A      1.739338  
    1226A      1.741633  1227A      1.742620  1228A      1.743483  
    1229A      1.744837  1230A      1.747638  1231A      1.748751  
    1232A      1.749680  1233A      1.751699  1234A      1.755225  
    1235A      1.755402  1236A      1.757801  1237A      1.758762  
    1238A      1.759672  1239A      1.761133  1240A      1.763461  
    1241A      1.766019  1242A      1.766798  1243A      1.768182  
    1244A      1.771054  1245A      1.772142  1246A      1.773205  
    1247A      1.776346  1248A      1.778325  1249A      1.779441  
    1250A      1.781267  1251A      1.782573  1252A      1.783865  
    1253A      1.784164  1254A      1.785593  1255A      1.790247  
    1256A      1.792035  1257A      1.794651  1258A      1.796776  
    1259A      1.799071  1260A      1.799754  1261A      1.800133  
    1262A      1.802574  1263A      1.803665  1264A      1.805374  
    1265A      1.805731  1266A      1.807415  1267A      1.810070  
    1268A      1.812984  1269A      1.814394  1270A      1.816242  
    1271A      1.817503  1272A      1.819769  1273A      1.820572  
    1274A      1.823165  1275A      1.824692  1276A      1.827286  
    1277A      1.827817  1278A      1.829347  1279A      1.831337  
    1280A      1.831612  1281A      1.834225  1282A      1.836797  
    1283A      1.837305  1284A      1.839275  1285A      1.841617  
    1286A      1.844511  1287A      1.845276  1288A      1.848716  
    1289A      1.850490  1290A      1.851317  1291A      1.852216  
    1292A      1.852946  1293A      1.854292  1294A      1.855652  
    1295A      1.858715  1296A      1.860612  1297A      1.861883  
    1298A      1.862130  1299A      1.865353  1300A      1.867162  
    1301A      1.868881  1302A      1.872699  1303A      1.874190  
    1304A      1.874446  1305A      1.875468  1306A      1.876807  
    1307A      1.878226  1308A      1.880080  1309A      1.880488  
    1310A      1.883186  1311A      1.885713  1312A      1.886781  
    1313A      1.887999  1314A      1.889786  1315A      1.892511  
    1316A      1.897817  1317A      1.899533  1318A      1.900895  
    1319A      1.903163  1320A      1.905211  1321A      1.907004  
    1322A      1.907298  1323A      1.909399  1324A      1.910736  
    1325A      1.912736  1326A      1.913251  1327A      1.914106  
    1328A      1.916112  1329A      1.916907  1330A      1.919302  
    1331A      1.922234  1332A      1.923284  1333A      1.924186  
    1334A      1.926460  1335A      1.927542  1336A      1.931066  
    1337A      1.931804  1338A      1.933942  1339A      1.936698  
    1340A      1.937869  1341A      1.938226  1342A      1.940280  
    1343A      1.942666  1344A      1.946379  1345A      1.947497  
    1346A      1.948906  1347A      1.949948  1348A      1.951291  
    1349A      1.954348  1350A      1.955802  1351A      1.956810  
    1352A      1.959200  1353A      1.962577  1354A      1.963187  
    1355A      1.966153  1356A      1.967483  1357A      1.967894  
    1358A      1.970004  1359A      1.970209  1360A      1.973597  
    1361A      1.974844  1362A      1.976425  1363A      1.978724  
    1364A      1.979540  1365A      1.983585  1366A      1.984137  
    1367A      1.985895  1368A      1.986792  1369A      1.989231  
    1370A      1.990616  1371A      1.992375  1372A      1.992601  
    1373A      1.997696  1374A      1.999306  1375A      2.002089  
    1376A      2.004805  1377A      2.005587  1378A      2.007522  
    1379A      2.008898  1380A      2.012976  1381A      2.015165  
    1382A      2.016551  1383A      2.018898  1384A      2.019492  
    1385A      2.020636  1386A      2.022330  1387A      2.025193  
    1388A      2.027354  1389A      2.029452  1390A      2.031530  
    1391A      2.033258  1392A      2.035247  1393A      2.036317  
    1394A      2.037297  1395A      2.040127  1396A      2.043162  
    1397A      2.043769  1398A      2.046007  1399A      2.048929  
    1400A      2.049816  1401A      2.052327  1402A      2.054736  
    1403A      2.056136  1404A      2.057056  1405A      2.059682  
    1406A      2.063410  1407A      2.065351  1408A      2.067057  
    1409A      2.067666  1410A      2.069446  1411A      2.070522  
    1412A      2.072131  1413A      2.073813  1414A      2.076141  
    1415A      2.077464  1416A      2.080048  1417A      2.081036  
    1418A      2.083523  1419A      2.085020  1420A      2.085682  
    1421A      2.087573  1422A      2.089382  1423A      2.092941  
    1424A      2.094097  1425A      2.095447  1426A      2.097653  
    1427A      2.098343  1428A      2.100263  1429A      2.104144  
    1430A      2.104268  1431A      2.105427  1432A      2.107391  
    1433A      2.108857  1434A      2.109679  1435A      2.114590  
    1436A      2.116651  1437A      2.118767  1438A      2.121438  
    1439A      2.121760  1440A      2.124871  1441A      2.128073  
    1442A      2.128647  1443A      2.130490  1444A      2.133830  
    1445A      2.135306  1446A      2.135976  1447A      2.137551  
    1448A      2.139682  1449A      2.141460  1450A      2.143419  
    1451A      2.145730  1452A      2.148979  1453A      2.150273  
    1454A      2.153301  1455A      2.154456  1456A      2.157390  
    1457A      2.159071  1458A      2.161813  1459A      2.162753  
    1460A      2.164540  1461A      2.165856  1462A      2.170421  
    1463A      2.172292  1464A      2.176372  1465A      2.178750  
    1466A      2.179347  1467A      2.181578  1468A      2.182484  
    1469A      2.184067  1470A      2.188085  1471A      2.190020  
    1472A      2.191973  1473A      2.193058  1474A      2.195430  
    1475A      2.197052  1476A      2.199426  1477A      2.204299  
    1478A      2.206875  1479A      2.208024  1480A      2.209212  
    1481A      2.210512  1482A      2.210935  1483A      2.215327  
    1484A      2.216550  1485A      2.217988  1486A      2.219144  
    1487A      2.221688  1488A      2.223024  1489A      2.225640  
    1490A      2.230675  1491A      2.232121  1492A      2.233311  
    1493A      2.234258  1494A      2.237519  1495A      2.239903  
    1496A      2.241297  1497A      2.243329  1498A      2.246331  
    1499A      2.247362  1500A      2.252338  1501A      2.256783  
    1502A      2.257791  1503A      2.259029  1504A      2.260312  
    1505A      2.265353  1506A      2.267311  1507A      2.268909  
    1508A      2.269566  1509A      2.271758  1510A      2.273490  
    1511A      2.274016  1512A      2.277288  1513A      2.279538  
    1514A      2.282562  1515A      2.284792  1516A      2.285907  
    1517A      2.287755  1518A      2.289379  1519A      2.291192  
    1520A      2.294713  1521A      2.295433  1522A      2.297806  
    1523A      2.300423  1524A      2.301508  1525A      2.302825  
    1526A      2.307672  1527A      2.308256  1528A      2.313569  
    1529A      2.313937  1530A      2.316616  1531A      2.317224  
    1532A      2.318371  1533A      2.320112  1534A      2.321150  
    1535A      2.325788  1536A      2.327237  1537A      2.331738  
    1538A      2.332998  1539A      2.333888  1540A      2.336419  
    1541A      2.338367  1542A      2.340836  1543A      2.342717  
    1544A      2.345395  1545A      2.347939  1546A      2.350029  
    1547A      2.350810  1548A      2.353357  1549A      2.354892  
    1550A      2.356307  1551A      2.358601  1552A      2.360439  
    1553A      2.363582  1554A      2.364633  1555A      2.367828  
    1556A      2.370058  1557A      2.374522  1558A      2.375414  
    1559A      2.376240  1560A      2.379029  1561A      2.380960  
    1562A      2.386254  1563A      2.388128  1564A      2.390756  
    1565A      2.394135  1566A      2.394760  1567A      2.395815  
    1568A      2.399188  1569A      2.399553  1570A      2.404262  
    1571A      2.405992  1572A      2.407078  1573A      2.408526  
    1574A      2.412101  1575A      2.413889  1576A      2.415723  
    1577A      2.418686  1578A      2.422894  1579A      2.423728  
    1580A      2.424173  1581A      2.428169  1582A      2.431590  
    1583A      2.434636  1584A      2.437520  1585A      2.437696  
    1586A      2.441200  1587A      2.442070  1588A      2.443005  
    1589A      2.445662  1590A      2.450551  1591A      2.452056  
    1592A      2.454983  1593A      2.456004  1594A      2.458167  
    1595A      2.460374  1596A      2.462308  1597A      2.464243  
    1598A      2.466787  1599A      2.468040  1600A      2.469817  
    1601A      2.472968  1602A      2.474330  1603A      2.476764  
    1604A      2.480447  1605A      2.481653  1606A      2.484980  
    1607A      2.485687  1608A      2.487481  1609A      2.491618  
    1610A      2.494739  1611A      2.496331  1612A      2.498593  
    1613A      2.501899  1614A      2.502244  1615A      2.503646  
    1616A      2.506174  1617A      2.507310  1618A      2.509759  
    1619A      2.513575  1620A      2.514654  1621A      2.519121  
    1622A      2.522444  1623A      2.525000  1624A      2.528513  
    1625A      2.529911  1626A      2.532486  1627A      2.533212  
    1628A      2.536796  1629A      2.537205  1630A      2.542528  
    1631A      2.544455  1632A      2.547407  1633A      2.547638  
    1634A      2.552267  1635A      2.553047  1636A      2.555751  
    1637A      2.556455  1638A      2.558619  1639A      2.562482  
    1640A      2.563746  1641A      2.564511  1642A      2.567109  
    1643A      2.569032  1644A      2.572932  1645A      2.575978  
    1646A      2.578917  1647A      2.579687  1648A      2.586332  
    1649A      2.586979  1650A      2.589797  1651A      2.590784  
    1652A      2.593646  1653A      2.595344  1654A      2.598331  
    1655A      2.600602  1656A      2.604106  1657A      2.604592  
    1658A      2.606627  1659A      2.609745  1660A      2.613947  
    1661A      2.615903  1662A      2.618082  1663A      2.619835  
    1664A      2.624153  1665A      2.626723  1666A      2.629564  
    1667A      2.630143  1668A      2.634512  1669A      2.637125  
    1670A      2.640154  1671A      2.640968  1672A      2.643436  
    1673A      2.645751  1674A      2.648484  1675A      2.653839  
    1676A      2.656027  1677A      2.661410  1678A      2.662376  
    1679A      2.663122  1680A      2.667094  1681A      2.669364  
    1682A      2.669664  1683A      2.673051  1684A      2.674267  
    1685A      2.676188  1686A      2.677769  1687A      2.678901  
    1688A      2.681886  1689A      2.684914  1690A      2.685723  
    1691A      2.688027  1692A      2.691612  1693A      2.693663  
    1694A      2.698344  1695A      2.702025  1696A      2.703186  
    1697A      2.706896  1698A      2.707863  1699A      2.709189  
    1700A      2.711769  1701A      2.715201  1702A      2.716375  
    1703A      2.717147  1704A      2.724221  1705A      2.726502  
    1706A      2.729188  1707A      2.731797  1708A      2.734947  
    1709A      2.736968  1710A      2.740690  1711A      2.741663  
    1712A      2.747343  1713A      2.750110  1714A      2.753213  
    1715A      2.755505  1716A      2.757356  1717A      2.761498  
    1718A      2.762627  1719A      2.765560  1720A      2.766753  
    1721A      2.770580  1722A      2.772226  1723A      2.774535  
    1724A      2.778423  1725A      2.779956  1726A      2.782295  
    1727A      2.784351  1728A      2.786170  1729A      2.789889  
    1730A      2.796127  1731A      2.796512  1732A      2.799933  
    1733A      2.802934  1734A      2.803758  1735A      2.804954  
    1736A      2.810669  1737A      2.811907  1738A      2.813821  
    1739A      2.816539  1740A      2.819637  1741A      2.823669  
    1742A      2.824033  1743A      2.826820  1744A      2.829608  
    1745A      2.831405  1746A      2.835285  1747A      2.837513  
    1748A      2.838566  1749A      2.841887  1750A      2.843203  
    1751A      2.847337  1752A      2.848835  1753A      2.853190  
    1754A      2.854557  1755A      2.856352  1756A      2.861681  
    1757A      2.864946  1758A      2.870321  1759A      2.871150  
    1760A      2.874911  1761A      2.875979  1762A      2.877399  
    1763A      2.885516  1764A      2.887627  1765A      2.891154  
    1766A      2.893954  1767A      2.896030  1768A      2.898465  
    1769A      2.900889  1770A      2.904596  1771A      2.905545  
    1772A      2.910030  1773A      2.912027  1774A      2.915520  
    1775A      2.916253  1776A      2.921840  1777A      2.924086  
    1778A      2.928307  1779A      2.929632  1780A      2.934030  
    1781A      2.936318  1782A      2.939291  1783A      2.942367  
    1784A      2.946375  1785A      2.949564  1786A      2.953792  
    1787A      2.955581  1788A      2.959990  1789A      2.963192  
    1790A      2.964698  1791A      2.967308  1792A      2.970076  
    1793A      2.974112  1794A      2.976695  1795A      2.981758  
    1796A      2.987582  1797A      2.992720  1798A      2.996131  
    1799A      2.996298  1800A      2.999326  1801A      3.004314  
    1802A      3.006136  1803A      3.012417  1804A      3.016158  
    1805A      3.019148  1806A      3.024225  1807A      3.027477  
    1808A      3.027967  1809A      3.029779  1810A      3.034212  
    1811A      3.038689  1812A      3.043440  1813A      3.048887  
    1814A      3.051348  1815A      3.054819  1816A      3.056273  
    1817A      3.059221  1818A      3.066634  1819A      3.069978  
    1820A      3.076219  1821A      3.081375  1822A      3.085014  
    1823A      3.094886  1824A      3.096246  1825A      3.101019  
    1826A      3.103544  1827A      3.108444  1828A      3.113207  
    1829A      3.122293  1830A      3.123058  1831A      3.126526  
    1832A      3.132578  1833A      3.134209  1834A      3.138971  
    1835A      3.141240  1836A      3.142955  1837A      3.155088  
    1838A      3.156781  1839A      3.159710  1840A      3.162884  
    1841A      3.164958  1842A      3.175520  1843A      3.177378  
    1844A      3.186573  1845A      3.186911  1846A      3.195510  
    1847A      3.197956  1848A      3.202301  1849A      3.207194  
    1850A      3.207940  1851A      3.216775  1852A      3.220522  
    1853A      3.221015  1854A      3.227129  1855A      3.231904  
    1856A      3.239902  1857A      3.245851  1858A      3.250479  
    1859A      3.255091  1860A      3.262105  1861A      3.268697  
    1862A      3.277208  1863A      3.277752  1864A      3.280969  
    1865A      3.288932  1866A      3.290709  1867A      3.298245  
    1868A      3.307688  1869A      3.312963  1870A      3.320230  
    1871A      3.328301  1872A      3.331244  1873A      3.337978  
    1874A      3.344597  1875A      3.346887  1876A      3.349785  
    1877A      3.355740  1878A      3.368439  1879A      3.370050  
    1880A      3.373152  1881A      3.375651  1882A      3.378881  
    1883A      3.387620  1884A      3.390234  1885A      3.398660  
    1886A      3.405204  1887A      3.408066  1888A      3.411930  
    1889A      3.416697  1890A      3.423549  1891A      3.426612  
    1892A      3.436499  1893A      3.437924  1894A      3.443149  
    1895A      3.449556  1896A      3.451851  1897A      3.459364  
    1898A      3.465935  1899A      3.468071  1900A      3.474364  
    1901A      3.478079  1902A      3.480671  1903A      3.490307  
    1904A      3.498367  1905A      3.499855  1906A      3.502586  
    1907A      3.508102  1908A      3.513427  1909A      3.517842  
    1910A      3.522599  1911A      3.524677  1912A      3.528133  
    1913A      3.529387  1914A      3.535397  1915A      3.536998  
    1916A      3.542623  1917A      3.547462  1918A      3.555600  
    1919A      3.556829  1920A      3.559070  1921A      3.564944  
    1922A      3.569035  1923A      3.572710  1924A      3.577009  
    1925A      3.581112  1926A      3.587646  1927A      3.590245  
    1928A      3.595101  1929A      3.598366  1930A      3.606841  
    1931A      3.609632  1932A      3.611718  1933A      3.615161  
    1934A      3.618974  1935A      3.620996  1936A      3.621274  
    1937A      3.630208  1938A      3.634928  1939A      3.639581  
    1940A      3.643185  1941A      3.647763  1942A      3.650758  
    1943A      3.653418  1944A      3.656613  1945A      3.658610  
    1946A      3.662326  1947A      3.664269  1948A      3.668876  
    1949A      3.673055  1950A      3.676436  1951A      3.679049  
    1952A      3.683523  1953A      3.686754  1954A      3.689183  
    1955A      3.695293  1956A      3.700304  1957A      3.700327  
    1958A      3.706596  1959A      3.708194  1960A      3.711838  
    1961A      3.712694  1962A      3.719351  1963A      3.722703  
    1964A      3.725489  1965A      3.726541  1966A      3.729403  
    1967A      3.729950  1968A      3.734621  1969A      3.738095  
    1970A      3.743945  1971A      3.746152  1972A      3.749251  
    1973A      3.751371  1974A      3.752386  1975A      3.755974  
    1976A      3.758681  1977A      3.764194  1978A      3.767535  
    1979A      3.768127  1980A      3.773138  1981A      3.774820  
    1982A      3.777540  1983A      3.780185  1984A      3.786392  
    1985A      3.787475  1986A      3.790745  1987A      3.794134  
    1988A      3.796759  1989A      3.798944  1990A      3.802474  
    1991A      3.807025  1992A      3.809614  1993A      3.811899  
    1994A      3.815866  1995A      3.818370  1996A      3.824513  
    1997A      3.827261  1998A      3.828353  1999A      3.829024  
    2000A      3.836973  2001A      3.839366  2002A      3.844187  
    2003A      3.847507  2004A      3.849507  2005A      3.853478  
    2006A      3.856838  2007A      3.857481  2008A      3.862967  
    2009A      3.866842  2010A      3.868722  2011A      3.872175  
    2012A      3.874517  2013A      3.878423  2014A      3.881532  
    2015A      3.882107  2016A      3.888309  2017A      3.891248  
    2018A      3.893701  2019A      3.896823  2020A      3.898325  
    2021A      3.901741  2022A      3.908653  2023A      3.911137  
    2024A      3.911770  2025A      3.914497  2026A      3.915931  
    2027A      3.923200  2028A      3.924391  2029A      3.926214  
    2030A      3.931725  2031A      3.934009  2032A      3.937706  
    2033A      3.944014  2034A      3.945949  2035A      3.950374  
    2036A      3.957557  2037A      3.959528  2038A      3.963164  
    2039A      3.967717  2040A      3.968020  2041A      3.972018  
    2042A      3.973829  2043A      3.976998  2044A      3.979396  
    2045A      3.982885  2046A      3.987471  2047A      3.991231  
    2048A      3.991718  2049A      3.996542  2050A      4.001592  
    2051A      4.004000  2052A      4.005574  2053A      4.012116  
    2054A      4.015695  2055A      4.017330  2056A      4.018644  
    2057A      4.021152  2058A      4.024522  2059A      4.031502  
    2060A      4.035769  2061A      4.039159  2062A      4.041188  
    2063A      4.044653  2064A      4.046982  2065A      4.048591  
    2066A      4.050466  2067A      4.056337  2068A      4.058332  
    2069A      4.058969  2070A      4.064909  2071A      4.065279  
    2072A      4.070541  2073A      4.072806  2074A      4.074905  
    2075A      4.078218  2076A      4.081349  2077A      4.082422  
    2078A      4.087237  2079A      4.089351  2080A      4.094713  
    2081A      4.095523  2082A      4.097679  2083A      4.100312  
    2084A      4.104046  2085A      4.105967  2086A      4.108504  
    2087A      4.110418  2088A      4.112634  2089A      4.115558  
    2090A      4.118725  2091A      4.123095  2092A      4.126046  
    2093A      4.127646  2094A      4.132684  2095A      4.134177  
    2096A      4.135420  2097A      4.137592  2098A      4.139678  
    2099A      4.140934  2100A      4.143892  2101A      4.144241  
    2102A      4.148490  2103A      4.151003  2104A      4.156085  
    2105A      4.158033  2106A      4.160755  2107A      4.161225  
    2108A      4.164788  2109A      4.166665  2110A      4.167295  
    2111A      4.174224  2112A      4.176348  2113A      4.178094  
    2114A      4.181343  2115A      4.182804  2116A      4.188099  
    2117A      4.191146  2118A      4.194678  2119A      4.197691  
    2120A      4.199584  2121A      4.200283  2122A      4.203375  
    2123A      4.205920  2124A      4.207973  2125A      4.210372  
    2126A      4.211672  2127A      4.212553  2128A      4.214962  
    2129A      4.218638  2130A      4.220517  2131A      4.224466  
    2132A      4.226883  2133A      4.228900  2134A      4.231271  
    2135A      4.235585  2136A      4.238356  2137A      4.239012  
    2138A      4.241488  2139A      4.244415  2140A      4.246316  
    2141A      4.250221  2142A      4.252181  2143A      4.255051  
    2144A      4.257594  2145A      4.259383  2146A      4.261582  
    2147A      4.265537  2148A      4.266511  2149A      4.271899  
    2150A      4.273533  2151A      4.274303  2152A      4.275932  
    2153A      4.277255  2154A      4.279058  2155A      4.284328  
    2156A      4.285400  2157A      4.287688  2158A      4.290693  
    2159A      4.293734  2160A      4.294788  2161A      4.296950  
    2162A      4.299501  2163A      4.303379  2164A      4.305663  
    2165A      4.306694  2166A      4.309744  2167A      4.312113  
    2168A      4.315086  2169A      4.316506  2170A      4.318701  
    2171A      4.319918  2172A      4.322193  2173A      4.323424  
    2174A      4.324606  2175A      4.326596  2176A      4.329637  
    2177A      4.331519  2178A      4.336242  2179A      4.336520  
    2180A      4.340838  2181A      4.343712  2182A      4.348578  
    2183A      4.349628  2184A      4.352933  2185A      4.354460  
    2186A      4.356632  2187A      4.357031  2188A      4.359904  
    2189A      4.364450  2190A      4.367561  2191A      4.369539  
    2192A      4.371988  2193A      4.373683  2194A      4.376078  
    2195A      4.376592  2196A      4.380569  2197A      4.383125  
    2198A      4.384023  2199A      4.385460  2200A      4.392800  
    2201A      4.393465  2202A      4.395964  2203A      4.397548  
    2204A      4.399735  2205A      4.401609  2206A      4.404645  
    2207A      4.407052  2208A      4.408741  2209A      4.409608  
    2210A      4.413275  2211A      4.416624  2212A      4.417000  
    2213A      4.418784  2214A      4.420005  2215A      4.423241  
    2216A      4.423731  2217A      4.425987  2218A      4.430200  
    2219A      4.431573  2220A      4.432455  2221A      4.438491  
    2222A      4.441909  2223A      4.444552  2224A      4.445564  
    2225A      4.450290  2226A      4.452614  2227A      4.456008  
    2228A      4.457000  2229A      4.457713  2230A      4.459924  
    2231A      4.463379  2232A      4.465673  2233A      4.467723  
    2234A      4.470014  2235A      4.471279  2236A      4.472254  
    2237A      4.475492  2238A      4.479030  2239A      4.483461  
    2240A      4.483708  2241A      4.486066  2242A      4.488412  
    2243A      4.489715  2244A      4.492905  2245A      4.495078  
    2246A      4.495798  2247A      4.497792  2248A      4.499419  
    2249A      4.501434  2250A      4.506207  2251A      4.509693  
    2252A      4.510600  2253A      4.513625  2254A      4.516195  
    2255A      4.518388  2256A      4.519826  2257A      4.521624  
    2258A      4.524555  2259A      4.527047  2260A      4.533678  
    2261A      4.534915  2262A      4.537067  2263A      4.537721  
    2264A      4.539509  2265A      4.543257  2266A      4.544359  
    2267A      4.545598  2268A      4.547646  2269A      4.550618  
    2270A      4.551568  2271A      4.557597  2272A      4.558750  
    2273A      4.560142  2274A      4.561684  2275A      4.564514  
    2276A      4.566860  2277A      4.567898  2278A      4.571030  
    2279A      4.574262  2280A      4.575202  2281A      4.576920  
    2282A      4.581699  2283A      4.583609  2284A      4.586446  
    2285A      4.586648  2286A      4.589185  2287A      4.592528  
    2288A      4.594303  2289A      4.597693  2290A      4.602486  
    2291A      4.603204  2292A      4.605441  2293A      4.605888  
    2294A      4.607328  2295A      4.613637  2296A      4.614829  
    2297A      4.617316  2298A      4.619807  2299A      4.623630  
    2300A      4.625092  2301A      4.630320  2302A      4.632944  
    2303A      4.633610  2304A      4.637910  2305A      4.639675  
    2306A      4.641186  2307A      4.645500  2308A      4.647192  
    2309A      4.647871  2310A      4.651695  2311A      4.655592  
    2312A      4.657516  2313A      4.660527  2314A      4.662081  
    2315A      4.665563  2316A      4.665938  2317A      4.670960  
    2318A      4.672538  2319A      4.674645  2320A      4.676130  
    2321A      4.676803  2322A      4.680848  2323A      4.684755  
    2324A      4.686210  2325A      4.688558  2326A      4.691135  
    2327A      4.693229  2328A      4.695159  2329A      4.700272  
    2330A      4.704049  2331A      4.705184  2332A      4.706953  
    2333A      4.708337  2334A      4.709958  2335A      4.712395  
    2336A      4.713394  2337A      4.715614  2338A      4.717775  
    2339A      4.720548  2340A      4.723316  2341A      4.727261  
    2342A      4.727598  2343A      4.729886  2344A      4.732920  
    2345A      4.734733  2346A      4.737860  2347A      4.739469  
    2348A      4.740349  2349A      4.744172  2350A      4.744980  
    2351A      4.747067  2352A      4.750034  2353A      4.754253  
    2354A      4.754922  2355A      4.756465  2356A      4.757897  
    2357A      4.763874  2358A      4.766573  2359A      4.770606  
    2360A      4.772637  2361A      4.773359  2362A      4.776472  
    2363A      4.778497  2364A      4.780714  2365A      4.785376  
    2366A      4.789447  2367A      4.790905  2368A      4.793314  
    2369A      4.794345  2370A      4.795855  2371A      4.799286  
    2372A      4.801449  2373A      4.803141  2374A      4.806259  
    2375A      4.811592  2376A      4.814819  2377A      4.817084  
    2378A      4.820000  2379A      4.820726  2380A      4.822584  
    2381A      4.826630  2382A      4.827126  2383A      4.829057  
    2384A      4.834104  2385A      4.838735  2386A      4.841347  
    2387A      4.842463  2388A      4.845568  2389A      4.848506  
    2390A      4.850716  2391A      4.851964  2392A      4.854389  
    2393A      4.856301  2394A      4.858469  2395A      4.863408  
    2396A      4.866294  2397A      4.867714  2398A      4.869380  
    2399A      4.873623  2400A      4.875780  2401A      4.879053  
    2402A      4.880248  2403A      4.881682  2404A      4.882103  
    2405A      4.886217  2406A      4.887276  2407A      4.888746  
    2408A      4.894389  2409A      4.896761  2410A      4.898165  
    2411A      4.903935  2412A      4.905178  2413A      4.906897  
    2414A      4.910811  2415A      4.912141  2416A      4.916690  
    2417A      4.917990  2418A      4.918913  2419A      4.921353  
    2420A      4.922961  2421A      4.924349  2422A      4.926891  
    2423A      4.932161  2424A      4.935946  2425A      4.936508  
    2426A      4.940992  2427A      4.941500  2428A      4.943460  
    2429A      4.946216  2430A      4.949040  2431A      4.952467  
    2432A      4.955091  2433A      4.957619  2434A      4.959169  
    2435A      4.963302  2436A      4.963786  2437A      4.968000  
    2438A      4.973008  2439A      4.975080  2440A      4.977394  
    2441A      4.979507  2442A      4.983144  2443A      4.984879  
    2444A      4.989176  2445A      4.989521  2446A      4.992086  
    2447A      4.995081  2448A      4.999994  2449A      5.000644  
    2450A      5.005598  2451A      5.007704  2452A      5.009337  
    2453A      5.014077  2454A      5.018244  2455A      5.021612  
    2456A      5.028075  2457A      5.030773  2458A      5.032445  
    2459A      5.033512  2460A      5.035991  2461A      5.042041  
    2462A      5.042298  2463A      5.043047  2464A      5.045039  
    2465A      5.048877  2466A      5.052371  2467A      5.053561  
    2468A      5.056874  2469A      5.057767  2470A      5.059053  
    2471A      5.061384  2472A      5.062286  2473A      5.067414  
    2474A      5.071225  2475A      5.072285  2476A      5.074568  
    2477A      5.076771  2478A      5.078175  2479A      5.081660  
    2480A      5.083909  2481A      5.086210  2482A      5.089503  
    2483A      5.089906  2484A      5.094945  2485A      5.096142  
    2486A      5.097157  2487A      5.099590  2488A      5.103772  
    2489A      5.104610  2490A      5.108660  2491A      5.111778  
    2492A      5.113506  2493A      5.114968  2494A      5.117965  
    2495A      5.120335  2496A      5.124437  2497A      5.127376  
    2498A      5.130165  2499A      5.134936  2500A      5.137686  
    2501A      5.138774  2502A      5.139777  2503A      5.144523  
    2504A      5.147765  2505A      5.151408  2506A      5.154061  
    2507A      5.155943  2508A      5.159603  2509A      5.163223  
    2510A      5.165908  2511A      5.167686  2512A      5.172482  
    2513A      5.173519  2514A      5.175500  2515A      5.176957  
    2516A      5.178916  2517A      5.183897  2518A      5.185323  
    2519A      5.187176  2520A      5.191948  2521A      5.192478  
    2522A      5.198848  2523A      5.199453  2524A      5.203991  
    2525A      5.206759  2526A      5.211268  2527A      5.213368  
    2528A      5.213978  2529A      5.217000  2530A      5.221382  
    2531A      5.223558  2532A      5.226527  2533A      5.231145  
    2534A      5.232498  2535A      5.235863  2536A      5.238580  
    2537A      5.244766  2538A      5.247450  2539A      5.247842  
    2540A      5.253667  2541A      5.254032  2542A      5.255920  
    2543A      5.258001  2544A      5.262317  2545A      5.264881  
    2546A      5.267293  2547A      5.268520  2548A      5.273956  
    2549A      5.276959  2550A      5.277456  2551A      5.279988  
    2552A      5.284349  2553A      5.285187  2554A      5.288686  
    2555A      5.294121  2556A      5.295786  2557A      5.297891  
    2558A      5.302307  2559A      5.304375  2560A      5.305564  
    2561A      5.309290  2562A      5.314997  2563A      5.316832  
    2564A      5.318365  2565A      5.320588  2566A      5.323563  
    2567A      5.328610  2568A      5.334922  2569A      5.336547  
    2570A      5.337484  2571A      5.338588  2572A      5.344206  
    2573A      5.349947  2574A      5.351650  2575A      5.357430  
    2576A      5.360132  2577A      5.361232  2578A      5.363484  
    2579A      5.367928  2580A      5.368417  2581A      5.371737  
    2582A      5.378373  2583A      5.378573  2584A      5.381076  
    2585A      5.384105  2586A      5.387604  2587A      5.389748  
    2588A      5.391606  2589A      5.394001  2590A      5.402114  
    2591A      5.405098  2592A      5.410079  2593A      5.412421  
    2594A      5.414754  2595A      5.415692  2596A      5.418811  
    2597A      5.423884  2598A      5.425661  2599A      5.427089  
    2600A      5.432550  2601A      5.436788  2602A      5.437502  
    2603A      5.440165  2604A      5.444778  2605A      5.448330  
    2606A      5.450709  2607A      5.453241  2608A      5.455832  
    2609A      5.457749  2610A      5.462882  2611A      5.464998  
    2612A      5.469692  2613A      5.471304  2614A      5.472608  
    2615A      5.478218  2616A      5.480993  2617A      5.486182  
    2618A      5.487677  2619A      5.489604  2620A      5.490666  
    2621A      5.495500  2622A      5.499258  2623A      5.501297  
    2624A      5.506868  2625A      5.508282  2626A      5.514169  
    2627A      5.518997  2628A      5.519617  2629A      5.521541  
    2630A      5.525511  2631A      5.531401  2632A      5.533392  
    2633A      5.535063  2634A      5.535946  2635A      5.541619  
    2636A      5.543575  2637A      5.544684  2638A      5.549120  
    2639A      5.550290  2640A      5.551437  2641A      5.552946  
    2642A      5.558558  2643A      5.560985  2644A      5.562874  
    2645A      5.566594  2646A      5.569325  2647A      5.575078  
    2648A      5.577600  2649A      5.580571  2650A      5.581598  
    2651A      5.584121  2652A      5.586634  2653A      5.590376  
    2654A      5.595492  2655A      5.597340  2656A      5.601252  
    2657A      5.603983  2658A      5.604663  2659A      5.608945  
    2660A      5.611055  2661A      5.616275  2662A      5.618074  
    2663A      5.620329  2664A      5.622730  2665A      5.627426  
    2666A      5.627909  2667A      5.630676  2668A      5.632114  
    2669A      5.639779  2670A      5.641325  2671A      5.649447  
    2672A      5.653539  2673A      5.658083  2674A      5.661941  
    2675A      5.663772  2676A      5.667033  2677A      5.670421  
    2678A      5.672531  2679A      5.676078  2680A      5.676257  
    2681A      5.681969  2682A      5.687694  2683A      5.688732  
    2684A      5.691834  2685A      5.694719  2686A      5.697282  
    2687A      5.698193  2688A      5.703867  2689A      5.704974  
    2690A      5.706779  2691A      5.713464  2692A      5.717081  
    2693A      5.718705  2694A      5.723466  2695A      5.727745  
    2696A      5.733790  2697A      5.737704  2698A      5.738325  
    2699A      5.739113  2700A      5.741163  2701A      5.745272  
    2702A      5.749903  2703A      5.752149  2704A      5.756096  
    2705A      5.758494  2706A      5.766564  2707A      5.767834  
    2708A      5.776592  2709A      5.777006  2710A      5.782745  
    2711A      5.786676  2712A      5.788290  2713A      5.794951  
    2714A      5.797684  2715A      5.802793  2716A      5.805859  
    2717A      5.809241  2718A      5.813313  2719A      5.816764  
    2720A      5.822317  2721A      5.824179  2722A      5.829443  
    2723A      5.835397  2724A      5.838669  2725A      5.841392  
    2726A      5.846836  2727A      5.849241  2728A      5.854835  
    2729A      5.860899  2730A      5.864124  2731A      5.868985  
    2732A      5.874305  2733A      5.876363  2734A      5.885660  
    2735A      5.891054  2736A      5.892038  2737A      5.894880  
    2738A      5.898245  2739A      5.907196  2740A      5.911131  
    2741A      5.912653  2742A      5.918175  2743A      5.922511  
    2744A      5.931300  2745A      5.936257  2746A      5.940224  
    2747A      5.942500  2748A      5.946222  2749A      5.947093  
    2750A      5.950396  2751A      5.958380  2752A      5.964371  
    2753A      5.965126  2754A      5.967425  2755A      5.974866  
    2756A      5.979076  2757A      5.984322  2758A      5.990842  
    2759A      6.000602  2760A      6.003979  2761A      6.006181  
    2762A      6.010359  2763A      6.013141  2764A      6.023340  
    2765A      6.026637  2766A      6.032807  2767A      6.038109  
    2768A      6.040830  2769A      6.042690  2770A      6.051956  
    2771A      6.057857  2772A      6.059750  2773A      6.061652  
    2774A      6.066851  2775A      6.076062  2776A      6.078975  
    2777A      6.084791  2778A      6.089573  2779A      6.093669  
    2780A      6.098175  2781A      6.101965  2782A      6.107637  
    2783A      6.110565  2784A      6.116567  2785A      6.120013  
    2786A      6.124600  2787A      6.127838  2788A      6.130866  
    2789A      6.135551  2790A      6.146797  2791A      6.159432  
    2792A      6.165943  2793A      6.168770  2794A      6.173717  
    2795A      6.174789  2796A      6.178855  2797A      6.183159  
    2798A      6.192637  2799A      6.193184  2800A      6.202279  
    2801A      6.207314  2802A      6.212692  2803A      6.217555  
    2804A      6.226132  2805A      6.229951  2806A      6.234357  
    2807A      6.244322  2808A      6.248151  2809A      6.253669  
    2810A      6.256727  2811A      6.259936  2812A      6.264728  
    2813A      6.268958  2814A      6.272338  2815A      6.282057  
    2816A      6.286294  2817A      6.287914  2818A      6.294580  
    2819A      6.297702  2820A      6.301701  2821A      6.313455  
    2822A      6.322430  2823A      6.329866  2824A      6.334878  
    2825A      6.335912  2826A      6.341610  2827A      6.345864  
    2828A      6.354324  2829A      6.357711  2830A      6.362320  
    2831A      6.365579  2832A      6.390992  2833A      6.408306  
    2834A      6.413724  2835A      6.422137  2836A      6.424967  
    2837A      6.431702  2838A      6.441487  2839A      6.442742  
    2840A      6.454598  2841A      6.457297  2842A      6.473414  
    2843A      6.475843  2844A      6.487562  2845A      6.511001  
    2846A      6.535245  2847A      6.546768  2848A      6.553934  
    2849A      6.566565  2850A      6.572634  2851A      6.580971  
    2852A      6.594395  2853A      6.599177  2854A      6.615137  
    2855A      6.617413  2856A      6.628041  2857A      6.639335  
    2858A      6.641598  2859A      6.657851  2860A      6.661743  
    2861A      6.667183  2862A      6.671434  2863A      6.683805  
    2864A      6.692084  2865A      6.706214  2866A      6.725477  
    2867A      6.736657  2868A      6.741786  2869A      6.748864  
    2870A      6.754356  2871A      6.760057  2872A      6.785745  
    2873A      6.796408  2874A      6.800462  2875A      6.816982  
    2876A      6.824620  2877A      6.829965  2878A      6.833186  
    2879A      6.843223  2880A      6.853137  2881A      6.857211  
    2882A      6.858893  2883A      6.871607  2884A      6.877734  
    2885A      6.882114  2886A      6.899575  2887A      6.907671  
    2888A      6.913384  2889A      6.917943  2890A      6.928021  
    2891A      6.942160  2892A      6.944930  2893A      6.955352  
    2894A      6.961275  2895A      6.971266  2896A      6.985994  
    2897A      6.993912  2898A      7.007056  2899A      7.011491  
    2900A      7.021524  2901A      7.030895  2902A      7.033272  
    2903A      7.039771  2904A      7.045956  2905A      7.056007  
    2906A      7.058531  2907A      7.064729  2908A      7.066524  
    2909A      7.080723  2910A      7.093253  2911A      7.099720  
    2912A      7.108987  2913A      7.116151  2914A      7.126349  
    2915A      7.139286  2916A      7.142307  2917A      7.144928  
    2918A      7.157632  2919A      7.169150  2920A      7.186398  
    2921A      7.194965  2922A      7.213708  2923A      7.220502  
    2924A      7.239143  2925A      7.243960  2926A      7.251455  
    2927A      7.264230  2928A      7.278847  2929A      7.302741  
    2930A      7.316841  2931A      7.325701  2932A      7.354158  
    2933A      7.360018  2934A      7.373460  2935A      7.394129  
    2936A      7.401651  2937A      7.431643  2938A      7.445353  
    2939A      7.464928  2940A      7.474233  2941A      7.489481  
    2942A      7.503712  2943A      7.510050  2944A      7.528209  
    2945A      7.551057  2946A      7.554371  2947A      7.569568  
    2948A      7.600618  2949A      7.602536  2950A      7.630153  
    2951A      7.643686  2952A      7.668906  2953A      7.692021  
    2954A      7.695172  2955A      7.710318  2956A      7.727574  
    2957A      7.750673  2958A      7.760542  2959A      7.767923  
    2960A      7.776895  2961A      7.783672  2962A      7.787778  
    2963A      7.797371  2964A      7.802451  2965A      7.815505  
    2966A      7.828031  2967A      7.851191  2968A      7.863163  
    2969A      7.893692  2970A      7.905926  2971A      7.917139  
    2972A      7.932681  2973A      7.959101  2974A      7.984511  
    2975A      7.990615  2976A      8.018679  2977A      8.073127  
    2978A      8.102378  2979A      8.142010  2980A      8.170958  
    2981A      8.198841  2982A      8.229857  2983A      8.254910  
    2984A      8.263909  2985A      8.291455  2986A      8.304743  
    2987A      8.322449  2988A      8.340869  2989A      8.380536  
    2990A      8.399439  2991A      8.412742  2992A      8.447155  
    2993A      8.471597  2994A      8.506151  2995A      8.592088  
    2996A      8.610428  2997A      8.655066  2998A      8.675831  
    2999A      8.696143  3000A      8.745116  3001A      8.851388  
    3002A      8.888141  3003A      8.922644  3004A      9.005362  
    3005A      9.027277  3006A      9.094603  3007A      9.225280  
    3008A      9.313517  3009A      9.412452  3010A      9.427109  
    3011A      9.575823  3012A      9.642902  3013A      9.667221  
    3014A      9.732544  3015A      9.766334  3016A      9.824665  
    3017A      9.926686  3018A      9.979109  3019A      9.999561  
    3020A     10.040167  3021A     10.053773  3022A     10.128113  
    3023A     10.154960  3024A     10.245902  3025A     10.292997  
    3026A     10.375527  3027A     10.429837  3028A     10.502971  
    3029A     10.579786  3030A     10.698235  3031A     10.755723  
    3032A     10.830988  3033A     10.990487  3034A     11.068822  
    3035A     11.179840  3036A     11.211710  3037A     11.287208  
    3038A     11.390179  3039A     11.397638  3040A     11.456638  
    3041A     11.661123  3042A     11.851469  3043A     11.860903  
    3044A     11.975776  3045A     12.170552  3046A     12.219290  
    3047A     12.267440  3048A     12.317420  3049A     12.538076  
    3050A     12.652620  3051A     12.702922  3052A     15.940062  
    3053A     16.377415  3054A     16.764849  3055A     17.211688  
    3056A     17.507243  3057A     17.815003  3058A     18.101671  
    3059A     18.393720  3060A     18.821046  3061A     19.132582  
    3062A     19.618101  3063A     19.965032  3064A     20.368265  
    3065A     21.017202  3066A     21.570541  3067A     22.003518  
    3068A     22.149373  3069A     22.569243  3070A     22.632767  
    3071A     22.894043  3072A     23.085098  3073A     23.641897  
    3074A     23.825513  3075A     23.995231  3076A     49.740491  
    3077A     50.620970  3078A     51.398047  3079A     52.248357  
    3080A     52.936707  3081A     53.189330  3082A     53.481698  
    3083A     54.254610  3084A     55.162110  3085A     55.953229  
    3086A     56.700007  3087A     57.571939  3088A     58.116850  
    3089A     58.557263  3090A     59.595418  3091A     60.638645  
    3092A     61.368854  3093A     61.534594  3094A     61.772907  
    3095A     62.392854  3096A     62.637257  3097A     63.544525  
    3098A     64.126037  3099A     64.330450  

    Final Occupation by Irrep:
              A 
    DOCC [    82 ]
    NA   [    82 ]
    NB   [    82 ]

  @DF-RHF Final Energy:  -920.82424396432020

   => Energetics <=

    Nuclear Repulsion Energy =           1863.8004869688352301
    One-Electron Energy =               -4951.1566753531642462
    Two-Electron Energy =                2166.5319444200085854
    Total Energy =                       -920.8242439643204307

Computation Completed


Properties will be evaluated at   0.000000,   0.000000,   0.000000 [a0]

Properties computed using the SCF density matrix


 Multipole Moments:

 ------------------------------------------------------------------------------------
     Multipole            Electronic (a.u.)      Nuclear  (a.u.)        Total (a.u.)
 ------------------------------------------------------------------------------------

 L = 1.  Multiply by 2.5417464519 to convert [e a0] to [Debye]
 Dipole X            :      -4034.9007732         4034.8790109           -0.0217623
 Dipole Y            :      -3189.3607821         3189.5933564            0.2325743
 Dipole Z            :      -7377.8126261         7378.1192754            0.3066493
 Magnitude           :                                                    0.3854844

 ------------------------------------------------------------------------------------

*** tstop() called on atl1-1-03-004-13-1.pace.gatech.edu at Mon Jun 15 11:44:02 2026
Module time:
	user time   =   30633.62 seconds =     510.56 minutes
	system time =    2302.35 seconds =      38.37 minutes
	total time  =       5155 seconds =      85.92 minutes
Total time:
	user time   =   30633.62 seconds =     510.56 minutes
	system time =    2302.35 seconds =      38.37 minutes
	total time  =       5155 seconds =      85.92 minutes

*** tstart() called on atl1-1-03-004-13-1.pace.gatech.edu
*** at Mon Jun 15 11:44:02 2026


  //>>>>>>>>>>>>>>>>>>>>>>>>>>>>>>>>>>>//
  //               DFMP2               //
  //<<<<<<<<<<<<<<<<<<<<<<<<<<<<<<<<<<<//

   => Loading Basis Set <=

    Name: (AUG-CC-PVTZ AUX)
    Role: RIFIT
    Keyword: DF_BASIS_MP2
    atoms 1-24, 45-68  entry C          line   148 file /storage/home/hcoda1/5/vlita3/.conda/envs/p4_qcml/share/psi4/basis/aug-cc-pvtz-ri.gbs 
    atoms 25-44, 69-88 entry H          line    30 file /storage/home/hcoda1/5/vlita3/.conda/envs/p4_qcml/share/psi4/basis/aug-cc-pvtz-ri.gbs 

	 --------------------------------------------------------
	                          DF-MP2                         
	      2nd-Order Density-Fitted Moller-Plesset Theory     
	              RMP2 Wavefunction,  10 Threads             
	                                                         
	        Rob Parrish, Justin Turney, Andy Simmonett,      
	           Ed Hohenstein, and C. David Sherrill          
	 --------------------------------------------------------

   => Auxiliary Basis Set <=

  Basis Set: (AUG-CC-PVTZ AUX)
    Blend: AUG-CC-PVTZ-RI
    Number of shells: 1904
    Number of basis functions: 6928
    Number of Cartesian functions: 8728
    Spherical Harmonics?: true
    Max angular momentum: 4

	 --------------------------------------------------------
	                 NBF =  3128, NAUX =  6928
	 --------------------------------------------------------
	   CLASS    FOCC     OCC    AOCC    AVIR     VIR    FVIR
	   PAIRS       0      82      82    3017    3017       0
	 --------------------------------------------------------

	-----------------------------------------------------------
	 ==================> DF-MP2 Energies <==================== 
	-----------------------------------------------------------
	 Reference Energy          =    -920.8242439643202033 [Eh]
	 Singles Energy            =      -0.0000000000000000 [Eh]
	 Same-Spin Energy          =      -1.0684057162365030 [Eh]
	 Opposite-Spin Energy      =      -3.3096713847928401 [Eh]
	 Correlation Energy        =      -4.3780771010293433 [Eh]
	 Total Energy              =    -925.2023210653495653 [Eh]
	-----------------------------------------------------------
	 ================> DF-SCS-MP2 Energies <================== 
	-----------------------------------------------------------
	 SCS Same-Spin Scale       =       0.3333333333333333 [-]
	 SCS Opposite-Spin Scale   =       1.2000000000000000 [-]
	 SCS Same-Spin Energy      =      -0.3561352387455010 [Eh]
	 SCS Opposite-Spin Energy  =      -3.9716056617514077 [Eh]
	 SCS Correlation Energy    =      -4.3277409004969085 [Eh]
	 SCS Total Energy          =    -925.1519848648171092 [Eh]
	-----------------------------------------------------------


*** tstop() called on atl1-1-03-004-13-1.pace.gatech.edu at Mon Jun 15 12:04:24 2026
Module time:
	user time   =   10351.19 seconds =     172.52 minutes
	system time =     115.71 seconds =       1.93 minutes
	total time  =       1222 seconds =      20.37 minutes
Total time:
	user time   =   40984.81 seconds =     683.08 minutes
	system time =    2418.06 seconds =      40.30 minutes
	total time  =       6377 seconds =     106.28 minutes

    Psi4 stopped on: Monday, 15 June 2026 12:04PM
    Psi4 wall time for execution: 1:46:22.86

*** Psi4 exiting successfully. Buy a developer a beer!
