
    -----------------------------------------------------------------------
          Psi4: An Open-Source Ab Initio Electronic Structure Package
                               Psi4 1.9.1 release

                         Git: Rev {} zzzzzzz 


    D. G. A. Smith, L. A. Burns, A. C. Simmonett, R. M. Parrish,
    M. C. Schieber, R. Galvelis, P. Kraus, H. Kruse, R. Di Remigio,
    A. Alenaizan, A. M. James, S. Lehtola, J. P. Misiewicz, M. Scheurer,
    R. A. Shaw, J. B. Schriber, Y. Xie, Z. L. Glick, D. A. Sirianni,
    J. S. O'Brien, J. M. Waldrop, A. Kumar, E. G. Hohenstein,
    B. P. Pritchard, B. R. Brooks, H. F. Schaefer III, A. Yu. Sokolov,
    K. Patkowski, A. E. DePrince III, U. Bozkaya, R. A. King,
    F. A. Evangelista, J. M. Turney, T. D. Crawford, C. D. Sherrill,
    J. Chem. Phys. 152(18) 184108 (2020). https://doi.org/10.1063/5.0006002

                            Additional Code Authors
    E. T. Seidl, C. L. Janssen, E. F. Valeev, M. L. Leininger,
    J. F. Gonthier, R. M. Richard, H. R. McAlexander, M. Saitow, X. Wang,
    P. Verma, M. H. Lechner, A. Jiang, S. Behnle, A. G. Heide,
    M. F. Herbst, and D. L. Poole

             Previous Authors, Complete List of Code Contributors,
                       and Citations for Specific Modules
    https://github.com/psi4/psi4/blob/master/codemeta.json
    https://github.com/psi4/psi4/graphs/contributors
    http://psicode.org/psi4manual/master/introduction.html#citing-psifour

    -----------------------------------------------------------------------


    Psi4 started on: Saturday, 13 June 2026 04:31PM

    Process ID: 865109
    Host:       atl1-1-02-004-2-2.pace.gatech.edu
    PSIDATADIR: /storage/home/hcoda1/5/vlita3/.conda/envs/p4_qcml/share/psi4
    Memory:     250.0 GiB
    Threads:    10
    
  ==> Input QCSchema <==

--------------------------------------------------------------------------
{'driver': 'energy',
 'extras': {},
 'id': '267',
 'keywords': {},
 'model': {'basis': 'aug-cc-pvtz', 'method': 'mp2'},
 'molecule': {'extras': {},
              'fix_com': True,
              'fix_orientation': True,
              'fragment_charges': [0.0, 0.0],
              'fragment_multiplicities': [1, 1],
              'fragments': [[0, 1, 2, 3, 4, 5, 6, 7, 8, 9, 10, 11, 12, 13, 14, 15, 16, 17, 18, 19, 20, 21, 22, 23, 24,
                             25, 26, 27, 28, 29, 30, 31, 32, 33, 34, 35],
                            [36, 37, 38, 39, 40, 41, 42, 43, 44, 45, 46, 47, 48, 49, 50, 51, 52, 53, 54, 55, 56, 57, 58,
                             59, 60, 61, 62, 63, 64, 65, 66, 67, 68, 69, 70, 71]],
              'geometry': [-2.81102804, -2.32727976, -3.26733672, -0.12371685, -2.32727976, -3.26733672, 1.21993874,
                           0.0, -3.26733672, -0.12371685, 2.32727976, -3.26733672, -2.81102804, 2.32727976, -3.26733672,
                           -4.15468364, 0.0, -3.26733672, 1.21375609, -4.64385085, -3.26733672, -0.17645855,
                           -6.93684965, -3.26733672, -2.75828635, -6.93684965, -3.26733672, -4.14850099, -4.64385085,
                           -3.26733672, -6.82962953, 0.0, -3.26733672, -8.12031742, -2.3504606, -3.26733672,
                           -6.82940352, -4.58638906, -3.26733672, -8.12031742, 2.3504606, -3.26733672, -6.82940352,
                           4.58638906, -3.26733672, -4.14850099, 4.64385085, -3.26733672, -2.75828635, 6.93684965,
                           -3.26733672, -0.17645855, 6.93684965, -3.26733672, 1.21375609, 4.64385085, -3.26733672,
                           3.89465863, 4.58638906, -3.26733672, 5.18557252, 2.3504606, -3.26733672, 3.89488463, 0.0,
                           -3.26733672, 5.18557252, -2.3504606, -3.26733672, 3.89465863, -4.58638906, -3.26733672,
                           0.84958395, -8.70675598, -3.26733672, -3.78432885, -8.70675598, -3.26733672, -7.84916611,
                           -6.35992109, -3.26733672, -10.16612251, -2.34683489, -3.26733672, -10.16612251, 2.34683489,
                           -3.26733672, -7.84916611, 6.35992109, -3.26733672, -3.78432885, 8.70675598, -3.26733672,
                           0.84958395, 8.70675598, -3.26733672, 4.91442121, 6.35992109, -3.26733672, 7.23137761,
                           2.34683489, -3.26733672, 7.23137761, -2.34683489, -3.26733672, 4.91442121, -6.35992109,
                           -3.26733672, 0.12371685, -2.32727976, 3.26733672, 2.81102804, -2.32727976, 3.26733672,
                           4.15468364, 0.0, 3.26733672, 2.81102804, 2.32727976, 3.26733672, 0.12371685, 2.32727976,
                           3.26733672, -1.21993874, 0.0, 3.26733672, 4.14850099, -4.64385085, 3.26733672, 2.75828635,
                           -6.93684965, 3.26733672, 0.17645855, -6.93684965, 3.26733672, -1.21375609, -4.64385085,
                           3.26733672, -3.89488463, 0.0, 3.26733672, -5.18557252, -2.3504606, 3.26733672, -3.89465863,
                           -4.58638906, 3.26733672, -5.18557252, 2.3504606, 3.26733672, -3.89465863, 4.58638906,
                           3.26733672, -1.21375609, 4.64385085, 3.26733672, 0.17645855, 6.93684965, 3.26733672,
                           2.75828635, 6.93684965, 3.26733672, 4.14850099, 4.64385085, 3.26733672, 6.82940352,
                           4.58638906, 3.26733672, 8.12031742, 2.3504606, 3.26733672, 6.82962953, 0.0, 3.26733672,
                           8.12031742, -2.3504606, 3.26733672, 6.82940352, -4.58638906, 3.26733672, 3.78432885,
                           -8.70675598, 3.26733672, -0.84958395, -8.70675598, 3.26733672, -4.91442121, -6.35992109,
                           3.26733672, -7.23137761, -2.34683489, 3.26733672, -7.23137761, 2.34683489, 3.26733672,
                           -4.91442121, 6.35992109, 3.26733672, -0.84958395, 8.70675598, 3.26733672, 3.78432885,
                           8.70675598, 3.26733672, 7.84916611, 6.35992109, 3.26733672, 10.16612251, 2.34683489,
                           3.26733672, 10.16612251, -2.34683489, 3.26733672, 7.84916611, -6.35992109, 3.26733672],
              'id': 2,
              'identifiers': {'molecular_formula': 'C48H24',
                              'molecule_hash': '5e8f6cf798e5af2fc45ad63c8cba340f6c4842b2'},
              'molecular_charge': 0.0,
              'molecular_multiplicity': 1,
              'name': 'C48H24',
              'provenance': {'creator': 'QCElemental',
                             'routine': 'qcelemental.molparse.from_string',
                             'version': '0.29.0'},
              'schema_name': 'qcschema_molecule',
              'schema_version': 2,
              'symbols': ['C', 'C', 'C', 'C', 'C', 'C', 'C', 'C', 'C', 'C', 'C', 'C', 'C', 'C', 'C', 'C', 'C', 'C', 'C',
                          'C', 'C', 'C', 'C', 'C', 'H', 'H', 'H', 'H', 'H', 'H', 'H', 'H', 'H', 'H', 'H', 'H', 'C', 'C',
                          'C', 'C', 'C', 'C', 'C', 'C', 'C', 'C', 'C', 'C', 'C', 'C', 'C', 'C', 'C', 'C', 'C', 'C', 'C',
                          'C', 'C', 'C', 'H', 'H', 'H', 'H', 'H', 'H', 'H', 'H', 'H', 'H', 'H', 'H'],
              'validated': True},
 'protocols': {},
 'provenance': {'creator': 'QCElemental', 'routine': 'qcelemental.models.results', 'version': '0.29.0'},
 'schema_name': 'qcschema_input',
 'schema_version': 1}
--------------------------------------------------------------------------

Scratch directory: /tmp/tmpuej63cr0_psi_scratch/
    SCF Algorithm Type (re)set to DF.
   => Libint2 <=

    Primary   basis highest AM E, G, H:  6, 6, 3
    Auxiliary basis highest AM E, G, H:  7, 7, 4
    Onebody   basis highest AM E, G, H:  -, -, -
    Solid Harmonics ordering:            Gaussian

*** tstart() called on atl1-1-02-004-2-2.pace.gatech.edu
*** at Sat Jun 13 16:31:06 2026

   => Loading Basis Set <=

    Name: AUG-CC-PVTZ
    Role: ORBITAL
    Keyword: BASIS
    atoms 1-24, 37-60  entry C          line   239 file /storage/home/hcoda1/5/vlita3/.conda/envs/p4_qcml/share/psi4/basis/aug-cc-pvtz.gbs 
    atoms 25-36, 61-72 entry H          line    40 file /storage/home/hcoda1/5/vlita3/.conda/envs/p4_qcml/share/psi4/basis/aug-cc-pvtz.gbs 


         ---------------------------------------------------------
                                   SCF
               by Justin Turney, Rob Parrish, Andy Simmonett
                          and Daniel G. A. Smith
                              RHF Reference
                       10 Threads, 256000 MiB Core
         ---------------------------------------------------------

  ==> Geometry <==

    Molecular point group: c2h
    Full point group: C2h

    Geometry (in Bohr), charge = 0, multiplicity = 1:

       Center              X                  Y                   Z               Mass       
    ------------   -----------------  -----------------  -----------------  -----------------
         C           -2.811028040000    -2.327279760000    -3.267336720000    12.000000000000
         C           -0.123716850000    -2.327279760000    -3.267336720000    12.000000000000
         C            1.219938740000     0.000000000000    -3.267336720000    12.000000000000
         C           -0.123716850000     2.327279760000    -3.267336720000    12.000000000000
         C           -2.811028040000     2.327279760000    -3.267336720000    12.000000000000
         C           -4.154683640000     0.000000000000    -3.267336720000    12.000000000000
         C            1.213756090000    -4.643850850000    -3.267336720000    12.000000000000
         C           -0.176458550000    -6.936849650000    -3.267336720000    12.000000000000
         C           -2.758286350000    -6.936849650000    -3.267336720000    12.000000000000
         C           -4.148500990000    -4.643850850000    -3.267336720000    12.000000000000
         C           -6.829629530000     0.000000000000    -3.267336720000    12.000000000000
         C           -8.120317420000    -2.350460600000    -3.267336720000    12.000000000000
         C           -6.829403520000    -4.586389060000    -3.267336720000    12.000000000000
         C           -8.120317420000     2.350460600000    -3.267336720000    12.000000000000
         C           -6.829403520000     4.586389060000    -3.267336720000    12.000000000000
         C           -4.148500990000     4.643850850000    -3.267336720000    12.000000000000
         C           -2.758286350000     6.936849650000    -3.267336720000    12.000000000000
         C           -0.176458550000     6.936849650000    -3.267336720000    12.000000000000
         C            1.213756090000     4.643850850000    -3.267336720000    12.000000000000
         C            3.894658630000     4.586389060000    -3.267336720000    12.000000000000
         C            5.185572520000     2.350460600000    -3.267336720000    12.000000000000
         C            3.894884630000     0.000000000000    -3.267336720000    12.000000000000
         C            5.185572520000    -2.350460600000    -3.267336720000    12.000000000000
         C            3.894658630000    -4.586389060000    -3.267336720000    12.000000000000
         H            0.849583950000    -8.706755980000    -3.267336720000     1.007825032230
         H           -3.784328850000    -8.706755980000    -3.267336720000     1.007825032230
         H           -7.849166110000    -6.359921090000    -3.267336720000     1.007825032230
         H          -10.166122510000    -2.346834890000    -3.267336720000     1.007825032230
         H          -10.166122510000     2.346834890000    -3.267336720000     1.007825032230
         H           -7.849166110000     6.359921090000    -3.267336720000     1.007825032230
         H           -3.784328850000     8.706755980000    -3.267336720000     1.007825032230
         H            0.849583950000     8.706755980000    -3.267336720000     1.007825032230
         H            4.914421210000     6.359921090000    -3.267336720000     1.007825032230
         H            7.231377610000     2.346834890000    -3.267336720000     1.007825032230
         H            7.231377610000    -2.346834890000    -3.267336720000     1.007825032230
         H            4.914421210000    -6.359921090000    -3.267336720000     1.007825032230
         C            0.123716850000    -2.327279760000     3.267336720000    12.000000000000
         C            2.811028040000    -2.327279760000     3.267336720000    12.000000000000
         C            4.154683640000     0.000000000000     3.267336720000    12.000000000000
         C            2.811028040000     2.327279760000     3.267336720000    12.000000000000
         C            0.123716850000     2.327279760000     3.267336720000    12.000000000000
         C           -1.219938740000     0.000000000000     3.267336720000    12.000000000000
         C            4.148500990000    -4.643850850000     3.267336720000    12.000000000000
         C            2.758286350000    -6.936849650000     3.267336720000    12.000000000000
         C            0.176458550000    -6.936849650000     3.267336720000    12.000000000000
         C           -1.213756090000    -4.643850850000     3.267336720000    12.000000000000
         C           -3.894884630000     0.000000000000     3.267336720000    12.000000000000
         C           -5.185572520000    -2.350460600000     3.267336720000    12.000000000000
         C           -3.894658630000    -4.586389060000     3.267336720000    12.000000000000
         C           -5.185572520000     2.350460600000     3.267336720000    12.000000000000
         C           -3.894658630000     4.586389060000     3.267336720000    12.000000000000
         C           -1.213756090000     4.643850850000     3.267336720000    12.000000000000
         C            0.176458550000     6.936849650000     3.267336720000    12.000000000000
         C            2.758286350000     6.936849650000     3.267336720000    12.000000000000
         C            4.148500990000     4.643850850000     3.267336720000    12.000000000000
         C            6.829403520000     4.586389060000     3.267336720000    12.000000000000
         C            8.120317420000     2.350460600000     3.267336720000    12.000000000000
         C            6.829629530000     0.000000000000     3.267336720000    12.000000000000
         C            8.120317420000    -2.350460600000     3.267336720000    12.000000000000
         C            6.829403520000    -4.586389060000     3.267336720000    12.000000000000
         H            3.784328850000    -8.706755980000     3.267336720000     1.007825032230
         H           -0.849583950000    -8.706755980000     3.267336720000     1.007825032230
         H           -4.914421210000    -6.359921090000     3.267336720000     1.007825032230
         H           -7.231377610000    -2.346834890000     3.267336720000     1.007825032230
         H           -7.231377610000     2.346834890000     3.267336720000     1.007825032230
         H           -4.914421210000     6.359921090000     3.267336720000     1.007825032230
         H           -0.849583950000     8.706755980000     3.267336720000     1.007825032230
         H            3.784328850000     8.706755980000     3.267336720000     1.007825032230
         H            7.849166110000     6.359921090000     3.267336720000     1.007825032230
         H           10.166122510000     2.346834890000     3.267336720000     1.007825032230
         H           10.166122510000    -2.346834890000     3.267336720000     1.007825032230
         H            7.849166110000    -6.359921090000     3.267336720000     1.007825032230

  Running in c2h symmetry.

  Rotational constants: A =      0.00378  B =      0.00326  C =      0.00251 [cm^-1]
  Rotational constants: A =    113.23902  B =     97.86670  C =     75.24221 [MHz]
  Nuclear repulsion = 6088.170067665134411

  Charge       = 0
  Multiplicity = 1
  Electrons    = 312
  Nalpha       = 156
  Nbeta        = 156

  ==> Algorithm <==

  SCF Algorithm Type is DF.
  DIIS enabled.
  MOM disabled.
  Fractional occupation disabled.
  Guess Type is SAD.
  Energy threshold   = 1.00e-08
  Density threshold  = 1.00e-08
  Integral threshold = 1.00e-12

  ==> Primary Basis <==

  Basis Set: AUG-CC-PVTZ
    Blend: AUG-CC-PVTZ
    Number of shells: 888
    Number of basis functions: 2760
    Number of Cartesian functions: 3240
    Spherical Harmonics?: true
    Max angular momentum: 3

   => Loading Basis Set <=

    Name: (AUG-CC-PVTZ AUX)
    Role: JKFIT
    Keyword: DF_BASIS_SCF
    atoms 1-24, 37-60  entry C          line   162 file /storage/home/hcoda1/5/vlita3/.conda/envs/p4_qcml/share/psi4/basis/aug-cc-pvtz-jkfit.gbs 
    atoms 25-36, 61-72 entry H          line    70 file /storage/home/hcoda1/5/vlita3/.conda/envs/p4_qcml/share/psi4/basis/aug-cc-pvtz-jkfit.gbs 

  ==> Integral Setup <==

  ==> DiskDFJK: Density-Fitted J/K Matrices <==

    J tasked:                  Yes
    K tasked:                  Yes
    wK tasked:                  No
    OpenMP threads:             10
    Integrals threads:          10
    Memory [MiB]:           192000
    Algorithm:                Core
    Integral Cache:           NONE
    Schwarz Cutoff:          1E-12
    Fitting Condition:       1E-10

   => Auxiliary Basis Set <=

  Basis Set: (AUG-CC-PVTZ AUX)
    Blend: AUG-CC-PVTZ-JKFIT
    Number of shells: 1776
    Number of basis functions: 6096
    Number of Cartesian functions: 7608
    Spherical Harmonics?: true
    Max angular momentum: 4

  Minimum eigenvalue in the overlap matrix is 1.3049964763E-10.
  Reciprocal condition number of the overlap matrix is 4.3273072668E-12.
    Using canonical orthogonalization.
  Overall, 31 of 2760 possible MOs eliminated.


  ==> Pre-Iterations <==

  SCF Guess: Superposition of Atomic Densities via on-the-fly atomic UHF (no occupation information).

   -------------------------
    Irrep   Nso     Nmo    
   -------------------------
     Ag       718     710 
     Bg       662     655 
     Au       662     654 
     Bu       718     710 
   -------------------------
    Total    2760    2729
   -------------------------

  ==> Iterations <==

                           Total Energy        Delta E     RMS |[F,P]|

   @DF-RHF iter SAD: -1836.52413042398689   -1.83652e+03   0.00000e+00 
   @DF-RHF iter   1: -1831.42851167150138    5.09562e+00   9.07657e-04 DIIS/ADIIS
   @DF-RHF iter   2: -1832.21264660233101   -7.84135e-01   4.51654e-04 DIIS/ADIIS
   @DF-RHF iter   3: -1832.38505580458036   -1.72409e-01   2.05077e-04 DIIS/ADIIS
   @DF-RHF iter   4: -1832.42280520773579   -3.77494e-02   7.40344e-05 DIIS
   @DF-RHF iter   5: -1832.42860294614184   -5.79774e-03   1.47090e-05 DIIS
   @DF-RHF iter   6: -1832.42888249132943   -2.79545e-04   4.63363e-06 DIIS
   @DF-RHF iter   7: -1832.42894520567597   -6.27143e-05   1.82062e-06 DIIS
   @DF-RHF iter   8: -1832.42896144382530   -1.62381e-05   8.62463e-07 DIIS
   @DF-RHF iter   9: -1832.42896478798411   -3.34416e-06   3.47351e-07 DIIS
   @DF-RHF iter  10: -1832.42896515984785   -3.71864e-07   1.42119e-07 DIIS
   @DF-RHF iter  11: -1832.42896521204284   -5.21950e-08   6.78617e-08 DIIS
   @DF-RHF iter  12: -1832.42896523655577   -2.45129e-08   4.33003e-08 DIIS
   @DF-RHF iter  13: -1832.42896525639799   -1.98422e-08   1.61210e-08 DIIS
   @DF-RHF iter  14: -1832.42896525892252   -2.52453e-09   6.24376e-09 DIIS
  Energy and wave function converged.


  ==> Post-Iterations <==

    Orbital Energies [Eh]
    ---------------------

    Doubly Occupied:                                                      

       1Ag   -11.242136     1Bu   -11.242136     1Bg   -11.241388  
       1Au   -11.241388     2Bu   -11.241376     2Ag   -11.241376  
       3Bu   -11.240933     3Ag   -11.240932     4Bu   -11.240657  
       4Ag   -11.240656     2Bg   -11.240569     2Au   -11.240568  
       5Ag   -11.239581     5Bu   -11.239581     3Bg   -11.239553  
       3Au   -11.239553     6Bu   -11.239362     6Ag   -11.239362  
       7Bu   -11.238821     7Ag   -11.238821     4Bg   -11.238749  
       4Au   -11.238749     8Bu   -11.237889     8Ag   -11.237889  
       5Bg   -11.235805     5Au   -11.235805     9Bu   -11.235719  
       9Ag   -11.235719     6Bg   -11.234230    10Bu   -11.234229  
       6Au   -11.234229    10Ag   -11.234228     7Bg   -11.234140  
       7Au   -11.234140    11Ag   -11.234116    11Bu   -11.234116  
      12Ag   -11.232373    12Bu   -11.232373     8Au   -11.232373  
       8Bg   -11.232373     9Au   -11.232053     9Bg   -11.232053  
      13Ag   -11.232039    13Bu   -11.232039    10Au   -11.230082  
      10Bg   -11.230082    14Ag   -11.230018    14Bu   -11.230017  
      15Ag    -1.214342    15Bu    -1.209708    11Au    -1.168219  
      16Bu    -1.167500    16Ag    -1.164571    11Bg    -1.163931  
      17Ag    -1.108275    12Bg    -1.108200    17Bu    -1.105782  
      12Au    -1.105567    18Ag    -1.087321    18Bu    -1.085002  
      13Au    -1.047758    13Bg    -1.046058    19Bu    -1.029684  
      19Ag    -1.028333    14Au    -1.009049    20Ag    -1.007772  
      20Bu    -1.007640    14Bg    -1.006650    21Ag    -0.967790  
      15Au    -0.966939    15Bg    -0.966531    21Bu    -0.966064  
      22Ag    -0.860453    16Au    -0.860409    22Bu    -0.859783  
      16Bg    -0.859657    17Bg    -0.858230    23Bu    -0.857767  
      23Ag    -0.857705    17Au    -0.857321    24Ag    -0.844096  
      24Bu    -0.843760    18Au    -0.771883    18Bg    -0.771569  
      25Bu    -0.757823    25Ag    -0.757705    19Au    -0.735817  
      26Ag    -0.735398    26Bu    -0.734667    19Bg    -0.734555  
      20Au    -0.720795    20Bg    -0.720556    27Bu    -0.700141  
      27Ag    -0.700013    28Ag    -0.649226    21Au    -0.648661  
      21Bg    -0.648158    28Bu    -0.648055    22Bg    -0.631573  
      29Ag    -0.631499    22Au    -0.631453    29Bu    -0.631417  
      23Bg    -0.629515    30Bu    -0.629336    23Au    -0.629159  
      30Ag    -0.629028    31Ag    -0.595128    32Ag    -0.589554  
      31Bu    -0.589049    24Au    -0.582813    33Ag    -0.582686  
      24Bg    -0.582197    32Bu    -0.582165    25Au    -0.578640  
      25Bg    -0.578630    33Bu    -0.562720    26Bg    -0.562225  
      26Au    -0.562069    34Ag    -0.562051    34Bu    -0.558665  
      27Au    -0.537247    35Bu    -0.529568    36Bu    -0.527577  
      35Ag    -0.527534    28Au    -0.525500    27Bg    -0.525326  
      28Bg    -0.510361    29Au    -0.509999    36Ag    -0.508193  
      30Au    -0.507092    37Bu    -0.506671    29Bg    -0.506617  
      37Ag    -0.505373    30Bg    -0.501537    38Ag    -0.456236  
      31Bg    -0.454604    38Bu    -0.454383    31Au    -0.454371  
      32Bg    -0.454048    39Ag    -0.453852    39Bu    -0.433795  
      32Au    -0.431899    40Ag    -0.427608    40Bu    -0.408255  
      33Au    -0.370641    33Bg    -0.354466    41Bu    -0.350798  
      41Ag    -0.340840    34Au    -0.336478    42Ag    -0.324707  
      42Bu    -0.323882    34Bg    -0.316803    43Ag    -0.263370  
      35Au    -0.256299    35Bg    -0.250285    43Bu    -0.245207  

    Virtual:                                                              

      36Au     0.024511    44Bu     0.024944    44Ag     0.025419  
      36Bg     0.031206    45Ag     0.031381    45Bu     0.036220  
      37Bg     0.039469    46Ag     0.040077    46Bu     0.041280  
      37Au     0.042207    47Bu     0.048131    38Au     0.048589  
      39Au     0.054682    47Ag     0.054925    38Bg     0.055599  
      48Ag     0.055881    49Ag     0.062175    39Bg     0.063315  
      48Bu     0.064340    40Bg     0.064439    50Ag     0.070948  
      40Au     0.071958    49Bu     0.072005    41Au     0.076637  
      50Bu     0.077604    51Bu     0.079481    52Bu     0.080170  
      42Au     0.080673    41Bg     0.087728    42Bg     0.089795  
      51Ag     0.090726    52Ag     0.093254    53Ag     0.095007  
      43Bg     0.096993    43Au     0.097897    54Ag     0.098361  
      53Bu     0.099114    44Bg     0.100557    54Bu     0.104361  
      45Bg     0.105407    55Ag     0.105500    44Au     0.110749  
      55Bu     0.112006    45Au     0.112739    46Bg     0.112816  
      56Bu     0.114773    56Ag     0.115366    57Bu     0.115617  
      57Ag     0.116987    46Au     0.117909    47Bg     0.120886  
      58Ag     0.122485    47Au     0.124091    58Bu     0.124301  
      48Au     0.124777    49Au     0.127698    59Bu     0.128502  
      60Bu     0.130840    59Ag     0.131483    48Bg     0.133143  
      60Ag     0.133612    61Bu     0.133637    50Au     0.135134  
      61Ag     0.136752    62Bu     0.142863    62Ag     0.143650  
      49Bg     0.144141    63Ag     0.146407    63Bu     0.151641  
      51Au     0.152355    50Bg     0.152814    64Bu     0.155223  
      64Ag     0.155301    51Bg     0.155377    65Ag     0.159914  
      52Bg     0.160016    52Au     0.162420    53Bg     0.162502  
      66Ag     0.163891    65Bu     0.165342    54Bg     0.168102  
      67Ag     0.169197    53Au     0.169476    66Bu     0.175864  
      68Ag     0.176014    55Bg     0.177276    54Au     0.178682  
      67Bu     0.181132    55Au     0.181302    68Bu     0.184340  
      56Au     0.184758    56Bg     0.187250    69Bu     0.187571  
      69Ag     0.190299    57Au     0.192056    70Bu     0.193366  
      71Bu     0.194090    57Bg     0.195499    58Au     0.195603  
      72Bu     0.197853    70Ag     0.202228    73Bu     0.202647  
      59Au     0.203390    60Au     0.208581    58Bg     0.209168  
      71Ag     0.212470    61Au     0.213074    74Bu     0.214668  
      72Ag     0.215848    59Bg     0.216588    62Au     0.216669  
      75Bu     0.216964    73Ag     0.219619    60Bg     0.220638  
      61Bg     0.223285    74Ag     0.223661    62Bg     0.224903  
      76Bu     0.225706    75Ag     0.226324    76Ag     0.228604  
      77Bu     0.228800    77Ag     0.233873    63Bg     0.234841  
      63Au     0.237984    64Bg     0.240788    78Ag     0.240973  
      78Bu     0.244242    79Ag     0.244550    64Au     0.247959  
      80Ag     0.248012    65Bg     0.248190    79Bu     0.249136  
      65Au     0.251370    66Bg     0.251614    66Au     0.254930  
      81Ag     0.255498    80Bu     0.255755    67Au     0.258150  
      82Ag     0.259867    83Ag     0.261809    81Bu     0.262235  
      67Bg     0.262325    82Bu     0.263892    68Bg     0.264246  
      84Ag     0.267041    68Au     0.267054    85Ag     0.269906  
      69Bg     0.270168    69Au     0.270228    83Bu     0.271131  
      70Bg     0.273593    84Bu     0.274085    85Bu     0.277251  
      86Ag     0.277910    70Au     0.278156    71Bg     0.278585  
      86Bu     0.279146    87Ag     0.279199    71Au     0.282003  
      72Bg     0.284397    72Au     0.284601    87Bu     0.286299  
      88Ag     0.286412    73Au     0.288382    89Ag     0.289278  
      73Bg     0.290287    88Bu     0.291408    74Au     0.291913  
      89Bu     0.292208    74Bg     0.292228    90Ag     0.293321  
      90Bu     0.294061    91Ag     0.297563    75Au     0.299502  
      75Bg     0.304553    91Bu     0.305789    92Ag     0.306180  
      76Bg     0.308931    76Au     0.311204    93Ag     0.313755  
      77Bg     0.313893    94Ag     0.314418    92Bu     0.316772  
      77Au     0.317289    78Bg     0.318659    93Bu     0.319298  
      95Ag     0.319310    96Ag     0.321807    94Bu     0.322415  
      78Au     0.324421    79Bg     0.326924    97Ag     0.327113  
      79Au     0.327944    95Bu     0.331356    80Bg     0.333775  
      96Bu     0.333911    80Au     0.333923    98Ag     0.334699  
      97Bu     0.337389    81Au     0.339799    98Bu     0.340365  
      81Bg     0.343255    82Bg     0.344606    99Bu     0.347951  
      99Ag     0.351456    82Au     0.353445   100Bu     0.356118  
      83Au     0.359106   101Bu     0.359605    83Bg     0.359905  
     100Ag     0.360912    84Au     0.362287   101Ag     0.363389  
      85Au     0.364662   102Bu     0.368691    86Au     0.373596  
      84Bg     0.375887    87Au     0.378352   103Bu     0.378665  
     104Bu     0.379961   102Ag     0.380245    85Bg     0.384589  
     103Ag     0.384880    88Au     0.385291   105Bu     0.386237  
      86Bg     0.388454   106Bu     0.391651    87Bg     0.392005  
      89Au     0.392476   104Ag     0.395368    88Bg     0.395861  
     107Bu     0.397570   105Ag     0.398632   106Ag     0.400100  
      89Bg     0.401037   107Ag     0.402395    90Bg     0.405575  
     108Bu     0.412022   108Ag     0.412498   109Ag     0.413732  
      90Au     0.415899   109Bu     0.416159   110Ag     0.418393  
     110Bu     0.418692    91Bg     0.419602    91Au     0.425635  
      92Bg     0.426202   111Ag     0.426590    92Au     0.427728  
     112Ag     0.429845    93Bg     0.432420    93Au     0.432599  
     111Bu     0.433802    94Au     0.434528   113Ag     0.436735  
     112Bu     0.437248   114Ag     0.439379    94Bg     0.441508  
     113Bu     0.441517   115Ag     0.442352    95Bg     0.443395  
     114Bu     0.444443    95Au     0.447914    96Au     0.448750  
     115Bu     0.448827   116Ag     0.450051    96Bg     0.450666  
      97Au     0.453268   117Ag     0.453383   116Bu     0.456051  
     118Ag     0.456182    97Bg     0.458897    98Au     0.458971  
     117Bu     0.459285    98Bg     0.461635   119Ag     0.462613  
      99Bg     0.462993    99Au     0.463324   118Bu     0.463603  
     100Bg     0.465672   119Bu     0.465738   101Bg     0.469892  
     120Ag     0.470833   100Au     0.471433   121Ag     0.472037  
     120Bu     0.472435   121Bu     0.474532   101Au     0.475820  
     122Ag     0.478233   122Bu     0.481731   102Bg     0.482816  
     102Au     0.484075   123Ag     0.484987   123Bu     0.485881  
     103Bg     0.487270   124Ag     0.488797   103Au     0.491221  
     104Bg     0.493595   124Bu     0.496638   125Ag     0.498861  
     105Bg     0.500325   126Ag     0.501038   125Bu     0.503999  
     106Bg     0.504132   104Au     0.505206   127Ag     0.506603  
     105Au     0.509869   126Bu     0.510333   127Bu     0.514241  
     107Bg     0.514273   106Au     0.514363   128Ag     0.515032  
     108Bg     0.516198   129Ag     0.516738   107Au     0.519379  
     128Bu     0.521208   129Bu     0.523569   130Ag     0.523927  
     109Bg     0.525450   131Ag     0.526286   108Au     0.527454  
     130Bu     0.528437   132Ag     0.528583   133Ag     0.529068  
     110Bg     0.530115   109Au     0.530884   131Bu     0.531085  
     110Au     0.536033   134Ag     0.536366   132Bu     0.538077  
     111Bg     0.539191   133Bu     0.539587   135Ag     0.540764  
     112Bg     0.541461   136Ag     0.542397   111Au     0.545540  
     134Bu     0.545733   112Au     0.548626   137Ag     0.548658  
     135Bu     0.550852   113Bg     0.551158   113Au     0.551284  
     114Au     0.553406   136Bu     0.555205   138Ag     0.555864  
     139Ag     0.556039   137Bu     0.557546   138Bu     0.559681  
     115Au     0.561321   114Bg     0.562277   115Bg     0.564588  
     116Au     0.565202   140Ag     0.568234   116Bg     0.568423  
     139Bu     0.569271   141Ag     0.569429   140Bu     0.570692  
     117Bg     0.572721   117Au     0.573083   142Ag     0.573493  
     141Bu     0.573602   118Bg     0.574069   118Au     0.575840  
     119Bg     0.577090   142Bu     0.578118   143Ag     0.578178  
     144Ag     0.581337   143Bu     0.581884   119Au     0.583891  
     120Bg     0.585790   120Au     0.585862   145Ag     0.587460  
     144Bu     0.588789   145Bu     0.590783   121Au     0.591487  
     146Ag     0.592497   121Bg     0.594413   122Au     0.594529  
     146Bu     0.597066   123Au     0.600174   122Bg     0.600207  
     147Ag     0.600285   147Bu     0.602068   148Bu     0.603348  
     123Bg     0.603534   124Au     0.607025   148Ag     0.608069  
     124Bg     0.609818   149Bu     0.610542   149Ag     0.612844  
     150Bu     0.613536   125Au     0.613547   125Bg     0.614145  
     150Ag     0.617462   151Bu     0.621183   126Au     0.622333  
     151Ag     0.622464   126Bg     0.623623   127Au     0.624091  
     152Ag     0.626897   128Au     0.627040   152Bu     0.627778  
     127Bg     0.629948   129Au     0.630617   153Bu     0.631545  
     153Ag     0.631698   130Au     0.632232   128Bg     0.635393  
     154Bu     0.636038   131Au     0.637544   129Bg     0.639637  
     154Ag     0.643362   155Ag     0.644195   130Bg     0.644880  
     155Bu     0.645570   131Bg     0.653782   132Bg     0.654630  
     156Ag     0.659259   132Au     0.660238   156Bu     0.661688  
     133Au     0.664934   157Ag     0.668035   133Bg     0.668102  
     157Bu     0.671314   134Bg     0.673827   158Bu     0.675571  
     158Ag     0.677423   135Bg     0.679137   134Au     0.679307  
     159Ag     0.679647   135Au     0.682236   159Bu     0.686099  
     136Au     0.689464   160Ag     0.692681   160Bu     0.694424  
     161Ag     0.696554   161Bu     0.700726   136Bg     0.701578  
     162Ag     0.705196   137Au     0.705771   137Bg     0.708175  
     162Bu     0.714838   138Au     0.716003   163Ag     0.718454  
     163Bu     0.721688   164Bu     0.724854   139Au     0.727372  
     138Bg     0.728356   164Ag     0.729302   140Au     0.730514  
     139Bg     0.731506   165Bu     0.732099   165Ag     0.733501  
     166Ag     0.734588   166Bu     0.734900   140Bg     0.739343  
     167Ag     0.739694   141Bg     0.743776   141Au     0.744020  
     167Bu     0.746817   142Au     0.748356   168Ag     0.752402  
     142Bg     0.753026   143Bg     0.755555   168Bu     0.756284  
     169Ag     0.756884   143Au     0.758863   169Bu     0.761106  
     144Au     0.761876   170Ag     0.765822   144Bg     0.765839  
     145Au     0.768095   170Bu     0.768604   145Bg     0.770124  
     171Bu     0.775385   171Ag     0.775930   146Au     0.778778  
     146Bg     0.779120   172Bu     0.781444   172Ag     0.782507  
     147Bg     0.783099   147Au     0.785701   173Bu     0.789481  
     173Ag     0.789747   174Bu     0.791234   148Au     0.792047  
     174Ag     0.792540   148Bg     0.793510   175Ag     0.797620  
     149Bg     0.799405   149Au     0.799628   176Ag     0.800141  
     150Bg     0.800927   175Bu     0.801863   150Au     0.804426  
     177Ag     0.805792   176Bu     0.806770   151Bg     0.806896  
     151Au     0.808089   177Bu     0.813255   152Au     0.814402  
     178Ag     0.816875   152Bg     0.817853   178Bu     0.820239  
     179Ag     0.822044   179Bu     0.825506   153Au     0.826029  
     180Bu     0.828551   153Bg     0.829508   180Ag     0.830754  
     181Ag     0.831328   154Au     0.831836   155Au     0.837775  
     154Bg     0.838095   182Ag     0.841339   155Bg     0.841661  
     181Bu     0.845988   156Bg     0.848210   183Ag     0.848660  
     182Bu     0.849739   157Bg     0.850925   156Au     0.851235  
     183Bu     0.851640   184Ag     0.853059   158Bg     0.853722  
     159Bg     0.857362   185Ag     0.859896   157Au     0.860016  
     184Bu     0.860747   186Ag     0.862397   158Au     0.863050  
     185Bu     0.863547   186Bu     0.865487   160Bg     0.866068  
     159Au     0.869773   187Ag     0.870474   187Bu     0.874969  
     160Au     0.875623   188Ag     0.875954   161Bg     0.877336  
     188Bu     0.880372   161Au     0.880742   189Ag     0.883533  
     162Bg     0.890153   190Ag     0.891665   189Bu     0.891665  
     162Au     0.892405   163Bg     0.896184   191Ag     0.896343  
     163Au     0.898025   190Bu     0.900942   192Ag     0.901770  
     164Au     0.903514   191Bu     0.904873   164Bg     0.906945  
     165Au     0.909311   193Ag     0.910866   165Bg     0.911875  
     166Au     0.914320   166Bg     0.916783   194Ag     0.916878  
     192Bu     0.918989   167Au     0.919349   193Bu     0.921562  
     167Bg     0.923053   195Ag     0.923147   194Bu     0.925764  
     195Bu     0.927609   196Ag     0.930311   168Au     0.930682  
     168Bg     0.934327   197Ag     0.938774   169Au     0.939073  
     196Bu     0.942016   169Bg     0.942293   170Bg     0.943596  
     198Ag     0.943679   170Au     0.944805   197Bu     0.947172  
     198Bu     0.947897   171Au     0.949889   199Ag     0.952520  
     171Bg     0.953417   172Au     0.954885   200Ag     0.955865  
     199Bu     0.956009   172Bg     0.956729   173Au     0.957474  
     200Bu     0.958217   201Ag     0.961711   202Ag     0.964278  
     201Bu     0.964517   173Bg     0.965009   174Au     0.965959  
     202Bu     0.970300   174Bg     0.971591   175Au     0.972156  
     176Au     0.974741   175Bg     0.975896   203Ag     0.975997  
     204Ag     0.978041   203Bu     0.980065   176Bg     0.981541  
     205Ag     0.982415   177Bg     0.983608   177Au     0.984281  
     178Au     0.985958   204Bu     0.987375   178Bg     0.989774  
     205Bu     0.991169   206Ag     0.993133   179Au     0.993717  
     206Bu     0.996348   207Ag     0.998387   180Au     1.000093  
     207Bu     1.000660   208Ag     1.000888   179Bg     1.003179  
     180Bg     1.004758   181Bg     1.005437   208Bu     1.005490  
     209Ag     1.008591   209Bu     1.009648   210Ag     1.010701  
     210Bu     1.013619   211Ag     1.015419   181Au     1.016046  
     211Bu     1.016612   182Au     1.018298   212Ag     1.022047  
     182Bg     1.023107   213Ag     1.024601   212Bu     1.024828  
     183Au     1.026729   183Bg     1.028236   213Bu     1.032821  
     184Bg     1.033580   184Au     1.034620   214Ag     1.036172  
     214Bu     1.036734   185Au     1.040166   215Bu     1.041365  
     185Bg     1.044536   186Bg     1.046459   215Ag     1.046744  
     216Bu     1.049131   216Ag     1.050706   186Au     1.051245  
     217Ag     1.051370   187Bg     1.052172   188Bg     1.057121  
     187Au     1.058897   217Bu     1.059352   218Ag     1.060903  
     219Ag     1.063793   188Au     1.065563   189Bg     1.067979  
     218Bu     1.068136   189Au     1.069149   190Bg     1.075840  
     220Ag     1.076311   219Bu     1.078371   191Bg     1.078877  
     190Au     1.080102   221Ag     1.082642   191Au     1.084060  
     222Ag     1.086940   192Au     1.087658   192Bg     1.087785  
     220Bu     1.088998   221Bu     1.089159   222Bu     1.092089  
     193Au     1.094352   223Ag     1.097867   223Bu     1.098535  
     193Bg     1.100455   224Bu     1.102186   224Ag     1.102294  
     194Au     1.103363   225Ag     1.108343   194Bg     1.108576  
     226Ag     1.112955   195Bg     1.117357   196Bg     1.117816  
     195Au     1.118139   225Bu     1.119223   227Ag     1.122646  
     196Au     1.122659   197Bg     1.125455   228Ag     1.125556  
     226Bu     1.127165   197Au     1.127226   227Bu     1.130643  
     198Bg     1.132287   228Bu     1.133248   229Ag     1.134935  
     198Au     1.136169   199Bg     1.136740   199Au     1.138783  
     230Ag     1.140538   200Au     1.143287   229Bu     1.144182  
     231Ag     1.144606   230Bu     1.147951   200Bg     1.150482  
     201Au     1.151096   232Ag     1.152334   201Bg     1.154245  
     231Bu     1.155078   202Au     1.158286   203Au     1.160451  
     233Ag     1.162120   232Bu     1.163821   233Bu     1.164541  
     234Ag     1.166814   202Bg     1.167379   204Au     1.168375  
     234Bu     1.168879   235Ag     1.170115   203Bg     1.171529  
     204Bg     1.172804   236Ag     1.174754   235Bu     1.176958  
     205Bg     1.181744   205Au     1.183098   206Bg     1.183804  
     237Ag     1.185191   206Au     1.185823   236Bu     1.188086  
     237Bu     1.188545   207Bg     1.191548   238Ag     1.193437  
     207Au     1.193552   208Au     1.194913   238Bu     1.199543  
     208Bg     1.199612   209Au     1.203894   209Bg     1.204262  
     239Ag     1.205093   239Bu     1.206965   240Ag     1.208124  
     210Bg     1.208219   240Bu     1.211336   210Au     1.211426  
     241Bu     1.214701   211Au     1.218179   241Ag     1.219923  
     211Bg     1.222975   212Bg     1.225211   242Ag     1.225518  
     212Au     1.229972   243Ag     1.230965   242Bu     1.231207  
     243Bu     1.233843   213Au     1.235261   213Bg     1.235625  
     244Ag     1.237290   244Bu     1.237765   245Ag     1.240075  
     214Au     1.242262   214Bg     1.246300   246Ag     1.247426  
     215Bg     1.247909   215Au     1.249274   245Bu     1.251229  
     246Bu     1.253867   247Ag     1.255427   247Bu     1.258409  
     216Au     1.259635   248Bu     1.260489   216Bg     1.261745  
     249Bu     1.263111   248Ag     1.263721   217Au     1.265395  
     217Bg     1.268036   249Ag     1.269713   218Bg     1.273160  
     250Ag     1.276490   251Ag     1.277763   250Bu     1.280712  
     218Au     1.283474   251Bu     1.284058   219Bg     1.284210  
     220Bg     1.287158   252Bu     1.287253   219Au     1.291574  
     252Ag     1.291730   220Au     1.293932   253Ag     1.294504  
     253Bu     1.295656   221Au     1.295884   254Bu     1.299065  
     255Bu     1.303100   254Ag     1.304084   221Bg     1.306474  
     222Au     1.307434   255Ag     1.310869   256Bu     1.311850  
     222Bg     1.312364   223Au     1.313334   257Bu     1.316837  
     223Bg     1.318207   256Ag     1.321574   258Bu     1.326261  
     224Bg     1.327256   257Ag     1.327848   224Au     1.329062  
     258Ag     1.329895   225Au     1.335717   225Bg     1.337177  
     259Ag     1.337369   226Au     1.338566   226Bg     1.340957  
     259Bu     1.341153   260Ag     1.341957   260Bu     1.343000  
     227Bg     1.345823   261Ag     1.347765   261Bu     1.352121  
     227Au     1.353984   228Bg     1.354504   262Bu     1.354897  
     262Ag     1.355109   228Au     1.358365   263Bu     1.359003  
     263Ag     1.363195   229Bg     1.364248   230Bg     1.365512  
     229Au     1.365886   264Ag     1.368103   264Bu     1.370877  
     230Au     1.371139   265Ag     1.375792   265Bu     1.377273  
     231Bg     1.377304   231Au     1.380264   232Au     1.382203  
     266Bu     1.385634   266Ag     1.386476   267Bu     1.388317  
     267Ag     1.388393   232Bg     1.388436   233Bg     1.394822  
     268Bu     1.395412   234Bg     1.398770   235Bg     1.400493  
     233Au     1.400923   268Ag     1.401149   269Bu     1.408097  
     269Ag     1.409791   234Au     1.410131   270Bu     1.414183  
     270Ag     1.419231   236Bg     1.420800   271Ag     1.423474  
     271Bu     1.423867   235Au     1.424396   237Bg     1.427301  
     272Bu     1.428691   236Au     1.429375   238Bg     1.432714  
     237Au     1.434636   273Bu     1.434838   272Ag     1.436030  
     238Au     1.437286   273Ag     1.437869   274Bu     1.438360  
     274Ag     1.440412   239Bg     1.441516   239Au     1.444884  
     275Bu     1.448359   240Bg     1.450019   276Bu     1.451593  
     241Bg     1.455540   275Ag     1.460633   240Au     1.461348  
     242Bg     1.462605   277Bu     1.462953   276Ag     1.464534  
     277Ag     1.466313   241Au     1.466933   278Ag     1.471752  
     243Bg     1.474051   244Bg     1.476146   242Au     1.478875  
     278Bu     1.479860   243Au     1.482129   279Bu     1.483918  
     245Bg     1.487371   244Au     1.488336   279Ag     1.491711  
     246Bg     1.493816   245Au     1.494730   280Ag     1.495081  
     280Bu     1.497788   246Au     1.499764   281Ag     1.503696  
     247Bg     1.505626   281Bu     1.507106   247Au     1.507634  
     282Ag     1.507652   248Bg     1.508201   248Au     1.512271  
     282Bu     1.513995   283Ag     1.515011   249Bg     1.519572  
     283Bu     1.520252   284Bu     1.524007   284Ag     1.526158  
     249Au     1.526893   250Bg     1.527808   285Bu     1.534229  
     285Ag     1.535236   251Bg     1.537344   286Ag     1.539047  
     286Bu     1.539363   250Au     1.539630   251Au     1.543790  
     252Au     1.545137   287Bu     1.546059   287Ag     1.548040  
     252Bg     1.548619   253Bg     1.554025   288Bu     1.555238  
     253Au     1.556047   288Ag     1.557166   289Ag     1.557587  
     254Bg     1.560686   289Bu     1.561862   254Au     1.562511  
     290Ag     1.564521   255Au     1.567663   255Bg     1.568596  
     256Bg     1.571894   291Ag     1.575066   257Bg     1.575568  
     290Bu     1.576617   256Au     1.581308   291Bu     1.581320  
     292Ag     1.584675   258Bg     1.587461   257Au     1.589070  
     292Bu     1.589922   293Ag     1.592616   258Au     1.593371  
     294Ag     1.598545   259Au     1.599527   293Bu     1.600134  
     259Bg     1.601135   294Bu     1.604403   260Bg     1.607524  
     295Bu     1.607563   260Au     1.608572   295Ag     1.609510  
     296Ag     1.611384   261Bg     1.614749   296Bu     1.617753  
     261Au     1.619670   262Bg     1.622136   262Au     1.624309  
     297Bu     1.625755   297Ag     1.626413   263Bg     1.628235  
     298Bu     1.632365   263Au     1.634212   299Bu     1.637594  
     298Ag     1.638559   264Au     1.639192   264Bg     1.640763  
     300Bu     1.644363   265Au     1.644688   299Ag     1.644698  
     300Ag     1.646267   265Bg     1.647501   266Bg     1.651671  
     301Ag     1.655054   302Ag     1.656941   266Au     1.657417  
     267Bg     1.661378   301Bu     1.662171   303Ag     1.665077  
     268Bg     1.666122   302Bu     1.667683   267Au     1.669156  
     303Bu     1.670002   268Au     1.672163   304Ag     1.672232  
     269Bg     1.673726   269Au     1.675538   304Bu     1.675938  
     305Ag     1.677720   270Au     1.682269   305Bu     1.685484  
     306Ag     1.687014   271Au     1.690892   307Ag     1.692263  
     270Bg     1.694173   271Bg     1.694832   272Bg     1.696860  
     306Bu     1.699769   307Bu     1.700635   308Ag     1.701202  
     309Ag     1.703675   272Au     1.703797   310Ag     1.706107  
     308Bu     1.709244   273Au     1.709646   274Au     1.712597  
     273Bg     1.713390   309Bu     1.714578   274Bg     1.716138  
     275Au     1.716312   310Bu     1.717638   275Bg     1.721132  
     311Ag     1.721722   276Au     1.721765   312Ag     1.725315  
     313Ag     1.729418   311Bu     1.730249   312Bu     1.734152  
     276Bg     1.736262   277Au     1.740050   277Bg     1.741791  
     314Ag     1.743060   313Bu     1.743998   315Ag     1.748281  
     278Au     1.749573   314Bu     1.750547   278Bg     1.752389  
     315Bu     1.754251   279Bg     1.755525   316Ag     1.756511  
     279Au     1.756780   317Ag     1.760058   280Au     1.760711  
     280Bg     1.761831   316Bu     1.764399   281Au     1.765801  
     281Bg     1.767116   317Bu     1.771209   318Bu     1.773417  
     282Au     1.774914   318Ag     1.775395   282Bg     1.777092  
     319Ag     1.779126   283Au     1.779167   283Bg     1.780060  
     284Bg     1.785340   320Ag     1.785344   319Bu     1.788429  
     284Au     1.789734   285Bg     1.792677   285Au     1.792952  
     320Bu     1.795508   286Au     1.796185   321Ag     1.798658  
     321Bu     1.801615   322Ag     1.803763   286Bg     1.808501  
     322Bu     1.812762   287Au     1.812769   287Bg     1.816539  
     323Ag     1.819636   288Bg     1.822177   323Bu     1.823203  
     324Ag     1.824770   288Au     1.825515   325Ag     1.828365  
     289Bg     1.828436   324Bu     1.829923   325Bu     1.833399  
     289Au     1.834365   326Bu     1.839214   326Ag     1.840964  
     290Bg     1.842044   290Au     1.845342   291Bg     1.846180  
     291Au     1.850181   327Ag     1.850860   328Ag     1.851460  
     327Bu     1.853141   292Au     1.854479   292Bg     1.855748  
     328Bu     1.857273   293Bg     1.861471   329Bu     1.861864  
     329Ag     1.865932   293Au     1.866836   330Ag     1.870100  
     294Au     1.872329   330Bu     1.872434   294Bg     1.874963  
     331Ag     1.876024   331Bu     1.877391   332Ag     1.880590  
     295Bg     1.883965   333Ag     1.884630   295Au     1.886599  
     296Bg     1.892694   334Ag     1.893351   332Bu     1.894520  
     333Bu     1.896863   296Au     1.898704   334Bu     1.903292  
     297Bg     1.903716   297Au     1.905398   335Ag     1.908360  
     335Bu     1.908703   298Au     1.910204   298Bg     1.910412  
     299Bg     1.912431   336Bu     1.916021   336Ag     1.916045  
     299Au     1.916051   300Au     1.917662   337Ag     1.918951  
     300Bg     1.919902   337Bu     1.922163   301Au     1.926115  
     338Bu     1.931770   301Bg     1.933649   339Bu     1.938899  
     338Ag     1.938982   302Bg     1.939758   339Ag     1.942223  
     340Bu     1.945886   303Bg     1.946372   340Ag     1.949704  
     302Au     1.950332   341Ag     1.951351   304Bg     1.952822  
     303Au     1.953799   341Bu     1.954598   342Ag     1.956252  
     342Bu     1.957305   304Au     1.960872   305Bg     1.962737  
     343Ag     1.969724   305Au     1.971208   343Bu     1.975879  
     306Bg     1.975890   344Ag     1.977275   306Au     1.982028  
     345Ag     1.985144   307Bg     1.985190   344Bu     1.985518  
     345Bu     1.986595   307Au     1.989005   346Bu     1.991792  
     308Au     1.994663   308Bg     1.995520   346Ag     1.996215  
     347Ag     2.000830   309Au     2.009033   347Bu     2.009635  
     309Bg     2.010858   348Ag     2.011897   310Bg     2.016867  
     348Bu     2.017093   311Bg     2.023361   310Au     2.023492  
     349Bu     2.025543   349Ag     2.030031   312Bg     2.031536  
     350Ag     2.034918   311Au     2.037786   350Bu     2.038220  
     313Bg     2.039541   351Bu     2.043683   351Ag     2.044623  
     312Au     2.046852   352Ag     2.054570   314Bg     2.055116  
     352Bu     2.057052   353Ag     2.063156   313Au     2.063813  
     353Bu     2.065012   315Bg     2.067208   314Au     2.075462  
     354Ag     2.076730   316Bg     2.077921   315Au     2.079860  
     354Bu     2.080028   316Au     2.083325   355Ag     2.089902  
     355Bu     2.091343   317Au     2.096261   356Ag     2.097965  
     356Bu     2.099318   317Bg     2.101037   318Au     2.102230  
     357Ag     2.103318   318Bg     2.106474   357Bu     2.106560  
     319Bg     2.113528   319Au     2.115829   320Bg     2.119599  
     320Au     2.121839   358Bu     2.126173   358Ag     2.133068  
     321Au     2.139075   321Bg     2.144107   322Au     2.147516  
     323Au     2.148350   359Ag     2.149201   360Ag     2.154620  
     324Au     2.156668   322Bg     2.157044   359Bu     2.159536  
     360Bu     2.163685   361Ag     2.164269   323Bg     2.166449  
     361Bu     2.168613   362Ag     2.172174   362Bu     2.174424  
     324Bg     2.175024   325Au     2.178746   325Bg     2.180792  
     363Ag     2.181284   326Au     2.184882   326Bg     2.185896  
     363Bu     2.191953   364Bu     2.196159   364Ag     2.197268  
     327Au     2.199536   327Bg     2.202572   365Ag     2.203139  
     365Bu     2.204341   366Bu     2.206083   328Bg     2.207008  
     366Ag     2.209426   328Au     2.212202   367Ag     2.215783  
     368Ag     2.221697   367Bu     2.223023   329Au     2.227136  
     329Bg     2.229466   369Ag     2.230252   330Au     2.231613  
     368Bu     2.233769   331Au     2.235207   330Bg     2.238332  
     369Bu     2.238867   331Bg     2.240556   370Ag     2.244965  
     332Au     2.246888   370Bu     2.247246   332Bg     2.249412  
     371Ag     2.251572   333Au     2.251828   372Ag     2.257888  
     333Bg     2.259490   373Ag     2.261839   371Bu     2.264506  
     372Bu     2.269416   374Ag     2.270504   334Bg     2.273505  
     334Au     2.275144   373Bu     2.276225   375Ag     2.276881  
     374Bu     2.277492   375Bu     2.280430   335Au     2.280558  
     335Bg     2.283374   336Bg     2.285567   376Ag     2.285840  
     336Au     2.288293   377Ag     2.289639   337Au     2.290231  
     337Bg     2.295152   376Bu     2.296600   378Ag     2.299403  
     338Au     2.300617   338Bg     2.302381   377Bu     2.304754  
     339Au     2.311838   378Bu     2.314726   340Au     2.316078  
     339Bg     2.316177   379Ag     2.317552   341Au     2.317596  
     379Bu     2.321639   340Bg     2.325977   342Au     2.332941  
     341Bg     2.332990   380Bu     2.333096   380Ag     2.334596  
     342Bg     2.340496   381Ag     2.340764   381Bu     2.343244  
     343Au     2.343786   343Bg     2.344421   382Ag     2.348169  
     344Bg     2.352349   344Au     2.353581   383Ag     2.357719  
     384Ag     2.358950   382Bu     2.362187   345Bg     2.364976  
     345Au     2.367868   346Au     2.373079   346Bg     2.375181  
     347Au     2.375854   385Ag     2.377694   383Bu     2.377922  
     384Bu     2.379640   347Bg     2.384141   385Bu     2.390558  
     386Ag     2.392017   386Bu     2.394581   348Bg     2.395189  
     348Au     2.403586   349Bg     2.406605   387Ag     2.406705  
     388Ag     2.407109   389Ag     2.411365   349Au     2.411782  
     350Bg     2.414706   387Bu     2.415402   350Au     2.416966  
     390Ag     2.423484   388Bu     2.425573   351Bg     2.427071  
     389Bu     2.431368   391Ag     2.434941   390Bu     2.435014  
     352Bg     2.441727   351Au     2.442336   392Ag     2.450117  
     393Ag     2.454821   353Bg     2.458770   352Au     2.460447  
     391Bu     2.464882   392Bu     2.466726   353Au     2.467294  
     394Ag     2.470895   354Au     2.473017   355Au     2.475266  
     354Bg     2.477235   393Bu     2.478052   395Ag     2.483048  
     355Bg     2.486021   394Bu     2.486429   356Au     2.487290  
     396Ag     2.493440   395Bu     2.495480   357Au     2.496761  
     356Bg     2.497351   397Ag     2.502062   357Bg     2.503021  
     358Au     2.508805   396Bu     2.510198   398Ag     2.517955  
     399Ag     2.520119   359Au     2.520461   358Bg     2.521087  
     397Bu     2.522122   359Bg     2.528659   400Ag     2.528919  
     360Au     2.529198   398Bu     2.530540   360Bg     2.538218  
     361Au     2.547471   361Bg     2.550096   399Bu     2.550757  
     400Bu     2.553319   362Bg     2.554240   401Ag     2.554561  
     402Ag     2.555096   362Au     2.557006   363Bg     2.560334  
     401Bu     2.561253   402Bu     2.565820   403Ag     2.566747  
     363Au     2.569428   364Bg     2.571615   364Au     2.574832  
     404Ag     2.575821   403Bu     2.577272   365Au     2.580500  
     404Bu     2.582741   405Ag     2.593584   365Bg     2.595732  
     366Au     2.595878   406Ag     2.603987   405Bu     2.605544  
     407Ag     2.606542   406Bu     2.608204   366Bg     2.615342  
     408Ag     2.616375   367Bg     2.616994   367Au     2.622310  
     368Bg     2.623809   407Bu     2.625052   409Ag     2.632286  
     369Bg     2.633049   368Au     2.635859   408Bu     2.640893  
     369Au     2.649048   410Ag     2.655656   370Bg     2.658696  
     370Au     2.660754   411Ag     2.662747   409Bu     2.662957  
     410Bu     2.667948   371Au     2.668016   371Bg     2.668968  
     412Ag     2.676573   411Bu     2.677966   372Au     2.678037  
     372Bg     2.679125   413Ag     2.686616   412Bu     2.688571  
     414Ag     2.693980   373Bg     2.695371   413Bu     2.696661  
     373Au     2.701775   415Ag     2.703283   374Bg     2.703673  
     375Bg     2.709833   414Bu     2.710426   374Au     2.714432  
     416Ag     2.718940   376Bg     2.722329   415Bu     2.727230  
     375Au     2.731726   417Ag     2.732920   376Au     2.736579  
     377Bg     2.736901   416Bu     2.742250   418Ag     2.748999  
     417Bu     2.750675   418Bu     2.762269   378Bg     2.763842  
     419Ag     2.764233   377Au     2.765166   419Bu     2.765520  
     378Au     2.774336   420Ag     2.779449   379Au     2.780083  
     379Bg     2.780195   421Ag     2.783024   420Bu     2.786898  
     380Bg     2.789617   422Ag     2.796508   380Au     2.800253  
     421Bu     2.802129   381Bg     2.802483   422Bu     2.806991  
     381Au     2.811078   423Bu     2.812438   382Bg     2.813537  
     423Ag     2.818132   424Ag     2.827104   382Au     2.827339  
     383Bg     2.827885   424Bu     2.831976   425Ag     2.839664  
     383Au     2.845160   425Bu     2.846093   426Ag     2.847705  
     426Bu     2.850877   384Au     2.852212   384Bg     2.855918  
     385Au     2.861917   427Bu     2.866089   385Bg     2.866691  
     427Ag     2.869144   386Bg     2.870525   428Bu     2.871635  
     428Ag     2.876333   387Bg     2.886444   386Au     2.888627  
     387Au     2.891631   388Bg     2.897170   429Bu     2.902207  
     429Ag     2.907478   389Bg     2.910345   430Ag     2.912459  
     388Au     2.912700   430Bu     2.912895   389Au     2.920964  
     390Bg     2.922364   390Au     2.924635   431Ag     2.925175  
     431Bu     2.926878   391Au     2.933524   391Bg     2.934323  
     432Ag     2.940056   392Au     2.946644   392Bg     2.946693  
     433Ag     2.947038   393Bg     2.947895   432Bu     2.948300  
     434Ag     2.954020   433Bu     2.956399   394Bg     2.960979  
     434Bu     2.964100   393Au     2.964256   435Ag     2.964947  
     394Au     2.969967   395Bg     2.971865   436Ag     2.974848  
     395Au     2.981584   396Bg     2.987048   435Bu     2.992008  
     396Au     2.997964   437Ag     2.999292   397Bg     3.004238  
     436Bu     3.005298   438Ag     3.005832   397Au     3.017011  
     439Ag     3.022469   398Bg     3.023264   437Bu     3.026425  
     438Bu     3.037656   399Bg     3.041922   398Au     3.043707  
     439Bu     3.055660   440Ag     3.058006   399Au     3.065066  
     440Bu     3.068486   441Ag     3.070116   400Bg     3.074152  
     400Au     3.089010   401Bg     3.089517   442Ag     3.104258  
     443Ag     3.125185   441Bu     3.126463   402Bg     3.134203  
     401Au     3.135660   442Bu     3.158136   402Au     3.159162  
     443Bu     3.166393   403Bg     3.169256   404Bg     3.197190  
     403Au     3.204076   444Ag     3.236699   444Bu     3.238032  
     405Bg     3.242505   404Au     3.246672   445Bu     3.248425  
     405Au     3.253880   406Bg     3.262343   445Ag     3.265933  
     406Au     3.277814   446Bu     3.279255   407Au     3.284866  
     407Bg     3.289031   446Ag     3.296910   447Bu     3.309501  
     408Au     3.313017   448Bu     3.319981   447Ag     3.320498  
     409Au     3.321324   408Bg     3.325481   448Ag     3.326145  
     410Au     3.336848   409Bg     3.338274   449Bu     3.343079  
     449Ag     3.344008   410Bg     3.345555   450Ag     3.350880  
     451Ag     3.356695   411Au     3.358287   450Bu     3.365928  
     411Bg     3.369395   451Bu     3.369955   452Ag     3.372833  
     412Au     3.375628   412Bg     3.381933   413Au     3.383792  
     452Bu     3.388345   453Ag     3.395542   453Bu     3.402858  
     454Ag     3.403861   414Au     3.403968   413Bg     3.405661  
     454Bu     3.410897   414Bg     3.415924   455Ag     3.416043  
     415Au     3.418300   456Ag     3.424078   457Ag     3.435788  
     455Bu     3.437368   415Bg     3.443947   416Au     3.451310  
     416Bg     3.452635   456Bu     3.457703   458Ag     3.458486  
     417Au     3.459595   457Bu     3.459765   417Bg     3.467438  
     459Ag     3.469295   418Au     3.471327   418Bg     3.472934  
     458Bu     3.475782   459Bu     3.480947   419Bg     3.489030  
     460Ag     3.489439   460Bu     3.492962   419Au     3.493195  
     461Bu     3.500917   420Au     3.501719   420Bg     3.510859  
     421Au     3.513048   461Ag     3.515558   421Bg     3.519594  
     462Bu     3.521237   462Ag     3.523233   422Au     3.527789  
     422Bg     3.528201   463Bu     3.540751   463Ag     3.542062  
     464Ag     3.544737   464Bu     3.552444   423Au     3.555409  
     465Ag     3.558863   466Ag     3.565398   423Bg     3.565970  
     465Bu     3.567485   467Ag     3.574492   468Ag     3.576296  
     466Bu     3.577147   424Au     3.578524   424Bg     3.578740  
     467Bu     3.583044   425Au     3.584551   425Bg     3.588050  
     426Bg     3.591921   469Ag     3.592589   468Bu     3.594066  
     426Au     3.596059   469Bu     3.600527   470Ag     3.603829  
     470Bu     3.606553   427Bg     3.607348   471Ag     3.613776  
     427Au     3.615842   471Bu     3.617245   428Au     3.622340  
     472Ag     3.624139   428Bg     3.624391   472Bu     3.624744  
     429Bg     3.630673   473Ag     3.630816   429Au     3.633034  
     473Bu     3.635275   430Bg     3.636729   430Au     3.639513  
     474Bu     3.644394   431Bg     3.645739   474Ag     3.648448  
     431Au     3.650128   432Au     3.653966   475Bu     3.654961  
     475Ag     3.660810   432Bg     3.661737   476Ag     3.662526  
     433Bg     3.664665   476Bu     3.666665   477Ag     3.671023  
     477Bu     3.673099   433Au     3.673127   478Bu     3.676621  
     478Ag     3.678168   434Bg     3.682199   479Bu     3.685551  
     435Bg     3.687922   479Ag     3.690935   434Au     3.691371  
     480Ag     3.698795   480Bu     3.698974   481Ag     3.701348  
     436Bg     3.703068   435Au     3.703471   481Bu     3.704977  
     482Ag     3.706314   436Au     3.707271   437Bg     3.709691  
     437Au     3.716061   483Ag     3.718431   438Au     3.719060  
     438Bg     3.723859   482Bu     3.724762   483Bu     3.727059  
     439Au     3.728438   484Ag     3.730016   439Bg     3.730234  
     484Bu     3.733652   485Bu     3.734168   485Ag     3.736340  
     486Ag     3.739589   440Bg     3.739903   487Ag     3.743717  
     440Au     3.750549   441Bg     3.751932   486Bu     3.753524  
     441Au     3.757997   487Bu     3.769169   442Bg     3.771886  
     488Ag     3.772793   442Au     3.773183   443Bg     3.773328  
     489Ag     3.778858   444Bg     3.780045   488Bu     3.782720  
     443Au     3.783690   489Bu     3.785967   490Ag     3.789633  
     444Au     3.791943   445Bg     3.795341   491Ag     3.795602  
     445Au     3.798362   446Bg     3.801682   490Bu     3.802114  
     492Ag     3.802929   446Au     3.805758   491Bu     3.808801  
     493Ag     3.811301   447Bg     3.819136   492Bu     3.820626  
     448Bg     3.824618   447Au     3.825448   448Au     3.827691  
     494Ag     3.828341   495Ag     3.832464   493Bu     3.832574  
     449Bg     3.839994   449Au     3.840011   450Bg     3.843465  
     496Ag     3.844594   494Bu     3.849692   451Bg     3.852407  
     450Au     3.853132   495Bu     3.853273   497Ag     3.859397  
     451Au     3.860321   496Bu     3.862827   497Bu     3.863570  
     452Bg     3.865772   452Au     3.867749   498Ag     3.868761  
     498Bu     3.870348   453Au     3.875440   453Bg     3.875484  
     499Ag     3.879629   499Bu     3.885447   454Au     3.886146  
     454Bg     3.888019   500Ag     3.894169   455Au     3.898308  
     500Bu     3.898350   501Ag     3.898947   455Bg     3.900121  
     456Au     3.903996   501Bu     3.906184   457Au     3.907732  
     502Ag     3.912629   502Bu     3.913775   458Au     3.916084  
     503Ag     3.918066   456Bg     3.918085   503Bu     3.918418  
     457Bg     3.924103   504Bu     3.925352   458Bg     3.927416  
     504Ag     3.935615   459Au     3.936067   460Au     3.937688  
     505Ag     3.940608   505Bu     3.944057   459Bg     3.944650  
     506Bu     3.947453   506Ag     3.947920   460Bg     3.949101  
     507Ag     3.957306   461Bg     3.958709   507Bu     3.959526  
     508Ag     3.960620   461Au     3.961929   462Bg     3.968335  
     509Ag     3.968783   462Au     3.970709   463Bg     3.971012  
     508Bu     3.978212   510Ag     3.983095   464Bg     3.985012  
     509Bu     3.985448   463Au     3.985916   464Au     3.987361  
     510Bu     3.988384   465Bg     3.989780   511Ag     3.990320  
     511Bu     3.992613   512Ag     3.993376   465Au     4.000092  
     512Bu     4.001271   466Bg     4.001496   513Ag     4.006112  
     466Au     4.012229   467Bg     4.013349   467Au     4.015158  
     514Ag     4.016097   513Bu     4.022419   514Bu     4.025204  
     468Bg     4.027331   515Ag     4.030475   469Bg     4.032882  
     516Ag     4.034487   515Bu     4.040952   468Au     4.041820  
     470Bg     4.044248   516Bu     4.045412   517Bu     4.052040  
     471Bg     4.056859   517Ag     4.060579   469Au     4.063121  
     518Bu     4.064700   470Au     4.066444   518Ag     4.066926  
     472Bg     4.071479   519Ag     4.073265   519Bu     4.079295  
     520Ag     4.080311   471Au     4.080420   520Bu     4.082460  
     472Au     4.083336   521Bu     4.087063   473Bg     4.090347  
     521Ag     4.091067   473Au     4.093683   474Au     4.095983  
     522Ag     4.097203   474Bg     4.098380   522Bu     4.100201  
     523Ag     4.103166   475Bg     4.108559   523Bu     4.114142  
     475Au     4.114603   524Ag     4.114605   476Au     4.117605  
     524Bu     4.117940   476Bg     4.119045   477Bg     4.123410  
     525Ag     4.124468   525Bu     4.127745   477Au     4.130472  
     478Bg     4.130753   526Ag     4.131428   479Bg     4.133980  
     526Bu     4.137181   527Ag     4.140943   528Ag     4.143132  
     527Bu     4.144314   478Au     4.145121   529Ag     4.151731  
     528Bu     4.153953   479Au     4.154306   529Bu     4.157982  
     530Bu     4.160737   480Bg     4.163179   480Au     4.163801  
     481Bg     4.165084   531Bu     4.165165   530Ag     4.165954  
     482Bg     4.171836   481Au     4.172867   531Ag     4.174982  
     483Bg     4.178651   532Bu     4.178761   482Au     4.179562  
     483Au     4.181978   532Ag     4.184701   533Bu     4.187412  
     484Bg     4.191767   485Bg     4.195886   484Au     4.196848  
     533Ag     4.197043   534Bu     4.197408   535Bu     4.199143  
     485Au     4.201767   486Bg     4.203297   534Ag     4.204114  
     536Bu     4.209890   486Au     4.211610   535Ag     4.213118  
     487Bg     4.213692   487Au     4.217662   537Bu     4.218269  
     536Ag     4.220311   488Au     4.227467   538Bu     4.228686  
     488Bg     4.229448   537Ag     4.235184   539Bu     4.237380  
     489Au     4.239424   538Ag     4.239650   489Bg     4.241082  
     539Ag     4.244774   490Bg     4.248404   491Bg     4.253396  
     540Bu     4.254012   540Ag     4.255607   490Au     4.259093  
     541Bu     4.260015   541Ag     4.260105   491Au     4.263667  
     492Bg     4.267551   492Au     4.269129   542Ag     4.270640  
     493Bg     4.274305   543Ag     4.280618   493Au     4.280812  
     542Bu     4.281674   494Au     4.286965   494Bg     4.287130  
     543Bu     4.288436   495Bg     4.291660   544Ag     4.291706  
     544Bu     4.293801   495Au     4.298296   496Bg     4.300499  
     496Au     4.301552   545Ag     4.302430   545Bu     4.302714  
     546Ag     4.303133   497Bg     4.309875   546Bu     4.313709  
     547Ag     4.318826   497Au     4.323470   498Bg     4.325582  
     547Bu     4.326121   499Bg     4.327823   498Au     4.332241  
     548Ag     4.334334   548Bu     4.336702   500Bg     4.337117  
     499Au     4.337431   549Ag     4.337996   500Au     4.346416  
     550Ag     4.349478   549Bu     4.350898   551Ag     4.356452  
     550Bu     4.357228   552Ag     4.357923   501Bg     4.361077  
     501Au     4.365541   551Bu     4.366423   502Bg     4.368630  
     502Au     4.378202   553Ag     4.382654   503Au     4.384155  
     552Bu     4.386924   554Ag     4.390167   503Bg     4.390203  
     504Au     4.391305   553Bu     4.394097   504Bg     4.394975  
     554Bu     4.398756   505Bg     4.399025   555Ag     4.403604  
     505Au     4.405443   555Bu     4.406158   506Au     4.410059  
     556Ag     4.414415   557Ag     4.417127   506Bg     4.417177  
     556Bu     4.418306   558Ag     4.419380   507Bg     4.427401  
     557Bu     4.428066   507Au     4.430367   559Ag     4.432091  
     508Au     4.434992   508Bg     4.436520   509Au     4.438922  
     558Bu     4.440261   509Bg     4.442121   559Bu     4.443099  
     560Ag     4.445040   510Au     4.447382   560Bu     4.450846  
     561Ag     4.452597   510Bg     4.454047   561Bu     4.456800  
     511Bg     4.458973   562Ag     4.460083   562Bu     4.463104  
     511Au     4.463844   512Bg     4.469509   563Ag     4.469652  
     564Ag     4.471545   512Au     4.473114   513Au     4.478756  
     513Bg     4.479294   563Bu     4.479878   514Au     4.480644  
     565Ag     4.482417   514Bg     4.487997   515Au     4.488245  
     564Bu     4.490809   515Bg     4.493599   566Ag     4.493875  
     565Bu     4.496708   516Au     4.501246   516Bg     4.502924  
     566Bu     4.504358   517Bg     4.505345   517Au     4.506325  
     567Ag     4.506361   567Bu     4.514175   568Ag     4.514786  
     518Bg     4.516119   568Bu     4.518699   518Au     4.520366  
     569Ag     4.522176   569Bu     4.526387   519Bg     4.527978  
     570Ag     4.530030   520Bg     4.536655   519Au     4.538279  
     570Bu     4.539539   520Au     4.542142   571Ag     4.545435  
     521Bg     4.546152   571Bu     4.546283   572Ag     4.549575  
     572Bu     4.551200   522Bg     4.551626   523Bg     4.552678  
     521Au     4.558914   522Au     4.562948   573Ag     4.563049  
     573Bu     4.563843   574Bu     4.565475   524Bg     4.571826  
     523Au     4.574871   574Ag     4.577841   575Bu     4.583804  
     576Bu     4.589149   525Bg     4.589638   575Ag     4.590050  
     526Bg     4.592032   524Au     4.592271   576Ag     4.599214  
     577Bu     4.605257   525Au     4.607599   577Ag     4.609895  
     527Bg     4.611276   578Bu     4.613068   578Ag     4.613456  
     528Bg     4.618721   526Au     4.619046   527Au     4.625024  
     579Bu     4.626425   580Bu     4.628980   529Bg     4.629814  
     579Ag     4.629951   528Au     4.631038   529Au     4.631660  
     530Bg     4.636982   530Au     4.640942   531Bg     4.641407  
     580Ag     4.641912   581Ag     4.646636   581Bu     4.646860  
     532Bg     4.647530   582Ag     4.653513   531Au     4.654204  
     533Bg     4.657746   582Bu     4.657779   583Ag     4.661927  
     583Bu     4.664558   584Ag     4.666129   532Au     4.666445  
     534Bg     4.671533   585Ag     4.671788   533Au     4.675301  
     584Bu     4.678222   534Au     4.679996   535Bg     4.687591  
     585Bu     4.687896   586Ag     4.689067   535Au     4.690557  
     536Bg     4.696658   586Bu     4.697242   587Ag     4.701568  
     537Bg     4.707583   536Au     4.708733   587Bu     4.710423  
     588Ag     4.712251   588Bu     4.712586   537Au     4.714041  
     538Bg     4.721953   589Ag     4.723191   590Ag     4.727611  
     539Bg     4.733455   589Bu     4.736500   538Au     4.739035  
     591Ag     4.741840   590Bu     4.744947   591Bu     4.746714  
     539Au     4.751588   540Bg     4.754875   540Au     4.755482  
     592Bu     4.756572   592Ag     4.757182   541Bg     4.757646  
     593Ag     4.764322   541Au     4.765737   593Bu     4.766591  
     542Bg     4.769414   594Bu     4.777719   594Ag     4.782195  
     543Bg     4.783044   542Au     4.783460   595Ag     4.789836  
     544Bg     4.793530   595Bu     4.795881   596Bu     4.798859  
     543Au     4.799173   544Au     4.801668   545Bg     4.802952  
     596Ag     4.804885   597Bu     4.805578   545Au     4.807266  
     546Bg     4.807631   597Ag     4.808182   546Au     4.810107  
     547Au     4.813600   598Ag     4.816368   548Au     4.819597  
     599Ag     4.824313   598Bu     4.824600   547Bg     4.825452  
     548Bg     4.829667   599Bu     4.830150   600Bu     4.832432  
     549Au     4.838668   549Bg     4.839782   600Ag     4.840331  
     601Bu     4.842295   550Bg     4.842397   601Ag     4.846249  
     550Au     4.850319   551Bg     4.853111   602Ag     4.858080  
     602Bu     4.861497   551Au     4.861766   603Bu     4.863487  
     552Bg     4.865356   603Ag     4.874880   552Au     4.885242  
     604Bu     4.887130   604Ag     4.888763   553Bg     4.894299  
     553Au     4.896175   605Ag     4.899689   605Bu     4.904210  
     554Bg     4.907641   606Ag     4.908651   555Bg     4.911785  
     554Au     4.912404   606Bu     4.914022   556Bg     4.918246  
     607Ag     4.919627   607Bu     4.920887   555Au     4.921579  
     608Bu     4.927630   608Ag     4.930859   557Bg     4.941532  
     609Bu     4.942465   609Ag     4.943517   556Au     4.944636  
     558Bg     4.947170   610Bu     4.952472   557Au     4.952832  
     610Ag     4.952854   558Au     4.957119   559Bg     4.958222  
     611Bu     4.968899   611Ag     4.970453   560Bg     4.974076  
     612Ag     4.976912   559Au     4.976961   612Bu     4.978678  
     561Bg     4.980622   560Au     4.981559   613Ag     4.988501  
     562Bg     4.994887   561Au     4.995806   613Bu     5.000495  
     614Ag     5.001684   614Bu     5.011452   615Bu     5.013444  
     562Au     5.015858   563Bg     5.020758   615Ag     5.021090  
     564Bg     5.027634   616Ag     5.030296   563Au     5.032422  
     616Bu     5.037131   565Bg     5.039561   564Au     5.043932  
     617Ag     5.050790   565Au     5.053115   618Ag     5.056650  
     617Bu     5.058290   566Bg     5.059833   567Bg     5.060564  
     618Bu     5.064117   566Au     5.065630   619Ag     5.069023  
     567Au     5.072138   568Au     5.083307   568Bg     5.084016  
     619Bu     5.089053   569Au     5.093039   620Ag     5.093421  
     569Bg     5.096923   570Bg     5.106161   570Au     5.107789  
     621Ag     5.110011   620Bu     5.110331   621Bu     5.111443  
     571Bg     5.119129   571Au     5.121980   572Au     5.125079  
     622Bu     5.126832   622Ag     5.128371   572Bg     5.129086  
     623Ag     5.132807   624Ag     5.135281   573Bg     5.135658  
     623Bu     5.136389   624Bu     5.138297   573Au     5.138421  
     574Bg     5.138662   574Au     5.142204   625Ag     5.144864  
     575Au     5.150675   626Ag     5.150979   575Bg     5.151100  
     625Bu     5.151972   576Bg     5.153609   626Bu     5.165082  
     577Bg     5.165657   627Ag     5.168197   627Bu     5.170913  
     628Ag     5.172431   576Au     5.174416   578Bg     5.177729  
     628Bu     5.179644   629Ag     5.188901   577Au     5.194163  
     579Bg     5.199613   630Ag     5.200122   629Bu     5.200703  
     578Au     5.206963   630Bu     5.213216   579Au     5.222163  
     580Bg     5.227346   580Au     5.228524   631Bu     5.232668  
     632Bu     5.233342   631Ag     5.236217   581Bg     5.239393  
     633Bu     5.249334   632Ag     5.251235   581Au     5.254578  
     633Ag     5.254935   582Au     5.259624   634Ag     5.261255  
     582Bg     5.261680   634Bu     5.263279   635Ag     5.266370  
     583Bg     5.277000   583Au     5.278694   584Bg     5.280973  
     635Bu     5.281851   636Ag     5.284826   636Bu     5.284915  
     585Bg     5.288493   584Au     5.288753   637Bu     5.298913  
     637Ag     5.302141   586Bg     5.304682   585Au     5.308530  
     587Bg     5.309693   638Ag     5.310567   639Ag     5.313614  
     638Bu     5.314675   588Bg     5.322970   639Bu     5.325778  
     586Au     5.326547   587Au     5.328973   640Ag     5.329969  
     641Ag     5.333692   640Bu     5.343011   641Bu     5.344023  
     589Bg     5.344276   588Au     5.344670   589Au     5.356315  
     590Bg     5.369679   590Au     5.369851   642Ag     5.371723  
     591Bg     5.375634   642Bu     5.377409   643Ag     5.377944  
     644Ag     5.379004   643Bu     5.380938   591Au     5.383749  
     592Bg     5.384119   592Au     5.394236   644Bu     5.396666  
     593Bg     5.397043   593Au     5.399428   594Bg     5.406398  
     645Ag     5.416592   594Au     5.420527   645Bu     5.421891  
     646Bu     5.432796   647Bu     5.438322   595Bg     5.443237  
     646Ag     5.453197   647Ag     5.460097   595Au     5.460103  
     596Bg     5.465644   596Au     5.469778   648Bu     5.469791  
     597Au     5.470432   648Ag     5.475080   597Bg     5.477913  
     649Ag     5.480080   598Bg     5.480707   649Bu     5.483583  
     650Bu     5.489436   650Ag     5.492437   651Ag     5.499177  
     598Au     5.500061   599Bg     5.502538   651Bu     5.509781  
     599Au     5.512818   652Bu     5.513864   652Ag     5.516991  
     653Ag     5.524615   600Bg     5.532394   600Au     5.534998  
     653Bu     5.536576   654Bu     5.542686   601Bg     5.547381  
     654Ag     5.549716   602Bg     5.597378   655Bu     5.605698  
     655Ag     5.610736   603Bg     5.613098   601Au     5.613386  
     602Au     5.618923   656Ag     5.634529   656Bu     5.644212  
     603Au     5.645921   604Bg     5.646864   657Ag     5.649911  
     657Bu     5.652582   605Bg     5.661308   604Au     5.663265  
     658Bu     5.667596   605Au     5.674355   658Ag     5.675303  
     606Bg     5.683195   659Bu     5.687563   660Bu     5.693830  
     606Au     5.695434   659Ag     5.700061   607Bg     5.700279  
     660Ag     5.701805   661Ag     5.754155   661Bu     5.763363  
     608Bg     5.766333   607Au     5.769368   609Bg     5.793235  
     608Au     5.799255   662Ag     5.800988   662Bu     5.807857  
     610Bg     5.808414   609Au     5.816360   663Ag     5.816870  
     611Bg     5.820445   610Au     5.820707   663Bu     5.820794  
     664Bu     5.834477   664Ag     5.841720   611Au     5.849248  
     612Bg     5.849764   665Bu     5.855783   665Ag     5.856476  
     613Bg     5.879961   612Au     5.883292   666Ag     5.917142  
     613Au     5.919049   614Bg     5.921025   666Bu     5.924817  
     667Bu     5.930810   667Ag     5.931518   615Bg     5.934206  
     614Au     5.936340   615Au     5.938057   616Bg     5.953821  
     668Ag     5.989799   668Bu     6.004611   669Bu     6.013636  
     669Ag     6.014108   617Bg     6.016398   616Au     6.025540  
     670Bu     6.067198   617Au     6.071444   670Ag     6.078962  
     618Bg     6.086842   671Bu     6.092057   671Ag     6.094356  
     672Bu     6.162748   672Ag     6.163201   618Au     6.165021  
     619Bg     6.167198   619Au     6.195574   620Bg     6.201007  
     620Au     6.210063   673Bu     6.215491   673Ag     6.223361  
     621Bg     6.231955   621Au     6.248163   622Bg     6.248721  
     674Ag     6.249548   674Bu     6.258236   623Bg     6.306557  
     675Bu     6.317428   675Ag     6.325457   622Au     6.337947  
     676Bu     6.492841   623Au     6.499350   676Ag     6.511820  
     677Bu     6.520578   624Bg     6.524156   677Ag     6.549050  
     624Au     6.595711   625Au     6.597896   625Bg     6.599077  
     678Ag     6.603187   678Bu     6.609678   626Bg     6.617215  
     679Bu     6.620893   627Bg     6.625037   680Bu     6.630143  
     626Au     6.631137   679Ag     6.633595   680Ag     6.642417  
     627Au     6.643513   681Bu     6.644389   681Ag     6.649987  
     628Bg     6.650488   629Bg     6.657682   630Bg     6.678705  
     628Au     6.689098   682Ag     6.706531   631Bg     6.707290  
     629Au     6.711834   682Bu     6.724534   632Bg     6.742572  
     683Ag     6.743604   683Bu     6.745595   630Au     6.747404  
     631Au     6.761492   684Bu     6.764551   684Ag     6.765762  
     632Au     6.769326   633Bg     6.772502   633Au     6.811551  
     685Bu     6.826532   685Ag     6.831680   686Bu     6.849313  
     634Au     6.850454   686Ag     6.850495   634Bg     6.852513  
     687Ag     6.859486   687Bu     6.862362   635Bg     6.863925  
     635Au     6.882178   636Bg     6.887926   688Bu     6.908378  
     688Ag     6.910337   689Bu     7.016682   636Au     7.020850  
     689Ag     7.020903   690Ag     7.026104   637Au     7.035644  
     637Bg     7.035830   638Bg     7.040826   690Bu     7.042743  
     691Ag     7.067131   691Bu     7.079899   639Bg     7.088822  
     638Au     7.098665   692Ag     7.098824   639Au     7.105483  
     692Bu     7.105590   693Bu     7.119207   693Ag     7.125309  
     640Bg     7.127430   640Au     7.150133   641Bg     7.172492  
     641Au     7.182729   694Bu     7.184817   694Ag     7.192651  
     642Bg     7.208796   695Bu     7.287234   642Au     7.295279  
     695Ag     7.295964   643Bg     7.296135   696Ag     7.300560  
     696Bu     7.313676   644Bg     7.336322   643Au     7.343742  
     645Bg     7.648602   644Au     7.651405   697Ag    15.870011  
     697Bu    15.963863   646Bg    16.693505   698Bu    16.708103  
     698Ag    16.818751   645Au    16.821396   699Bu    17.942554  
     699Ag    18.026564   647Bg    18.032386   646Au    18.073572  
     700Bu    18.416864   700Ag    18.424973   648Bg    18.469829  
     647Au    18.475113   649Bg    19.129499   701Ag    19.136828  
     701Bu    19.162533   648Au    19.187644   649Au    20.725158  
     702Bu    20.760793   702Ag    20.832152   650Bg    20.891691  
     703Bu    21.059750   703Ag    21.519554   651Bg    21.615744  
     650Au    21.704314   704Ag    21.947089   704Bu    21.978626  
     652Bg    22.026018   651Au    22.086695   705Ag    22.114282  
     653Bg    22.160941   705Bu    22.254842   652Au    22.453798  
     706Bu    22.763956   706Ag    22.796120   707Bu    22.869715  
     707Ag    23.129997   708Bu    23.652481   653Au    23.739710  
     708Ag    23.754480   654Bg    23.783376   709Bu    24.191797  
     709Ag    24.249215   710Bu    24.318278   710Ag    24.416593  
     654Au    24.433397   655Bg    24.474938  

    Final Occupation by Irrep:
             Ag    Bg    Au    Bu 
    DOCC [    43,   35,   35,   43 ]
    NA   [    43,   35,   35,   43 ]
    NB   [    43,   35,   35,   43 ]

  @DF-RHF Final Energy: -1832.42896525892252

   => Energetics <=

    Nuclear Repulsion Energy =           6088.1700676651344111
    One-Electron Energy =              -14614.0136835320081445
    Two-Electron Energy =                6693.4146506079514438
    Total Energy =                      -1832.4289652589222896

Computation Completed


Properties will be evaluated at   0.000000,   0.000000,   0.000000 [a0]

Properties computed using the SCF density matrix


 Multipole Moments:

 ------------------------------------------------------------------------------------
     Multipole            Electronic (a.u.)      Nuclear  (a.u.)        Total (a.u.)
 ------------------------------------------------------------------------------------

 L = 1.  Multiply by 2.5417464519 to convert [e a0] to [Debye]
 Dipole X            :          0.0000000            0.0000000            0.0000000
 Dipole Y            :          0.0000000           -0.0000000           -0.0000000
 Dipole Z            :          0.0000000           -0.0000000           -0.0000000
 Magnitude           :                                                    0.0000000

 ------------------------------------------------------------------------------------

*** tstop() called on atl1-1-02-004-2-2.pace.gatech.edu at Sat Jun 13 17:08:33 2026
Module time:
	user time   =   21828.09 seconds =     363.80 minutes
	system time =     211.86 seconds =       3.53 minutes
	total time  =       2247 seconds =      37.45 minutes
Total time:
	user time   =   21828.09 seconds =     363.80 minutes
	system time =     211.86 seconds =       3.53 minutes
	total time  =       2247 seconds =      37.45 minutes

*** tstart() called on atl1-1-02-004-2-2.pace.gatech.edu
*** at Sat Jun 13 17:08:33 2026


  //>>>>>>>>>>>>>>>>>>>>>>>>>>>>>>>>>>>//
  //               DFMP2               //
  //<<<<<<<<<<<<<<<<<<<<<<<<<<<<<<<<<<<//

   => Loading Basis Set <=

    Name: (AUG-CC-PVTZ AUX)
    Role: RIFIT
    Keyword: DF_BASIS_MP2
    atoms 1-24, 37-60  entry C          line   148 file /storage/home/hcoda1/5/vlita3/.conda/envs/p4_qcml/share/psi4/basis/aug-cc-pvtz-ri.gbs 
    atoms 25-36, 61-72 entry H          line    30 file /storage/home/hcoda1/5/vlita3/.conda/envs/p4_qcml/share/psi4/basis/aug-cc-pvtz-ri.gbs 

	 --------------------------------------------------------
	                          DF-MP2                         
	      2nd-Order Density-Fitted Moller-Plesset Theory     
	              RMP2 Wavefunction,  10 Threads             
	                                                         
	        Rob Parrish, Justin Turney, Andy Simmonett,      
	           Ed Hohenstein, and C. David Sherrill          
	 --------------------------------------------------------

   => Auxiliary Basis Set <=

  Basis Set: (AUG-CC-PVTZ AUX)
    Blend: AUG-CC-PVTZ-RI
    Number of shells: 1680
    Number of basis functions: 6192
    Number of Cartesian functions: 7848
    Spherical Harmonics?: true
    Max angular momentum: 4

	 --------------------------------------------------------
	                 NBF =  2760, NAUX =  6192
	 --------------------------------------------------------
	   CLASS    FOCC     OCC    AOCC    AVIR     VIR    FVIR
	   PAIRS       0     156     156    2573    2573       0
	 --------------------------------------------------------

	-----------------------------------------------------------
	 ==================> DF-MP2 Energies <==================== 
	-----------------------------------------------------------
	 Reference Energy          =   -1832.4289652589225170 [Eh]
	 Singles Energy            =      -0.0000000000000000 [Eh]
	 Same-Spin Energy          =      -2.2000283857197016 [Eh]
	 Opposite-Spin Energy      =      -6.4012032563303940 [Eh]
	 Correlation Energy        =      -8.6012316420500952 [Eh]
	 Total Energy              =   -1841.0301969009726690 [Eh]
	-----------------------------------------------------------
	 ================> DF-SCS-MP2 Energies <================== 
	-----------------------------------------------------------
	 SCS Same-Spin Scale       =       0.3333333333333333 [-]
	 SCS Opposite-Spin Scale   =       1.2000000000000000 [-]
	 SCS Same-Spin Energy      =      -0.7333427952399005 [Eh]
	 SCS Opposite-Spin Energy  =      -7.6814439075964724 [Eh]
	 SCS Correlation Energy    =      -8.4147867028363734 [Eh]
	 SCS Total Energy          =   -1840.8437519617589260 [Eh]
	-----------------------------------------------------------


*** tstop() called on atl1-1-02-004-2-2.pace.gatech.edu at Sat Jun 13 17:40:13 2026
Module time:
	user time   =   17372.26 seconds =     289.54 minutes
	system time =      89.31 seconds =       1.49 minutes
	total time  =       1900 seconds =      31.67 minutes
Total time:
	user time   =   39200.35 seconds =     653.34 minutes
	system time =     301.17 seconds =       5.02 minutes
	total time  =       4147 seconds =      69.12 minutes

    Psi4 stopped on: Saturday, 13 June 2026 05:40PM
    Psi4 wall time for execution: 1:09:07.08

*** Psi4 exiting successfully. Buy a developer a beer!
