
    -----------------------------------------------------------------------
          Psi4: An Open-Source Ab Initio Electronic Structure Package
                               Psi4 1.9.1 release

                         Git: Rev {} zzzzzzz 


    D. G. A. Smith, L. A. Burns, A. C. Simmonett, R. M. Parrish,
    M. C. Schieber, R. Galvelis, P. Kraus, H. Kruse, R. Di Remigio,
    A. Alenaizan, A. M. James, S. Lehtola, J. P. Misiewicz, M. Scheurer,
    R. A. Shaw, J. B. Schriber, Y. Xie, Z. L. Glick, D. A. Sirianni,
    J. S. O'Brien, J. M. Waldrop, A. Kumar, E. G. Hohenstein,
    B. P. Pritchard, B. R. Brooks, H. F. Schaefer III, A. Yu. Sokolov,
    K. Patkowski, A. E. DePrince III, U. Bozkaya, R. A. King,
    F. A. Evangelista, J. M. Turney, T. D. Crawford, C. D. Sherrill,
    J. Chem. Phys. 152(18) 184108 (2020). https://doi.org/10.1063/5.0006002

                            Additional Code Authors
    E. T. Seidl, C. L. Janssen, E. F. Valeev, M. L. Leininger,
    J. F. Gonthier, R. M. Richard, H. R. McAlexander, M. Saitow, X. Wang,
    P. Verma, M. H. Lechner, A. Jiang, S. Behnle, A. G. Heide,
    M. F. Herbst, and D. L. Poole

             Previous Authors, Complete List of Code Contributors,
                       and Citations for Specific Modules
    https://github.com/psi4/psi4/blob/master/codemeta.json
    https://github.com/psi4/psi4/graphs/contributors
    http://psicode.org/psi4manual/master/introduction.html#citing-psifour

    -----------------------------------------------------------------------


    Psi4 started on: Saturday, 13 June 2026 04:53PM

    Process ID: 3538731
    Host:       atl1-1-02-003-28-2.pace.gatech.edu
    PSIDATADIR: /storage/home/hcoda1/5/vlita3/.conda/envs/p4_qcml/share/psi4
    Memory:     250.0 GiB
    Threads:    10
    
  ==> Input QCSchema <==

--------------------------------------------------------------------------
{'driver': 'energy',
 'extras': {},
 'id': '270',
 'keywords': {},
 'model': {'basis': 'aug-cc-pvtz', 'method': 'mp2'},
 'molecule': {'extras': {},
              'fix_com': True,
              'fix_orientation': True,
              'fragment_charges': [0.0, 0.0],
              'fragment_multiplicities': [1, 1],
              'fragments': [[0, 1, 2, 3, 4, 5, 6, 7, 8, 9, 10, 11, 12, 13, 14, 15, 16, 17, 18, 19, 20, 21, 22, 23, 24,
                             25, 26, 27, 28, 29, 30, 31, 32, 33, 34, 35, 36, 37, 38, 39, 40, 41, 42, 43, 44, 45, 46, 47,
                             48, 49, 50, 51, 52, 53, 54, 55, 56, 57, 58, 59, 60, 61, 62, 63, 64, 65, 66, 67, 68, 69, 70,
                             71],
                            [72, 73, 74, 75, 76, 77, 78, 79, 80, 81, 82, 83, 84, 85, 86, 87, 88, 89, 90, 91]],
              'geometry': [-0.27392714, 6.18819166, -1.19323544, -2.46344698, 5.77825337, -2.60449614, -4.6940608,
                           5.39705781, -1.25234985, -4.71896739, 5.33938337, 1.40379628, -2.51326016, 5.65638493,
                           2.81229042, -0.29786241, 6.1264921, 1.46128175, -7.4236946, 4.94664159, -2.11437677,
                           -8.0102089, 2.21933216, -1.3518118, -8.03725088, 2.16388759, 1.30730308, -7.46490952,
                           4.85601033, 2.19433108, -8.21278754, 0.01810099, -2.78449255, -8.41651891, -2.24308601,
                           -1.44718061, -8.44656555, -2.29788807, 1.20944929, -8.27108559, -0.09424159, 2.64331111,
                           -8.82968863, 6.36030791, 0.05739419, 2.39027678, 6.99321499, -1.97848656, 2.35234998,
                           6.89052727, 2.33048585, 4.24147139, 4.87579576, 1.47132186, 4.26509297, 4.93957402,
                           -1.18371122, 5.91295305, 3.35513315, 2.83024282, 7.66850862, 1.97164575, 1.43096487,
                           7.69269711, 2.03631218, -1.22332744, 5.96134893, 3.48626124, -2.58482409, 2.91214355,
                           8.90127146, 0.22748523, 9.87956377, 0.34201964, -2.07607202, 9.16122218, -2.35520346,
                           -1.32189933, 9.13548411, -2.42066358, 1.33912796, 9.83927481, 0.23553924, 2.23913649,
                           8.55002806, -4.47912335, -2.729596, 7.90073706, -6.7005909, -1.42801501, 7.87418641,
                           -6.76523843, 1.20657123, 8.49702124, -4.61078057, 2.62830668, 11.77284258, 0.92596769,
                           0.1150709, -8.31764844, -5.08264518, 1.9809621, -5.66577687, -5.91321761, 1.16915466,
                           -5.63425624, -5.85826437, -1.48990165, -8.26696598, -4.99384695, -2.32929532, -3.49926256,
                           -6.47956853, 2.52781105, -1.27490751, -7.03089613, 1.18478458, -1.24350593, -6.97650981,
                           -1.44679133, -3.43540871, -6.36901955, -2.81856431, -9.87669139, -6.270716, -0.2182029,
                           -2.4529401, 5.84171037, -4.65828828, -2.54030214, 5.62747212, 4.86674397, -7.86022133,
                           5.46728004, -4.05896164, -7.93792687, 5.29540945, 4.15038659, -8.11773431, 0.05695332,
                           -4.83605482, -8.21892915, -0.14041005, 4.69617729, -8.40519945, 8.38335422, 0.10379812,
                           -10.87140543, 6.03249712, 0.03110168, 2.58575005, 7.68646102, -3.90969218, 2.51428061,
                           7.49055311, 4.29570653, 5.92036077, 3.32542665, 4.88460188, 6.00539845, 3.55672913,
                           -4.63769027, 1.57808761, 10.48166831, 0.25357668, 4.86729199, 9.57563912, 0.26070473,
                           10.52462179, 0.60197793, -4.01470426, 10.44833354, 0.39868497, 4.19987852, 8.5531839,
                           -4.43267388, -4.7823677, 7.42214502, -8.39155563, -2.48982755, 7.37512864, -8.50599744,
                           2.1742055, 8.4600204, -4.66543145, 4.68064374, 12.34503276, 2.91199237, 0.16959272,
                           13.42257349, -0.321261, 0.09956022, -8.86591468, -5.52843157, 3.91606055, -8.76902842,
                           -5.35979242, -4.29349555, -3.50574432, -6.49980749, 4.58215122, 0.4449946, -7.48906022,
                           2.20842844, 0.50076797, -7.39238184, -2.44683628, -3.39254972, -6.30418305, -4.87158167,
                           -11.84561594, -5.6407569, -0.22849246, -9.76051103, -8.33473156, -0.2592572, 0.45225115,
                           -0.84580551, -2.67537976, 2.67838443, -1.53842793, -1.2866805, 2.65068104, -1.59445642,
                           1.27425178, 0.39459182, -0.96458424, 2.64450164, -1.86313012, -0.39368286, 1.25325503,
                           -1.83502422, -0.33633346, -1.30877329, 0.51180775, -0.67721548, -5.30584073, 2.77402347,
                           -1.11680357, -6.67834882, 4.65792923, -1.46517081, -7.76197447, -1.67832057, -0.01779464,
                           -6.70601441, -3.49875233, 0.52904962, -7.81566159, 0.39835616, -0.91584254, 5.28048061,
                           2.63210503, -1.41763286, 6.67793308, 4.4946569, -1.81660506, 7.78079614, -1.82246132,
                           -0.32547131, 6.66298535, -3.66775054, 0.16586372, 7.75745803, 4.38153789, -2.03474371,
                           -2.30489896, 4.33176251, -2.13518265, 2.30622176, -3.59287959, 0.00412869, 2.26776584,
                           -3.54227272, 0.1076148, -2.34208877],
              'id': 3,
              'identifiers': {'molecular_formula': 'C54H34N4',
                              'molecule_hash': 'a6e197d77899e18e985cc14db0a8b81cfed912ed'},
              'molecular_charge': 0.0,
              'molecular_multiplicity': 1,
              'name': 'C54H34N4',
              'provenance': {'creator': 'QCElemental',
                             'routine': 'qcelemental.molparse.from_string',
                             'version': '0.29.0'},
              'schema_name': 'qcschema_molecule',
              'schema_version': 2,
              'symbols': ['C', 'C', 'C', 'C', 'C', 'C', 'C', 'C', 'C', 'C', 'C', 'C', 'C', 'C', 'C', 'C', 'C', 'C', 'C',
                          'C', 'C', 'C', 'C', 'C', 'C', 'C', 'C', 'C', 'C', 'C', 'C', 'C', 'C', 'C', 'C', 'C', 'C', 'C',
                          'C', 'C', 'C', 'C', 'H', 'H', 'H', 'H', 'H', 'H', 'H', 'H', 'H', 'H', 'H', 'H', 'H', 'H', 'H',
                          'H', 'H', 'H', 'H', 'H', 'H', 'H', 'H', 'H', 'H', 'H', 'H', 'H', 'H', 'H', 'C', 'C', 'C', 'C',
                          'C', 'C', 'C', 'C', 'N', 'C', 'N', 'C', 'C', 'N', 'C', 'N', 'H', 'H', 'H', 'H'],
              'validated': True},
 'protocols': {},
 'provenance': {'creator': 'QCElemental', 'routine': 'qcelemental.models.results', 'version': '0.29.0'},
 'schema_name': 'qcschema_input',
 'schema_version': 1}
--------------------------------------------------------------------------

Scratch directory: /tmp/tmp_7_whgrm_psi_scratch/
    SCF Algorithm Type (re)set to DF.
   => Libint2 <=

    Primary   basis highest AM E, G, H:  6, 6, 3
    Auxiliary basis highest AM E, G, H:  7, 7, 4
    Onebody   basis highest AM E, G, H:  -, -, -
    Solid Harmonics ordering:            Gaussian

*** tstart() called on atl1-1-02-003-28-2.pace.gatech.edu
*** at Sat Jun 13 16:53:45 2026

   => Loading Basis Set <=

    Name: AUG-CC-PVTZ
    Role: ORBITAL
    Keyword: BASIS
    atoms 1-42, 73-80, 82, 84-85, 87 entry C          line   239 file /storage/home/hcoda1/5/vlita3/.conda/envs/p4_qcml/share/psi4/basis/aug-cc-pvtz.gbs 
    atoms 43-72, 89-92               entry H          line    40 file /storage/home/hcoda1/5/vlita3/.conda/envs/p4_qcml/share/psi4/basis/aug-cc-pvtz.gbs 
    atoms 81, 83, 86, 88             entry N          line   285 file /storage/home/hcoda1/5/vlita3/.conda/envs/p4_qcml/share/psi4/basis/aug-cc-pvtz.gbs 


         ---------------------------------------------------------
                                   SCF
               by Justin Turney, Rob Parrish, Andy Simmonett
                          and Daniel G. A. Smith
                              RHF Reference
                       10 Threads, 256000 MiB Core
         ---------------------------------------------------------

  ==> Geometry <==

    Molecular point group: c1
    Full point group: C1

    Geometry (in Bohr), charge = 0, multiplicity = 1:

       Center              X                  Y                   Z               Mass       
    ------------   -----------------  -----------------  -----------------  -----------------
         C           -0.273927140000     6.188191660000    -1.193235440000    12.000000000000
         C           -2.463446980000     5.778253370000    -2.604496140000    12.000000000000
         C           -4.694060800000     5.397057810000    -1.252349850000    12.000000000000
         C           -4.718967390000     5.339383370000     1.403796280000    12.000000000000
         C           -2.513260160000     5.656384930000     2.812290420000    12.000000000000
         C           -0.297862410000     6.126492100000     1.461281750000    12.000000000000
         C           -7.423694600000     4.946641590000    -2.114376770000    12.000000000000
         C           -8.010208900000     2.219332160000    -1.351811800000    12.000000000000
         C           -8.037250880000     2.163887590000     1.307303080000    12.000000000000
         C           -7.464909520000     4.856010330000     2.194331080000    12.000000000000
         C           -8.212787540000     0.018100990000    -2.784492550000    12.000000000000
         C           -8.416518910000    -2.243086010000    -1.447180610000    12.000000000000
         C           -8.446565550000    -2.297888070000     1.209449290000    12.000000000000
         C           -8.271085590000    -0.094241590000     2.643311110000    12.000000000000
         C           -8.829688630000     6.360307910000     0.057394190000    12.000000000000
         C            2.390276780000     6.993214990000    -1.978486560000    12.000000000000
         C            2.352349980000     6.890527270000     2.330485850000    12.000000000000
         C            4.241471390000     4.875795760000     1.471321860000    12.000000000000
         C            4.265092970000     4.939574020000    -1.183711220000    12.000000000000
         C            5.912953050000     3.355133150000     2.830242820000    12.000000000000
         C            7.668508620000     1.971645750000     1.430964870000    12.000000000000
         C            7.692697110000     2.036312180000    -1.223327440000    12.000000000000
         C            5.961348930000     3.486261240000    -2.584824090000    12.000000000000
         C            2.912143550000     8.901271460000     0.227485230000    12.000000000000
         C            9.879563770000     0.342019640000    -2.076072020000    12.000000000000
         C            9.161222180000    -2.355203460000    -1.321899330000    12.000000000000
         C            9.135484110000    -2.420663580000     1.339127960000    12.000000000000
         C            9.839274810000     0.235539240000     2.239136490000    12.000000000000
         C            8.550028060000    -4.479123350000    -2.729596000000    12.000000000000
         C            7.900737060000    -6.700590900000    -1.428015010000    12.000000000000
         C            7.874186410000    -6.765238430000     1.206571230000    12.000000000000
         C            8.497021240000    -4.610780570000     2.628306680000    12.000000000000
         C           11.772842580000     0.925967690000     0.115070900000    12.000000000000
         C           -8.317648440000    -5.082645180000     1.980962100000    12.000000000000
         C           -5.665776870000    -5.913217610000     1.169154660000    12.000000000000
         C           -5.634256240000    -5.858264370000    -1.489901650000    12.000000000000
         C           -8.266965980000    -4.993846950000    -2.329295320000    12.000000000000
         C           -3.499262560000    -6.479568530000     2.527811050000    12.000000000000
         C           -1.274907510000    -7.030896130000     1.184784580000    12.000000000000
         C           -1.243505930000    -6.976509810000    -1.446791330000    12.000000000000
         C           -3.435408710000    -6.369019550000    -2.818564310000    12.000000000000
         C           -9.876691390000    -6.270716000000    -0.218202900000    12.000000000000
         H           -2.452940100000     5.841710370000    -4.658288280000     1.007825032230
         H           -2.540302140000     5.627472120000     4.866743970000     1.007825032230
         H           -7.860221330000     5.467280040000    -4.058961640000     1.007825032230
         H           -7.937926870000     5.295409450000     4.150386590000     1.007825032230
         H           -8.117734310000     0.056953320000    -4.836054820000     1.007825032230
         H           -8.218929150000    -0.140410050000     4.696177290000     1.007825032230
         H           -8.405199450000     8.383354220000     0.103798120000     1.007825032230
         H          -10.871405430000     6.032497120000     0.031101680000     1.007825032230
         H            2.585750050000     7.686461020000    -3.909692180000     1.007825032230
         H            2.514280610000     7.490553110000     4.295706530000     1.007825032230
         H            5.920360770000     3.325426650000     4.884601880000     1.007825032230
         H            6.005398450000     3.556729130000    -4.637690270000     1.007825032230
         H            1.578087610000    10.481668310000     0.253576680000     1.007825032230
         H            4.867291990000     9.575639120000     0.260704730000     1.007825032230
         H           10.524621790000     0.601977930000    -4.014704260000     1.007825032230
         H           10.448333540000     0.398684970000     4.199878520000     1.007825032230
         H            8.553183900000    -4.432673880000    -4.782367700000     1.007825032230
         H            7.422145020000    -8.391555630000    -2.489827550000     1.007825032230
         H            7.375128640000    -8.505997440000     2.174205500000     1.007825032230
         H            8.460020400000    -4.665431450000     4.680643740000     1.007825032230
         H           12.345032760000     2.911992370000     0.169592720000     1.007825032230
         H           13.422573490000    -0.321261000000     0.099560220000     1.007825032230
         H           -8.865914680000    -5.528431570000     3.916060550000     1.007825032230
         H           -8.769028420000    -5.359792420000    -4.293495550000     1.007825032230
         H           -3.505744320000    -6.499807490000     4.582151220000     1.007825032230
         H            0.444994600000    -7.489060220000     2.208428440000     1.007825032230
         H            0.500767970000    -7.392381840000    -2.446836280000     1.007825032230
         H           -3.392549720000    -6.304183050000    -4.871581670000     1.007825032230
         H          -11.845615940000    -5.640756900000    -0.228492460000     1.007825032230
         H           -9.760511030000    -8.334731560000    -0.259257200000     1.007825032230
         C            0.452251150000    -0.845805510000    -2.675379760000    12.000000000000
         C            2.678384430000    -1.538427930000    -1.286680500000    12.000000000000
         C            2.650681040000    -1.594456420000     1.274251780000    12.000000000000
         C            0.394591820000    -0.964584240000     2.644501640000    12.000000000000
         C           -1.863130120000    -0.393682860000     1.253255030000    12.000000000000
         C           -1.835024220000    -0.336333460000    -1.308773290000    12.000000000000
         C            0.511807750000    -0.677215480000    -5.305840730000    12.000000000000
         C            2.774023470000    -1.116803570000    -6.678348820000    12.000000000000
         N            4.657929230000    -1.465170810000    -7.761974470000    14.003074004430
         C           -1.678320570000    -0.017794640000    -6.706014410000    12.000000000000
         N           -3.498752330000     0.529049620000    -7.815661590000    14.003074004430
         C            0.398356160000    -0.915842540000     5.280480610000    12.000000000000
         C            2.632105030000    -1.417632860000     6.677933080000    12.000000000000
         N            4.494656900000    -1.816605060000     7.780796140000    14.003074004430
         C           -1.822461320000    -0.325471310000     6.662985350000    12.000000000000
         N           -3.667750540000     0.165863720000     7.757458030000    14.003074004430
         H            4.381537890000    -2.034743710000    -2.304898960000     1.007825032230
         H            4.331762510000    -2.135182650000     2.306221760000     1.007825032230
         H           -3.592879590000     0.004128690000     2.267765840000     1.007825032230
         H           -3.542272720000     0.107614800000    -2.342088770000     1.007825032230

  Running in c1 symmetry.

  Rotational constants: A =      0.00267  B =      0.00168  C =      0.00146 [cm^-1]
  Rotational constants: A =     80.12542  B =     50.33918  C =     43.84220 [MHz]
  Nuclear repulsion = 8253.987649209337178

  Charge       = 0
  Multiplicity = 1
  Electrons    = 386
  Nalpha       = 193
  Nbeta        = 193

  ==> Algorithm <==

  SCF Algorithm Type is DF.
  DIIS enabled.
  MOM disabled.
  Fractional occupation disabled.
  Guess Type is SAD.
  Energy threshold   = 1.00e-08
  Density threshold  = 1.00e-08
  Integral threshold = 1.00e-12

  ==> Primary Basis <==

  Basis Set: AUG-CC-PVTZ
    Blend: AUG-CC-PVTZ
    Number of shells: 1118
    Number of basis functions: 3450
    Number of Cartesian functions: 4040
    Spherical Harmonics?: true
    Max angular momentum: 3

   => Loading Basis Set <=

    Name: (AUG-CC-PVTZ AUX)
    Role: JKFIT
    Keyword: DF_BASIS_SCF
    atoms 1-42, 73-80, 82, 84-85, 87 entry C          line   162 file /storage/home/hcoda1/5/vlita3/.conda/envs/p4_qcml/share/psi4/basis/aug-cc-pvtz-jkfit.gbs 
    atoms 43-72, 89-92               entry H          line    70 file /storage/home/hcoda1/5/vlita3/.conda/envs/p4_qcml/share/psi4/basis/aug-cc-pvtz-jkfit.gbs 
    atoms 81, 83, 86, 88             entry N          line   224 file /storage/home/hcoda1/5/vlita3/.conda/envs/p4_qcml/share/psi4/basis/aug-cc-pvtz-jkfit.gbs 

  ==> Integral Setup <==

  ==> DiskDFJK: Density-Fitted J/K Matrices <==

    J tasked:                  Yes
    K tasked:                  Yes
    wK tasked:                  No
    OpenMP threads:             10
    Integrals threads:          10
    Memory [MiB]:           192000
    Algorithm:                Disk
    Integral Cache:           NONE
    Schwarz Cutoff:          1E-12
    Fitting Condition:       1E-10

   => Auxiliary Basis Set <=

  Basis Set: (AUG-CC-PVTZ AUX)
    Blend: AUG-CC-PVTZ-JKFIT
    Number of shells: 2216
    Number of basis functions: 7596
    Number of Cartesian functions: 9468
    Spherical Harmonics?: true
    Max angular momentum: 4

  Minimum eigenvalue in the overlap matrix is 3.2999283483E-10.
  Reciprocal condition number of the overlap matrix is 8.9829939844E-12.
    Using canonical orthogonalization.
  Overall, 31 of 3450 possible MOs eliminated.


  ==> Pre-Iterations <==

  SCF Guess: Superposition of Atomic Densities via on-the-fly atomic UHF (no occupation information).

   -------------------------
    Irrep   Nso     Nmo    
   -------------------------
     A       3450    3419 
   -------------------------
    Total    3450    3419
   -------------------------

  ==> Iterations <==

                           Total Energy        Delta E     RMS |[F,P]|

   @DF-RHF iter SAD: -2286.10108245490619   -2.28610e+03   0.00000e+00 
   @DF-RHF iter   1: -2281.66266893987131    4.43841e+00   4.37200e-04 ADIIS/DIIS
   @DF-RHF iter   2: -2282.61163804601165   -9.48969e-01   2.71665e-04 ADIIS/DIIS
   @DF-RHF iter   3: -2282.99173768198943   -3.80100e-01   7.77684e-05 DIIS
   @DF-RHF iter   4: -2283.02894919364826   -3.72115e-02   2.98032e-05 DIIS
   @DF-RHF iter   5: -2283.03466480709994   -5.71561e-03   8.17153e-06 DIIS
   @DF-RHF iter   6: -2283.03517752625794   -5.12719e-04   3.18567e-06 DIIS
   @DF-RHF iter   7: -2283.03532089623059   -1.43370e-04   1.43357e-06 DIIS
   @DF-RHF iter   8: -2283.03535533582544   -3.44396e-05   6.16235e-07 DIIS
   @DF-RHF iter   9: -2283.03536646182465   -1.11260e-05   3.43692e-07 DIIS
   @DF-RHF iter  10: -2283.03536927052028   -2.80870e-06   1.74666e-07 DIIS
   @DF-RHF iter  11: -2283.03537002551047   -7.54990e-07   8.38438e-08 DIIS
   @DF-RHF iter  12: -2283.03537020521026   -1.79700e-07   3.84722e-08 DIIS
   @DF-RHF iter  13: -2283.03537024871139   -4.35011e-08   1.33481e-08 DIIS
   @DF-RHF iter  14: -2283.03537025154674   -2.83535e-09   6.13921e-09 DIIS
  Energy and wave function converged.


  ==> Post-Iterations <==

    Orbital Energies [Eh]
    ---------------------

    Doubly Occupied:                                                      

       1A    -15.600749     2A    -15.600731     3A    -15.600515  
       4A    -15.600504     5A    -11.335323     6A    -11.335259  
       7A    -11.333827     8A    -11.333796     9A    -11.307688  
      10A    -11.307673    11A    -11.307395    12A    -11.307378  
      13A    -11.280735    14A    -11.279195    15A    -11.278843  
      16A    -11.277310    17A    -11.256125    18A    -11.256091  
      19A    -11.255158    20A    -11.255120    21A    -11.254600  
      22A    -11.254536    23A    -11.252685    24A    -11.252679  
      25A    -11.245822    26A    -11.245561    27A    -11.245349  
      28A    -11.245325    29A    -11.244957    30A    -11.244372  
      31A    -11.244226    32A    -11.244158    33A    -11.244037  
      34A    -11.243931    35A    -11.243683    36A    -11.243610  
      37A    -11.243492    38A    -11.243291    39A    -11.242944  
      40A    -11.242448    41A    -11.242303    42A    -11.242263  
      43A    -11.242115    44A    -11.242095    45A    -11.242091  
      46A    -11.241898    47A    -11.241850    48A    -11.241514  
      49A    -11.241396    50A    -11.241051    51A    -11.240943  
      52A    -11.240837    53A    -11.240728    54A    -11.240582  
      55A    -11.240330    56A    -11.239817    57A    -11.239543  
      58A    -11.239202    59A     -1.259057    60A     -1.254866  
      61A     -1.236873    62A     -1.236826    63A     -1.226590  
      64A     -1.221748    65A     -1.215085    66A     -1.212660  
      67A     -1.201628    68A     -1.158382    69A     -1.151418  
      70A     -1.142797    71A     -1.122974    72A     -1.099133  
      73A     -1.091213    74A     -1.074431    75A     -1.071777  
      76A     -1.053630    77A     -1.048646    78A     -1.038928  
      79A     -1.027094    80A     -1.018911    81A     -1.007509  
      82A     -0.997993    83A     -0.995202    84A     -0.978733  
      85A     -0.976679    86A     -0.959317    87A     -0.958979  
      88A     -0.947005    89A     -0.936874    90A     -0.916346  
      91A     -0.896792    92A     -0.882106    93A     -0.864391  
      94A     -0.858132    95A     -0.847748    96A     -0.836546  
      97A     -0.832336    98A     -0.821768    99A     -0.806330  
     100A     -0.801555   101A     -0.801460   102A     -0.796097  
     103A     -0.787402   104A     -0.781651   105A     -0.776459  
     106A     -0.773651   107A     -0.771231   108A     -0.745926  
     109A     -0.740261   110A     -0.721277   111A     -0.712312  
     112A     -0.706330   113A     -0.700578   114A     -0.693907  
     115A     -0.685285   116A     -0.672680   117A     -0.668279  
     118A     -0.660959   119A     -0.654645   120A     -0.651449  
     121A     -0.644834   122A     -0.635952   123A     -0.634493  
     124A     -0.631508   125A     -0.629755   126A     -0.627544  
     127A     -0.626456   128A     -0.625215   129A     -0.608114  
     130A     -0.600955   131A     -0.599735   132A     -0.594495  
     133A     -0.590021   134A     -0.585688   135A     -0.585095  
     136A     -0.583371   137A     -0.582693   138A     -0.581157  
     139A     -0.580343   140A     -0.579324   141A     -0.571754  
     142A     -0.571444   143A     -0.570343   144A     -0.569425  
     145A     -0.567840   146A     -0.564344   147A     -0.553707  
     148A     -0.549110   149A     -0.544631   150A     -0.539672  
     151A     -0.538424   152A     -0.534063   153A     -0.526327  
     154A     -0.524383   155A     -0.523419   156A     -0.512581  
     157A     -0.507103   158A     -0.503921   159A     -0.503230  
     160A     -0.501801   161A     -0.499156   162A     -0.497783  
     163A     -0.496978   164A     -0.494917   165A     -0.490559  
     166A     -0.485574   167A     -0.484769   168A     -0.484244  
     169A     -0.482215   170A     -0.481654   171A     -0.477964  
     172A     -0.477185   173A     -0.475690   174A     -0.473312  
     175A     -0.469933   176A     -0.469737   177A     -0.467908  
     178A     -0.463022   179A     -0.454514   180A     -0.451744  
     181A     -0.425328   182A     -0.390301   183A     -0.348464  
     184A     -0.343084   185A     -0.341403   186A     -0.340603  
     187A     -0.340567   188A     -0.336630   189A     -0.336464  
     190A     -0.325218   191A     -0.319801   192A     -0.301723  
     193A     -0.282713  

    Virtual:                                                              

     194A     -0.053196   195A      0.021954   196A      0.024890  
     197A      0.026103   198A      0.029765   199A      0.031214  
     200A      0.032423   201A      0.034437   202A      0.036693  
     203A      0.041211   204A      0.041686   205A      0.043457  
     206A      0.045194   207A      0.045994   208A      0.048052  
     209A      0.051087   210A      0.055852   211A      0.057246  
     212A      0.057308   213A      0.060072   214A      0.061419  
     215A      0.061800   216A      0.062368   217A      0.069908  
     218A      0.071346   219A      0.071651   220A      0.072409  
     221A      0.076970   222A      0.079878   223A      0.080786  
     224A      0.084302   225A      0.084550   226A      0.088108  
     227A      0.089550   228A      0.090565   229A      0.091001  
     230A      0.091411   231A      0.092773   232A      0.095585  
     233A      0.097376   234A      0.098135   235A      0.099453  
     236A      0.101674   237A      0.102017   238A      0.103116  
     239A      0.103492   240A      0.103861   241A      0.105226  
     242A      0.107213   243A      0.108325   244A      0.109487  
     245A      0.110501   246A      0.112064   247A      0.113321  
     248A      0.114161   249A      0.114366   250A      0.116228  
     251A      0.117071   252A      0.117845   253A      0.118903  
     254A      0.120644   255A      0.120945   256A      0.121660  
     257A      0.123014   258A      0.123389   259A      0.126988  
     260A      0.127957   261A      0.128328   262A      0.129101  
     263A      0.130831   264A      0.131140   265A      0.132302  
     266A      0.132854   267A      0.134558   268A      0.135800  
     269A      0.136241   270A      0.137997   271A      0.139931  
     272A      0.141404   273A      0.141648   274A      0.142568  
     275A      0.142935   276A      0.145716   277A      0.146336  
     278A      0.146867   279A      0.147508   280A      0.148086  
     281A      0.150719   282A      0.151879   283A      0.153286  
     284A      0.155672   285A      0.156046   286A      0.157101  
     287A      0.158050   288A      0.160708   289A      0.162260  
     290A      0.162545   291A      0.163580   292A      0.164622  
     293A      0.164869   294A      0.167019   295A      0.167946  
     296A      0.169298   297A      0.171053   298A      0.171972  
     299A      0.172473   300A      0.173138   301A      0.177056  
     302A      0.178205   303A      0.179321   304A      0.180245  
     305A      0.181582   306A      0.183206   307A      0.184319  
     308A      0.185209   309A      0.187278   310A      0.189034  
     311A      0.189943   312A      0.191347   313A      0.193742  
     314A      0.195464   315A      0.197723   316A      0.198962  
     317A      0.201316   318A      0.201710   319A      0.202815  
     320A      0.204003   321A      0.205117   322A      0.205583  
     323A      0.207137   324A      0.208956   325A      0.210245  
     326A      0.210761   327A      0.211531   328A      0.213325  
     329A      0.213852   330A      0.214172   331A      0.218939  
     332A      0.220469   333A      0.220834   334A      0.221969  
     335A      0.225190   336A      0.225294   337A      0.226406  
     338A      0.226848   339A      0.229962   340A      0.230505  
     341A      0.230913   342A      0.231758   343A      0.232724  
     344A      0.234918   345A      0.236559   346A      0.237671  
     347A      0.238083   348A      0.238846   349A      0.238878  
     350A      0.240222   351A      0.243529   352A      0.244279  
     353A      0.246471   354A      0.247087   355A      0.247224  
     356A      0.248274   357A      0.248877   358A      0.249603  
     359A      0.251200   360A      0.252420   361A      0.254000  
     362A      0.254908   363A      0.255137   364A      0.256096  
     365A      0.256897   366A      0.258085   367A      0.258773  
     368A      0.259134   369A      0.259305   370A      0.259758  
     371A      0.261312   372A      0.262118   373A      0.263129  
     374A      0.263252   375A      0.265496   376A      0.266594  
     377A      0.267847   378A      0.268003   379A      0.268888  
     380A      0.269143   381A      0.269986   382A      0.270618  
     383A      0.273705   384A      0.274238   385A      0.275068  
     386A      0.275230   387A      0.276333   388A      0.277850  
     389A      0.280130   390A      0.280965   391A      0.281265  
     392A      0.281722   393A      0.283384   394A      0.283957  
     395A      0.285313   396A      0.287125   397A      0.287255  
     398A      0.287931   399A      0.289634   400A      0.289860  
     401A      0.291675   402A      0.291930   403A      0.293497  
     404A      0.294627   405A      0.296414   406A      0.297029  
     407A      0.298032   408A      0.298338   409A      0.298927  
     410A      0.301244   411A      0.302205   412A      0.303990  
     413A      0.304188   414A      0.304349   415A      0.305316  
     416A      0.305707   417A      0.306858   418A      0.307365  
     419A      0.307681   420A      0.310330   421A      0.310428  
     422A      0.311297   423A      0.313301   424A      0.314751  
     425A      0.315108   426A      0.315676   427A      0.317369  
     428A      0.317746   429A      0.319457   430A      0.320046  
     431A      0.320844   432A      0.322047   433A      0.322269  
     434A      0.324776   435A      0.326214   436A      0.327973  
     437A      0.328447   438A      0.328944   439A      0.329402  
     440A      0.329923   441A      0.333349   442A      0.333617  
     443A      0.336527   444A      0.338006   445A      0.339173  
     446A      0.340011   447A      0.342062   448A      0.343796  
     449A      0.343873   450A      0.344842   451A      0.347391  
     452A      0.347573   453A      0.348814   454A      0.349695  
     455A      0.351079   456A      0.351762   457A      0.354853  
     458A      0.357292   459A      0.359164   460A      0.361390  
     461A      0.361873   462A      0.365050   463A      0.365925  
     464A      0.367561   465A      0.368422   466A      0.369892  
     467A      0.370258   468A      0.371351   469A      0.371749  
     470A      0.374646   471A      0.375567   472A      0.379545  
     473A      0.379770   474A      0.381388   475A      0.382664  
     476A      0.383296   477A      0.385202   478A      0.385666  
     479A      0.386480   480A      0.387108   481A      0.388466  
     482A      0.390131   483A      0.392063   484A      0.392379  
     485A      0.395257   486A      0.396168   487A      0.398152  
     488A      0.399504   489A      0.400921   490A      0.401754  
     491A      0.403303   492A      0.405312   493A      0.406868  
     494A      0.407599   495A      0.409689   496A      0.410851  
     497A      0.412502   498A      0.413576   499A      0.415593  
     500A      0.415817   501A      0.417512   502A      0.418841  
     503A      0.418984   504A      0.419924   505A      0.421539  
     506A      0.421980   507A      0.422667   508A      0.425109  
     509A      0.426200   510A      0.427697   511A      0.430788  
     512A      0.431483   513A      0.432603   514A      0.433601  
     515A      0.434163   516A      0.435796   517A      0.435956  
     518A      0.437378   519A      0.438624   520A      0.438718  
     521A      0.442000   522A      0.442475   523A      0.443738  
     524A      0.445430   525A      0.447020   526A      0.448552  
     527A      0.449955   528A      0.450422   529A      0.452055  
     530A      0.453976   531A      0.454293   532A      0.457142  
     533A      0.459576   534A      0.460339   535A      0.460730  
     536A      0.461948   537A      0.463151   538A      0.464227  
     539A      0.466647   540A      0.466805   541A      0.469152  
     542A      0.470088   543A      0.471745   544A      0.473268  
     545A      0.474499   546A      0.476050   547A      0.476735  
     548A      0.478145   549A      0.479292   550A      0.483070  
     551A      0.483383   552A      0.483803   553A      0.484315  
     554A      0.485020   555A      0.486545   556A      0.488224  
     557A      0.489668   558A      0.490006   559A      0.490320  
     560A      0.492975   561A      0.493724   562A      0.494314  
     563A      0.495761   564A      0.498587   565A      0.498877  
     566A      0.500279   567A      0.500567   568A      0.502080  
     569A      0.503434   570A      0.503533   571A      0.505155  
     572A      0.506045   573A      0.507130   574A      0.508413  
     575A      0.509361   576A      0.511318   577A      0.512423  
     578A      0.514434   579A      0.514789   580A      0.515624  
     581A      0.516784   582A      0.517625   583A      0.517972  
     584A      0.519963   585A      0.521840   586A      0.521948  
     587A      0.524554   588A      0.524948   589A      0.526126  
     590A      0.526518   591A      0.527086   592A      0.527430  
     593A      0.529221   594A      0.530117   595A      0.531208  
     596A      0.532633   597A      0.532872   598A      0.533804  
     599A      0.534603   600A      0.535785   601A      0.536963  
     602A      0.537879   603A      0.538888   604A      0.539518  
     605A      0.541290   606A      0.542218   607A      0.542455  
     608A      0.544242   609A      0.544441   610A      0.545817  
     611A      0.546073   612A      0.546744   613A      0.547528  
     614A      0.547698   615A      0.550147   616A      0.551896  
     617A      0.552261   618A      0.553470   619A      0.553771  
     620A      0.557075   621A      0.558513   622A      0.559997  
     623A      0.560783   624A      0.562169   625A      0.562917  
     626A      0.564187   627A      0.566036   628A      0.566997  
     629A      0.567302   630A      0.569137   631A      0.569515  
     632A      0.570038   633A      0.571463   634A      0.572627  
     635A      0.573559   636A      0.574769   637A      0.575667  
     638A      0.575899   639A      0.576889   640A      0.577739  
     641A      0.579577   642A      0.579734   643A      0.580277  
     644A      0.582193   645A      0.583538   646A      0.584908  
     647A      0.585009   648A      0.585806   649A      0.586045  
     650A      0.587195   651A      0.589122   652A      0.590813  
     653A      0.590938   654A      0.592109   655A      0.594917  
     656A      0.595291   657A      0.598251   658A      0.598452  
     659A      0.599338   660A      0.600111   661A      0.600500  
     662A      0.603065   663A      0.603922   664A      0.605609  
     665A      0.605806   666A      0.606130   667A      0.607736  
     668A      0.608303   669A      0.609977   670A      0.609998  
     671A      0.612469   672A      0.614016   673A      0.614674  
     674A      0.615882   675A      0.616302   676A      0.617945  
     677A      0.621073   678A      0.622160   679A      0.622595  
     680A      0.624503   681A      0.625026   682A      0.627493  
     683A      0.627968   684A      0.628161   685A      0.630001  
     686A      0.631818   687A      0.633354   688A      0.634242  
     689A      0.634425   690A      0.634771   691A      0.638157  
     692A      0.639481   693A      0.641227   694A      0.641548  
     695A      0.643411   696A      0.645063   697A      0.645372  
     698A      0.646101   699A      0.648086   700A      0.648972  
     701A      0.649176   702A      0.650510   703A      0.651627  
     704A      0.652350   705A      0.653352   706A      0.656750  
     707A      0.659035   708A      0.659832   709A      0.660110  
     710A      0.663057   711A      0.664010   712A      0.666024  
     713A      0.666999   714A      0.668673   715A      0.671235  
     716A      0.672937   717A      0.673564   718A      0.674439  
     719A      0.674968   720A      0.678761   721A      0.679054  
     722A      0.680700   723A      0.682426   724A      0.682813  
     725A      0.683855   726A      0.688060   727A      0.689744  
     728A      0.690142   729A      0.692489   730A      0.693088  
     731A      0.695299   732A      0.695635   733A      0.696712  
     734A      0.697672   735A      0.699698   736A      0.699775  
     737A      0.703170   738A      0.703249   739A      0.704041  
     740A      0.705342   741A      0.707350   742A      0.707597  
     743A      0.708607   744A      0.709983   745A      0.712539  
     746A      0.712815   747A      0.714684   748A      0.715551  
     749A      0.716403   750A      0.717866   751A      0.718701  
     752A      0.720169   753A      0.722687   754A      0.723904  
     755A      0.724840   756A      0.726220   757A      0.726907  
     758A      0.729243   759A      0.731974   760A      0.732424  
     761A      0.733210   762A      0.734692   763A      0.736355  
     764A      0.737616   765A      0.738092   766A      0.739488  
     767A      0.742558   768A      0.743789   769A      0.745497  
     770A      0.745906   771A      0.746207   772A      0.749064  
     773A      0.750461   774A      0.751486   775A      0.752515  
     776A      0.753910   777A      0.755429   778A      0.757552  
     779A      0.760486   780A      0.762969   781A      0.764267  
     782A      0.765803   783A      0.767947   784A      0.768341  
     785A      0.771512   786A      0.772911   787A      0.773985  
     788A      0.774131   789A      0.775556   790A      0.776842  
     791A      0.777591   792A      0.778920   793A      0.780602  
     794A      0.781964   795A      0.783185   796A      0.785839  
     797A      0.786235   798A      0.788464   799A      0.788880  
     800A      0.791424   801A      0.792733   802A      0.795481  
     803A      0.796081   804A      0.797963   805A      0.798467  
     806A      0.799553   807A      0.801450   808A      0.802654  
     809A      0.803430   810A      0.805564   811A      0.806884  
     812A      0.807748   813A      0.811505   814A      0.812227  
     815A      0.812951   816A      0.814963   817A      0.815414  
     818A      0.817230   819A      0.818264   820A      0.819673  
     821A      0.823196   822A      0.824482   823A      0.825071  
     824A      0.827191   825A      0.828489   826A      0.829217  
     827A      0.831283   828A      0.831952   829A      0.832494  
     830A      0.835933   831A      0.837390   832A      0.838303  
     833A      0.839032   834A      0.841091   835A      0.842301  
     836A      0.843139   837A      0.844004   838A      0.845742  
     839A      0.846701   840A      0.847276   841A      0.852568  
     842A      0.855216   843A      0.855613   844A      0.856746  
     845A      0.857185   846A      0.857593   847A      0.858388  
     848A      0.861872   849A      0.862261   850A      0.863738  
     851A      0.864790   852A      0.865124   853A      0.869199  
     854A      0.870662   855A      0.871766   856A      0.873202  
     857A      0.875166   858A      0.877061   859A      0.877471  
     860A      0.877725   861A      0.878339   862A      0.879119  
     863A      0.881620   864A      0.883330   865A      0.885395  
     866A      0.886281   867A      0.888790   868A      0.889164  
     869A      0.890502   870A      0.891996   871A      0.893562  
     872A      0.894721   873A      0.896801   874A      0.900125  
     875A      0.901056   876A      0.901400   877A      0.903994  
     878A      0.904265   879A      0.904657   880A      0.907081  
     881A      0.908264   882A      0.910041   883A      0.911039  
     884A      0.911704   885A      0.915605   886A      0.916292  
     887A      0.916852   888A      0.918629   889A      0.918739  
     890A      0.920673   891A      0.922564   892A      0.922796  
     893A      0.926167   894A      0.926710   895A      0.927476  
     896A      0.928900   897A      0.929768   898A      0.931458  
     899A      0.931697   900A      0.934683   901A      0.935228  
     902A      0.936691   903A      0.937115   904A      0.937433  
     905A      0.940041   906A      0.940393   907A      0.941471  
     908A      0.942998   909A      0.944744   910A      0.946457  
     911A      0.947561   912A      0.947838   913A      0.948864  
     914A      0.950742   915A      0.951147   916A      0.952358  
     917A      0.952654   918A      0.955989   919A      0.956174  
     920A      0.960492   921A      0.961324   922A      0.962131  
     923A      0.962847   924A      0.963977   925A      0.965197  
     926A      0.967454   927A      0.968340   928A      0.968593  
     929A      0.970689   930A      0.971180   931A      0.972644  
     932A      0.972919   933A      0.974567   934A      0.975697  
     935A      0.979049   936A      0.979111   937A      0.980677  
     938A      0.980879   939A      0.983956   940A      0.984443  
     941A      0.985611   942A      0.986129   943A      0.986815  
     944A      0.991036   945A      0.992031   946A      0.992547  
     947A      0.993200   948A      0.993222   949A      0.993931  
     950A      0.996354   951A      0.996527   952A      0.997749  
     953A      0.998249   954A      0.999592   955A      1.001889  
     956A      1.002035   957A      1.003128   958A      1.004384  
     959A      1.004591   960A      1.007458   961A      1.008280  
     962A      1.009770   963A      1.010185   964A      1.012265  
     965A      1.013375   966A      1.015875   967A      1.017279  
     968A      1.018544   969A      1.019501   970A      1.020398  
     971A      1.022322   972A      1.023222   973A      1.024009  
     974A      1.024720   975A      1.026518   976A      1.028118  
     977A      1.029086   978A      1.031286   979A      1.031719  
     980A      1.032334   981A      1.033476   982A      1.036313  
     983A      1.036496   984A      1.040235   985A      1.040320  
     986A      1.042698   987A      1.042851   988A      1.044554  
     989A      1.045315   990A      1.047374   991A      1.049327  
     992A      1.050107   993A      1.051173   994A      1.052518  
     995A      1.054003   996A      1.055417   997A      1.057023  
     998A      1.058607   999A      1.058967  1000A      1.060333  
    1001A      1.060805  1002A      1.061522  1003A      1.062734  
    1004A      1.064318  1005A      1.065816  1006A      1.067937  
    1007A      1.069147  1008A      1.069897  1009A      1.070103  
    1010A      1.072637  1011A      1.075294  1012A      1.077502  
    1013A      1.077868  1014A      1.078219  1015A      1.080930  
    1016A      1.081648  1017A      1.083198  1018A      1.084223  
    1019A      1.085204  1020A      1.086406  1021A      1.087390  
    1022A      1.089166  1023A      1.089520  1024A      1.091189  
    1025A      1.092910  1026A      1.094475  1027A      1.095146  
    1028A      1.099830  1029A      1.100208  1030A      1.101155  
    1031A      1.102463  1032A      1.105303  1033A      1.107160  
    1034A      1.108444  1035A      1.110997  1036A      1.111947  
    1037A      1.113300  1038A      1.113390  1039A      1.115335  
    1040A      1.117267  1041A      1.118467  1042A      1.120748  
    1043A      1.121402  1044A      1.122842  1045A      1.123543  
    1046A      1.124477  1047A      1.126326  1048A      1.127632  
    1049A      1.127857  1050A      1.129167  1051A      1.131018  
    1052A      1.131460  1053A      1.131566  1054A      1.134831  
    1055A      1.134868  1056A      1.135313  1057A      1.138431  
    1058A      1.140299  1059A      1.141985  1060A      1.144893  
    1061A      1.147656  1062A      1.148110  1063A      1.149243  
    1064A      1.150666  1065A      1.151942  1066A      1.152173  
    1067A      1.154930  1068A      1.155977  1069A      1.157568  
    1070A      1.158856  1071A      1.159136  1072A      1.160998  
    1073A      1.162739  1074A      1.164868  1075A      1.165322  
    1076A      1.166545  1077A      1.167950  1078A      1.168994  
    1079A      1.170965  1080A      1.175009  1081A      1.175697  
    1082A      1.176145  1083A      1.179917  1084A      1.181385  
    1085A      1.182261  1086A      1.182787  1087A      1.183051  
    1088A      1.184529  1089A      1.186260  1090A      1.186911  
    1091A      1.187362  1092A      1.191491  1093A      1.194737  
    1094A      1.195612  1095A      1.196257  1096A      1.197483  
    1097A      1.197971  1098A      1.199459  1099A      1.199847  
    1100A      1.200512  1101A      1.202732  1102A      1.203389  
    1103A      1.206747  1104A      1.207142  1105A      1.208358  
    1106A      1.210009  1107A      1.212723  1108A      1.213545  
    1109A      1.214234  1110A      1.216208  1111A      1.218314  
    1112A      1.219048  1113A      1.219595  1114A      1.220783  
    1115A      1.221756  1116A      1.224929  1117A      1.225855  
    1118A      1.227033  1119A      1.229622  1120A      1.230383  
    1121A      1.230802  1122A      1.234474  1123A      1.236550  
    1124A      1.239821  1125A      1.240239  1126A      1.241972  
    1127A      1.242371  1128A      1.244653  1129A      1.245446  
    1130A      1.248490  1131A      1.249547  1132A      1.250959  
    1133A      1.252129  1134A      1.253372  1135A      1.253681  
    1136A      1.253899  1137A      1.255293  1138A      1.258610  
    1139A      1.258824  1140A      1.262268  1141A      1.263193  
    1142A      1.263501  1143A      1.265987  1144A      1.267478  
    1145A      1.268394  1146A      1.271204  1147A      1.272872  
    1148A      1.273263  1149A      1.275414  1150A      1.278563  
    1151A      1.279283  1152A      1.280424  1153A      1.281206  
    1154A      1.283376  1155A      1.285984  1156A      1.286814  
    1157A      1.288828  1158A      1.289774  1159A      1.290138  
    1160A      1.293675  1161A      1.294182  1162A      1.296293  
    1163A      1.298084  1164A      1.298591  1165A      1.301055  
    1166A      1.301137  1167A      1.303896  1168A      1.306233  
    1169A      1.306773  1170A      1.308951  1171A      1.309861  
    1172A      1.313454  1173A      1.314728  1174A      1.314898  
    1175A      1.315628  1176A      1.316501  1177A      1.318498  
    1178A      1.322111  1179A      1.323111  1180A      1.323562  
    1181A      1.325096  1182A      1.325382  1183A      1.328048  
    1184A      1.329645  1185A      1.330777  1186A      1.331680  
    1187A      1.332992  1188A      1.336570  1189A      1.337290  
    1190A      1.339128  1191A      1.340298  1192A      1.340481  
    1193A      1.344159  1194A      1.345335  1195A      1.346541  
    1196A      1.349622  1197A      1.351608  1198A      1.353629  
    1199A      1.354136  1200A      1.355657  1201A      1.356688  
    1202A      1.358940  1203A      1.359510  1204A      1.361807  
    1205A      1.364068  1206A      1.364875  1207A      1.366958  
    1208A      1.367345  1209A      1.369528  1210A      1.371352  
    1211A      1.372616  1212A      1.373919  1213A      1.376023  
    1214A      1.377021  1215A      1.378300  1216A      1.379975  
    1217A      1.381098  1218A      1.382314  1219A      1.384126  
    1220A      1.384993  1221A      1.385210  1222A      1.387269  
    1223A      1.388290  1224A      1.391021  1225A      1.391621  
    1226A      1.393180  1227A      1.395433  1228A      1.398862  
    1229A      1.400505  1230A      1.402802  1231A      1.404610  
    1232A      1.404976  1233A      1.408573  1234A      1.408637  
    1235A      1.410296  1236A      1.410873  1237A      1.412702  
    1238A      1.413218  1239A      1.415191  1240A      1.415670  
    1241A      1.418405  1242A      1.419404  1243A      1.420572  
    1244A      1.423622  1245A      1.426178  1246A      1.427211  
    1247A      1.428894  1248A      1.430811  1249A      1.432686  
    1250A      1.433392  1251A      1.435431  1252A      1.435633  
    1253A      1.437154  1254A      1.439239  1255A      1.440169  
    1256A      1.441980  1257A      1.442247  1258A      1.443753  
    1259A      1.444283  1260A      1.445258  1261A      1.448040  
    1262A      1.449702  1263A      1.450672  1264A      1.451997  
    1265A      1.452918  1266A      1.454269  1267A      1.455659  
    1268A      1.457615  1269A      1.459360  1270A      1.461245  
    1271A      1.462444  1272A      1.462905  1273A      1.464972  
    1274A      1.468007  1275A      1.470820  1276A      1.471629  
    1277A      1.474100  1278A      1.475011  1279A      1.477511  
    1280A      1.478224  1281A      1.478799  1282A      1.480538  
    1283A      1.481853  1284A      1.484096  1285A      1.484642  
    1286A      1.485718  1287A      1.486800  1288A      1.488728  
    1289A      1.489375  1290A      1.490999  1291A      1.492440  
    1292A      1.493284  1293A      1.496217  1294A      1.497028  
    1295A      1.497827  1296A      1.498447  1297A      1.502737  
    1298A      1.503189  1299A      1.505873  1300A      1.507083  
    1301A      1.509234  1302A      1.510142  1303A      1.511042  
    1304A      1.512805  1305A      1.515965  1306A      1.517729  
    1307A      1.521365  1308A      1.522095  1309A      1.523662  
    1310A      1.523856  1311A      1.525462  1312A      1.529778  
    1313A      1.531544  1314A      1.532088  1315A      1.534385  
    1316A      1.535825  1317A      1.536393  1318A      1.537675  
    1319A      1.539600  1320A      1.540605  1321A      1.541700  
    1322A      1.544401  1323A      1.545043  1324A      1.545352  
    1325A      1.546040  1326A      1.547832  1327A      1.549625  
    1328A      1.551633  1329A      1.551833  1330A      1.552615  
    1331A      1.553489  1332A      1.555269  1333A      1.557685  
    1334A      1.558086  1335A      1.558683  1336A      1.562119  
    1337A      1.562880  1338A      1.565168  1339A      1.566501  
    1340A      1.569291  1341A      1.569784  1342A      1.571025  
    1343A      1.573934  1344A      1.575071  1345A      1.576213  
    1346A      1.576955  1347A      1.578968  1348A      1.580766  
    1349A      1.581654  1350A      1.583551  1351A      1.584521  
    1352A      1.587547  1353A      1.588845  1354A      1.592183  
    1355A      1.592383  1356A      1.592829  1357A      1.596157  
    1358A      1.597413  1359A      1.599215  1360A      1.601593  
    1361A      1.601959  1362A      1.602339  1363A      1.603888  
    1364A      1.605782  1365A      1.607017  1366A      1.607274  
    1367A      1.609746  1368A      1.614319  1369A      1.614628  
    1370A      1.615679  1371A      1.616170  1372A      1.616896  
    1373A      1.619236  1374A      1.620648  1375A      1.621620  
    1376A      1.627100  1377A      1.627956  1378A      1.629991  
    1379A      1.630552  1380A      1.632211  1381A      1.634036  
    1382A      1.635020  1383A      1.636770  1384A      1.638860  
    1385A      1.639578  1386A      1.639984  1387A      1.643183  
    1388A      1.646624  1389A      1.647349  1390A      1.651260  
    1391A      1.651508  1392A      1.652708  1393A      1.654447  
    1394A      1.655992  1395A      1.657227  1396A      1.657724  
    1397A      1.658048  1398A      1.661294  1399A      1.662640  
    1400A      1.664737  1401A      1.666654  1402A      1.670478  
    1403A      1.670660  1404A      1.671127  1405A      1.673460  
    1406A      1.674998  1407A      1.676814  1408A      1.679009  
    1409A      1.680149  1410A      1.680771  1411A      1.681844  
    1412A      1.682284  1413A      1.684138  1414A      1.684605  
    1415A      1.687517  1416A      1.687681  1417A      1.688833  
    1418A      1.690752  1419A      1.692170  1420A      1.693689  
    1421A      1.695686  1422A      1.696324  1423A      1.697991  
    1424A      1.699745  1425A      1.701564  1426A      1.702727  
    1427A      1.705208  1428A      1.706722  1429A      1.708001  
    1430A      1.709563  1431A      1.711332  1432A      1.711813  
    1433A      1.714779  1434A      1.715655  1435A      1.717043  
    1436A      1.717700  1437A      1.717984  1438A      1.719010  
    1439A      1.719819  1440A      1.722412  1441A      1.723137  
    1442A      1.725884  1443A      1.728955  1444A      1.730008  
    1445A      1.730717  1446A      1.733258  1447A      1.735781  
    1448A      1.736045  1449A      1.737994  1450A      1.738376  
    1451A      1.740943  1452A      1.741358  1453A      1.742547  
    1454A      1.747298  1455A      1.747943  1456A      1.749767  
    1457A      1.750369  1458A      1.750976  1459A      1.751594  
    1460A      1.752472  1461A      1.753209  1462A      1.757171  
    1463A      1.758757  1464A      1.761149  1465A      1.761310  
    1466A      1.762312  1467A      1.763135  1468A      1.765162  
    1469A      1.766118  1470A      1.769720  1471A      1.770692  
    1472A      1.771184  1473A      1.775161  1474A      1.777693  
    1475A      1.778175  1476A      1.779594  1477A      1.781277  
    1478A      1.781529  1479A      1.783614  1480A      1.785697  
    1481A      1.786061  1482A      1.787551  1483A      1.789202  
    1484A      1.790888  1485A      1.793006  1486A      1.794930  
    1487A      1.796148  1488A      1.797390  1489A      1.799227  
    1490A      1.799870  1491A      1.801033  1492A      1.802572  
    1493A      1.804917  1494A      1.805987  1495A      1.806771  
    1496A      1.808192  1497A      1.810054  1498A      1.811305  
    1499A      1.811717  1500A      1.812073  1501A      1.813580  
    1502A      1.814920  1503A      1.815299  1504A      1.816192  
    1505A      1.816834  1506A      1.822569  1507A      1.825139  
    1508A      1.826595  1509A      1.827717  1510A      1.828494  
    1511A      1.829245  1512A      1.830933  1513A      1.833121  
    1514A      1.834323  1515A      1.835049  1516A      1.838242  
    1517A      1.839676  1518A      1.840324  1519A      1.840588  
    1520A      1.845560  1521A      1.846468  1522A      1.847518  
    1523A      1.849889  1524A      1.850018  1525A      1.852153  
    1526A      1.853196  1527A      1.853684  1528A      1.856677  
    1529A      1.859972  1530A      1.862981  1531A      1.863147  
    1532A      1.864131  1533A      1.866648  1534A      1.868234  
    1535A      1.871468  1536A      1.874162  1537A      1.874672  
    1538A      1.875909  1539A      1.876561  1540A      1.879027  
    1541A      1.881136  1542A      1.881512  1543A      1.886780  
    1544A      1.888828  1545A      1.889052  1546A      1.889934  
    1547A      1.890697  1548A      1.891706  1549A      1.893194  
    1550A      1.894156  1551A      1.898106  1552A      1.898905  
    1553A      1.899668  1554A      1.900949  1555A      1.902199  
    1556A      1.903630  1557A      1.904464  1558A      1.905592  
    1559A      1.907058  1560A      1.908520  1561A      1.910838  
    1562A      1.912901  1563A      1.913634  1564A      1.915799  
    1565A      1.917238  1566A      1.918142  1567A      1.919772  
    1568A      1.921969  1569A      1.922988  1570A      1.924713  
    1571A      1.926068  1572A      1.926388  1573A      1.929187  
    1574A      1.930544  1575A      1.933284  1576A      1.935656  
    1577A      1.936871  1578A      1.939052  1579A      1.939301  
    1580A      1.944068  1581A      1.944945  1582A      1.945723  
    1583A      1.945994  1584A      1.947962  1585A      1.951399  
    1586A      1.954233  1587A      1.956469  1588A      1.957406  
    1589A      1.958307  1590A      1.958888  1591A      1.962860  
    1592A      1.966015  1593A      1.967253  1594A      1.968140  
    1595A      1.970344  1596A      1.971013  1597A      1.972316  
    1598A      1.973975  1599A      1.974693  1600A      1.977624  
    1601A      1.978474  1602A      1.979248  1603A      1.982048  
    1604A      1.983119  1605A      1.983952  1606A      1.986272  
    1607A      1.990471  1608A      1.991186  1609A      1.992528  
    1610A      1.994701  1611A      1.996072  1612A      1.996901  
    1613A      1.998653  1614A      1.999540  1615A      2.002798  
    1616A      2.003555  1617A      2.004079  1618A      2.004645  
    1619A      2.004891  1620A      2.006508  1621A      2.008478  
    1622A      2.008663  1623A      2.010046  1624A      2.012046  
    1625A      2.012200  1626A      2.013262  1627A      2.015384  
    1628A      2.015705  1629A      2.020083  1630A      2.024021  
    1631A      2.025556  1632A      2.027233  1633A      2.028349  
    1634A      2.029574  1635A      2.031120  1636A      2.031670  
    1637A      2.034298  1638A      2.035088  1639A      2.037609  
    1640A      2.039696  1641A      2.043574  1642A      2.044662  
    1643A      2.046016  1644A      2.046280  1645A      2.047027  
    1646A      2.048083  1647A      2.050844  1648A      2.051349  
    1649A      2.051611  1650A      2.056788  1651A      2.057262  
    1652A      2.060512  1653A      2.062079  1654A      2.062825  
    1655A      2.065147  1656A      2.067453  1657A      2.069263  
    1658A      2.070618  1659A      2.072840  1660A      2.073678  
    1661A      2.074735  1662A      2.076801  1663A      2.077261  
    1664A      2.079108  1665A      2.079620  1666A      2.082444  
    1667A      2.083660  1668A      2.085561  1669A      2.088133  
    1670A      2.089825  1671A      2.090175  1672A      2.091646  
    1673A      2.093600  1674A      2.095153  1675A      2.096315  
    1676A      2.098204  1677A      2.102826  1678A      2.103127  
    1679A      2.105536  1680A      2.106848  1681A      2.107745  
    1682A      2.108908  1683A      2.110094  1684A      2.111892  
    1685A      2.113621  1686A      2.114310  1687A      2.116276  
    1688A      2.117174  1689A      2.118269  1690A      2.122091  
    1691A      2.122259  1692A      2.126286  1693A      2.127279  
    1694A      2.129847  1695A      2.130914  1696A      2.136811  
    1697A      2.139282  1698A      2.141515  1699A      2.142194  
    1700A      2.144910  1701A      2.146481  1702A      2.147408  
    1703A      2.149325  1704A      2.149754  1705A      2.150069  
    1706A      2.151963  1707A      2.155340  1708A      2.156972  
    1709A      2.157105  1710A      2.160592  1711A      2.161324  
    1712A      2.164259  1713A      2.165258  1714A      2.165893  
    1715A      2.166633  1716A      2.168807  1717A      2.170485  
    1718A      2.173061  1719A      2.173615  1720A      2.174788  
    1721A      2.178082  1722A      2.181760  1723A      2.182867  
    1724A      2.183804  1725A      2.185088  1726A      2.186434  
    1727A      2.189033  1728A      2.189930  1729A      2.192211  
    1730A      2.193693  1731A      2.196453  1732A      2.197970  
    1733A      2.200259  1734A      2.201237  1735A      2.202670  
    1736A      2.204185  1737A      2.204866  1738A      2.205965  
    1739A      2.212009  1740A      2.213239  1741A      2.216153  
    1742A      2.217644  1743A      2.219670  1744A      2.220552  
    1745A      2.222250  1746A      2.222596  1747A      2.224835  
    1748A      2.225959  1749A      2.226341  1750A      2.230903  
    1751A      2.232066  1752A      2.233277  1753A      2.234307  
    1754A      2.235614  1755A      2.236645  1756A      2.238127  
    1757A      2.242466  1758A      2.243483  1759A      2.246292  
    1760A      2.248571  1761A      2.249673  1762A      2.251373  
    1763A      2.254013  1764A      2.254792  1765A      2.257054  
    1766A      2.258887  1767A      2.260429  1768A      2.263228  
    1769A      2.265600  1770A      2.266656  1771A      2.266900  
    1772A      2.268873  1773A      2.272792  1774A      2.273737  
    1775A      2.275482  1776A      2.276751  1777A      2.280357  
    1778A      2.284668  1779A      2.285070  1780A      2.288236  
    1781A      2.289865  1782A      2.292710  1783A      2.293284  
    1784A      2.295386  1785A      2.296258  1786A      2.297567  
    1787A      2.299143  1788A      2.300870  1789A      2.304332  
    1790A      2.306250  1791A      2.309292  1792A      2.309438  
    1793A      2.311887  1794A      2.312197  1795A      2.314020  
    1796A      2.316171  1797A      2.318247  1798A      2.323928  
    1799A      2.324289  1800A      2.327278  1801A      2.329572  
    1802A      2.329895  1803A      2.330103  1804A      2.331767  
    1805A      2.333250  1806A      2.334488  1807A      2.335471  
    1808A      2.338923  1809A      2.341535  1810A      2.343452  
    1811A      2.347355  1812A      2.349335  1813A      2.350568  
    1814A      2.353538  1815A      2.353996  1816A      2.359408  
    1817A      2.361055  1818A      2.362258  1819A      2.364642  
    1820A      2.366776  1821A      2.368813  1822A      2.369594  
    1823A      2.370190  1824A      2.373917  1825A      2.374932  
    1826A      2.378507  1827A      2.379366  1828A      2.380989  
    1829A      2.381404  1830A      2.382721  1831A      2.384841  
    1832A      2.386106  1833A      2.392045  1834A      2.392499  
    1835A      2.395819  1836A      2.397457  1837A      2.398682  
    1838A      2.403255  1839A      2.403934  1840A      2.406416  
    1841A      2.408135  1842A      2.409613  1843A      2.410835  
    1844A      2.413759  1845A      2.414567  1846A      2.415755  
    1847A      2.422093  1848A      2.422902  1849A      2.424732  
    1850A      2.426560  1851A      2.428783  1852A      2.432225  
    1853A      2.437028  1854A      2.438509  1855A      2.440489  
    1856A      2.441804  1857A      2.443193  1858A      2.445531  
    1859A      2.448066  1860A      2.448870  1861A      2.450716  
    1862A      2.451904  1863A      2.454812  1864A      2.455803  
    1865A      2.458254  1866A      2.462291  1867A      2.463567  
    1868A      2.465426  1869A      2.468730  1870A      2.470128  
    1871A      2.471898  1872A      2.473135  1873A      2.478177  
    1874A      2.480428  1875A      2.481175  1876A      2.484919  
    1877A      2.486087  1878A      2.491354  1879A      2.491852  
    1880A      2.494378  1881A      2.496039  1882A      2.498229  
    1883A      2.499709  1884A      2.501984  1885A      2.502394  
    1886A      2.505089  1887A      2.505964  1888A      2.508189  
    1889A      2.508811  1890A      2.512351  1891A      2.513042  
    1892A      2.515189  1893A      2.518750  1894A      2.520343  
    1895A      2.522731  1896A      2.529155  1897A      2.529388  
    1898A      2.530933  1899A      2.531050  1900A      2.532764  
    1901A      2.533392  1902A      2.539851  1903A      2.541065  
    1904A      2.541795  1905A      2.546647  1906A      2.546913  
    1907A      2.547257  1908A      2.548597  1909A      2.552406  
    1910A      2.553214  1911A      2.553640  1912A      2.555039  
    1913A      2.556853  1914A      2.559362  1915A      2.560610  
    1916A      2.564298  1917A      2.567361  1918A      2.567605  
    1919A      2.570403  1920A      2.573964  1921A      2.574805  
    1922A      2.576513  1923A      2.578525  1924A      2.580561  
    1925A      2.583002  1926A      2.584077  1927A      2.586348  
    1928A      2.590115  1929A      2.594842  1930A      2.595652  
    1931A      2.596392  1932A      2.597734  1933A      2.600338  
    1934A      2.603896  1935A      2.606525  1936A      2.607741  
    1937A      2.610263  1938A      2.611485  1939A      2.612351  
    1940A      2.613540  1941A      2.614643  1942A      2.617928  
    1943A      2.620460  1944A      2.620896  1945A      2.622962  
    1946A      2.624321  1947A      2.627529  1948A      2.629172  
    1949A      2.633085  1950A      2.633784  1951A      2.636981  
    1952A      2.638695  1953A      2.641031  1954A      2.643360  
    1955A      2.643846  1956A      2.646454  1957A      2.649231  
    1958A      2.651600  1959A      2.656480  1960A      2.657027  
    1961A      2.662654  1962A      2.663536  1963A      2.665687  
    1964A      2.666973  1965A      2.668050  1966A      2.670415  
    1967A      2.672465  1968A      2.674904  1969A      2.675463  
    1970A      2.678301  1971A      2.680418  1972A      2.684139  
    1973A      2.688882  1974A      2.689770  1975A      2.689843  
    1976A      2.691532  1977A      2.692653  1978A      2.694185  
    1979A      2.696531  1980A      2.698648  1981A      2.699629  
    1982A      2.702153  1983A      2.704159  1984A      2.706411  
    1985A      2.710840  1986A      2.713412  1987A      2.717543  
    1988A      2.717960  1989A      2.719878  1990A      2.721905  
    1991A      2.727253  1992A      2.728105  1993A      2.730048  
    1994A      2.730844  1995A      2.732248  1996A      2.734361  
    1997A      2.736269  1998A      2.738517  1999A      2.741003  
    2000A      2.743105  2001A      2.743940  2002A      2.747585  
    2003A      2.750772  2004A      2.752382  2005A      2.753132  
    2006A      2.754254  2007A      2.755626  2008A      2.761794  
    2009A      2.762704  2010A      2.766907  2011A      2.767597  
    2012A      2.770523  2013A      2.770703  2014A      2.771715  
    2015A      2.774745  2016A      2.776573  2017A      2.777419  
    2018A      2.781944  2019A      2.783142  2020A      2.783528  
    2021A      2.785900  2022A      2.791539  2023A      2.792133  
    2024A      2.794217  2025A      2.794745  2026A      2.799469  
    2027A      2.801975  2028A      2.805371  2029A      2.807304  
    2030A      2.810337  2031A      2.813472  2032A      2.816821  
    2033A      2.824113  2034A      2.825283  2035A      2.825867  
    2036A      2.828791  2037A      2.833329  2038A      2.835874  
    2039A      2.839685  2040A      2.843399  2041A      2.845845  
    2042A      2.849202  2043A      2.850007  2044A      2.850495  
    2045A      2.851532  2046A      2.860864  2047A      2.861526  
    2048A      2.866199  2049A      2.867092  2050A      2.868691  
    2051A      2.872783  2052A      2.874663  2053A      2.878356  
    2054A      2.880785  2055A      2.883191  2056A      2.883965  
    2057A      2.886524  2058A      2.888250  2059A      2.893233  
    2060A      2.896416  2061A      2.899718  2062A      2.904023  
    2063A      2.904448  2064A      2.912006  2065A      2.912353  
    2066A      2.913072  2067A      2.918221  2068A      2.920050  
    2069A      2.924313  2070A      2.925482  2071A      2.929986  
    2072A      2.934266  2073A      2.935271  2074A      2.935474  
    2075A      2.937114  2076A      2.943861  2077A      2.944833  
    2078A      2.951410  2079A      2.952349  2080A      2.960065  
    2081A      2.965737  2082A      2.967070  2083A      2.969762  
    2084A      2.976511  2085A      2.979213  2086A      2.980410  
    2087A      2.982484  2088A      2.988260  2089A      2.990734  
    2090A      2.991266  2091A      3.002314  2092A      3.003992  
    2093A      3.007558  2094A      3.013199  2095A      3.014930  
    2096A      3.018025  2097A      3.020429  2098A      3.027115  
    2099A      3.033803  2100A      3.037595  2101A      3.039872  
    2102A      3.043190  2103A      3.049472  2104A      3.050198  
    2105A      3.054315  2106A      3.058168  2107A      3.069687  
    2108A      3.072187  2109A      3.075940  2110A      3.081533  
    2111A      3.083032  2112A      3.086530  2113A      3.089173  
    2114A      3.097052  2115A      3.104451  2116A      3.114456  
    2117A      3.116896  2118A      3.120554  2119A      3.125520  
    2120A      3.127514  2121A      3.127926  2122A      3.130452  
    2123A      3.133755  2124A      3.145044  2125A      3.151497  
    2126A      3.153556  2127A      3.159713  2128A      3.161681  
    2129A      3.175131  2130A      3.177221  2131A      3.178610  
    2132A      3.180769  2133A      3.190632  2134A      3.193383  
    2135A      3.200297  2136A      3.209145  2137A      3.211205  
    2138A      3.223838  2139A      3.229245  2140A      3.234404  
    2141A      3.250056  2142A      3.251995  2143A      3.255408  
    2144A      3.255603  2145A      3.260821  2146A      3.263960  
    2147A      3.266425  2148A      3.279326  2149A      3.284276  
    2150A      3.286470  2151A      3.292386  2152A      3.305076  
    2153A      3.307430  2154A      3.311098  2155A      3.321892  
    2156A      3.325860  2157A      3.329279  2158A      3.332722  
    2159A      3.350321  2160A      3.353036  2161A      3.355827  
    2162A      3.361176  2163A      3.363837  2164A      3.365904  
    2165A      3.374268  2166A      3.377920  2167A      3.380297  
    2168A      3.387841  2169A      3.390974  2170A      3.397369  
    2171A      3.404127  2172A      3.404756  2173A      3.412932  
    2174A      3.416600  2175A      3.423088  2176A      3.424279  
    2177A      3.426978  2178A      3.431286  2179A      3.437231  
    2180A      3.438686  2181A      3.444381  2182A      3.454798  
    2183A      3.455068  2184A      3.460143  2185A      3.460695  
    2186A      3.464857  2187A      3.469561  2188A      3.476578  
    2189A      3.485619  2190A      3.485994  2191A      3.489789  
    2192A      3.493081  2193A      3.494628  2194A      3.496763  
    2195A      3.498448  2196A      3.499696  2197A      3.502320  
    2198A      3.510027  2199A      3.512705  2200A      3.516444  
    2201A      3.517654  2202A      3.518562  2203A      3.526200  
    2204A      3.528938  2205A      3.530910  2206A      3.536217  
    2207A      3.538698  2208A      3.539396  2209A      3.543251  
    2210A      3.546094  2211A      3.550234  2212A      3.552987  
    2213A      3.553556  2214A      3.558332  2215A      3.563580  
    2216A      3.566455  2217A      3.568259  2218A      3.570312  
    2219A      3.573697  2220A      3.575933  2221A      3.578129  
    2222A      3.580314  2223A      3.580989  2224A      3.583206  
    2225A      3.586115  2226A      3.589450  2227A      3.590969  
    2228A      3.594240  2229A      3.598968  2230A      3.602786  
    2231A      3.604999  2232A      3.611165  2233A      3.611958  
    2234A      3.614312  2235A      3.615856  2236A      3.616430  
    2237A      3.620326  2238A      3.621738  2239A      3.624235  
    2240A      3.625542  2241A      3.630168  2242A      3.632421  
    2243A      3.634056  2244A      3.635096  2245A      3.638565  
    2246A      3.640525  2247A      3.643188  2248A      3.644463  
    2249A      3.645637  2250A      3.649483  2251A      3.652374  
    2252A      3.658753  2253A      3.659749  2254A      3.662166  
    2255A      3.664179  2256A      3.664613  2257A      3.667621  
    2258A      3.669682  2259A      3.672840  2260A      3.674648  
    2261A      3.679116  2262A      3.680220  2263A      3.682604  
    2264A      3.683955  2265A      3.685429  2266A      3.687778  
    2267A      3.688495  2268A      3.691183  2269A      3.693259  
    2270A      3.696556  2271A      3.699161  2272A      3.700152  
    2273A      3.702481  2274A      3.704910  2275A      3.707138  
    2276A      3.709963  2277A      3.710407  2278A      3.711868  
    2279A      3.715608  2280A      3.719024  2281A      3.720095  
    2282A      3.721978  2283A      3.724242  2284A      3.727344  
    2285A      3.730287  2286A      3.732109  2287A      3.734700  
    2288A      3.735451  2289A      3.737035  2290A      3.739704  
    2291A      3.742887  2292A      3.745712  2293A      3.746590  
    2294A      3.748350  2295A      3.750103  2296A      3.751122  
    2297A      3.754380  2298A      3.757150  2299A      3.758388  
    2300A      3.760346  2301A      3.764889  2302A      3.766086  
    2303A      3.767188  2304A      3.768805  2305A      3.772329  
    2306A      3.773764  2307A      3.779197  2308A      3.782765  
    2309A      3.786085  2310A      3.787573  2311A      3.787893  
    2312A      3.791134  2313A      3.794113  2314A      3.795114  
    2315A      3.796326  2316A      3.800428  2317A      3.801770  
    2318A      3.802415  2319A      3.803275  2320A      3.806840  
    2321A      3.809499  2322A      3.810838  2323A      3.812259  
    2324A      3.813624  2325A      3.817014  2326A      3.817742  
    2327A      3.819348  2328A      3.820257  2329A      3.820982  
    2330A      3.825957  2331A      3.828612  2332A      3.829146  
    2333A      3.831960  2334A      3.833529  2335A      3.834640  
    2336A      3.835297  2337A      3.839498  2338A      3.840751  
    2339A      3.842092  2340A      3.843287  2341A      3.848375  
    2342A      3.849100  2343A      3.851932  2344A      3.852241  
    2345A      3.853571  2346A      3.855646  2347A      3.856299  
    2348A      3.860164  2349A      3.862114  2350A      3.863504  
    2351A      3.865302  2352A      3.867224  2353A      3.870737  
    2354A      3.871860  2355A      3.873906  2356A      3.874109  
    2357A      3.875571  2358A      3.877440  2359A      3.880033  
    2360A      3.881569  2361A      3.883963  2362A      3.884325  
    2363A      3.885984  2364A      3.887667  2365A      3.888447  
    2366A      3.890828  2367A      3.893661  2368A      3.897611  
    2369A      3.899039  2370A      3.900035  2371A      3.902356  
    2372A      3.906537  2373A      3.907149  2374A      3.909099  
    2375A      3.910589  2376A      3.911913  2377A      3.915308  
    2378A      3.915963  2379A      3.920183  2380A      3.921228  
    2381A      3.925024  2382A      3.925211  2383A      3.928990  
    2384A      3.929815  2385A      3.930755  2386A      3.933146  
    2387A      3.936491  2388A      3.938276  2389A      3.942624  
    2390A      3.942989  2391A      3.945136  2392A      3.945917  
    2393A      3.947820  2394A      3.948385  2395A      3.950513  
    2396A      3.951239  2397A      3.956093  2398A      3.956575  
    2399A      3.958759  2400A      3.959280  2401A      3.963323  
    2402A      3.965643  2403A      3.965673  2404A      3.968471  
    2405A      3.970923  2406A      3.972505  2407A      3.973781  
    2408A      3.975496  2409A      3.980385  2410A      3.984287  
    2411A      3.986407  2412A      3.987602  2413A      3.988108  
    2414A      3.990431  2415A      3.991339  2416A      3.993495  
    2417A      3.994070  2418A      3.996615  2419A      3.997609  
    2420A      3.999174  2421A      3.999466  2422A      4.001944  
    2423A      4.004805  2424A      4.005245  2425A      4.006874  
    2426A      4.006986  2427A      4.008457  2428A      4.015431  
    2429A      4.015971  2430A      4.017756  2431A      4.019001  
    2432A      4.020163  2433A      4.023471  2434A      4.025210  
    2435A      4.028324  2436A      4.029461  2437A      4.030159  
    2438A      4.033130  2439A      4.034044  2440A      4.037511  
    2441A      4.038399  2442A      4.040852  2443A      4.044175  
    2444A      4.046178  2445A      4.048175  2446A      4.048657  
    2447A      4.049270  2448A      4.051521  2449A      4.054283  
    2450A      4.056434  2451A      4.057220  2452A      4.059470  
    2453A      4.060160  2454A      4.064791  2455A      4.065911  
    2456A      4.068196  2457A      4.070500  2458A      4.072559  
    2459A      4.076813  2460A      4.077070  2461A      4.079367  
    2462A      4.080023  2463A      4.081909  2464A      4.084388  
    2465A      4.086329  2466A      4.089578  2467A      4.090741  
    2468A      4.092006  2469A      4.093437  2470A      4.096338  
    2471A      4.097162  2472A      4.098462  2473A      4.103683  
    2474A      4.104172  2475A      4.106951  2476A      4.108725  
    2477A      4.110648  2478A      4.112904  2479A      4.114375  
    2480A      4.115093  2481A      4.117386  2482A      4.118101  
    2483A      4.119427  2484A      4.121110  2485A      4.121908  
    2486A      4.122094  2487A      4.129128  2488A      4.131078  
    2489A      4.131254  2490A      4.132622  2491A      4.134916  
    2492A      4.136120  2493A      4.137501  2494A      4.139079  
    2495A      4.141008  2496A      4.141192  2497A      4.144122  
    2498A      4.145658  2499A      4.148967  2500A      4.150501  
    2501A      4.152871  2502A      4.153369  2503A      4.154904  
    2504A      4.155562  2505A      4.157467  2506A      4.158477  
    2507A      4.162322  2508A      4.164360  2509A      4.165604  
    2510A      4.168088  2511A      4.171398  2512A      4.172753  
    2513A      4.173672  2514A      4.176598  2515A      4.176671  
    2516A      4.179964  2517A      4.183762  2518A      4.184610  
    2519A      4.187006  2520A      4.187898  2521A      4.188666  
    2522A      4.191701  2523A      4.194139  2524A      4.195408  
    2525A      4.195952  2526A      4.199424  2527A      4.202438  
    2528A      4.203978  2529A      4.205282  2530A      4.208577  
    2531A      4.209045  2532A      4.209717  2533A      4.215622  
    2534A      4.215966  2535A      4.217870  2536A      4.219056  
    2537A      4.219312  2538A      4.220897  2539A      4.221768  
    2540A      4.226450  2541A      4.227415  2542A      4.229185  
    2543A      4.231848  2544A      4.236567  2545A      4.238786  
    2546A      4.239504  2547A      4.240479  2548A      4.242768  
    2549A      4.248823  2550A      4.250080  2551A      4.251100  
    2552A      4.252528  2553A      4.253510  2554A      4.254779  
    2555A      4.256401  2556A      4.257260  2557A      4.262255  
    2558A      4.263407  2559A      4.265657  2560A      4.269158  
    2561A      4.269672  2562A      4.271015  2563A      4.272903  
    2564A      4.274881  2565A      4.276372  2566A      4.280258  
    2567A      4.281627  2568A      4.284038  2569A      4.287022  
    2570A      4.287902  2571A      4.289818  2572A      4.291882  
    2573A      4.296982  2574A      4.297242  2575A      4.300281  
    2576A      4.302627  2577A      4.305497  2578A      4.307727  
    2579A      4.309327  2580A      4.309999  2581A      4.311753  
    2582A      4.316551  2583A      4.316959  2584A      4.320362  
    2585A      4.321660  2586A      4.322631  2587A      4.323332  
    2588A      4.325362  2589A      4.326806  2590A      4.328133  
    2591A      4.332967  2592A      4.335241  2593A      4.336150  
    2594A      4.336478  2595A      4.337622  2596A      4.341938  
    2597A      4.343698  2598A      4.345065  2599A      4.347702  
    2600A      4.349280  2601A      4.352207  2602A      4.356933  
    2603A      4.360149  2604A      4.361949  2605A      4.362406  
    2606A      4.364332  2607A      4.364628  2608A      4.365671  
    2609A      4.370524  2610A      4.370834  2611A      4.374105  
    2612A      4.377082  2613A      4.380020  2614A      4.380515  
    2615A      4.382814  2616A      4.383427  2617A      4.384426  
    2618A      4.387475  2619A      4.390256  2620A      4.390890  
    2621A      4.390989  2622A      4.395004  2623A      4.395428  
    2624A      4.401272  2625A      4.403192  2626A      4.403423  
    2627A      4.405473  2628A      4.406643  2629A      4.410751  
    2630A      4.411748  2631A      4.414828  2632A      4.415459  
    2633A      4.416056  2634A      4.420152  2635A      4.420852  
    2636A      4.425252  2637A      4.425930  2638A      4.428807  
    2639A      4.429771  2640A      4.431030  2641A      4.431685  
    2642A      4.432062  2643A      4.433261  2644A      4.435674  
    2645A      4.436021  2646A      4.438067  2647A      4.441980  
    2648A      4.442427  2649A      4.447010  2650A      4.447911  
    2651A      4.450125  2652A      4.452233  2653A      4.454849  
    2654A      4.457077  2655A      4.457832  2656A      4.460282  
    2657A      4.461144  2658A      4.463107  2659A      4.465060  
    2660A      4.468892  2661A      4.472356  2662A      4.474052  
    2663A      4.477137  2664A      4.477569  2665A      4.478890  
    2666A      4.483162  2667A      4.483885  2668A      4.484741  
    2669A      4.488124  2670A      4.488999  2671A      4.490411  
    2672A      4.492988  2673A      4.496150  2674A      4.497445  
    2675A      4.499151  2676A      4.499872  2677A      4.502174  
    2678A      4.503496  2679A      4.506307  2680A      4.510726  
    2681A      4.513618  2682A      4.514955  2683A      4.515476  
    2684A      4.518901  2685A      4.522202  2686A      4.522372  
    2687A      4.525231  2688A      4.526021  2689A      4.529863  
    2690A      4.530959  2691A      4.533857  2692A      4.534452  
    2693A      4.536155  2694A      4.540585  2695A      4.541008  
    2696A      4.543050  2697A      4.544423  2698A      4.548059  
    2699A      4.549283  2700A      4.550628  2701A      4.552247  
    2702A      4.554063  2703A      4.558816  2704A      4.560634  
    2705A      4.561485  2706A      4.562376  2707A      4.563312  
    2708A      4.567969  2709A      4.570450  2710A      4.570952  
    2711A      4.572505  2712A      4.575433  2713A      4.577621  
    2714A      4.579482  2715A      4.582717  2716A      4.585123  
    2717A      4.585859  2718A      4.590634  2719A      4.591224  
    2720A      4.593761  2721A      4.594737  2722A      4.596791  
    2723A      4.598920  2724A      4.599370  2725A      4.600368  
    2726A      4.604083  2727A      4.604899  2728A      4.605807  
    2729A      4.608833  2730A      4.614181  2731A      4.614802  
    2732A      4.615365  2733A      4.618466  2734A      4.619217  
    2735A      4.621090  2736A      4.623630  2737A      4.625081  
    2738A      4.628243  2739A      4.629757  2740A      4.632754  
    2741A      4.635271  2742A      4.638495  2743A      4.640896  
    2744A      4.642195  2745A      4.644389  2746A      4.644723  
    2747A      4.647533  2748A      4.649537  2749A      4.650195  
    2750A      4.653375  2751A      4.655723  2752A      4.658983  
    2753A      4.660101  2754A      4.663934  2755A      4.665656  
    2756A      4.667962  2757A      4.671105  2758A      4.673280  
    2759A      4.673999  2760A      4.678873  2761A      4.679736  
    2762A      4.682063  2763A      4.683651  2764A      4.685004  
    2765A      4.688228  2766A      4.689190  2767A      4.691254  
    2768A      4.693775  2769A      4.694139  2770A      4.695809  
    2771A      4.697937  2772A      4.701978  2773A      4.705976  
    2774A      4.709845  2775A      4.711929  2776A      4.714612  
    2777A      4.715769  2778A      4.718884  2779A      4.720128  
    2780A      4.722071  2781A      4.722970  2782A      4.725721  
    2783A      4.726781  2784A      4.730516  2785A      4.731233  
    2786A      4.735489  2787A      4.736907  2788A      4.739829  
    2789A      4.740930  2790A      4.741386  2791A      4.745185  
    2792A      4.748673  2793A      4.749735  2794A      4.754016  
    2795A      4.756422  2796A      4.757729  2797A      4.759580  
    2798A      4.761774  2799A      4.766422  2800A      4.769377  
    2801A      4.771731  2802A      4.771771  2803A      4.774044  
    2804A      4.777446  2805A      4.777775  2806A      4.786825  
    2807A      4.787890  2808A      4.790799  2809A      4.792152  
    2810A      4.795508  2811A      4.799577  2812A      4.799930  
    2813A      4.803512  2814A      4.803967  2815A      4.806347  
    2816A      4.811601  2817A      4.813860  2818A      4.817576  
    2819A      4.819217  2820A      4.823897  2821A      4.824407  
    2822A      4.825023  2823A      4.827585  2824A      4.828765  
    2825A      4.830370  2826A      4.831011  2827A      4.834607  
    2828A      4.836953  2829A      4.839808  2830A      4.844647  
    2831A      4.846377  2832A      4.849979  2833A      4.850492  
    2834A      4.854651  2835A      4.857817  2836A      4.858641  
    2837A      4.863486  2838A      4.864333  2839A      4.866700  
    2840A      4.867784  2841A      4.872825  2842A      4.874137  
    2843A      4.878469  2844A      4.883068  2845A      4.886928  
    2846A      4.889020  2847A      4.890345  2848A      4.893102  
    2849A      4.894253  2850A      4.896535  2851A      4.898987  
    2852A      4.899568  2853A      4.902162  2854A      4.905365  
    2855A      4.909516  2856A      4.911139  2857A      4.914008  
    2858A      4.919752  2859A      4.921194  2860A      4.923104  
    2861A      4.930891  2862A      4.934945  2863A      4.935334  
    2864A      4.935563  2865A      4.940915  2866A      4.941345  
    2867A      4.942519  2868A      4.943494  2869A      4.948850  
    2870A      4.949706  2871A      4.952251  2872A      4.955745  
    2873A      4.958972  2874A      4.960651  2875A      4.966059  
    2876A      4.967457  2877A      4.968933  2878A      4.975408  
    2879A      4.976985  2880A      4.977891  2881A      4.978370  
    2882A      4.980841  2883A      4.983036  2884A      4.987529  
    2885A      4.988357  2886A      4.990480  2887A      4.992268  
    2888A      4.995562  2889A      4.996192  2890A      4.999364  
    2891A      5.002688  2892A      5.002919  2893A      5.005311  
    2894A      5.007814  2895A      5.011347  2896A      5.017325  
    2897A      5.019410  2898A      5.022094  2899A      5.023880  
    2900A      5.027501  2901A      5.034095  2902A      5.034995  
    2903A      5.035782  2904A      5.036354  2905A      5.040385  
    2906A      5.041656  2907A      5.043921  2908A      5.044247  
    2909A      5.047174  2910A      5.048393  2911A      5.053063  
    2912A      5.053980  2913A      5.056330  2914A      5.060517  
    2915A      5.062001  2916A      5.065088  2917A      5.066632  
    2918A      5.067745  2919A      5.068835  2920A      5.076105  
    2921A      5.076257  2922A      5.079439  2923A      5.082630  
    2924A      5.083542  2925A      5.087929  2926A      5.091019  
    2927A      5.096494  2928A      5.097101  2929A      5.098907  
    2930A      5.104500  2931A      5.105464  2932A      5.114555  
    2933A      5.115819  2934A      5.116077  2935A      5.122507  
    2936A      5.123094  2937A      5.126289  2938A      5.131462  
    2939A      5.133233  2940A      5.137768  2941A      5.138606  
    2942A      5.141080  2943A      5.141153  2944A      5.147179  
    2945A      5.147541  2946A      5.151524  2947A      5.153745  
    2948A      5.156118  2949A      5.166520  2950A      5.167400  
    2951A      5.170414  2952A      5.170945  2953A      5.172158  
    2954A      5.172936  2955A      5.178109  2956A      5.180567  
    2957A      5.181906  2958A      5.190761  2959A      5.191837  
    2960A      5.192062  2961A      5.195418  2962A      5.196238  
    2963A      5.197199  2964A      5.202485  2965A      5.205851  
    2966A      5.207226  2967A      5.208466  2968A      5.212242  
    2969A      5.216655  2970A      5.218804  2971A      5.223526  
    2972A      5.224538  2973A      5.228786  2974A      5.230637  
    2975A      5.231290  2976A      5.233821  2977A      5.234475  
    2978A      5.238142  2979A      5.240882  2980A      5.241672  
    2981A      5.246439  2982A      5.247902  2983A      5.251364  
    2984A      5.255205  2985A      5.258280  2986A      5.260143  
    2987A      5.266368  2988A      5.267884  2989A      5.268459  
    2990A      5.271516  2991A      5.273708  2992A      5.277964  
    2993A      5.279705  2994A      5.281708  2995A      5.284918  
    2996A      5.285788  2997A      5.287963  2998A      5.289301  
    2999A      5.292558  3000A      5.294361  3001A      5.297748  
    3002A      5.300223  3003A      5.300519  3004A      5.304467  
    3005A      5.305754  3006A      5.308109  3007A      5.312926  
    3008A      5.315915  3009A      5.321533  3010A      5.323684  
    3011A      5.327528  3012A      5.330771  3013A      5.332422  
    3014A      5.334237  3015A      5.335607  3016A      5.336697  
    3017A      5.345178  3018A      5.349229  3019A      5.349569  
    3020A      5.352368  3021A      5.354888  3022A      5.356995  
    3023A      5.359376  3024A      5.362863  3025A      5.367302  
    3026A      5.369233  3027A      5.370804  3028A      5.372182  
    3029A      5.373562  3030A      5.380192  3031A      5.381932  
    3032A      5.384642  3033A      5.385531  3034A      5.389449  
    3035A      5.394193  3036A      5.397093  3037A      5.398998  
    3038A      5.404994  3039A      5.407986  3040A      5.414212  
    3041A      5.415652  3042A      5.415772  3043A      5.419943  
    3044A      5.421308  3045A      5.423343  3046A      5.428842  
    3047A      5.431287  3048A      5.433180  3049A      5.438593  
    3050A      5.443874  3051A      5.446435  3052A      5.449531  
    3053A      5.451419  3054A      5.455108  3055A      5.458336  
    3056A      5.462107  3057A      5.463330  3058A      5.463750  
    3059A      5.468214  3060A      5.475972  3061A      5.477954  
    3062A      5.479410  3063A      5.486090  3064A      5.488880  
    3065A      5.494878  3066A      5.496950  3067A      5.499230  
    3068A      5.500178  3069A      5.505177  3070A      5.506154  
    3071A      5.509776  3072A      5.510933  3073A      5.512102  
    3074A      5.519329  3075A      5.521293  3076A      5.528106  
    3077A      5.531371  3078A      5.532788  3079A      5.535763  
    3080A      5.537175  3081A      5.537703  3082A      5.538779  
    3083A      5.540761  3084A      5.544174  3085A      5.549127  
    3086A      5.549824  3087A      5.553579  3088A      5.558356  
    3089A      5.559434  3090A      5.561941  3091A      5.564971  
    3092A      5.566768  3093A      5.569710  3094A      5.580158  
    3095A      5.581061  3096A      5.588128  3097A      5.588512  
    3098A      5.595674  3099A      5.599115  3100A      5.605175  
    3101A      5.606319  3102A      5.608918  3103A      5.612065  
    3104A      5.612708  3105A      5.616502  3106A      5.621384  
    3107A      5.625827  3108A      5.626519  3109A      5.637068  
    3110A      5.640458  3111A      5.644890  3112A      5.647206  
    3113A      5.649939  3114A      5.652743  3115A      5.655696  
    3116A      5.660824  3117A      5.667237  3118A      5.671229  
    3119A      5.673622  3120A      5.676993  3121A      5.678733  
    3122A      5.681509  3123A      5.683181  3124A      5.686885  
    3125A      5.689697  3126A      5.694065  3127A      5.697471  
    3128A      5.704799  3129A      5.706380  3130A      5.709890  
    3131A      5.710963  3132A      5.717684  3133A      5.722211  
    3134A      5.723603  3135A      5.724309  3136A      5.731002  
    3137A      5.731631  3138A      5.740625  3139A      5.740936  
    3140A      5.744542  3141A      5.745257  3142A      5.748651  
    3143A      5.754322  3144A      5.757556  3145A      5.761107  
    3146A      5.764579  3147A      5.765131  3148A      5.768205  
    3149A      5.768686  3150A      5.773889  3151A      5.778632  
    3152A      5.780570  3153A      5.783878  3154A      5.784430  
    3155A      5.788501  3156A      5.792122  3157A      5.793394  
    3158A      5.796716  3159A      5.797130  3160A      5.807043  
    3161A      5.812573  3162A      5.816686  3163A      5.817073  
    3164A      5.820605  3165A      5.826350  3166A      5.828133  
    3167A      5.830053  3168A      5.845269  3169A      5.849754  
    3170A      5.851337  3171A      5.858948  3172A      5.862609  
    3173A      5.866616  3174A      5.869455  3175A      5.870212  
    3176A      5.874678  3177A      5.882509  3178A      5.886900  
    3179A      5.887499  3180A      5.889353  3181A      5.897839  
    3182A      5.901605  3183A      5.904648  3184A      5.905300  
    3185A      5.908732  3186A      5.925170  3187A      5.931581  
    3188A      5.940751  3189A      5.946277  3190A      5.956984  
    3191A      5.957417  3192A      5.962816  3193A      5.965575  
    3194A      5.968015  3195A      5.969174  3196A      5.975074  
    3197A      5.981813  3198A      5.982667  3199A      5.986609  
    3200A      5.993803  3201A      5.996603  3202A      5.998294  
    3203A      6.002049  3204A      6.018671  3205A      6.019632  
    3206A      6.026201  3207A      6.036520  3208A      6.037177  
    3209A      6.041784  3210A      6.051193  3211A      6.053370  
    3212A      6.057053  3213A      6.060287  3214A      6.065727  
    3215A      6.067007  3216A      6.076024  3217A      6.079146  
    3218A      6.083170  3219A      6.084873  3220A      6.106925  
    3221A      6.111856  3222A      6.118239  3223A      6.127711  
    3224A      6.129229  3225A      6.132624  3226A      6.140875  
    3227A      6.144020  3228A      6.157471  3229A      6.160225  
    3230A      6.164651  3231A      6.182376  3232A      6.184052  
    3233A      6.185475  3234A      6.191282  3235A      6.204558  
    3236A      6.210013  3237A      6.219695  3238A      6.225562  
    3239A      6.234471  3240A      6.236349  3241A      6.236792  
    3242A      6.263013  3243A      6.263661  3244A      6.272820  
    3245A      6.277875  3246A      6.284097  3247A      6.291893  
    3248A      6.292154  3249A      6.302056  3250A      6.303998  
    3251A      6.308524  3252A      6.310538  3253A      6.314639  
    3254A      6.316621  3255A      6.324497  3256A      6.329128  
    3257A      6.348775  3258A      6.354370  3259A      6.361799  
    3260A      6.368259  3261A      6.376967  3262A      6.422312  
    3263A      6.443056  3264A      6.457669  3265A      6.479879  
    3266A      6.488334  3267A      6.489128  3268A      6.502303  
    3269A      6.507654  3270A      6.513356  3271A      6.513493  
    3272A      6.553090  3273A      6.560075  3274A      6.579843  
    3275A      6.601043  3276A      6.602703  3277A      6.622188  
    3278A      6.626571  3279A      6.630348  3280A      6.639675  
    3281A      6.642263  3282A      6.646995  3283A      6.656539  
    3284A      6.668638  3285A      6.670858  3286A      6.675071  
    3287A      6.686666  3288A      6.689977  3289A      6.693628  
    3290A      6.693796  3291A      6.697306  3292A      6.703347  
    3293A      6.703660  3294A      6.707495  3295A      6.711557  
    3296A      6.717351  3297A      6.717531  3298A      6.722899  
    3299A      6.738408  3300A      6.747398  3301A      6.747986  
    3302A      6.757934  3303A      6.768859  3304A      6.775525  
    3305A      6.780434  3306A      6.792424  3307A      6.827318  
    3308A      6.832480  3309A      6.853858  3310A      6.854289  
    3311A      6.867282  3312A      6.875123  3313A      6.875947  
    3314A      6.900860  3315A      6.932995  3316A      6.944002  
    3317A      6.970369  3318A      6.988086  3319A      6.995229  
    3320A      6.997562  3321A      6.997935  3322A      7.002297  
    3323A      7.010220  3324A      7.015667  3325A      7.026400  
    3326A      7.037784  3327A      7.052972  3328A      7.071745  
    3329A      7.083059  3330A      7.087613  3331A      7.091960  
    3332A      7.105852  3333A      7.113162  3334A      7.114759  
    3335A      7.124573  3336A      7.126506  3337A      7.137597  
    3338A      7.141626  3339A      7.155694  3340A      7.156605  
    3341A      7.168628  3342A      7.178985  3343A      7.182324  
    3344A      7.197850  3345A      7.241582  3346A      7.267929  
    3347A      7.274989  3348A      7.282525  3349A      7.286626  
    3350A      7.289152  3351A      7.295151  3352A      7.342861  
    3353A      7.361248  3354A      7.370932  3355A      7.391146  
    3356A      7.398292  3357A      7.415907  3358A      7.422371  
    3359A      7.428549  3360A      7.474857  3361A      7.547008  
    3362A     16.516086  3363A     16.579087  3364A     16.809334  
    3365A     16.862456  3366A     16.920409  3367A     17.055463  
    3368A     17.255664  3369A     17.311091  3370A     17.441605  
    3371A     17.565361  3372A     17.881280  3373A     18.465774  
    3374A     18.539511  3375A     18.822284  3376A     18.872548  
    3377A     18.921821  3378A     18.976404  3379A     18.980040  
    3380A     19.070534  3381A     19.113250  3382A     19.146770  
    3383A     19.290550  3384A     19.301863  3385A     19.364634  
    3386A     19.485788  3387A     19.567316  3388A     19.873652  
    3389A     20.301896  3390A     20.734960  3391A     20.771791  
    3392A     20.904693  3393A     21.053427  3394A     21.172971  
    3395A     21.228922  3396A     21.255378  3397A     21.431258  
    3398A     21.476437  3399A     21.693116  3400A     21.744959  
    3401A     21.932058  3402A     22.070506  3403A     22.111348  
    3404A     22.188411  3405A     22.267330  3406A     22.314297  
    3407A     22.333597  3408A     22.445267  3409A     22.467321  
    3410A     22.516764  3411A     22.550135  3412A     22.693708  
    3413A     22.937284  3414A     22.941808  3415A     22.976617  
    3416A     23.031339  3417A     23.315007  3418A     23.851768  
    3419A     24.010446  

    Final Occupation by Irrep:
              A 
    DOCC [   193 ]
    NA   [   193 ]
    NB   [   193 ]

  @DF-RHF Final Energy: -2283.03537025154674

   => Energetics <=

    Nuclear Repulsion Energy =           8253.9876492093371780
    One-Electron Energy =              -19543.8943133079810650
    Two-Electron Energy =                9006.8712938470980589
    Total Energy =                      -2283.0353702515458281

Computation Completed


Properties will be evaluated at   0.000000,   0.000000,   0.000000 [a0]

Properties computed using the SCF density matrix


 Multipole Moments:

 ------------------------------------------------------------------------------------
     Multipole            Electronic (a.u.)      Nuclear  (a.u.)        Total (a.u.)
 ------------------------------------------------------------------------------------

 L = 1.  Multiply by 2.5417464519 to convert [e a0] to [Debye]
 Dipole X            :          7.9266776           -8.0244688           -0.0977913
 Dipole Y            :          1.4290744           -0.9323541            0.4967203
 Dipole Z            :          0.1136655           -0.1046661            0.0089994
 Magnitude           :                                                    0.5063351

 ------------------------------------------------------------------------------------

*** tstop() called on atl1-1-02-003-28-2.pace.gatech.edu at Sat Jun 13 19:02:08 2026
Module time:
	user time   =   48471.01 seconds =     807.85 minutes
	system time =    3153.02 seconds =      52.55 minutes
	total time  =       7703 seconds =     128.38 minutes
Total time:
	user time   =   48471.01 seconds =     807.85 minutes
	system time =    3153.02 seconds =      52.55 minutes
	total time  =       7703 seconds =     128.38 minutes

*** tstart() called on atl1-1-02-003-28-2.pace.gatech.edu
*** at Sat Jun 13 19:02:08 2026


  //>>>>>>>>>>>>>>>>>>>>>>>>>>>>>>>>>>>//
  //               DFMP2               //
  //<<<<<<<<<<<<<<<<<<<<<<<<<<<<<<<<<<<//

   => Loading Basis Set <=

    Name: (AUG-CC-PVTZ AUX)
    Role: RIFIT
    Keyword: DF_BASIS_MP2
    atoms 1-42, 73-80, 82, 84-85, 87 entry C          line   148 file /storage/home/hcoda1/5/vlita3/.conda/envs/p4_qcml/share/psi4/basis/aug-cc-pvtz-ri.gbs 
    atoms 43-72, 89-92               entry H          line    30 file /storage/home/hcoda1/5/vlita3/.conda/envs/p4_qcml/share/psi4/basis/aug-cc-pvtz-ri.gbs 
    atoms 81, 83, 86, 88             entry N          line   206 file /storage/home/hcoda1/5/vlita3/.conda/envs/p4_qcml/share/psi4/basis/aug-cc-pvtz-ri.gbs 

	 --------------------------------------------------------
	                          DF-MP2                         
	      2nd-Order Density-Fitted Moller-Plesset Theory     
	              RMP2 Wavefunction,  10 Threads             
	                                                         
	        Rob Parrish, Justin Turney, Andy Simmonett,      
	           Ed Hohenstein, and C. David Sherrill          
	 --------------------------------------------------------

   => Auxiliary Basis Set <=

  Basis Set: (AUG-CC-PVTZ AUX)
    Blend: AUG-CC-PVTZ-RI
    Number of shells: 2100
    Number of basis functions: 7712
    Number of Cartesian functions: 9758
    Spherical Harmonics?: true
    Max angular momentum: 4

	 --------------------------------------------------------
	                 NBF =  3450, NAUX =  7712
	 --------------------------------------------------------
	   CLASS    FOCC     OCC    AOCC    AVIR     VIR    FVIR
	   PAIRS       0     193     193    3226    3226       0
	 --------------------------------------------------------

	-----------------------------------------------------------
	 ==================> DF-MP2 Energies <==================== 
	-----------------------------------------------------------
	 Reference Energy          =   -2283.0353702515467376 [Eh]
	 Singles Energy            =      -0.0000000000000000 [Eh]
	 Same-Spin Energy          =      -2.6679334528352450 [Eh]
	 Opposite-Spin Energy      =      -7.9976850648272784 [Eh]
	 Correlation Energy        =     -10.6656185176625229 [Eh]
	 Total Energy              =   -2293.7009887692092889 [Eh]
	-----------------------------------------------------------
	 ================> DF-SCS-MP2 Energies <================== 
	-----------------------------------------------------------
	 SCS Same-Spin Scale       =       0.3333333333333333 [-]
	 SCS Opposite-Spin Scale   =       1.2000000000000000 [-]
	 SCS Same-Spin Energy      =      -0.8893111509450816 [Eh]
	 SCS Opposite-Spin Energy  =      -9.5972220777927344 [Eh]
	 SCS Correlation Energy    =     -10.4865332287378159 [Eh]
	 SCS Total Energy          =   -2293.5219034802844362 [Eh]
	-----------------------------------------------------------


*** tstop() called on atl1-1-02-003-28-2.pace.gatech.edu at Sat Jun 13 20:28:16 2026
Module time:
	user time   =   47991.83 seconds =     799.86 minutes
	system time =     176.34 seconds =       2.94 minutes
	total time  =       5168 seconds =      86.13 minutes
Total time:
	user time   =   96462.84 seconds =    1607.71 minutes
	system time =    3329.36 seconds =      55.49 minutes
	total time  =      12871 seconds =     214.52 minutes

    Psi4 stopped on: Saturday, 13 June 2026 08:28PM
    Psi4 wall time for execution: 3:34:35.58

*** Psi4 exiting successfully. Buy a developer a beer!
