
    -----------------------------------------------------------------------
          Psi4: An Open-Source Ab Initio Electronic Structure Package
                               Psi4 1.9.1 release

                         Git: Rev {} zzzzzzz 


    D. G. A. Smith, L. A. Burns, A. C. Simmonett, R. M. Parrish,
    M. C. Schieber, R. Galvelis, P. Kraus, H. Kruse, R. Di Remigio,
    A. Alenaizan, A. M. James, S. Lehtola, J. P. Misiewicz, M. Scheurer,
    R. A. Shaw, J. B. Schriber, Y. Xie, Z. L. Glick, D. A. Sirianni,
    J. S. O'Brien, J. M. Waldrop, A. Kumar, E. G. Hohenstein,
    B. P. Pritchard, B. R. Brooks, H. F. Schaefer III, A. Yu. Sokolov,
    K. Patkowski, A. E. DePrince III, U. Bozkaya, R. A. King,
    F. A. Evangelista, J. M. Turney, T. D. Crawford, C. D. Sherrill,
    J. Chem. Phys. 152(18) 184108 (2020). https://doi.org/10.1063/5.0006002

                            Additional Code Authors
    E. T. Seidl, C. L. Janssen, E. F. Valeev, M. L. Leininger,
    J. F. Gonthier, R. M. Richard, H. R. McAlexander, M. Saitow, X. Wang,
    P. Verma, M. H. Lechner, A. Jiang, S. Behnle, A. G. Heide,
    M. F. Herbst, and D. L. Poole

             Previous Authors, Complete List of Code Contributors,
                       and Citations for Specific Modules
    https://github.com/psi4/psi4/blob/master/codemeta.json
    https://github.com/psi4/psi4/graphs/contributors
    http://psicode.org/psi4manual/master/introduction.html#citing-psifour

    -----------------------------------------------------------------------


    Psi4 started on: Monday, 15 June 2026 10:39AM

    Process ID: 3593824
    Host:       atl1-1-03-004-18-1.pace.gatech.edu
    PSIDATADIR: /storage/home/hcoda1/5/vlita3/.conda/envs/p4_qcml/share/psi4
    Memory:     250.0 GiB
    Threads:    10
    
  ==> Input QCSchema <==

--------------------------------------------------------------------------
{'driver': 'energy',
 'extras': {},
 'id': '340',
 'keywords': {},
 'model': {'basis': 'aug-cc-pvtz', 'method': 'mp2'},
 'molecule': {'extras': {},
              'fix_com': True,
              'fix_orientation': True,
              'fragment_charges': [0.0, 0.0],
              'fragment_multiplicities': [1, 1],
              'fragments': [[0, 1, 2, 3, 4, 5, 6, 7, 8, 9, 10, 11, 12, 13, 14, 15, 16, 17, 18, 19, 20, 21, 22, 23, 24,
                             25, 26, 27, 28, 29, 30, 31, 32, 33, 34, 35, 36, 37, 38, 39, 40, 41, 42, 43, 44, 45, 46, 47,
                             48, 49, 50, 51, 52, 53, 54, 55, 56, 57, 58, 59, 60, 61, 62, 63, 64, 65, 66, 67],
                            [68, 69, 70, 71, 72, 73, 74, 75, 76, 77, 78, 79, 80, 81, 82, 83]],
              'geometry': [-5.34620642, -4.85206741, -0.42040662, -6.29696543, -3.97249137, -2.73196591, -7.16652857,
                           -1.39360971, -2.91024059, -7.07225732, 0.1478346, -0.75712917, -6.06055521, -0.70522859,
                           1.52779916, -5.14660825, -3.28275871, 1.6937689, -8.00940954, -0.47795161, -5.29622845,
                           -8.00389532, -2.01265111, -7.39175445, -7.1739962, -4.55869367, -7.20967896, -6.3482405,
                           -5.51081404, -4.93971915, -5.79174545, 0.94432733, 3.66064233, -4.5983628, 0.0799819,
                           5.76970066, -3.62293398, -2.4551662, 5.90550866, -3.92400421, -4.11631993, 3.96419018,
                           -2.16569152, -2.61945029, 8.3885177, 0.07636213, -0.84617571, 7.95116799, -0.9078112,
                           1.61784783, 7.8674416, -3.76570071, 1.39135281, 8.20497635, -3.85671125, -0.88804523,
                           10.06281411, 2.58001171, -1.3655127, 7.31184057, 4.1057488, 0.7110172, 6.7716308, 3.12911434,
                           3.1826792, 6.68292857, 0.58226752, 3.66820181, 7.1546987, 5.22477035, 4.85680231, 5.5947568,
                           5.45773257, 3.95265056, 2.86034162, 6.48712479, 1.44012834, 2.99187034, 6.82098554,
                           0.8515344, 5.79382301, 7.56885523, 3.52377684, 6.77238443, 6.80325367, 0.01007923,
                           0.87853632, 6.01230407, 0.99764822, -1.51581981, 4.9476594, 3.51769873, -1.64633715,
                           4.72513697, 4.9862546, 0.62058001, 6.12205861, -0.46131862, -3.71310038, 5.15756848,
                           0.40687221, -6.02295948, 4.08395781, 2.91056166, -6.14884699, 4.05329983, 4.41018879,
                           -3.96462935, 5.13306837, -1.12454068, -8.23614739, 4.07851898, -0.25961114, -10.44460058,
                           2.99478619, 2.19392857, -10.56107574, 3.00851807, 3.73807424, -8.47334713, 3.50361025,
                           -3.823107, 7.21233591, -0.52564981, 6.01194181, 6.93361699, 5.05829719, 6.89567715,
                           5.87089814, 8.0356414, -0.74107273, 6.26352729, 7.58901842, 3.63875572, 8.83518962,
                           9.35421802, 4.19783591, 5.97522954, -5.76611566, -1.64188193, 10.31542343, -2.98864212,
                           -0.45542891, 11.88758146, -4.77253092, 3.11242428, 8.71181923, -1.70891184, -4.50721847,
                           9.0671295, 7.55489696, -1.89976737, 0.96862939, 3.89947197, 6.86430373, 0.5027639,
                           -6.46680418, 2.87873678, 3.51311765, -3.18323648, -6.03153223, 4.04964208, 3.22722344,
                           6.29110633, -4.05969977, 6.91726822, -2.35617478, -3.61337858, 2.17488807, 5.6139636,
                           -8.5558299, 2.15939666, 2.84829877, -12.31851423, 4.06363758, -1.45295543, -12.11512622,
                           5.94772646, -3.00842661, -8.1365677, -4.65219392, -6.78410677, -0.29846731, -7.72607119,
                           2.09308409, -0.89347536, -5.69192784, -7.45269585, -4.79824367, -8.63836085, 1.47325902,
                           -5.4323305, -8.64382367, -1.28398557, -9.20131008, -7.19028923, -5.75067773, -8.88116704,
                           0.69471926, 7.16657411, 6.19908801, 3.21943853, -4.43255237, 5.4924338, -1.01804176,
                           -2.06721752, -6.41424693, -0.04006805, -3.69463605, -4.59993014, 0.29508244, -2.88730801,
                           -2.09508758, -0.32679714, -0.42272984, -1.41690966, -1.32071561, 1.15392876, -3.24915277,
                           -1.68814035, 0.37514049, -5.74325186, 0.62349756, -6.02367305, -5.33266218, 1.25684872,
                           -4.55988854, -0.10878832, -2.01790096, 3.74535177, -2.52671085, -2.46962752, 1.68011751,
                           -7.10722613, -0.06092458, 0.2181685, 0.50639917, -1.23619836, -2.74752497, -8.33105453,
                           2.06085935, -3.52195874, 1.83306118, 1.18336559, -6.86024705, -0.44470452, -2.90698951,
                           5.11929396, -4.19647021, -1.67462389, 4.39177019, -0.3135118],
              'id': 18,
              'identifiers': {'molecular_formula': 'C46FH29N2O6',
                              'molecule_hash': '8bccfcee32ad0571285e1e50b558eedd7c431b17'},
              'masses': [12.0, 12.0, 12.0, 12.0, 12.0, 12.0, 12.0, 12.0, 12.0, 12.0, 12.0, 12.0, 12.0, 12.0, 12.0, 12.0,
                         12.0, 12.0, 12.0, 12.0, 12.0, 12.0, 12.0, 12.0, 12.0, 12.0, 12.0, 12.0, 12.0, 12.0, 12.0, 12.0,
                         12.0, 12.0, 12.0, 12.0, 12.0, 12.0, 12.0, 12.0, 15.99491461957, 15.99491461957, 1.00782503223,
                         1.00782503223, 1.00782503223, 1.00782503223, 1.00782503223, 1.00782503223, 1.00782503223,
                         1.00782503223, 1.00782503223, 1.00782503223, 1.00782503223, 1.00782503223, 1.00782503223,
                         1.00782503223, 1.00782503223, 1.00782503223, 1.00782503223, 1.00782503223, 1.00782503223,
                         1.00782503223, 1.00782503223, 1.00782503223, 1.00782503223, 1.00782503223, 1.00782503223,
                         1.00782503223, 12.0, 12.0, 12.0, 12.0, 12.0, 12.0, 18.99840316273, 14.00307400443,
                         14.00307400443, 1.00782503223, 1.00782503223, 1.00782503223, 15.99491461957, 15.99491461957,
                         15.99491461957, 15.99491461957],
              'molecular_charge': 0.0,
              'molecular_multiplicity': 1,
              'name': 'C46FH29N2O6 ([0],[1])',
              'provenance': {'creator': 'QCElemental',
                             'routine': 'qcelemental.molparse.from_schema',
                             'version': '0.29.0'},
              'real': [True, True, True, True, True, True, True, True, True, True, True, True, True, True, True, True,
                       True, True, True, True, True, True, True, True, True, True, True, True, True, True, True, True,
                       True, True, True, True, True, True, True, True, True, True, True, True, True, True, True, True,
                       True, True, True, True, True, True, True, True, True, True, True, True, True, True, True, True,
                       True, True, True, True, False, False, False, False, False, False, False, False, False, False,
                       False, False, False, False, False, False],
              'schema_name': 'qcschema_molecule',
              'schema_version': 2,
              'symbols': ['C', 'C', 'C', 'C', 'C', 'C', 'C', 'C', 'C', 'C', 'C', 'C', 'C', 'C', 'C', 'C', 'C', 'C', 'C',
                          'C', 'C', 'C', 'C', 'C', 'C', 'C', 'C', 'C', 'C', 'C', 'C', 'C', 'C', 'C', 'C', 'C', 'C', 'C',
                          'C', 'C', 'O', 'O', 'H', 'H', 'H', 'H', 'H', 'H', 'H', 'H', 'H', 'H', 'H', 'H', 'H', 'H', 'H',
                          'H', 'H', 'H', 'H', 'H', 'H', 'H', 'H', 'H', 'H', 'H', 'C', 'C', 'C', 'C', 'C', 'C', 'F', 'N',
                          'N', 'H', 'H', 'H', 'O', 'O', 'O', 'O'],
              'validated': True},
 'protocols': {},
 'provenance': {'creator': 'QCElemental', 'routine': 'qcelemental.models.results', 'version': '0.29.0'},
 'schema_name': 'qcschema_input',
 'schema_version': 1}
--------------------------------------------------------------------------

Scratch directory: /tmp/tmpgiwgu4cp_psi_scratch/
    SCF Algorithm Type (re)set to DF.
   => Libint2 <=

    Primary   basis highest AM E, G, H:  6, 6, 3
    Auxiliary basis highest AM E, G, H:  7, 7, 4
    Onebody   basis highest AM E, G, H:  -, -, -
    Solid Harmonics ordering:            Gaussian

*** tstart() called on atl1-1-03-004-18-1.pace.gatech.edu
*** at Mon Jun 15 10:39:23 2026

   => Loading Basis Set <=

    Name: AUG-CC-PVTZ
    Role: ORBITAL
    Keyword: BASIS
    atoms 1-40, 69-74  entry C          line   239 file /storage/home/hcoda1/5/vlita3/.conda/envs/p4_qcml/share/psi4/basis/aug-cc-pvtz.gbs 
    atoms 41-42, 81-84 entry O          line   331 file /storage/home/hcoda1/5/vlita3/.conda/envs/p4_qcml/share/psi4/basis/aug-cc-pvtz.gbs 
    atoms 43-68, 78-80 entry H          line    40 file /storage/home/hcoda1/5/vlita3/.conda/envs/p4_qcml/share/psi4/basis/aug-cc-pvtz.gbs 
    atoms 75           entry F          line   377 file /storage/home/hcoda1/5/vlita3/.conda/envs/p4_qcml/share/psi4/basis/aug-cc-pvtz.gbs 
    atoms 76-77        entry N          line   285 file /storage/home/hcoda1/5/vlita3/.conda/envs/p4_qcml/share/psi4/basis/aug-cc-pvtz.gbs 


         ---------------------------------------------------------
                                   SCF
               by Justin Turney, Rob Parrish, Andy Simmonett
                          and Daniel G. A. Smith
                              RHF Reference
                       10 Threads, 256000 MiB Core
         ---------------------------------------------------------

  ==> Geometry <==

    Molecular point group: c1
    Full point group: C1

    Geometry (in Bohr), charge = 0, multiplicity = 1:

       Center              X                  Y                   Z               Mass       
    ------------   -----------------  -----------------  -----------------  -----------------
         C           -5.346206420000    -4.852067410000    -0.420406620000    12.000000000000
         C           -6.296965430000    -3.972491370000    -2.731965910000    12.000000000000
         C           -7.166528570000    -1.393609710000    -2.910240590000    12.000000000000
         C           -7.072257320000     0.147834600000    -0.757129170000    12.000000000000
         C           -6.060555210000    -0.705228590000     1.527799160000    12.000000000000
         C           -5.146608250000    -3.282758710000     1.693768900000    12.000000000000
         C           -8.009409540000    -0.477951610000    -5.296228450000    12.000000000000
         C           -8.003895320000    -2.012651110000    -7.391754450000    12.000000000000
         C           -7.173996200000    -4.558693670000    -7.209678960000    12.000000000000
         C           -6.348240500000    -5.510814040000    -4.939719150000    12.000000000000
         C           -5.791745450000     0.944327330000     3.660642330000    12.000000000000
         C           -4.598362800000     0.079981900000     5.769700660000    12.000000000000
         C           -3.622933980000    -2.455166200000     5.905508660000    12.000000000000
         C           -3.924004210000    -4.116319930000     3.964190180000    12.000000000000
         C           -2.165691520000    -2.619450290000     8.388517700000    12.000000000000
         C            0.076362130000    -0.846175710000     7.951167990000    12.000000000000
         C           -0.907811200000     1.617847830000     7.867441600000    12.000000000000
         C           -3.765700710000     1.391352810000     8.204976350000    12.000000000000
         C           -3.856711250000    -0.888045230000    10.062814110000    12.000000000000
         C            2.580011710000    -1.365512700000     7.311840570000    12.000000000000
         C            4.105748800000     0.711017200000     6.771630800000    12.000000000000
         C            3.129114340000     3.182679200000     6.682928570000    12.000000000000
         C            0.582267520000     3.668201810000     7.154698700000    12.000000000000
         C            5.224770350000     4.856802310000     5.594756800000    12.000000000000
         C            5.457732570000     3.952650560000     2.860341620000    12.000000000000
         C            6.487124790000     1.440128340000     2.991870340000    12.000000000000
         C            6.820985540000     0.851534400000     5.793823010000    12.000000000000
         C            7.568855230000     3.523776840000     6.772384430000    12.000000000000
         C            6.803253670000     0.010079230000     0.878536320000    12.000000000000
         C            6.012304070000     0.997648220000    -1.515819810000    12.000000000000
         C            4.947659400000     3.517698730000    -1.646337150000    12.000000000000
         C            4.725136970000     4.986254600000     0.620580010000    12.000000000000
         C            6.122058610000    -0.461318620000    -3.713100380000    12.000000000000
         C            5.157568480000     0.406872210000    -6.022959480000    12.000000000000
         C            4.083957810000     2.910561660000    -6.148846990000    12.000000000000
         C            4.053299830000     4.410188790000    -3.964629350000    12.000000000000
         C            5.133068370000    -1.124540680000    -8.236147390000    12.000000000000
         C            4.078518980000    -0.259611140000   -10.444600580000    12.000000000000
         C            2.994786190000     2.193928570000   -10.561075740000    12.000000000000
         C            3.008518070000     3.738074240000    -8.473347130000    12.000000000000
         O            3.503610250000    -3.823107000000     7.212335910000    15.994914619570
         O           -0.525649810000     6.011941810000     6.933616990000    15.994914619570
         H            5.058297190000     6.895677150000     5.870898140000     1.007825032230
         H            8.035641400000    -0.741072730000     6.263527290000     1.007825032230
         H            7.589018420000     3.638755720000     8.835189620000     1.007825032230
         H            9.354218020000     4.197835910000     5.975229540000     1.007825032230
         H           -5.766115660000    -1.641881930000    10.315423430000     1.007825032230
         H           -2.988642120000    -0.455428910000    11.887581460000     1.007825032230
         H           -4.772530920000     3.112424280000     8.711819230000     1.007825032230
         H           -1.708911840000    -4.507218470000     9.067129500000     1.007825032230
         H            7.554896960000    -1.899767370000     0.968629390000     1.007825032230
         H            3.899471970000     6.864303730000     0.502763900000     1.007825032230
         H           -6.466804180000     2.878736780000     3.513117650000     1.007825032230
         H           -3.183236480000    -6.031532230000     4.049642080000     1.007825032230
         H            3.227223440000     6.291106330000    -4.059699770000     1.007825032230
         H            6.917268220000    -2.356174780000    -3.613378580000     1.007825032230
         H            2.174888070000     5.613963600000    -8.555829900000     1.007825032230
         H            2.159396660000     2.848298770000   -12.318514230000     1.007825032230
         H            4.063637580000    -1.452955430000   -12.115126220000     1.007825032230
         H            5.947726460000    -3.008426610000    -8.136567700000     1.007825032230
         H           -4.652193920000    -6.784106770000    -0.298467310000     1.007825032230
         H           -7.726071190000     2.093084090000    -0.893475360000     1.007825032230
         H           -5.691927840000    -7.452695850000    -4.798243670000     1.007825032230
         H           -8.638360850000     1.473259020000    -5.432330500000     1.007825032230
         H           -8.643823670000    -1.283985570000    -9.201310080000     1.007825032230
         H           -7.190289230000    -5.750677730000    -8.881167040000     1.007825032230
         H            0.694719260000     7.166574110000     6.199088010000     1.007825032230
         H            3.219438530000    -4.432552370000     5.492433800000     1.007825032230
      Gh(C)          -1.018041760000    -2.067217520000    -6.414246930000    12.000000000000
      Gh(C)          -0.040068050000    -3.694636050000    -4.599930140000    12.000000000000
      Gh(C)           0.295082440000    -2.887308010000    -2.095087580000    12.000000000000
      Gh(C)          -0.326797140000    -0.422729840000    -1.416909660000    12.000000000000
      Gh(C)          -1.320715610000     1.153928760000    -3.249152770000    12.000000000000
      Gh(C)          -1.688140350000     0.375140490000    -5.743251860000    12.000000000000
      Gh(F)           0.623497560000    -6.023673050000    -5.332662180000    18.998403162730
      Gh(N)           1.256848720000    -4.559888540000    -0.108788320000    14.003074004430
      Gh(N)          -2.017900960000     3.745351770000    -2.526710850000    14.003074004430
      Gh(H)          -2.469627520000     1.680117510000    -7.107226130000     1.007825032230
      Gh(H)          -0.060924580000     0.218168500000     0.506399170000     1.007825032230
      Gh(H)          -1.236198360000    -2.747524970000    -8.331054530000     1.007825032230
      Gh(O)           2.060859350000    -3.521958740000     1.833061180000    15.994914619570
      Gh(O)           1.183365590000    -6.860247050000    -0.444704520000    15.994914619570
      Gh(O)          -2.906989510000     5.119293960000    -4.196470210000    15.994914619570
      Gh(O)          -1.674623890000     4.391770190000    -0.313511800000    15.994914619570

  Running in c1 symmetry.

  Rotational constants: A =      0.00269  B =      0.00202  C =      0.00154 [cm^-1]
  Rotational constants: A =     80.53073  B =     60.67005  C =     46.28054 [MHz]
  Nuclear repulsion = 4517.267906260053678

  Charge       = 0
  Multiplicity = 1
  Electrons    = 282
  Nalpha       = 141
  Nbeta        = 141

  ==> Algorithm <==

  SCF Algorithm Type is DF.
  DIIS enabled.
  MOM disabled.
  Fractional occupation disabled.
  Guess Type is SAD.
  Energy threshold   = 1.00e-08
  Density threshold  = 1.00e-08
  Integral threshold = 1.00e-12

  ==> Primary Basis <==

  Basis Set: AUG-CC-PVTZ
    Blend: AUG-CC-PVTZ
    Number of shells: 1031
    Number of basis functions: 3197
    Number of Cartesian functions: 3750
    Spherical Harmonics?: true
    Max angular momentum: 3

   => Loading Basis Set <=

    Name: (AUG-CC-PVTZ AUX)
    Role: JKFIT
    Keyword: DF_BASIS_SCF
    atoms 1-40, 69-74  entry C          line   162 file /storage/home/hcoda1/5/vlita3/.conda/envs/p4_qcml/share/psi4/basis/aug-cc-pvtz-jkfit.gbs 
    atoms 41-42, 81-84 entry O          line   286 file /storage/home/hcoda1/5/vlita3/.conda/envs/p4_qcml/share/psi4/basis/aug-cc-pvtz-jkfit.gbs 
    atoms 43-68, 78-80 entry H          line    70 file /storage/home/hcoda1/5/vlita3/.conda/envs/p4_qcml/share/psi4/basis/aug-cc-pvtz-jkfit.gbs 
    atoms 75           entry F          line   348 file /storage/home/hcoda1/5/vlita3/.conda/envs/p4_qcml/share/psi4/basis/aug-cc-pvtz-jkfit.gbs 
    atoms 76-77        entry N          line   224 file /storage/home/hcoda1/5/vlita3/.conda/envs/p4_qcml/share/psi4/basis/aug-cc-pvtz-jkfit.gbs 

  ==> Integral Setup <==

  ==> DiskDFJK: Density-Fitted J/K Matrices <==

    J tasked:                  Yes
    K tasked:                  Yes
    wK tasked:                  No
    OpenMP threads:             10
    Integrals threads:          10
    Memory [MiB]:           192000
    Algorithm:                Disk
    Integral Cache:           NONE
    Schwarz Cutoff:          1E-12
    Fitting Condition:       1E-10

   => Auxiliary Basis Set <=

  Basis Set: (AUG-CC-PVTZ AUX)
    Blend: AUG-CC-PVTZ-JKFIT
    Number of shells: 2056
    Number of basis functions: 7054
    Number of Cartesian functions: 8800
    Spherical Harmonics?: true
    Max angular momentum: 4

  Minimum eigenvalue in the overlap matrix is 8.4696743678E-09.
  Reciprocal condition number of the overlap matrix is 2.5542464085E-10.
    Using canonical orthogonalization.
  Overall, 16 of 3197 possible MOs eliminated.


  ==> Pre-Iterations <==

  SCF Guess: Superposition of Atomic Densities via on-the-fly atomic UHF (no occupation information).

   -------------------------
    Irrep   Nso     Nmo    
   -------------------------
     A       3197    3181 
   -------------------------
    Total    3197    3181
   -------------------------

  ==> Iterations <==

                           Total Energy        Delta E     RMS |[F,P]|

   @DF-RHF iter SAD: -1682.62484600151151   -1.68262e+03   0.00000e+00 
   @DF-RHF iter   1: -1679.11316109324184    3.51168e+00   4.00672e-04 DIIS/ADIIS
   @DF-RHF iter   2: -1679.92828699776851   -8.15126e-01   1.96553e-04 DIIS/ADIIS
   @DF-RHF iter   3: -1680.11124565365162   -1.82959e-01   5.44445e-05 DIIS
   @DF-RHF iter   4: -1680.12790188006898   -1.66562e-02   2.22839e-05 DIIS
   @DF-RHF iter   5: -1680.13074430057645   -2.84242e-03   5.31295e-06 DIIS
   @DF-RHF iter   6: -1680.13095949611557   -2.15196e-04   1.87974e-06 DIIS
   @DF-RHF iter   7: -1680.13100724298124   -4.77469e-05   6.81612e-07 DIIS
   @DF-RHF iter   8: -1680.13101736111048   -1.01181e-05   3.53054e-07 DIIS
   @DF-RHF iter   9: -1680.13101974813139   -2.38702e-06   1.31688e-07 DIIS
   @DF-RHF iter  10: -1680.13102012299896   -3.74868e-07   5.65500e-08 DIIS
   @DF-RHF iter  11: -1680.13102016829043   -4.52915e-08   2.78434e-08 DIIS
   @DF-RHF iter  12: -1680.13102018301538   -1.47249e-08   1.33279e-08 DIIS
   @DF-RHF iter  13: -1680.13102018893687   -5.92149e-09   6.16407e-09 DIIS
  Energy and wave function converged.


  ==> Post-Iterations <==

    Orbital Energies [Eh]
    ---------------------

    Doubly Occupied:                                                      

       1A    -20.594212     2A    -20.581424     3A    -11.302479  
       4A    -11.289523     5A    -11.261551     6A    -11.253818  
       7A    -11.249497     8A    -11.248265     9A    -11.247978  
      10A    -11.247025    11A    -11.246734    12A    -11.245017  
      13A    -11.244121    14A    -11.243667    15A    -11.243169  
      16A    -11.242558    17A    -11.242439    18A    -11.242317  
      19A    -11.240858    20A    -11.240584    21A    -11.240297  
      22A    -11.239783    23A    -11.239748    24A    -11.239609  
      25A    -11.238751    26A    -11.238193    27A    -11.236952  
      28A    -11.236851    29A    -11.236735    30A    -11.236615  
      31A    -11.235427    32A    -11.235030    33A    -11.234717  
      34A    -11.234618    35A    -11.234056    36A    -11.233846  
      37A    -11.233604    38A    -11.232997    39A    -11.232706  
      40A    -11.232604    41A    -11.231915    42A    -11.231774  
      43A     -1.402179    44A     -1.384995    45A     -1.220458  
      46A     -1.208836    47A     -1.179099    48A     -1.174453  
      49A     -1.140753    50A     -1.130797    51A     -1.100611  
      52A     -1.068856    53A     -1.065856    54A     -1.061250  
      55A     -1.053109    56A     -1.036933    57A     -1.029640  
      58A     -1.011089    59A     -0.999186    60A     -0.987801  
      61A     -0.985978    62A     -0.964641    63A     -0.961606  
      64A     -0.939688    65A     -0.913873    66A     -0.881917  
      67A     -0.876614    68A     -0.845999    69A     -0.832441  
      70A     -0.822800    71A     -0.819132    72A     -0.813537  
      73A     -0.811681    74A     -0.808988    75A     -0.793246  
      76A     -0.779297    77A     -0.776215    78A     -0.736862  
      79A     -0.722735    80A     -0.716851    81A     -0.715958  
      82A     -0.707563    83A     -0.705077    84A     -0.689912  
      85A     -0.675345    86A     -0.668861    87A     -0.659796  
      88A     -0.650751    89A     -0.637604    90A     -0.632298  
      91A     -0.627866    92A     -0.626778    93A     -0.622735  
      94A     -0.614742    95A     -0.604861    96A     -0.599774  
      97A     -0.593775    98A     -0.586867    99A     -0.586049  
     100A     -0.582856   101A     -0.581420   102A     -0.580190  
     103A     -0.577634   104A     -0.574343   105A     -0.573176  
     106A     -0.558822   107A     -0.554304   108A     -0.550375  
     109A     -0.542221   110A     -0.535407   111A     -0.533395  
     112A     -0.530022   113A     -0.529085   114A     -0.526677  
     115A     -0.513086   116A     -0.506395   117A     -0.503166  
     118A     -0.498067   119A     -0.490787   120A     -0.488705  
     121A     -0.480672   122A     -0.480346   123A     -0.478094  
     124A     -0.475113   125A     -0.473001   126A     -0.469865  
     127A     -0.464678   128A     -0.461420   129A     -0.442102  
     130A     -0.405148   131A     -0.401854   132A     -0.400851  
     133A     -0.397575   134A     -0.347559   135A     -0.342615  
     136A     -0.323638   137A     -0.310229   138A     -0.299856  
     139A     -0.283702   140A     -0.257030   141A     -0.252817  

    Virtual:                                                              

     142A      0.020805   143A      0.022846   144A      0.025208  
     145A      0.029552   146A      0.032392   147A      0.032772  
     148A      0.034707   149A      0.035608   150A      0.041752  
     151A      0.043648   152A      0.044060   153A      0.045219  
     154A      0.045679   155A      0.050831   156A      0.053697  
     157A      0.055405   158A      0.056783   159A      0.057172  
     160A      0.057668   161A      0.060168   162A      0.061495  
     163A      0.062325   164A      0.068150   165A      0.068958  
     166A      0.073666   167A      0.074148   168A      0.074706  
     169A      0.079866   170A      0.081917   171A      0.083299  
     172A      0.086019   173A      0.087831   174A      0.090029  
     175A      0.090912   176A      0.092968   177A      0.093518  
     178A      0.096993   179A      0.098504   180A      0.100194  
     181A      0.100523   182A      0.100956   183A      0.103406  
     184A      0.104141   185A      0.105025   186A      0.106193  
     187A      0.108010   188A      0.109405   189A      0.111287  
     190A      0.112199   191A      0.114238   192A      0.115511  
     193A      0.117725   194A      0.118466   195A      0.119060  
     196A      0.120272   197A      0.120742   198A      0.121514  
     199A      0.122610   200A      0.124102   201A      0.125105  
     202A      0.128289   203A      0.129232   204A      0.131154  
     205A      0.131845   206A      0.132903   207A      0.135523  
     208A      0.137045   209A      0.137513   210A      0.137934  
     211A      0.138391   212A      0.139315   213A      0.139576  
     214A      0.140126   215A      0.143726   216A      0.146180  
     217A      0.147201   218A      0.150582   219A      0.151779  
     220A      0.152028   221A      0.153420   222A      0.154257  
     223A      0.155444   224A      0.156814   225A      0.157426  
     226A      0.158244   227A      0.160023   228A      0.161026  
     229A      0.162529   230A      0.163335   231A      0.166158  
     232A      0.168001   233A      0.169346   234A      0.171769  
     235A      0.172925   236A      0.174215   237A      0.175290  
     238A      0.178027   239A      0.179061   240A      0.179579  
     241A      0.181798   242A      0.183247   243A      0.185329  
     244A      0.186505   245A      0.187461   246A      0.189305  
     247A      0.190184   248A      0.191823   249A      0.193897  
     250A      0.194973   251A      0.195305   252A      0.196869  
     253A      0.198506   254A      0.200020   255A      0.202291  
     256A      0.204040   257A      0.205900   258A      0.207359  
     259A      0.208422   260A      0.210192   261A      0.211930  
     262A      0.213178   263A      0.214695   264A      0.216155  
     265A      0.216930   266A      0.217267   267A      0.217740  
     268A      0.220231   269A      0.221024   270A      0.224993  
     271A      0.225552   272A      0.227223   273A      0.228395  
     274A      0.228537   275A      0.229914   276A      0.230317  
     277A      0.232125   278A      0.232915   279A      0.234785  
     280A      0.236596   281A      0.238992   282A      0.240001  
     283A      0.240859   284A      0.242774   285A      0.243789  
     286A      0.244321   287A      0.248417   288A      0.248888  
     289A      0.250083   290A      0.250962   291A      0.251706  
     292A      0.252073   293A      0.253263   294A      0.253684  
     295A      0.254306   296A      0.256943   297A      0.257408  
     298A      0.258332   299A      0.259412   300A      0.259437  
     301A      0.261147   302A      0.262421   303A      0.263649  
     304A      0.264724   305A      0.266501   306A      0.267105  
     307A      0.268440   308A      0.269096   309A      0.269471  
     310A      0.270390   311A      0.271423   312A      0.272032  
     313A      0.272494   314A      0.273380   315A      0.274768  
     316A      0.275814   317A      0.277722   318A      0.278437  
     319A      0.280648   320A      0.282797   321A      0.282975  
     322A      0.284945   323A      0.285565   324A      0.286786  
     325A      0.287249   326A      0.289711   327A      0.290681  
     328A      0.292066   329A      0.293338   330A      0.294671  
     331A      0.295726   332A      0.296113   333A      0.298178  
     334A      0.300261   335A      0.301388   336A      0.301996  
     337A      0.302540   338A      0.303865   339A      0.306725  
     340A      0.308079   341A      0.308355   342A      0.310223  
     343A      0.311237   344A      0.312556   345A      0.313573  
     346A      0.314298   347A      0.316872   348A      0.319074  
     349A      0.319480   350A      0.320494   351A      0.321564  
     352A      0.324842   353A      0.328077   354A      0.328902  
     355A      0.329551   356A      0.330802   357A      0.331682  
     358A      0.331884   359A      0.332569   360A      0.333517  
     361A      0.335121   362A      0.335297   363A      0.337457  
     364A      0.338274   365A      0.339819   366A      0.341004  
     367A      0.342372   368A      0.344754   369A      0.345759  
     370A      0.345934   371A      0.347468   372A      0.351149  
     373A      0.352133   374A      0.354781   375A      0.355612  
     376A      0.357094   377A      0.360170   378A      0.360849  
     379A      0.361261   380A      0.362393   381A      0.366050  
     382A      0.366962   383A      0.368884   384A      0.370368  
     385A      0.373223   386A      0.375122   387A      0.375551  
     388A      0.376747   389A      0.378938   390A      0.379774  
     391A      0.381528   392A      0.383415   393A      0.385354  
     394A      0.387320   395A      0.387574   396A      0.389244  
     397A      0.391264   398A      0.392382   399A      0.393416  
     400A      0.394622   401A      0.395920   402A      0.396682  
     403A      0.397783   404A      0.399795   405A      0.400529  
     406A      0.403267   407A      0.404110   408A      0.405004  
     409A      0.406159   410A      0.408652   411A      0.410689  
     412A      0.411486   413A      0.414443   414A      0.415314  
     415A      0.416756   416A      0.420459   417A      0.421107  
     418A      0.421763   419A      0.422577   420A      0.423028  
     421A      0.425262   422A      0.426993   423A      0.429016  
     424A      0.431537   425A      0.431642   426A      0.432517  
     427A      0.434415   428A      0.435054   429A      0.435643  
     430A      0.438100   431A      0.439142   432A      0.440086  
     433A      0.440328   434A      0.442168   435A      0.442886  
     436A      0.444175   437A      0.445627   438A      0.447583  
     439A      0.448707   440A      0.450566   441A      0.453078  
     442A      0.454456   443A      0.455166   444A      0.456324  
     445A      0.457644   446A      0.459671   447A      0.460205  
     448A      0.463248   449A      0.463940   450A      0.464666  
     451A      0.466270   452A      0.467662   453A      0.469075  
     454A      0.470106   455A      0.471571   456A      0.472612  
     457A      0.475283   458A      0.476660   459A      0.478667  
     460A      0.479716   461A      0.480510   462A      0.481550  
     463A      0.482493   464A      0.483226   465A      0.484013  
     466A      0.485101   467A      0.486491   468A      0.488289  
     469A      0.488869   470A      0.490137   471A      0.491226  
     472A      0.492128   473A      0.492774   474A      0.495245  
     475A      0.497314   476A      0.497719   477A      0.499206  
     478A      0.500462   479A      0.501249   480A      0.502424  
     481A      0.503211   482A      0.504966   483A      0.505348  
     484A      0.506380   485A      0.507429   486A      0.508176  
     487A      0.509237   488A      0.511690   489A      0.512667  
     490A      0.513436   491A      0.514808   492A      0.516112  
     493A      0.516633   494A      0.517320   495A      0.518582  
     496A      0.520022   497A      0.521673   498A      0.521850  
     499A      0.522596   500A      0.523395   501A      0.524884  
     502A      0.526118   503A      0.527495   504A      0.528790  
     505A      0.529548   506A      0.532066   507A      0.533859  
     508A      0.534279   509A      0.534364   510A      0.535017  
     511A      0.536372   512A      0.537668   513A      0.538325  
     514A      0.540063   515A      0.542546   516A      0.542745  
     517A      0.543867   518A      0.544911   519A      0.546186  
     520A      0.548447   521A      0.550079   522A      0.550920  
     523A      0.552495   524A      0.553150   525A      0.554847  
     526A      0.555679   527A      0.556948   528A      0.557316  
     529A      0.558773   530A      0.559627   531A      0.561452  
     532A      0.563205   533A      0.563856   534A      0.564152  
     535A      0.564719   536A      0.565659   537A      0.567200  
     538A      0.569579   539A      0.569616   540A      0.571007  
     541A      0.571974   542A      0.572387   543A      0.574405  
     544A      0.575778   545A      0.577429   546A      0.577837  
     547A      0.579102   548A      0.581053   549A      0.582026  
     550A      0.584889   551A      0.585091   552A      0.586268  
     553A      0.588763   554A      0.590183   555A      0.590838  
     556A      0.593558   557A      0.594038   558A      0.595740  
     559A      0.595881   560A      0.596910   561A      0.598107  
     562A      0.599577   563A      0.602560   564A      0.604254  
     565A      0.605189   566A      0.605632   567A      0.606469  
     568A      0.608355   569A      0.611194   570A      0.612856  
     571A      0.613825   572A      0.614303   573A      0.615123  
     574A      0.615960   575A      0.617218   576A      0.618059  
     577A      0.620092   578A      0.620383   579A      0.622298  
     580A      0.623267   581A      0.625157   582A      0.626261  
     583A      0.629482   584A      0.629685   585A      0.630499  
     586A      0.632078   587A      0.633325   588A      0.633856  
     589A      0.634304   590A      0.635887   591A      0.636260  
     592A      0.640149   593A      0.641001   594A      0.641984  
     595A      0.642594   596A      0.643811   597A      0.646742  
     598A      0.647236   599A      0.650223   600A      0.652513  
     601A      0.652946   602A      0.654195   603A      0.654846  
     604A      0.656131   605A      0.658226   606A      0.659895  
     607A      0.660570   608A      0.661399   609A      0.663324  
     610A      0.663645   611A      0.666525   612A      0.669118  
     613A      0.669931   614A      0.671225   615A      0.672771  
     616A      0.673868   617A      0.676630   618A      0.676781  
     619A      0.678375   620A      0.679467   621A      0.680820  
     622A      0.682987   623A      0.684069   624A      0.685401  
     625A      0.687842   626A      0.690161   627A      0.692708  
     628A      0.693867   629A      0.695170   630A      0.697014  
     631A      0.698001   632A      0.700382   633A      0.701827  
     634A      0.703174   635A      0.704993   636A      0.705488  
     637A      0.708143   638A      0.710711   639A      0.713293  
     640A      0.714080   641A      0.716188   642A      0.717588  
     643A      0.718307   644A      0.719800   645A      0.720385  
     646A      0.722128   647A      0.722938   648A      0.725460  
     649A      0.727369   650A      0.729202   651A      0.730416  
     652A      0.732131   653A      0.733586   654A      0.735180  
     655A      0.736860   656A      0.739016   657A      0.739767  
     658A      0.740712   659A      0.741285   660A      0.744010  
     661A      0.746056   662A      0.747423   663A      0.748374  
     664A      0.749760   665A      0.753252   666A      0.755574  
     667A      0.756679   668A      0.757045   669A      0.759210  
     670A      0.761073   671A      0.763012   672A      0.763360  
     673A      0.765033   674A      0.769179   675A      0.770347  
     676A      0.771876   677A      0.774140   678A      0.774994  
     679A      0.775743   680A      0.776870   681A      0.780124  
     682A      0.780447   683A      0.782386   684A      0.784018  
     685A      0.786224   686A      0.786773   687A      0.789130  
     688A      0.790578   689A      0.791822   690A      0.794221  
     691A      0.796936   692A      0.797045   693A      0.798838  
     694A      0.800270   695A      0.801232   696A      0.804134  
     697A      0.804811   698A      0.805615   699A      0.808170  
     700A      0.811153   701A      0.811608   702A      0.812377  
     703A      0.813532   704A      0.814954   705A      0.816524  
     706A      0.817593   707A      0.820618   708A      0.822312  
     709A      0.823767   710A      0.826217   711A      0.827068  
     712A      0.828273   713A      0.829509   714A      0.830535  
     715A      0.833280   716A      0.834310   717A      0.834640  
     718A      0.836853   719A      0.839519   720A      0.840159  
     721A      0.841877   722A      0.842893   723A      0.844606  
     724A      0.845785   725A      0.847416   726A      0.849126  
     727A      0.849859   728A      0.855544   729A      0.856180  
     730A      0.858809   731A      0.860627   732A      0.861026  
     733A      0.862584   734A      0.864210   735A      0.865149  
     736A      0.866518   737A      0.867416   738A      0.869068  
     739A      0.871151   740A      0.872372   741A      0.873787  
     742A      0.874577   743A      0.879566   744A      0.879915  
     745A      0.881062   746A      0.882382   747A      0.884675  
     748A      0.885427   749A      0.888067   750A      0.889100  
     751A      0.890356   752A      0.892719   753A      0.894344  
     754A      0.895111   755A      0.896983   756A      0.898029  
     757A      0.900205   758A      0.901515   759A      0.902119  
     760A      0.903951   761A      0.905840   762A      0.907930  
     763A      0.908612   764A      0.911163   765A      0.911529  
     766A      0.912028   767A      0.913416   768A      0.915397  
     769A      0.918237   770A      0.918632   771A      0.919570  
     772A      0.920689   773A      0.921765   774A      0.922054  
     775A      0.926287   776A      0.927454   777A      0.928580  
     778A      0.929394   779A      0.932514   780A      0.932865  
     781A      0.935084   782A      0.937316   783A      0.939110  
     784A      0.940553   785A      0.942405   786A      0.943230  
     787A      0.945626   788A      0.946987   789A      0.948648  
     790A      0.950301   791A      0.950796   792A      0.951017  
     793A      0.953393   794A      0.954029   795A      0.956792  
     796A      0.959264   797A      0.960023   798A      0.960614  
     799A      0.962655   800A      0.963474   801A      0.964378  
     802A      0.966919   803A      0.967445   804A      0.968220  
     805A      0.969616   806A      0.971791   807A      0.972993  
     808A      0.973718   809A      0.975481   810A      0.977787  
     811A      0.978374   812A      0.980699   813A      0.981658  
     814A      0.982456   815A      0.984267   816A      0.985800  
     817A      0.988015   818A      0.989121   819A      0.990348  
     820A      0.991763   821A      0.994156   822A      0.994598  
     823A      0.996727   824A      0.996961   825A      0.998979  
     826A      0.999741   827A      1.001484   828A      1.002518  
     829A      1.003528   830A      1.005488   831A      1.006536  
     832A      1.007598   833A      1.008616   834A      1.010227  
     835A      1.011423   836A      1.013883   837A      1.015017  
     838A      1.016475   839A      1.018196   840A      1.018560  
     841A      1.019647   842A      1.022137   843A      1.023291  
     844A      1.023830   845A      1.024773   846A      1.029572  
     847A      1.029773   848A      1.030460   849A      1.033008  
     850A      1.033699   851A      1.034795   852A      1.036197  
     853A      1.037459   854A      1.038506   855A      1.040652  
     856A      1.041520   857A      1.042253   858A      1.044526  
     859A      1.045848   860A      1.046326   861A      1.049483  
     862A      1.052625   863A      1.053944   864A      1.054056  
     865A      1.055054   866A      1.056824   867A      1.058095  
     868A      1.060040   869A      1.063336   870A      1.064495  
     871A      1.065553   872A      1.067378   873A      1.068365  
     874A      1.069526   875A      1.071178   876A      1.072499  
     877A      1.073378   878A      1.074174   879A      1.075669  
     880A      1.077867   881A      1.080712   882A      1.082805  
     883A      1.083712   884A      1.086457   885A      1.087907  
     886A      1.089135   887A      1.090704   888A      1.091530  
     889A      1.094871   890A      1.095420   891A      1.095989  
     892A      1.097149   893A      1.100002   894A      1.102815  
     895A      1.103564   896A      1.106849   897A      1.108607  
     898A      1.110293   899A      1.111162   900A      1.112712  
     901A      1.114248   902A      1.115160   903A      1.117271  
     904A      1.118467   905A      1.119911   906A      1.121196  
     907A      1.123040   908A      1.125471   909A      1.128586  
     910A      1.129084   911A      1.130118   912A      1.131275  
     913A      1.132716   914A      1.134940   915A      1.135854  
     916A      1.136412   917A      1.137905   918A      1.139612  
     919A      1.141741   920A      1.142866   921A      1.144529  
     922A      1.145942   923A      1.147337   924A      1.149771  
     925A      1.151324   926A      1.151843   927A      1.152700  
     928A      1.153962   929A      1.154092   930A      1.159092  
     931A      1.159982   932A      1.161844   933A      1.162378  
     934A      1.163756   935A      1.164363   936A      1.166665  
     937A      1.169118   938A      1.169845   939A      1.171316  
     940A      1.172452   941A      1.173527   942A      1.174922  
     943A      1.175974   944A      1.177278   945A      1.178974  
     946A      1.181245   947A      1.183487   948A      1.183828  
     949A      1.186083   950A      1.187912   951A      1.189192  
     952A      1.191629   953A      1.193285   954A      1.194957  
     955A      1.196221   956A      1.197529   957A      1.199224  
     958A      1.201487   959A      1.202822   960A      1.205466  
     961A      1.206219   962A      1.207622   963A      1.208027  
     964A      1.210658   965A      1.211739   966A      1.212960  
     967A      1.215197   968A      1.215753   969A      1.217208  
     970A      1.219242   971A      1.219419   972A      1.221901  
     973A      1.223051   974A      1.223923   975A      1.225092  
     976A      1.228635   977A      1.228973   978A      1.230707  
     979A      1.231590   980A      1.234382   981A      1.235822  
     982A      1.237523   983A      1.238253   984A      1.241170  
     985A      1.242096   986A      1.243374   987A      1.245998  
     988A      1.247457   989A      1.248869   990A      1.249339  
     991A      1.251686   992A      1.253380   993A      1.255675  
     994A      1.256965   995A      1.258113   996A      1.260280  
     997A      1.261433   998A      1.262226   999A      1.263481  
    1000A      1.264507  1001A      1.265461  1002A      1.267107  
    1003A      1.271476  1004A      1.272939  1005A      1.273923  
    1006A      1.276735  1007A      1.277401  1008A      1.279235  
    1009A      1.280791  1010A      1.282023  1011A      1.282383  
    1012A      1.285691  1013A      1.287678  1014A      1.290994  
    1015A      1.292174  1016A      1.293361  1017A      1.294214  
    1018A      1.296681  1019A      1.297628  1020A      1.298682  
    1021A      1.300353  1022A      1.301202  1023A      1.303288  
    1024A      1.305340  1025A      1.305712  1026A      1.308214  
    1027A      1.310119  1028A      1.312136  1029A      1.313173  
    1030A      1.315014  1031A      1.316789  1032A      1.319790  
    1033A      1.321131  1034A      1.322403  1035A      1.323010  
    1036A      1.324538  1037A      1.325919  1038A      1.327254  
    1039A      1.328938  1040A      1.330475  1041A      1.331906  
    1042A      1.334029  1043A      1.337371  1044A      1.338385  
    1045A      1.338993  1046A      1.341402  1047A      1.342411  
    1048A      1.344283  1049A      1.345569  1050A      1.347292  
    1051A      1.349100  1052A      1.351215  1053A      1.353396  
    1054A      1.354352  1055A      1.354629  1056A      1.355664  
    1057A      1.356572  1058A      1.359458  1059A      1.359955  
    1060A      1.360866  1061A      1.363010  1062A      1.364540  
    1063A      1.368289  1064A      1.369317  1065A      1.373566  
    1066A      1.374349  1067A      1.374725  1068A      1.377433  
    1069A      1.378098  1070A      1.378648  1071A      1.381247  
    1072A      1.383362  1073A      1.385435  1074A      1.385787  
    1075A      1.386536  1076A      1.387882  1077A      1.391668  
    1078A      1.394050  1079A      1.395336  1080A      1.397707  
    1081A      1.399678  1082A      1.401886  1083A      1.403193  
    1084A      1.404450  1085A      1.405376  1086A      1.407810  
    1087A      1.410283  1088A      1.411562  1089A      1.412277  
    1090A      1.413717  1091A      1.416516  1092A      1.418577  
    1093A      1.419165  1094A      1.422882  1095A      1.423447  
    1096A      1.426351  1097A      1.426600  1098A      1.428625  
    1099A      1.429812  1100A      1.432508  1101A      1.432702  
    1102A      1.434266  1103A      1.437844  1104A      1.438644  
    1105A      1.440931  1106A      1.441579  1107A      1.445121  
    1108A      1.446714  1109A      1.448194  1110A      1.449511  
    1111A      1.451356  1112A      1.454407  1113A      1.455408  
    1114A      1.457381  1115A      1.458301  1116A      1.459465  
    1117A      1.460772  1118A      1.463383  1119A      1.465514  
    1120A      1.467191  1121A      1.468605  1122A      1.469910  
    1123A      1.471432  1124A      1.473237  1125A      1.475151  
    1126A      1.475734  1127A      1.478817  1128A      1.479352  
    1129A      1.481057  1130A      1.482606  1131A      1.483179  
    1132A      1.484046  1133A      1.487283  1134A      1.489201  
    1135A      1.490304  1136A      1.491883  1137A      1.493719  
    1138A      1.494937  1139A      1.496170  1140A      1.498252  
    1141A      1.498654  1142A      1.500613  1143A      1.501940  
    1144A      1.504371  1145A      1.505995  1146A      1.506474  
    1147A      1.509556  1148A      1.513615  1149A      1.514576  
    1150A      1.517143  1151A      1.518669  1152A      1.520650  
    1153A      1.521076  1154A      1.522555  1155A      1.524396  
    1156A      1.525185  1157A      1.525826  1158A      1.527068  
    1159A      1.529164  1160A      1.530906  1161A      1.531397  
    1162A      1.532441  1163A      1.534502  1164A      1.536938  
    1165A      1.539048  1166A      1.540533  1167A      1.544394  
    1168A      1.545346  1169A      1.546484  1170A      1.548958  
    1171A      1.551865  1172A      1.553431  1173A      1.553718  
    1174A      1.555109  1175A      1.556688  1176A      1.557879  
    1177A      1.559849  1178A      1.561201  1179A      1.563016  
    1180A      1.566650  1181A      1.568358  1182A      1.568878  
    1183A      1.570225  1184A      1.571804  1185A      1.572788  
    1186A      1.577217  1187A      1.577569  1188A      1.578644  
    1189A      1.580544  1190A      1.581981  1191A      1.584793  
    1192A      1.585282  1193A      1.587848  1194A      1.588556  
    1195A      1.592813  1196A      1.594482  1197A      1.594846  
    1198A      1.597080  1199A      1.600242  1200A      1.600872  
    1201A      1.602178  1202A      1.604962  1203A      1.606392  
    1204A      1.608750  1205A      1.609234  1206A      1.610546  
    1207A      1.612585  1208A      1.615579  1209A      1.617952  
    1210A      1.619470  1211A      1.620390  1212A      1.622182  
    1213A      1.623846  1214A      1.625465  1215A      1.627929  
    1216A      1.628642  1217A      1.630759  1218A      1.633856  
    1219A      1.635984  1220A      1.636361  1221A      1.638568  
    1222A      1.641355  1223A      1.644290  1224A      1.644893  
    1225A      1.648420  1226A      1.649468  1227A      1.650039  
    1228A      1.652282  1229A      1.654478  1230A      1.656075  
    1231A      1.658172  1232A      1.659563  1233A      1.661176  
    1234A      1.663883  1235A      1.665026  1236A      1.666299  
    1237A      1.667599  1238A      1.668936  1239A      1.670186  
    1240A      1.671010  1241A      1.674818  1242A      1.675156  
    1243A      1.678266  1244A      1.679022  1245A      1.680895  
    1246A      1.682638  1247A      1.685093  1248A      1.687579  
    1249A      1.687692  1250A      1.690100  1251A      1.690771  
    1252A      1.693408  1253A      1.694653  1254A      1.695158  
    1255A      1.697591  1256A      1.698020  1257A      1.700632  
    1258A      1.701878  1259A      1.702994  1260A      1.704410  
    1261A      1.705428  1262A      1.708739  1263A      1.710057  
    1264A      1.712766  1265A      1.713811  1266A      1.715179  
    1267A      1.715657  1268A      1.718429  1269A      1.719676  
    1270A      1.722615  1271A      1.723382  1272A      1.724412  
    1273A      1.725853  1274A      1.726848  1275A      1.728995  
    1276A      1.731096  1277A      1.731406  1278A      1.733795  
    1279A      1.736094  1280A      1.738270  1281A      1.739200  
    1282A      1.740554  1283A      1.743250  1284A      1.745015  
    1285A      1.746196  1286A      1.747753  1287A      1.749869  
    1288A      1.751328  1289A      1.754694  1290A      1.757513  
    1291A      1.758647  1292A      1.760108  1293A      1.760879  
    1294A      1.764629  1295A      1.767157  1296A      1.768050  
    1297A      1.768368  1298A      1.770539  1299A      1.771542  
    1300A      1.773102  1301A      1.775464  1302A      1.776570  
    1303A      1.778168  1304A      1.780154  1305A      1.781442  
    1306A      1.782627  1307A      1.784024  1308A      1.788227  
    1309A      1.789519  1310A      1.792066  1311A      1.793640  
    1312A      1.796041  1313A      1.797819  1314A      1.800506  
    1315A      1.802775  1316A      1.803799  1317A      1.804192  
    1318A      1.806008  1319A      1.808570  1320A      1.809904  
    1321A      1.812009  1322A      1.813847  1323A      1.814330  
    1324A      1.816139  1325A      1.820125  1326A      1.821923  
    1327A      1.823880  1328A      1.825698  1329A      1.828206  
    1330A      1.829546  1331A      1.830088  1332A      1.832790  
    1333A      1.835224  1334A      1.839439  1335A      1.840447  
    1336A      1.841222  1337A      1.843771  1338A      1.845766  
    1339A      1.847535  1340A      1.848371  1341A      1.850225  
    1342A      1.852069  1343A      1.854288  1344A      1.856114  
    1345A      1.857737  1346A      1.859906  1347A      1.860808  
    1348A      1.862084  1349A      1.862832  1350A      1.864859  
    1351A      1.866462  1352A      1.868377  1353A      1.870725  
    1354A      1.872387  1355A      1.873231  1356A      1.875866  
    1357A      1.876846  1358A      1.879998  1359A      1.881344  
    1360A      1.882610  1361A      1.884900  1362A      1.885625  
    1363A      1.888982  1364A      1.892120  1365A      1.892688  
    1366A      1.894324  1367A      1.895963  1368A      1.900853  
    1369A      1.901596  1370A      1.902700  1371A      1.905192  
    1372A      1.905690  1373A      1.908281  1374A      1.908492  
    1375A      1.910953  1376A      1.913804  1377A      1.917168  
    1378A      1.917638  1379A      1.919567  1380A      1.920880  
    1381A      1.924059  1382A      1.925178  1383A      1.926241  
    1384A      1.927963  1385A      1.929949  1386A      1.930774  
    1387A      1.934765  1388A      1.936790  1389A      1.939021  
    1390A      1.939872  1391A      1.941504  1392A      1.945729  
    1393A      1.947593  1394A      1.949711  1395A      1.951157  
    1396A      1.951989  1397A      1.955436  1398A      1.956856  
    1399A      1.959044  1400A      1.961363  1401A      1.963031  
    1402A      1.964874  1403A      1.966949  1404A      1.967343  
    1405A      1.971770  1406A      1.972732  1407A      1.976624  
    1408A      1.977394  1409A      1.978647  1410A      1.982839  
    1411A      1.985653  1412A      1.986333  1413A      1.987777  
    1414A      1.989152  1415A      1.990029  1416A      1.991424  
    1417A      1.992453  1418A      1.994823  1419A      1.995156  
    1420A      1.997935  1421A      2.000176  1422A      2.003509  
    1423A      2.005287  1424A      2.006603  1425A      2.007917  
    1426A      2.010474  1427A      2.012136  1428A      2.013302  
    1429A      2.014370  1430A      2.017976  1431A      2.019237  
    1432A      2.022069  1433A      2.023711  1434A      2.026555  
    1435A      2.027745  1436A      2.028897  1437A      2.034389  
    1438A      2.035205  1439A      2.038639  1440A      2.040864  
    1441A      2.042349  1442A      2.043269  1443A      2.044255  
    1444A      2.046548  1445A      2.047851  1446A      2.049707  
    1447A      2.051999  1448A      2.054699  1449A      2.056552  
    1450A      2.057819  1451A      2.059367  1452A      2.062926  
    1453A      2.063403  1454A      2.069885  1455A      2.070926  
    1456A      2.073391  1457A      2.075749  1458A      2.077938  
    1459A      2.079142  1460A      2.081001  1461A      2.083631  
    1462A      2.084501  1463A      2.085683  1464A      2.089015  
    1465A      2.089362  1466A      2.091363  1467A      2.094121  
    1468A      2.096169  1469A      2.097542  1470A      2.100226  
    1471A      2.101187  1472A      2.103367  1473A      2.104853  
    1474A      2.107866  1475A      2.108739  1476A      2.112525  
    1477A      2.115348  1478A      2.115984  1479A      2.117329  
    1480A      2.118581  1481A      2.120900  1482A      2.122768  
    1483A      2.127326  1484A      2.127910  1485A      2.128315  
    1486A      2.131298  1487A      2.131825  1488A      2.134098  
    1489A      2.136641  1490A      2.139459  1491A      2.140894  
    1492A      2.142209  1493A      2.145314  1494A      2.147261  
    1495A      2.148079  1496A      2.149736  1497A      2.150411  
    1498A      2.152157  1499A      2.153789  1500A      2.157794  
    1501A      2.159805  1502A      2.161714  1503A      2.162968  
    1504A      2.163917  1505A      2.167125  1506A      2.168875  
    1507A      2.174003  1508A      2.174850  1509A      2.176275  
    1510A      2.177578  1511A      2.179551  1512A      2.183000  
    1513A      2.184915  1514A      2.186218  1515A      2.190306  
    1516A      2.192280  1517A      2.193888  1518A      2.194454  
    1519A      2.198744  1520A      2.201106  1521A      2.202291  
    1522A      2.203664  1523A      2.205625  1524A      2.209483  
    1525A      2.210111  1526A      2.210865  1527A      2.215130  
    1528A      2.216607  1529A      2.218969  1530A      2.221549  
    1531A      2.222844  1532A      2.224278  1533A      2.228251  
    1534A      2.228915  1535A      2.232892  1536A      2.233306  
    1537A      2.236172  1538A      2.236892  1539A      2.239732  
    1540A      2.242808  1541A      2.243740  1542A      2.247045  
    1543A      2.247545  1544A      2.251930  1545A      2.253458  
    1546A      2.257233  1547A      2.258672  1548A      2.259149  
    1549A      2.261223  1550A      2.262696  1551A      2.264215  
    1552A      2.266319  1553A      2.269425  1554A      2.271554  
    1555A      2.274295  1556A      2.275203  1557A      2.279548  
    1558A      2.281055  1559A      2.283888  1560A      2.285361  
    1561A      2.285962  1562A      2.289380  1563A      2.290482  
    1564A      2.294346  1565A      2.296186  1566A      2.298523  
    1567A      2.299511  1568A      2.300760  1569A      2.305024  
    1570A      2.306635  1571A      2.309032  1572A      2.312018  
    1573A      2.313771  1574A      2.316673  1575A      2.319680  
    1576A      2.320910  1577A      2.322601  1578A      2.325548  
    1579A      2.327316  1580A      2.327684  1581A      2.329458  
    1582A      2.329926  1583A      2.334010  1584A      2.335714  
    1585A      2.340688  1586A      2.343710  1587A      2.344716  
    1588A      2.345294  1589A      2.346234  1590A      2.350683  
    1591A      2.352387  1592A      2.354333  1593A      2.355812  
    1594A      2.356609  1595A      2.359930  1596A      2.363629  
    1597A      2.364281  1598A      2.365960  1599A      2.368095  
    1600A      2.369776  1601A      2.371666  1602A      2.376549  
    1603A      2.376770  1604A      2.380524  1605A      2.381043  
    1606A      2.385025  1607A      2.387854  1608A      2.388894  
    1609A      2.391814  1610A      2.392378  1611A      2.395541  
    1612A      2.397702  1613A      2.398704  1614A      2.399009  
    1615A      2.401373  1616A      2.403986  1617A      2.406966  
    1618A      2.409374  1619A      2.410762  1620A      2.413545  
    1621A      2.416221  1622A      2.420047  1623A      2.421547  
    1624A      2.423291  1625A      2.426928  1626A      2.428481  
    1627A      2.430326  1628A      2.431674  1629A      2.434722  
    1630A      2.437637  1631A      2.440397  1632A      2.441024  
    1633A      2.442235  1634A      2.446339  1635A      2.447938  
    1636A      2.449791  1637A      2.451794  1638A      2.452027  
    1639A      2.456023  1640A      2.458037  1641A      2.458490  
    1642A      2.462862  1643A      2.464129  1644A      2.466960  
    1645A      2.468678  1646A      2.471056  1647A      2.472932  
    1648A      2.474997  1649A      2.476100  1650A      2.479697  
    1651A      2.480752  1652A      2.482139  1653A      2.483600  
    1654A      2.488472  1655A      2.491175  1656A      2.494852  
    1657A      2.496143  1658A      2.497687  1659A      2.498152  
    1660A      2.502963  1661A      2.505585  1662A      2.505952  
    1663A      2.507403  1664A      2.512055  1665A      2.514701  
    1666A      2.516309  1667A      2.519271  1668A      2.520003  
    1669A      2.524600  1670A      2.526919  1671A      2.527808  
    1672A      2.529471  1673A      2.530961  1674A      2.532702  
    1675A      2.539004  1676A      2.542061  1677A      2.542713  
    1678A      2.545516  1679A      2.546508  1680A      2.548342  
    1681A      2.550044  1682A      2.552288  1683A      2.559530  
    1684A      2.559721  1685A      2.562317  1686A      2.564038  
    1687A      2.566634  1688A      2.569363  1689A      2.571362  
    1690A      2.572487  1691A      2.573776  1692A      2.574998  
    1693A      2.579791  1694A      2.582602  1695A      2.583667  
    1696A      2.584669  1697A      2.590145  1698A      2.591181  
    1699A      2.594552  1700A      2.598110  1701A      2.602423  
    1702A      2.604296  1703A      2.605789  1704A      2.607491  
    1705A      2.609934  1706A      2.611731  1707A      2.614579  
    1708A      2.616660  1709A      2.617888  1710A      2.620478  
    1711A      2.626414  1712A      2.628154  1713A      2.632143  
    1714A      2.633916  1715A      2.635046  1716A      2.639102  
    1717A      2.641390  1718A      2.644898  1719A      2.649052  
    1720A      2.650495  1721A      2.653474  1722A      2.654407  
    1723A      2.658430  1724A      2.659694  1725A      2.662402  
    1726A      2.664113  1727A      2.666202  1728A      2.671184  
    1729A      2.676294  1730A      2.677822  1731A      2.678796  
    1732A      2.680639  1733A      2.685011  1734A      2.686762  
    1735A      2.689044  1736A      2.690223  1737A      2.693683  
    1738A      2.697089  1739A      2.699379  1740A      2.702567  
    1741A      2.703552  1742A      2.707984  1743A      2.710075  
    1744A      2.712141  1745A      2.713209  1746A      2.716917  
    1747A      2.721073  1748A      2.725253  1749A      2.726097  
    1750A      2.726553  1751A      2.729407  1752A      2.730954  
    1753A      2.733160  1754A      2.739181  1755A      2.741152  
    1756A      2.743228  1757A      2.744158  1758A      2.750533  
    1759A      2.752973  1760A      2.754977  1761A      2.757810  
    1762A      2.762496  1763A      2.764577  1764A      2.767758  
    1765A      2.769561  1766A      2.772623  1767A      2.774904  
    1768A      2.776877  1769A      2.781654  1770A      2.783317  
    1771A      2.785748  1772A      2.791360  1773A      2.793116  
    1774A      2.794918  1775A      2.797693  1776A      2.799282  
    1777A      2.802109  1778A      2.804033  1779A      2.804979  
    1780A      2.810945  1781A      2.813557  1782A      2.815570  
    1783A      2.816638  1784A      2.818264  1785A      2.820041  
    1786A      2.823461  1787A      2.825320  1788A      2.830940  
    1789A      2.835310  1790A      2.836222  1791A      2.838639  
    1792A      2.841484  1793A      2.844713  1794A      2.845981  
    1795A      2.849568  1796A      2.851744  1797A      2.855426  
    1798A      2.857306  1799A      2.861691  1800A      2.863290  
    1801A      2.864215  1802A      2.871791  1803A      2.873261  
    1804A      2.877220  1805A      2.881891  1806A      2.884416  
    1807A      2.886800  1808A      2.889584  1809A      2.890917  
    1810A      2.892253  1811A      2.897016  1812A      2.901029  
    1813A      2.904170  1814A      2.905926  1815A      2.909078  
    1816A      2.910558  1817A      2.912466  1818A      2.915879  
    1819A      2.918198  1820A      2.920087  1821A      2.922836  
    1822A      2.927984  1823A      2.930058  1824A      2.931922  
    1825A      2.935145  1826A      2.937787  1827A      2.937956  
    1828A      2.939796  1829A      2.944124  1830A      2.947155  
    1831A      2.950785  1832A      2.954485  1833A      2.956061  
    1834A      2.959781  1835A      2.961664  1836A      2.964913  
    1837A      2.966844  1838A      2.971558  1839A      2.974664  
    1840A      2.978198  1841A      2.981229  1842A      2.984442  
    1843A      2.990807  1844A      2.993649  1845A      2.997958  
    1846A      3.000932  1847A      3.004105  1848A      3.004653  
    1849A      3.008065  1850A      3.011752  1851A      3.015975  
    1852A      3.022447  1853A      3.023510  1854A      3.026337  
    1855A      3.029333  1856A      3.036127  1857A      3.039389  
    1858A      3.045145  1859A      3.047062  1860A      3.048558  
    1861A      3.051973  1862A      3.057304  1863A      3.061801  
    1864A      3.065211  1865A      3.068990  1866A      3.073640  
    1867A      3.077797  1868A      3.080244  1869A      3.084279  
    1870A      3.086804  1871A      3.089096  1872A      3.092740  
    1873A      3.095248  1874A      3.098770  1875A      3.104772  
    1876A      3.105576  1877A      3.116107  1878A      3.116864  
    1879A      3.118885  1880A      3.127012  1881A      3.127423  
    1882A      3.131087  1883A      3.134921  1884A      3.139013  
    1885A      3.141744  1886A      3.143799  1887A      3.144253  
    1888A      3.152218  1889A      3.154714  1890A      3.162910  
    1891A      3.166118  1892A      3.173475  1893A      3.174740  
    1894A      3.178599  1895A      3.186758  1896A      3.187993  
    1897A      3.194275  1898A      3.199550  1899A      3.201045  
    1900A      3.207377  1901A      3.215009  1902A      3.221616  
    1903A      3.222388  1904A      3.225806  1905A      3.229851  
    1906A      3.233749  1907A      3.235654  1908A      3.239697  
    1909A      3.242173  1910A      3.244326  1911A      3.250222  
    1912A      3.254155  1913A      3.256406  1914A      3.262521  
    1915A      3.267817  1916A      3.271346  1917A      3.273077  
    1918A      3.278562  1919A      3.282193  1920A      3.283889  
    1921A      3.288406  1922A      3.293689  1923A      3.299511  
    1924A      3.302984  1925A      3.312184  1926A      3.314791  
    1927A      3.318981  1928A      3.326741  1929A      3.329712  
    1930A      3.333893  1931A      3.338941  1932A      3.346712  
    1933A      3.350657  1934A      3.360599  1935A      3.363264  
    1936A      3.366247  1937A      3.369861  1938A      3.378950  
    1939A      3.379441  1940A      3.385498  1941A      3.394743  
    1942A      3.399101  1943A      3.403582  1944A      3.403958  
    1945A      3.406891  1946A      3.409297  1947A      3.414424  
    1948A      3.418415  1949A      3.422600  1950A      3.425348  
    1951A      3.426378  1952A      3.427748  1953A      3.429421  
    1954A      3.438292  1955A      3.438873  1956A      3.445619  
    1957A      3.449449  1958A      3.453082  1959A      3.457891  
    1960A      3.462123  1961A      3.464341  1962A      3.467618  
    1963A      3.469830  1964A      3.473337  1965A      3.479997  
    1966A      3.480790  1967A      3.484876  1968A      3.490352  
    1969A      3.495135  1970A      3.497880  1971A      3.499999  
    1972A      3.503614  1973A      3.506042  1974A      3.509261  
    1975A      3.511605  1976A      3.514517  1977A      3.518277  
    1978A      3.521917  1979A      3.522761  1980A      3.524237  
    1981A      3.531700  1982A      3.533153  1983A      3.535021  
    1984A      3.539884  1985A      3.540642  1986A      3.543328  
    1987A      3.549855  1988A      3.550715  1989A      3.552940  
    1990A      3.557433  1991A      3.558465  1992A      3.559876  
    1993A      3.565481  1994A      3.565975  1995A      3.568478  
    1996A      3.571359  1997A      3.573891  1998A      3.576204  
    1999A      3.579549  2000A      3.580460  2001A      3.585721  
    2002A      3.589041  2003A      3.591341  2004A      3.593306  
    2005A      3.594535  2006A      3.597799  2007A      3.598840  
    2008A      3.602145  2009A      3.607386  2010A      3.609996  
    2011A      3.611512  2012A      3.614727  2013A      3.618951  
    2014A      3.623595  2015A      3.624293  2016A      3.627583  
    2017A      3.631100  2018A      3.634603  2019A      3.636570  
    2020A      3.637706  2021A      3.645021  2022A      3.645773  
    2023A      3.646228  2024A      3.648418  2025A      3.652750  
    2026A      3.655158  2027A      3.656236  2028A      3.658202  
    2029A      3.665778  2030A      3.666322  2031A      3.668879  
    2032A      3.673402  2033A      3.675177  2034A      3.676227  
    2035A      3.679215  2036A      3.683168  2037A      3.684365  
    2038A      3.685516  2039A      3.688393  2040A      3.689210  
    2041A      3.693237  2042A      3.698145  2043A      3.700264  
    2044A      3.703706  2045A      3.704597  2046A      3.706138  
    2047A      3.706450  2048A      3.710317  2049A      3.712320  
    2050A      3.714656  2051A      3.715472  2052A      3.716445  
    2053A      3.718125  2054A      3.721479  2055A      3.723628  
    2056A      3.726222  2057A      3.729685  2058A      3.733575  
    2059A      3.735291  2060A      3.737830  2061A      3.739399  
    2062A      3.745225  2063A      3.747495  2064A      3.749520  
    2065A      3.750175  2066A      3.754616  2067A      3.756150  
    2068A      3.757991  2069A      3.759904  2070A      3.762250  
    2071A      3.764710  2072A      3.767220  2073A      3.772628  
    2074A      3.775889  2075A      3.776551  2076A      3.778320  
    2077A      3.780868  2078A      3.783571  2079A      3.784301  
    2080A      3.787341  2081A      3.788262  2082A      3.789959  
    2083A      3.791041  2084A      3.796390  2085A      3.798745  
    2086A      3.802095  2087A      3.805559  2088A      3.807991  
    2089A      3.810017  2090A      3.814892  2091A      3.816706  
    2092A      3.818241  2093A      3.819591  2094A      3.821770  
    2095A      3.824468  2096A      3.826918  2097A      3.828126  
    2098A      3.829315  2099A      3.830472  2100A      3.833953  
    2101A      3.835450  2102A      3.840163  2103A      3.842226  
    2104A      3.846301  2105A      3.847208  2106A      3.849007  
    2107A      3.855001  2108A      3.857101  2109A      3.859126  
    2110A      3.860297  2111A      3.864127  2112A      3.866357  
    2113A      3.866984  2114A      3.871303  2115A      3.874626  
    2116A      3.875450  2117A      3.876576  2118A      3.880262  
    2119A      3.884554  2120A      3.887580  2121A      3.888215  
    2122A      3.891325  2123A      3.893387  2124A      3.895540  
    2125A      3.896889  2126A      3.899843  2127A      3.901336  
    2128A      3.902476  2129A      3.906357  2130A      3.907074  
    2131A      3.908548  2132A      3.911324  2133A      3.915218  
    2134A      3.917469  2135A      3.917875  2136A      3.920862  
    2137A      3.923008  2138A      3.923898  2139A      3.926141  
    2140A      3.929436  2141A      3.933189  2142A      3.934192  
    2143A      3.935162  2144A      3.937841  2145A      3.940306  
    2146A      3.941640  2147A      3.945366  2148A      3.947603  
    2149A      3.948953  2150A      3.950770  2151A      3.951562  
    2152A      3.953087  2153A      3.958698  2154A      3.961447  
    2155A      3.963199  2156A      3.964380  2157A      3.967943  
    2158A      3.969710  2159A      3.972437  2160A      3.974177  
    2161A      3.975761  2162A      3.977709  2163A      3.979921  
    2164A      3.982278  2165A      3.984688  2166A      3.986211  
    2167A      3.988789  2168A      3.992780  2169A      3.996128  
    2170A      3.997613  2171A      3.999522  2172A      4.000744  
    2173A      4.004366  2174A      4.006486  2175A      4.006765  
    2176A      4.009450  2177A      4.012084  2178A      4.013303  
    2179A      4.017388  2180A      4.019080  2181A      4.021437  
    2182A      4.026544  2183A      4.028001  2184A      4.032460  
    2185A      4.035067  2186A      4.038305  2187A      4.038823  
    2188A      4.040832  2189A      4.044007  2190A      4.046041  
    2191A      4.047679  2192A      4.049778  2193A      4.052144  
    2194A      4.053854  2195A      4.057522  2196A      4.058352  
    2197A      4.060212  2198A      4.061599  2199A      4.065506  
    2200A      4.066970  2201A      4.069370  2202A      4.071677  
    2203A      4.072701  2204A      4.074948  2205A      4.079040  
    2206A      4.080345  2207A      4.082403  2208A      4.085368  
    2209A      4.087184  2210A      4.089015  2211A      4.090976  
    2212A      4.095855  2213A      4.099559  2214A      4.100816  
    2215A      4.101754  2216A      4.103703  2217A      4.105824  
    2218A      4.107783  2219A      4.111321  2220A      4.114510  
    2221A      4.116941  2222A      4.117523  2223A      4.118451  
    2224A      4.120386  2225A      4.122492  2226A      4.124395  
    2227A      4.126266  2228A      4.129091  2229A      4.132480  
    2230A      4.133025  2231A      4.134587  2232A      4.138022  
    2233A      4.142978  2234A      4.145953  2235A      4.147594  
    2236A      4.148328  2237A      4.151659  2238A      4.154766  
    2239A      4.156538  2240A      4.157178  2241A      4.158574  
    2242A      4.161608  2243A      4.163866  2244A      4.165404  
    2245A      4.167831  2246A      4.169566  2247A      4.171663  
    2248A      4.176921  2249A      4.178555  2250A      4.179546  
    2251A      4.181596  2252A      4.183335  2253A      4.184489  
    2254A      4.189551  2255A      4.190513  2256A      4.193292  
    2257A      4.194676  2258A      4.199619  2259A      4.199907  
    2260A      4.202620  2261A      4.206187  2262A      4.207827  
    2263A      4.210739  2264A      4.212093  2265A      4.216630  
    2266A      4.218578  2267A      4.222727  2268A      4.225241  
    2269A      4.227573  2270A      4.228825  2271A      4.229880  
    2272A      4.233523  2273A      4.235257  2274A      4.236932  
    2275A      4.239176  2276A      4.242081  2277A      4.244213  
    2278A      4.247060  2279A      4.251052  2280A      4.252274  
    2281A      4.254583  2282A      4.255355  2283A      4.257082  
    2284A      4.258782  2285A      4.263590  2286A      4.267882  
    2287A      4.268937  2288A      4.270423  2289A      4.271463  
    2290A      4.273635  2291A      4.278622  2292A      4.280379  
    2293A      4.281464  2294A      4.282702  2295A      4.284365  
    2296A      4.288383  2297A      4.289433  2298A      4.292327  
    2299A      4.297865  2300A      4.298848  2301A      4.301268  
    2302A      4.304340  2303A      4.304867  2304A      4.307885  
    2305A      4.311291  2306A      4.315532  2307A      4.316095  
    2308A      4.317947  2309A      4.319134  2310A      4.323451  
    2311A      4.324363  2312A      4.329386  2313A      4.330976  
    2314A      4.334178  2315A      4.335147  2316A      4.337570  
    2317A      4.339103  2318A      4.342801  2319A      4.344673  
    2320A      4.346252  2321A      4.348127  2322A      4.351788  
    2323A      4.354419  2324A      4.355581  2325A      4.360619  
    2326A      4.362412  2327A      4.364840  2328A      4.366644  
    2329A      4.368540  2330A      4.375064  2331A      4.375446  
    2332A      4.377665  2333A      4.382209  2334A      4.384813  
    2335A      4.385799  2336A      4.389020  2337A      4.390359  
    2338A      4.391603  2339A      4.395208  2340A      4.395974  
    2341A      4.397914  2342A      4.403179  2343A      4.404591  
    2344A      4.405563  2345A      4.408045  2346A      4.409923  
    2347A      4.411851  2348A      4.414415  2349A      4.414933  
    2350A      4.416976  2351A      4.418784  2352A      4.420018  
    2353A      4.422928  2354A      4.424180  2355A      4.427562  
    2356A      4.430436  2357A      4.432307  2358A      4.434187  
    2359A      4.435589  2360A      4.438259  2361A      4.439126  
    2362A      4.441176  2363A      4.442569  2364A      4.446615  
    2365A      4.446943  2366A      4.450518  2367A      4.452993  
    2368A      4.455569  2369A      4.458468  2370A      4.461654  
    2371A      4.464108  2372A      4.464637  2373A      4.467030  
    2374A      4.470220  2375A      4.471382  2376A      4.473251  
    2377A      4.479548  2378A      4.481060  2379A      4.481670  
    2380A      4.484643  2381A      4.485530  2382A      4.486587  
    2383A      4.489702  2384A      4.490628  2385A      4.494473  
    2386A      4.498084  2387A      4.501791  2388A      4.504023  
    2389A      4.506136  2390A      4.507739  2391A      4.509063  
    2392A      4.513746  2393A      4.517440  2394A      4.518272  
    2395A      4.520206  2396A      4.522272  2397A      4.522497  
    2398A      4.528007  2399A      4.529461  2400A      4.531129  
    2401A      4.534685  2402A      4.536850  2403A      4.540608  
    2404A      4.543425  2405A      4.544292  2406A      4.545538  
    2407A      4.548569  2408A      4.550318  2409A      4.554241  
    2410A      4.555208  2411A      4.557593  2412A      4.562485  
    2413A      4.563593  2414A      4.566770  2415A      4.568855  
    2416A      4.572389  2417A      4.574381  2418A      4.576007  
    2419A      4.579656  2420A      4.580243  2421A      4.582270  
    2422A      4.585029  2423A      4.586824  2424A      4.591246  
    2425A      4.594932  2426A      4.596059  2427A      4.597647  
    2428A      4.598560  2429A      4.601257  2430A      4.601884  
    2431A      4.604761  2432A      4.606299  2433A      4.611237  
    2434A      4.614662  2435A      4.615878  2436A      4.621040  
    2437A      4.622080  2438A      4.625908  2439A      4.627716  
    2440A      4.630635  2441A      4.632674  2442A      4.635921  
    2443A      4.638721  2444A      4.645191  2445A      4.649636  
    2446A      4.652441  2447A      4.654155  2448A      4.657453  
    2449A      4.660853  2450A      4.662220  2451A      4.663350  
    2452A      4.666060  2453A      4.669826  2454A      4.671306  
    2455A      4.673088  2456A      4.675972  2457A      4.678032  
    2458A      4.680814  2459A      4.682344  2460A      4.684314  
    2461A      4.686469  2462A      4.690634  2463A      4.692937  
    2464A      4.694328  2465A      4.696304  2466A      4.699243  
    2467A      4.700889  2468A      4.705511  2469A      4.709072  
    2470A      4.709504  2471A      4.710444  2472A      4.713832  
    2473A      4.714721  2474A      4.716734  2475A      4.717237  
    2476A      4.720597  2477A      4.725305  2478A      4.727017  
    2479A      4.729362  2480A      4.733037  2481A      4.734840  
    2482A      4.739618  2483A      4.741389  2484A      4.745466  
    2485A      4.746164  2486A      4.747373  2487A      4.748733  
    2488A      4.752093  2489A      4.752382  2490A      4.758270  
    2491A      4.762249  2492A      4.763390  2493A      4.764782  
    2494A      4.768538  2495A      4.769805  2496A      4.774626  
    2497A      4.776932  2498A      4.777813  2499A      4.778459  
    2500A      4.782459  2501A      4.784060  2502A      4.786143  
    2503A      4.789974  2504A      4.791351  2505A      4.797424  
    2506A      4.799671  2507A      4.800674  2508A      4.802946  
    2509A      4.807441  2510A      4.811143  2511A      4.813854  
    2512A      4.817994  2513A      4.818938  2514A      4.821181  
    2515A      4.824452  2516A      4.826825  2517A      4.830299  
    2518A      4.833045  2519A      4.833459  2520A      4.837306  
    2521A      4.841569  2522A      4.843195  2523A      4.844492  
    2524A      4.848934  2525A      4.852585  2526A      4.856681  
    2527A      4.858267  2528A      4.861235  2529A      4.865495  
    2530A      4.868081  2531A      4.870152  2532A      4.873258  
    2533A      4.876071  2534A      4.879590  2535A      4.881304  
    2536A      4.885437  2537A      4.886719  2538A      4.890863  
    2539A      4.893891  2540A      4.894351  2541A      4.900673  
    2542A      4.901652  2543A      4.905597  2544A      4.905845  
    2545A      4.907258  2546A      4.912770  2547A      4.917569  
    2548A      4.920432  2549A      4.926929  2550A      4.928189  
    2551A      4.934563  2552A      4.935899  2553A      4.936639  
    2554A      4.939845  2555A      4.942314  2556A      4.945320  
    2557A      4.950215  2558A      4.952077  2559A      4.956629  
    2560A      4.960135  2561A      4.961361  2562A      4.963283  
    2563A      4.965769  2564A      4.966342  2565A      4.966860  
    2566A      4.976600  2567A      4.977746  2568A      4.980510  
    2569A      4.982057  2570A      4.985683  2571A      4.986238  
    2572A      4.991107  2573A      4.994974  2574A      4.998464  
    2575A      4.999625  2576A      5.003569  2577A      5.005567  
    2578A      5.008452  2579A      5.011742  2580A      5.015898  
    2581A      5.018864  2582A      5.022003  2583A      5.025355  
    2584A      5.028462  2585A      5.033169  2586A      5.035123  
    2587A      5.037448  2588A      5.039521  2589A      5.043329  
    2590A      5.044047  2591A      5.047612  2592A      5.052086  
    2593A      5.053421  2594A      5.057922  2595A      5.058890  
    2596A      5.063246  2597A      5.069365  2598A      5.071657  
    2599A      5.073152  2600A      5.075074  2601A      5.079887  
    2602A      5.083716  2603A      5.086983  2604A      5.089190  
    2605A      5.091432  2606A      5.094875  2607A      5.098214  
    2608A      5.099840  2609A      5.101143  2610A      5.105402  
    2611A      5.110500  2612A      5.113098  2613A      5.114225  
    2614A      5.116131  2615A      5.119714  2616A      5.120589  
    2617A      5.123784  2618A      5.124994  2619A      5.128854  
    2620A      5.129282  2621A      5.134748  2622A      5.135077  
    2623A      5.141110  2624A      5.143204  2625A      5.145170  
    2626A      5.149048  2627A      5.151243  2628A      5.159889  
    2629A      5.164096  2630A      5.167811  2631A      5.174627  
    2632A      5.178807  2633A      5.181501  2634A      5.184170  
    2635A      5.186087  2636A      5.190907  2637A      5.194678  
    2638A      5.199219  2639A      5.200988  2640A      5.206760  
    2641A      5.207821  2642A      5.210017  2643A      5.213541  
    2644A      5.216649  2645A      5.221564  2646A      5.221788  
    2647A      5.224067  2648A      5.227776  2649A      5.231230  
    2650A      5.231692  2651A      5.236791  2652A      5.238910  
    2653A      5.243367  2654A      5.246189  2655A      5.246705  
    2656A      5.250577  2657A      5.254698  2658A      5.259255  
    2659A      5.261946  2660A      5.263548  2661A      5.269002  
    2662A      5.272154  2663A      5.275865  2664A      5.276277  
    2665A      5.279129  2666A      5.281308  2667A      5.283972  
    2668A      5.287263  2669A      5.292516  2670A      5.294375  
    2671A      5.298010  2672A      5.299648  2673A      5.302313  
    2674A      5.307516  2675A      5.310219  2676A      5.313705  
    2677A      5.314211  2678A      5.316717  2679A      5.321120  
    2680A      5.325930  2681A      5.327424  2682A      5.329648  
    2683A      5.334395  2684A      5.339948  2685A      5.344170  
    2686A      5.347780  2687A      5.355215  2688A      5.359416  
    2689A      5.361638  2690A      5.365493  2691A      5.367100  
    2692A      5.369779  2693A      5.373716  2694A      5.375000  
    2695A      5.376100  2696A      5.380606  2697A      5.383983  
    2698A      5.388199  2699A      5.389196  2700A      5.389996  
    2701A      5.395948  2702A      5.400215  2703A      5.404643  
    2704A      5.410519  2705A      5.412158  2706A      5.415444  
    2707A      5.417245  2708A      5.423341  2709A      5.425074  
    2710A      5.428271  2711A      5.432297  2712A      5.434330  
    2713A      5.435534  2714A      5.440877  2715A      5.444395  
    2716A      5.447793  2717A      5.451731  2718A      5.452873  
    2719A      5.455635  2720A      5.459857  2721A      5.461584  
    2722A      5.465846  2723A      5.468809  2724A      5.471031  
    2725A      5.476951  2726A      5.479679  2727A      5.487080  
    2728A      5.487820  2729A      5.490076  2730A      5.496197  
    2731A      5.499190  2732A      5.502953  2733A      5.505684  
    2734A      5.510104  2735A      5.513588  2736A      5.521424  
    2737A      5.528515  2738A      5.533361  2739A      5.534483  
    2740A      5.537261  2741A      5.538243  2742A      5.540728  
    2743A      5.548356  2744A      5.551216  2745A      5.557253  
    2746A      5.561222  2747A      5.570472  2748A      5.571370  
    2749A      5.576481  2750A      5.582920  2751A      5.587851  
    2752A      5.589547  2753A      5.593119  2754A      5.594664  
    2755A      5.595759  2756A      5.604110  2757A      5.604354  
    2758A      5.609177  2759A      5.611234  2760A      5.622329  
    2761A      5.623482  2762A      5.629237  2763A      5.629935  
    2764A      5.633951  2765A      5.638055  2766A      5.643706  
    2767A      5.654757  2768A      5.667842  2769A      5.670188  
    2770A      5.674610  2771A      5.679222  2772A      5.682359  
    2773A      5.684123  2774A      5.690291  2775A      5.693235  
    2776A      5.694380  2777A      5.702674  2778A      5.708637  
    2779A      5.710766  2780A      5.714346  2781A      5.720379  
    2782A      5.723598  2783A      5.728219  2784A      5.730768  
    2785A      5.733438  2786A      5.738913  2787A      5.740264  
    2788A      5.742691  2789A      5.748055  2790A      5.749623  
    2791A      5.752454  2792A      5.757792  2793A      5.763724  
    2794A      5.769771  2795A      5.773283  2796A      5.776430  
    2797A      5.780286  2798A      5.782087  2799A      5.787136  
    2800A      5.790332  2801A      5.794816  2802A      5.797777  
    2803A      5.803770  2804A      5.809316  2805A      5.810392  
    2806A      5.819778  2807A      5.825406  2808A      5.832630  
    2809A      5.836809  2810A      5.841333  2811A      5.845382  
    2812A      5.849856  2813A      5.855339  2814A      5.864130  
    2815A      5.870930  2816A      5.876982  2817A      5.882427  
    2818A      5.887347  2819A      5.897923  2820A      5.900639  
    2821A      5.909433  2822A      5.919038  2823A      5.926089  
    2824A      5.930674  2825A      5.937802  2826A      5.955202  
    2827A      5.955616  2828A      5.959949  2829A      5.969325  
    2830A      5.976021  2831A      5.980312  2832A      5.986388  
    2833A      5.998371  2834A      6.001100  2835A      6.005912  
    2836A      6.012219  2837A      6.017573  2838A      6.026168  
    2839A      6.027163  2840A      6.030785  2841A      6.031692  
    2842A      6.035664  2843A      6.048320  2844A      6.051919  
    2845A      6.061996  2846A      6.069633  2847A      6.077797  
    2848A      6.084176  2849A      6.091950  2850A      6.100125  
    2851A      6.111450  2852A      6.122420  2853A      6.128745  
    2854A      6.130900  2855A      6.136558  2856A      6.148861  
    2857A      6.161685  2858A      6.183039  2859A      6.188117  
    2860A      6.191182  2861A      6.195775  2862A      6.208842  
    2863A      6.210360  2864A      6.216574  2865A      6.232673  
    2866A      6.269557  2867A      6.280825  2868A      6.288726  
    2869A      6.289457  2870A      6.296233  2871A      6.300579  
    2872A      6.305303  2873A      6.311645  2874A      6.314858  
    2875A      6.318281  2876A      6.326461  2877A      6.336406  
    2878A      6.341018  2879A      6.351275  2880A      6.363249  
    2881A      6.376844  2882A      6.391459  2883A      6.395773  
    2884A      6.408036  2885A      6.413486  2886A      6.421884  
    2887A      6.437272  2888A      6.460371  2889A      6.470046  
    2890A      6.483587  2891A      6.489047  2892A      6.495395  
    2893A      6.503132  2894A      6.519706  2895A      6.525064  
    2896A      6.531633  2897A      6.551546  2898A      6.559983  
    2899A      6.562901  2900A      6.565195  2901A      6.577375  
    2902A      6.584731  2903A      6.588461  2904A      6.590465  
    2905A      6.614214  2906A      6.634993  2907A      6.642879  
    2908A      6.644684  2909A      6.651225  2910A      6.653137  
    2911A      6.654649  2912A      6.659316  2913A      6.663986  
    2914A      6.671577  2915A      6.674091  2916A      6.679032  
    2917A      6.691266  2918A      6.702660  2919A      6.705039  
    2920A      6.713490  2921A      6.727287  2922A      6.731352  
    2923A      6.734903  2924A      6.740237  2925A      6.749788  
    2926A      6.768610  2927A      6.781382  2928A      6.808160  
    2929A      6.814315  2930A      6.820858  2931A      6.829284  
    2932A      6.836279  2933A      6.844205  2934A      6.847940  
    2935A      6.873067  2936A      6.876455  2937A      6.900508  
    2938A      6.925255  2939A      6.943029  2940A      6.951030  
    2941A      6.957509  2942A      6.964065  2943A      6.967565  
    2944A      6.976724  2945A      6.983514  2946A      6.988689  
    2947A      6.999016  2948A      7.009079  2949A      7.014811  
    2950A      7.042631  2951A      7.048957  2952A      7.054536  
    2953A      7.061108  2954A      7.084640  2955A      7.094239  
    2956A      7.096335  2957A      7.105873  2958A      7.113193  
    2959A      7.117883  2960A      7.129303  2961A      7.132987  
    2962A      7.147149  2963A      7.153643  2964A      7.164265  
    2965A      7.180681  2966A      7.197195  2967A      7.205468  
    2968A      7.217226  2969A      7.224690  2970A      7.234905  
    2971A      7.238380  2972A      7.257403  2973A      7.260858  
    2974A      7.323041  2975A      7.339457  2976A      7.343793  
    2977A      7.361432  2978A      7.362406  2979A      7.369404  
    2980A      7.389219  2981A      7.391897  2982A      7.418300  
    2983A      7.431699  2984A      7.456965  2985A      7.460932  
    2986A      7.477166  2987A      7.482577  2988A      7.494047  
    2989A      7.502951  2990A      7.509827  2991A      7.549704  
    2992A      7.563442  2993A      7.573433  2994A      7.585885  
    2995A      7.599655  2996A      7.627666  2997A      7.633966  
    2998A      7.650383  2999A      7.680025  3000A      7.709237  
    3001A      7.713986  3002A      7.728156  3003A      7.740210  
    3004A      7.753953  3005A      7.780357  3006A      7.793984  
    3007A      7.802384  3008A      7.817696  3009A      7.826048  
    3010A      7.833924  3011A      7.841601  3012A      7.855408  
    3013A      7.867069  3014A      7.879989  3015A      7.900938  
    3016A      7.943124  3017A      7.954890  3018A      7.963069  
    3019A      7.981559  3020A      7.987710  3021A      8.011872  
    3022A      8.024320  3023A      8.035691  3024A      8.047636  
    3025A      8.066288  3026A      8.096112  3027A      8.101416  
    3028A      8.125544  3029A      8.152715  3030A      8.160355  
    3031A      8.169013  3032A      8.226933  3033A      8.269488  
    3034A      8.288375  3035A      8.365400  3036A      8.404721  
    3037A      8.442082  3038A      8.464819  3039A      8.489143  
    3040A      8.538674  3041A      8.559446  3042A      8.585064  
    3043A      8.700124  3044A      8.711633  3045A      8.754582  
    3046A      8.768395  3047A      8.781348  3048A      8.831339  
    3049A      8.999804  3050A      9.039011  3051A      9.136722  
    3052A      9.159041  3053A      9.294171  3054A      9.397632  
    3055A      9.519362  3056A      9.580164  3057A      9.697642  
    3058A      9.980474  3059A     10.027313  3060A     10.032327  
    3061A     10.039640  3062A     10.059780  3063A     10.101228  
    3064A     10.130844  3065A     10.136337  3066A     10.162757  
    3067A     10.189580  3068A     10.221431  3069A     10.226017  
    3070A     10.258867  3071A     10.325809  3072A     10.376199  
    3073A     10.387529  3074A     10.402509  3075A     10.405829  
    3076A     10.426881  3077A     10.507240  3078A     10.545497  
    3079A     10.571699  3080A     10.607122  3081A     10.638233  
    3082A     10.695064  3083A     10.761331  3084A     10.771153  
    3085A     10.780081  3086A     10.798849  3087A     10.828905  
    3088A     10.982334  3089A     11.007127  3090A     11.099938  
    3091A     11.158304  3092A     11.327344  3093A     11.356667  
    3094A     11.439290  3095A     11.457697  3096A     11.481969  
    3097A     11.956866  3098A     12.141862  3099A     12.232927  
    3100A     12.280627  3101A     12.353745  3102A     12.354116  
    3103A     12.395255  3104A     12.406418  3105A     12.435199  
    3106A     12.486851  3107A     12.591037  3108A     12.645542  
    3109A     12.728276  3110A     13.268144  3111A     13.355408  
    3112A     13.438166  3113A     13.463241  3114A     13.501786  
    3115A     13.527014  3116A     13.734273  3117A     14.693120  
    3118A     14.727004  3119A     14.790793  3120A     15.168807  
    3121A     15.187609  3122A     15.203532  3123A     15.355504  
    3124A     15.411611  3125A     15.496092  3126A     16.156811  
    3127A     16.204541  3128A     16.820323  3129A     16.860777  
    3130A     17.036274  3131A     17.085039  3132A     17.145867  
    3133A     17.189654  3134A     17.635245  3135A     18.131174  
    3136A     18.403229  3137A     18.411760  3138A     18.477120  
    3139A     18.702075  3140A     18.797242  3141A     18.917933  
    3142A     19.088392  3143A     19.152177  3144A     19.711429  
    3145A     19.902747  3146A     19.925558  3147A     20.223492  
    3148A     20.505310  3149A     20.509949  3150A     21.246911  
    3151A     21.515561  3152A     21.556242  3153A     21.696958  
    3154A     21.840426  3155A     22.164708  3156A     22.181045  
    3157A     22.202225  3158A     22.317835  3159A     22.383152  
    3160A     22.498816  3161A     22.627599  3162A     22.699382  
    3163A     22.793005  3164A     22.868617  3165A     23.120853  
    3166A     23.210640  3167A     23.526901  3168A     23.538906  
    3169A     52.026396  3170A     52.756029  3171A     58.022001  
    3172A     60.151883  3173A     61.238176  3174A     62.235660  
    3175A     65.070215  3176A     65.224531  3177A     69.158336  
    3178A     69.707221  3179A     76.159945  3180A     76.286084  
    3181A     81.653563  

    Final Occupation by Irrep:
              A 
    DOCC [   141 ]
    NA   [   141 ]
    NB   [   141 ]

  @DF-RHF Final Energy: -1680.13102018893687

   => Energetics <=

    Nuclear Repulsion Energy =           4517.2679062600536781
    One-Electron Energy =              -11275.3199151153712592
    Two-Electron Energy =                5077.9209886663802536
    Total Energy =                      -1680.1310201889373275

Computation Completed


Properties will be evaluated at   0.000000,   0.000000,   0.000000 [a0]

Properties computed using the SCF density matrix


 Multipole Moments:

 ------------------------------------------------------------------------------------
     Multipole            Electronic (a.u.)      Nuclear  (a.u.)        Total (a.u.)
 ------------------------------------------------------------------------------------

 L = 1.  Multiply by 2.5417464519 to convert [e a0] to [Debye]
 Dipole X            :        -49.2276227           49.6634951            0.4358724
 Dipole Y            :        -74.2255122           74.6084292            0.3829170
 Dipole Z            :       -278.9299193          278.7915749           -0.1383444
 Magnitude           :                                                    0.5964472

 ------------------------------------------------------------------------------------

*** tstop() called on atl1-1-03-004-18-1.pace.gatech.edu at Mon Jun 15 12:13:43 2026
Module time:
	user time   =   34498.41 seconds =     574.97 minutes
	system time =    2417.92 seconds =      40.30 minutes
	total time  =       5660 seconds =      94.33 minutes
Total time:
	user time   =   34498.41 seconds =     574.97 minutes
	system time =    2417.92 seconds =      40.30 minutes
	total time  =       5660 seconds =      94.33 minutes

*** tstart() called on atl1-1-03-004-18-1.pace.gatech.edu
*** at Mon Jun 15 12:13:43 2026


  //>>>>>>>>>>>>>>>>>>>>>>>>>>>>>>>>>>>//
  //               DFMP2               //
  //<<<<<<<<<<<<<<<<<<<<<<<<<<<<<<<<<<<//

   => Loading Basis Set <=

    Name: (AUG-CC-PVTZ AUX)
    Role: RIFIT
    Keyword: DF_BASIS_MP2
    atoms 1-40, 69-74  entry C          line   148 file /storage/home/hcoda1/5/vlita3/.conda/envs/p4_qcml/share/psi4/basis/aug-cc-pvtz-ri.gbs 
    atoms 41-42, 81-84 entry O          line   264 file /storage/home/hcoda1/5/vlita3/.conda/envs/p4_qcml/share/psi4/basis/aug-cc-pvtz-ri.gbs 
    atoms 43-68, 78-80 entry H          line    30 file /storage/home/hcoda1/5/vlita3/.conda/envs/p4_qcml/share/psi4/basis/aug-cc-pvtz-ri.gbs 
    atoms 75           entry F          line   322 file /storage/home/hcoda1/5/vlita3/.conda/envs/p4_qcml/share/psi4/basis/aug-cc-pvtz-ri.gbs 
    atoms 76-77        entry N          line   206 file /storage/home/hcoda1/5/vlita3/.conda/envs/p4_qcml/share/psi4/basis/aug-cc-pvtz-ri.gbs 

	 --------------------------------------------------------
	                          DF-MP2                         
	      2nd-Order Density-Fitted Moller-Plesset Theory     
	              RMP2 Wavefunction,  10 Threads             
	                                                         
	        Rob Parrish, Justin Turney, Andy Simmonett,      
	           Ed Hohenstein, and C. David Sherrill          
	 --------------------------------------------------------

   => Auxiliary Basis Set <=

  Basis Set: (AUG-CC-PVTZ AUX)
    Blend: AUG-CC-PVTZ-RI
    Number of shells: 1946
    Number of basis functions: 7164
    Number of Cartesian functions: 9075
    Spherical Harmonics?: true
    Max angular momentum: 4

	 --------------------------------------------------------
	                 NBF =  3197, NAUX =  7164
	 --------------------------------------------------------
	   CLASS    FOCC     OCC    AOCC    AVIR     VIR    FVIR
	   PAIRS       0     141     141    3040    3040       0
	 --------------------------------------------------------

	-----------------------------------------------------------
	 ==================> DF-MP2 Energies <==================== 
	-----------------------------------------------------------
	 Reference Energy          =   -1680.1310201889368727 [Eh]
	 Singles Energy            =      -0.0000000000000000 [Eh]
	 Same-Spin Energy          =      -1.9303471801375105 [Eh]
	 Opposite-Spin Energy      =      -5.7848623229702945 [Eh]
	 Correlation Energy        =      -7.7152095031078050 [Eh]
	 Total Energy              =   -1687.8462296920447443 [Eh]
	-----------------------------------------------------------
	 ================> DF-SCS-MP2 Energies <================== 
	-----------------------------------------------------------
	 SCS Same-Spin Scale       =       0.3333333333333333 [-]
	 SCS Opposite-Spin Scale   =       1.2000000000000000 [-]
	 SCS Same-Spin Energy      =      -0.6434490600458368 [Eh]
	 SCS Opposite-Spin Energy  =      -6.9418347875643533 [Eh]
	 SCS Correlation Energy    =      -7.5852838476101905 [Eh]
	 SCS Total Energy          =   -1687.7163040365471716 [Eh]
	-----------------------------------------------------------


*** tstop() called on atl1-1-03-004-18-1.pace.gatech.edu at Mon Jun 15 12:56:35 2026
Module time:
	user time   =   23383.23 seconds =     389.72 minutes
	system time =     127.78 seconds =       2.13 minutes
	total time  =       2572 seconds =      42.87 minutes
Total time:
	user time   =   57881.64 seconds =     964.69 minutes
	system time =    2545.70 seconds =      42.43 minutes
	total time  =       8232 seconds =     137.20 minutes

    Psi4 stopped on: Monday, 15 June 2026 12:56PM
    Psi4 wall time for execution: 2:17:16.78

*** Psi4 exiting successfully. Buy a developer a beer!
