
    -----------------------------------------------------------------------
          Psi4: An Open-Source Ab Initio Electronic Structure Package
                               Psi4 1.9.1 release

                         Git: Rev {} zzzzzzz 


    D. G. A. Smith, L. A. Burns, A. C. Simmonett, R. M. Parrish,
    M. C. Schieber, R. Galvelis, P. Kraus, H. Kruse, R. Di Remigio,
    A. Alenaizan, A. M. James, S. Lehtola, J. P. Misiewicz, M. Scheurer,
    R. A. Shaw, J. B. Schriber, Y. Xie, Z. L. Glick, D. A. Sirianni,
    J. S. O'Brien, J. M. Waldrop, A. Kumar, E. G. Hohenstein,
    B. P. Pritchard, B. R. Brooks, H. F. Schaefer III, A. Yu. Sokolov,
    K. Patkowski, A. E. DePrince III, U. Bozkaya, R. A. King,
    F. A. Evangelista, J. M. Turney, T. D. Crawford, C. D. Sherrill,
    J. Chem. Phys. 152(18) 184108 (2020). https://doi.org/10.1063/5.0006002

                            Additional Code Authors
    E. T. Seidl, C. L. Janssen, E. F. Valeev, M. L. Leininger,
    J. F. Gonthier, R. M. Richard, H. R. McAlexander, M. Saitow, X. Wang,
    P. Verma, M. H. Lechner, A. Jiang, S. Behnle, A. G. Heide,
    M. F. Herbst, and D. L. Poole

             Previous Authors, Complete List of Code Contributors,
                       and Citations for Specific Modules
    https://github.com/psi4/psi4/blob/master/codemeta.json
    https://github.com/psi4/psi4/graphs/contributors
    http://psicode.org/psi4manual/master/introduction.html#citing-psifour

    -----------------------------------------------------------------------


    Psi4 started on: Saturday, 13 June 2026 11:42AM

    Process ID: 2155655
    Host:       atl1-1-02-003-20-2.pace.gatech.edu
    PSIDATADIR: /storage/home/hcoda1/5/vlita3/.conda/envs/p4_qcml/share/psi4
    Memory:     250.0 GiB
    Threads:    10
    
  ==> Input QCSchema <==

--------------------------------------------------------------------------
{'driver': 'energy',
 'extras': {},
 'id': '221',
 'keywords': {},
 'model': {'basis': 'aug-cc-pvtz', 'method': 'pbe-d3'},
 'molecule': {'extras': {},
              'fix_com': True,
              'fix_orientation': True,
              'fragment_charges': [0.0, 0.0],
              'fragment_multiplicities': [1, 1],
              'fragments': [[0, 1, 2, 3, 4, 5, 6, 7, 8, 9, 10, 11, 12, 13, 14, 15, 16, 17, 18, 19, 20, 21, 22, 23, 24,
                             25, 26, 27, 28, 29, 30, 31, 32, 33, 34, 35, 36, 37, 38, 39, 40, 41, 42, 43],
                            [44, 45, 46, 47, 48, 49, 50, 51, 52, 53, 54, 55, 56, 57, 58, 59, 60, 61, 62, 63, 64, 65, 66,
                             67, 68, 69, 70, 71, 72, 73, 74, 75, 76, 77, 78, 79, 80, 81, 82, 83, 84, 85, 86, 87]],
              'geometry': [25.47963781, 23.08351049, 43.1296896, 24.89690954, 20.52012331, 43.887087, 25.07057198,
                           18.48699404, 42.07353641, 25.8424877, 19.04880944, 39.52013663, 26.46903607, 21.61452675,
                           38.85199593, 26.30318821, 23.59330066, 40.54460103, 24.46577176, 15.9279092, 42.77036087,
                           23.76811717, 15.37695629, 45.40838081, 23.59859476, 17.38880058, 47.22265844, 24.1081018,
                           20.02007671, 46.44346413, 22.96694077, 16.77267612, 49.77192758, 22.51062738, 14.29130626,
                           50.58597185, 22.67427055, 12.32177999, 48.76231557, 23.27971306, 12.86309326, 46.25226043,
                           25.97467497, 17.0727052, 37.71068154, 25.34789586, 14.59123463, 38.39437083, 24.59969708,
                           14.0277518, 40.88784347, 25.20039992, 25.0588727, 44.92111126, 24.35321071, 24.59525103,
                           47.39946073, 23.84084877, 22.08099208, 48.12795237, 21.86046838, 13.69556932, 53.32235171,
                           24.04555383, 26.76370654, 49.27889773, 26.50915633, 27.41178979, 50.73375129, 26.93108599,
                           26.27094839, 39.72356046, 27.10311578, 21.98163565, 36.89906984, 22.32265299, 10.34583799,
                           49.33666834, 23.39372081, 11.28300305, 44.90489504, 26.57612038, 17.51973959, 35.76596134,
                           25.43664936, 13.06203906, 36.97800898, 24.12002947, 12.05854919, 41.3527408, 25.62817825,
                           27.01761767, 44.36171793, 23.18724332, 21.75219607, 50.07608394, 23.27013145, 12.38510294,
                           54.17857328, 21.79629273, 15.42803966, 54.50687769, 19.98705402, 12.74487252, 53.47527914,
                           22.53167906, 26.28198386, 50.6619148, 23.38069793, 28.48102898, 48.25612267, 27.19569266,
                           25.7565067, 51.83310019, 28.04156267, 27.96965392, 49.40821263, 28.39145441, 27.1428651,
                           40.95513515, 25.23456206, 27.51897461, 39.79892028, 27.66207922, 26.29954115, 37.75755015,
                           26.2022166, 29.00071195, 52.0780899, 22.83611537, 18.29134925, 51.1881473, 30.81342193,
                           18.71017989, 45.99359029, 31.5788239, 19.74555973, 43.58027113, 32.18922921, 22.39746574,
                           43.36009841, 32.04731473, 23.98056161, 45.57578145, 31.25562095, 22.88485355, 47.94186375,
                           30.64065655, 20.36296812, 48.19759324, 32.96098858, 23.46875558, 40.98068543, 32.9776879,
                           21.8498177, 38.71563215, 32.39688051, 19.20754673, 38.92783428, 31.75108262, 18.1119644,
                           41.41040042, 32.38510148, 17.70859001, 36.6883681, 32.89884869, 18.70388423, 34.28627015,
                           33.46045747, 21.32787429, 34.10603582, 33.50020544, 22.84413785, 36.26471359, 32.71084168,
                           26.57519902, 45.39430813, 33.51746054, 27.59229626, 43.0833912, 33.64071365, 26.05933156,
                           40.9078722, 30.26834315, 16.09166271, 46.16720061, 30.49746548, 14.47431826, 44.06910385,
                           31.23964841, 15.50757785, 41.72580743, 32.85245858, 17.05660123, 31.93007182, 30.0352396,
                           11.64386798, 44.33912194, 32.45644731, 10.16276856, 45.08627623, 29.83741229, 19.30937345,
                           50.74453249, 31.15944353, 24.13692378, 49.60598037, 33.86115259, 22.17547238, 32.24063318,
                           33.92403613, 24.86828461, 36.03931452, 32.60693264, 27.77144276, 47.1004289, 34.05705016,
                           29.60331272, 42.95688301, 34.27807476, 26.92308174, 39.12655219, 29.64722791, 15.28713696,
                           47.98302787, 31.38145507, 14.21615321, 40.10268471, 34.735737, 17.01308892, 30.98680081,
                           32.31443775, 15.0754773, 32.37170495, 31.48589123, 17.79122297, 30.50534659, 29.28049933,
                           10.88478084, 42.52649407, 28.54357618, 11.31799443, 45.78690148, 33.97269455, 10.41059171,
                           43.64975571, 33.2192207, 10.84125701, 46.92494523, 31.18221652, 17.84465276, 51.44063809,
                           27.94896357, 18.39273342, 50.64394079, 29.74125873, 20.82714016, 52.19033882, 32.06613232,
                           8.10297733, 45.26704002, 31.91846208, 15.68652669, 36.81860417],
              'id': 16,
              'identifiers': {'molecular_formula': 'C48H40',
                              'molecule_hash': 'c7032f6b2da4c5ceb2b85b46228cc9bc6b33b25c'},
              'masses': [12.0, 12.0, 12.0, 12.0, 12.0, 12.0, 12.0, 12.0, 12.0, 12.0, 12.0, 12.0, 12.0, 12.0, 12.0, 12.0,
                         12.0, 12.0, 12.0, 12.0, 12.0, 12.0, 12.0, 12.0, 1.00782503223, 1.00782503223, 1.00782503223,
                         1.00782503223, 1.00782503223, 1.00782503223, 1.00782503223, 1.00782503223, 1.00782503223,
                         1.00782503223, 1.00782503223, 1.00782503223, 1.00782503223, 1.00782503223, 1.00782503223,
                         1.00782503223, 1.00782503223, 1.00782503223, 1.00782503223, 1.00782503223, 12.0, 12.0, 12.0,
                         12.0, 12.0, 12.0, 12.0, 12.0, 12.0, 12.0, 12.0, 12.0, 12.0, 12.0, 12.0, 12.0, 12.0, 12.0, 12.0,
                         12.0, 12.0, 12.0, 12.0, 12.0, 1.00782503223, 1.00782503223, 1.00782503223, 1.00782503223,
                         1.00782503223, 1.00782503223, 1.00782503223, 1.00782503223, 1.00782503223, 1.00782503223,
                         1.00782503223, 1.00782503223, 1.00782503223, 1.00782503223, 1.00782503223, 1.00782503223,
                         1.00782503223, 1.00782503223, 1.00782503223, 1.00782503223],
              'molecular_charge': 0.0,
              'molecular_multiplicity': 1,
              'name': 'C48H40 ([0],[1])',
              'provenance': {'creator': 'QCElemental',
                             'routine': 'qcelemental.molparse.from_schema',
                             'version': '0.29.0'},
              'real': [True, True, True, True, True, True, True, True, True, True, True, True, True, True, True, True,
                       True, True, True, True, True, True, True, True, True, True, True, True, True, True, True, True,
                       True, True, True, True, True, True, True, True, True, True, True, True, False, False, False,
                       False, False, False, False, False, False, False, False, False, False, False, False, False, False,
                       False, False, False, False, False, False, False, False, False, False, False, False, False, False,
                       False, False, False, False, False, False, False, False, False, False, False, False, False],
              'schema_name': 'qcschema_molecule',
              'schema_version': 2,
              'symbols': ['C', 'C', 'C', 'C', 'C', 'C', 'C', 'C', 'C', 'C', 'C', 'C', 'C', 'C', 'C', 'C', 'C', 'C', 'C',
                          'C', 'C', 'C', 'C', 'C', 'H', 'H', 'H', 'H', 'H', 'H', 'H', 'H', 'H', 'H', 'H', 'H', 'H', 'H',
                          'H', 'H', 'H', 'H', 'H', 'H', 'C', 'C', 'C', 'C', 'C', 'C', 'C', 'C', 'C', 'C', 'C', 'C', 'C',
                          'C', 'C', 'C', 'C', 'C', 'C', 'C', 'C', 'C', 'C', 'C', 'H', 'H', 'H', 'H', 'H', 'H', 'H', 'H',
                          'H', 'H', 'H', 'H', 'H', 'H', 'H', 'H', 'H', 'H', 'H', 'H'],
              'validated': True},
 'protocols': {},
 'provenance': {'creator': 'QCElemental', 'routine': 'qcelemental.models.results', 'version': '0.29.0'},
 'schema_name': 'qcschema_input',
 'schema_version': 1}
--------------------------------------------------------------------------

Scratch directory: /tmp/tmp8rtmhqbl_psi_scratch/
   => Libint2 <=

    Primary   basis highest AM E, G, H:  6, 6, 3
    Auxiliary basis highest AM E, G, H:  7, 7, 4
    Onebody   basis highest AM E, G, H:  -, -, -
    Solid Harmonics ordering:            Gaussian

*** tstart() called on atl1-1-02-003-20-2.pace.gatech.edu
*** at Sat Jun 13 11:42:00 2026

   => Loading Basis Set <=

    Name: AUG-CC-PVTZ
    Role: ORBITAL
    Keyword: BASIS
    atoms 1-24, 45-68  entry C          line   239 file /storage/home/hcoda1/5/vlita3/.conda/envs/p4_qcml/share/psi4/basis/aug-cc-pvtz.gbs 
    atoms 25-44, 69-88 entry H          line    40 file /storage/home/hcoda1/5/vlita3/.conda/envs/p4_qcml/share/psi4/basis/aug-cc-pvtz.gbs 

   => PBE-D3: Empirical Dispersion <=

    Grimme's -D3 (zero-damping) Dispersion Correction
    Grimme S.; Antony J.; Ehrlich S.; Krieg H. (2010), J. Chem. Phys., 132: 154104

        s6 =       1.000000
        s8 =       0.722000
       sr6 =       1.217000
    alpha6 =      14.000000
       sr8 =       1.000000


         ---------------------------------------------------------
                                   SCF
               by Justin Turney, Rob Parrish, Andy Simmonett
                          and Daniel G. A. Smith
                              RKS Reference
                       10 Threads, 256000 MiB Core
         ---------------------------------------------------------

  ==> Geometry <==

    Molecular point group: c1
    Full point group: C1

    Geometry (in Bohr), charge = 0, multiplicity = 1:

       Center              X                  Y                   Z               Mass       
    ------------   -----------------  -----------------  -----------------  -----------------
         C           25.479637810000    23.083510490000    43.129689600000    12.000000000000
         C           24.896909540000    20.520123310000    43.887087000000    12.000000000000
         C           25.070571980000    18.486994040000    42.073536410000    12.000000000000
         C           25.842487700000    19.048809440000    39.520136630000    12.000000000000
         C           26.469036070000    21.614526750000    38.851995930000    12.000000000000
         C           26.303188210000    23.593300660000    40.544601030000    12.000000000000
         C           24.465771760000    15.927909200000    42.770360870000    12.000000000000
         C           23.768117170000    15.376956290000    45.408380810000    12.000000000000
         C           23.598594760000    17.388800580000    47.222658440000    12.000000000000
         C           24.108101800000    20.020076710000    46.443464130000    12.000000000000
         C           22.966940770000    16.772676120000    49.771927580000    12.000000000000
         C           22.510627380000    14.291306260000    50.585971850000    12.000000000000
         C           22.674270550000    12.321779990000    48.762315570000    12.000000000000
         C           23.279713060000    12.863093260000    46.252260430000    12.000000000000
         C           25.974674970000    17.072705200000    37.710681540000    12.000000000000
         C           25.347895860000    14.591234630000    38.394370830000    12.000000000000
         C           24.599697080000    14.027751800000    40.887843470000    12.000000000000
         C           25.200399920000    25.058872700000    44.921111260000    12.000000000000
         C           24.353210710000    24.595251030000    47.399460730000    12.000000000000
         C           23.840848770000    22.080992080000    48.127952370000    12.000000000000
         C           21.860468380000    13.695569320000    53.322351710000    12.000000000000
         C           24.045553830000    26.763706540000    49.278897730000    12.000000000000
         C           26.509156330000    27.411789790000    50.733751290000    12.000000000000
         C           26.931085990000    26.270948390000    39.723560460000    12.000000000000
         H           27.103115780000    21.981635650000    36.899069840000     1.007825032230
         H           22.322652990000    10.345837990000    49.336668340000     1.007825032230
         H           23.393720810000    11.283003050000    44.904895040000     1.007825032230
         H           26.576120380000    17.519739590000    35.765961340000     1.007825032230
         H           25.436649360000    13.062039060000    36.978008980000     1.007825032230
         H           24.120029470000    12.058549190000    41.352740800000     1.007825032230
         H           25.628178250000    27.017617670000    44.361717930000     1.007825032230
         H           23.187243320000    21.752196070000    50.076083940000     1.007825032230
         H           23.270131450000    12.385102940000    54.178573280000     1.007825032230
         H           21.796292730000    15.428039660000    54.506877690000     1.007825032230
         H           19.987054020000    12.744872520000    53.475279140000     1.007825032230
         H           22.531679060000    26.281983860000    50.661914800000     1.007825032230
         H           23.380697930000    28.481028980000    48.256122670000     1.007825032230
         H           27.195692660000    25.756506700000    51.833100190000     1.007825032230
         H           28.041562670000    27.969653920000    49.408212630000     1.007825032230
         H           28.391454410000    27.142865100000    40.955135150000     1.007825032230
         H           25.234562060000    27.518974610000    39.798920280000     1.007825032230
         H           27.662079220000    26.299541150000    37.757550150000     1.007825032230
         H           26.202216600000    29.000711950000    52.078089900000     1.007825032230
         H           22.836115370000    18.291349250000    51.188147300000     1.007825032230
      Gh(C)          30.813421930000    18.710179890000    45.993590290000    12.000000000000
      Gh(C)          31.578823900000    19.745559730000    43.580271130000    12.000000000000
      Gh(C)          32.189229210000    22.397465740000    43.360098410000    12.000000000000
      Gh(C)          32.047314730000    23.980561610000    45.575781450000    12.000000000000
      Gh(C)          31.255620950000    22.884853550000    47.941863750000    12.000000000000
      Gh(C)          30.640656550000    20.362968120000    48.197593240000    12.000000000000
      Gh(C)          32.960988580000    23.468755580000    40.980685430000    12.000000000000
      Gh(C)          32.977687900000    21.849817700000    38.715632150000    12.000000000000
      Gh(C)          32.396880510000    19.207546730000    38.927834280000    12.000000000000
      Gh(C)          31.751082620000    18.111964400000    41.410400420000    12.000000000000
      Gh(C)          32.385101480000    17.708590010000    36.688368100000    12.000000000000
      Gh(C)          32.898848690000    18.703884230000    34.286270150000    12.000000000000
      Gh(C)          33.460457470000    21.327874290000    34.106035820000    12.000000000000
      Gh(C)          33.500205440000    22.844137850000    36.264713590000    12.000000000000
      Gh(C)          32.710841680000    26.575199020000    45.394308130000    12.000000000000
      Gh(C)          33.517460540000    27.592296260000    43.083391200000    12.000000000000
      Gh(C)          33.640713650000    26.059331560000    40.907872200000    12.000000000000
      Gh(C)          30.268343150000    16.091662710000    46.167200610000    12.000000000000
      Gh(C)          30.497465480000    14.474318260000    44.069103850000    12.000000000000
      Gh(C)          31.239648410000    15.507577850000    41.725807430000    12.000000000000
      Gh(C)          32.852458580000    17.056601230000    31.930071820000    12.000000000000
      Gh(C)          30.035239600000    11.643867980000    44.339121940000    12.000000000000
      Gh(C)          32.456447310000    10.162768560000    45.086276230000    12.000000000000
      Gh(C)          29.837412290000    19.309373450000    50.744532490000    12.000000000000
      Gh(H)          31.159443530000    24.136923780000    49.605980370000     1.007825032230
      Gh(H)          33.861152590000    22.175472380000    32.240633180000     1.007825032230
      Gh(H)          33.924036130000    24.868284610000    36.039314520000     1.007825032230
      Gh(H)          32.606932640000    27.771442760000    47.100428900000     1.007825032230
      Gh(H)          34.057050160000    29.603312720000    42.956883010000     1.007825032230
      Gh(H)          34.278074760000    26.923081740000    39.126552190000     1.007825032230
      Gh(H)          29.647227910000    15.287136960000    47.983027870000     1.007825032230
      Gh(H)          31.381455070000    14.216153210000    40.102684710000     1.007825032230
      Gh(H)          34.735737000000    17.013088920000    30.986800810000     1.007825032230
      Gh(H)          32.314437750000    15.075477300000    32.371704950000     1.007825032230
      Gh(H)          31.485891230000    17.791222970000    30.505346590000     1.007825032230
      Gh(H)          29.280499330000    10.884780840000    42.526494070000     1.007825032230
      Gh(H)          28.543576180000    11.317994430000    45.786901480000     1.007825032230
      Gh(H)          33.972694550000    10.410591710000    43.649755710000     1.007825032230
      Gh(H)          33.219220700000    10.841257010000    46.924945230000     1.007825032230
      Gh(H)          31.182216520000    17.844652760000    51.440638090000     1.007825032230
      Gh(H)          27.948963570000    18.392733420000    50.643940790000     1.007825032230
      Gh(H)          29.741258730000    20.827140160000    52.190338820000     1.007825032230
      Gh(H)          32.066132320000     8.102977330000    45.267040020000     1.007825032230
      Gh(H)          31.918462080000    15.686526690000    36.818604170000     1.007825032230

  Running in c1 symmetry.

  Rotational constants: A =      0.00210  B =      0.00003  C =      0.00003 [cm^-1]
  Rotational constants: A =     62.96897  B =      0.94325  C =      0.93874 [MHz]
  Nuclear repulsion = 1863.800486968835230

  Charge       = 0
  Multiplicity = 1
  Electrons    = 164
  Nalpha       = 82
  Nbeta        = 82

  ==> Algorithm <==

  SCF Algorithm Type is DF.
  DIIS enabled.
  MOM disabled.
  Fractional occupation disabled.
  Guess Type is SAD.
  Energy threshold   = 1.00e-06
  Density threshold  = 1.00e-06
  Integral threshold = 1.00e-12

  ==> Primary Basis <==

  Basis Set: AUG-CC-PVTZ
    Blend: AUG-CC-PVTZ
    Number of shells: 1032
    Number of basis functions: 3128
    Number of Cartesian functions: 3640
    Spherical Harmonics?: true
    Max angular momentum: 3

  ==> DFT Potential <==

   => LibXC <=

    Version 7.0.0
    S. Lehtola, C. Steigemann, M. J.T. Oliveira, and M. A.L. Marques.,  SoftwareX 7, 1–5 (2018) (10.1016/j.softx.2017.11.002)

   => Composite Functional: PBE-D3ZERO2B <= 

    PBE GGA Exchange-Correlation Functional

    J.P. Perdew et. al., Phys. Rev. Lett., 77(18), 3865-3868, 1996


    Deriv               =              1
    GGA                 =           TRUE
    Meta                =          FALSE

    Exchange Hybrid     =          FALSE
    MP2 Hybrid          =          FALSE

   => Exchange Functionals <=

    1.0000     XC_GGA_X_PBE

   => Correlation Functionals <=

    1.0000     XC_GGA_C_PBE

   => LibXC Density Thresholds  <==

    XC_GGA_C_PBE:  1.00E-12 
    XC_GGA_X_PBE:  1.00E-15 

   => Molecular Quadrature <=

    Radial Scheme          =       TREUTLER
    Pruning Scheme         =           NONE
    Nuclear Scheme         =       TREUTLER

    Blocking Scheme        =         OCTREE
    BS radius alpha        =              1
    Pruning alpha          =              1
    Radial Points          =             75
    Spherical Points       =            302
    Total Points           =        1755895
    Total Blocks           =          12038
    Max Points             =            256
    Max Functions          =           2202
    Weights Tolerance      =       1.00E-15

   => Loading Basis Set <=

    Name: (AUG-CC-PVTZ AUX)
    Role: JKFIT
    Keyword: DF_BASIS_SCF
    atoms 1-24, 45-68  entry C          line   162 file /storage/home/hcoda1/5/vlita3/.conda/envs/p4_qcml/share/psi4/basis/aug-cc-pvtz-jkfit.gbs 
    atoms 25-44, 69-88 entry H          line    70 file /storage/home/hcoda1/5/vlita3/.conda/envs/p4_qcml/share/psi4/basis/aug-cc-pvtz-jkfit.gbs 

  ==> Integral Setup <==

  ==> DiskDFJK: Density-Fitted J/K Matrices <==

    J tasked:                  Yes
    K tasked:                   No
    wK tasked:                  No
    OpenMP threads:             10
    Integrals threads:          10
    Memory [MiB]:           172800
    Algorithm:                Disk
    Integral Cache:           NONE
    Schwarz Cutoff:          1E-12
    Fitting Condition:       1E-10

   => Auxiliary Basis Set <=

  Basis Set: (AUG-CC-PVTZ AUX)
    Blend: AUG-CC-PVTZ-JKFIT
    Number of shells: 2000
    Number of basis functions: 6832
    Number of Cartesian functions: 8488
    Spherical Harmonics?: true
    Max angular momentum: 4

  Minimum eigenvalue in the overlap matrix is 6.3711160731E-10.
  Reciprocal condition number of the overlap matrix is 1.7895063395E-11.
    Using canonical orthogonalization.
  Overall, 29 of 3128 possible MOs eliminated.


  ==> Pre-Iterations <==

  SCF Guess: Superposition of Atomic Densities via on-the-fly atomic UHF (no occupation information).

   -------------------------
    Irrep   Nso     Nmo    
   -------------------------
     A       3128    3099 
   -------------------------
    Total    3128    3099
   -------------------------

  ==> Iterations <==

                           Total Energy        Delta E     RMS |[F,P]|

   @DF-RKS iter SAD:  -924.72362526334621   -9.24724e+02   0.00000e+00 
   @DF-RKS iter   1:  -923.39280061530951    1.33082e+00   6.75118e-04 DIIS/ADIIS
   @DF-RKS iter   2:  -910.22724817258552    1.31656e+01   1.46742e-03 DIIS/ADIIS
   @DF-RKS iter   3:  -924.32699496039720   -1.40997e+01   4.98959e-04 DIIS/ADIIS
   @DF-RKS iter   4:  -925.33383981634768   -1.00684e+00   2.87696e-04 DIIS/ADIIS
   @DF-RKS iter   5:  -925.70204425306383   -3.68204e-01   1.35084e-04 DIIS/ADIIS
   @DF-RKS iter   6:  -925.77902632136977   -7.69821e-02   5.72019e-05 DIIS
   @DF-RKS iter   7:  -925.78867340509726   -9.64708e-03   3.60038e-05 DIIS
   @DF-RKS iter   8:  -925.79585083154723   -7.17743e-03   7.88347e-06 DIIS
   @DF-RKS iter   9:  -925.79611196750182   -2.61136e-04   4.36353e-06 DIIS
   @DF-RKS iter  10:  -925.79620908558252   -9.71181e-05   9.95513e-07 DIIS
   @DF-RKS iter  11:  -925.79621198075711   -2.89517e-06   6.29960e-07 DIIS
   @DF-RKS iter  12:  -925.79621400955318   -2.02880e-06   2.61241e-07 DIIS
   @DF-RKS iter  13:  -925.79621442436951   -4.14816e-07   5.16145e-08 DIIS
  Energy and wave function converged.


  ==> Post-Iterations <==

   Electrons on quadrature grid:
      Ntotal   =  164.0007801574 ; deviation = 7.802e-04 

    Orbital Energies [Eh]
    ---------------------

    Doubly Occupied:                                                      

       1A     -9.909874     2A     -9.909435     3A     -9.908507  
       4A     -9.907980     5A     -9.907452     6A     -9.907281  
       7A     -9.906846     8A     -9.906327     9A     -9.905472  
      10A     -9.904502    11A     -9.903968    12A     -9.898593  
      13A     -9.896535    14A     -9.895732    15A     -9.894818  
      16A     -9.894809    17A     -9.894492    18A     -9.894110  
      19A     -9.893650    20A     -9.893054    21A     -9.892809  
      22A     -9.892623    23A     -9.891727    24A     -9.886390  
      25A     -0.809928    26A     -0.779618    27A     -0.772257  
      28A     -0.743696    29A     -0.727761    30A     -0.707367  
      31A     -0.691286    32A     -0.687398    33A     -0.672675  
      34A     -0.649586    35A     -0.644013    36A     -0.618704  
      37A     -0.617005    38A     -0.577109    39A     -0.567819  
      40A     -0.551271    41A     -0.549037    42A     -0.537448  
      43A     -0.517653    44A     -0.484681    45A     -0.476972  
      46A     -0.465614    47A     -0.449017    48A     -0.438451  
      49A     -0.418080    50A     -0.415133    51A     -0.407503  
      52A     -0.397925    53A     -0.395513    54A     -0.384858  
      55A     -0.380607    56A     -0.374992    57A     -0.374243  
      58A     -0.369179    59A     -0.367887    60A     -0.360854  
      61A     -0.359217    62A     -0.354037    63A     -0.341314  
      64A     -0.340326    65A     -0.336251    66A     -0.331218  
      67A     -0.323611    68A     -0.321358    69A     -0.318333  
      70A     -0.314989    71A     -0.306907    72A     -0.302612  
      73A     -0.298191    74A     -0.276472    75A     -0.275546  
      76A     -0.274670    77A     -0.258269    78A     -0.257377  
      79A     -0.220871    80A     -0.220577    81A     -0.198792  
      82A     -0.184081  

    Virtual:                                                              

      83A     -0.086441    84A     -0.071265    85A     -0.056450  
      86A     -0.048534    87A     -0.023893    88A     -0.017188  
      89A     -0.015215    90A     -0.009600    91A     -0.007167  
      92A     -0.003174    93A     -0.002591    94A      0.001011  
      95A      0.005988    96A      0.009299    97A      0.010839  
      98A      0.013112    99A      0.015731   100A      0.018194  
     101A      0.021353   102A      0.025756   103A      0.026617  
     104A      0.027038   105A      0.029253   106A      0.031100  
     107A      0.033155   108A      0.034459   109A      0.035329  
     110A      0.038719   111A      0.040359   112A      0.041258  
     113A      0.042642   114A      0.044680   115A      0.046312  
     116A      0.049541   117A      0.050465   118A      0.051972  
     119A      0.052832   120A      0.053490   121A      0.055311  
     122A      0.055902   123A      0.058445   124A      0.059844  
     125A      0.061027   126A      0.063705   127A      0.064620  
     128A      0.066720   129A      0.069145   130A      0.070148  
     131A      0.071078   132A      0.071739   133A      0.072947  
     134A      0.073958   135A      0.074892   136A      0.076217  
     137A      0.076721   138A      0.078616   139A      0.080754  
     140A      0.081854   141A      0.082704   142A      0.083826  
     143A      0.084360   144A      0.086763   145A      0.087293  
     146A      0.089119   147A      0.091298   148A      0.092176  
     149A      0.092708   150A      0.093478   151A      0.095547  
     152A      0.096669   153A      0.096754   154A      0.097586  
     155A      0.097900   156A      0.100755   157A      0.102291  
     158A      0.103445   159A      0.103581   160A      0.105711  
     161A      0.106456   162A      0.107456   163A      0.108079  
     164A      0.109780   165A      0.111111   166A      0.112925  
     167A      0.114172   168A      0.114623   169A      0.115013  
     170A      0.118607   171A      0.119621   172A      0.120320  
     173A      0.121544   174A      0.124158   175A      0.125099  
     176A      0.125554   177A      0.126613   178A      0.127886  
     179A      0.128312   180A      0.130104   181A      0.130627  
     182A      0.131698   183A      0.134038   184A      0.135864  
     185A      0.136995   186A      0.138039   187A      0.140414  
     188A      0.142222   189A      0.142878   190A      0.144863  
     191A      0.145288   192A      0.146887   193A      0.148033  
     194A      0.150161   195A      0.150824   196A      0.151361  
     197A      0.151958   198A      0.153898   199A      0.154451  
     200A      0.156131   201A      0.157005   202A      0.158054  
     203A      0.159557   204A      0.160137   205A      0.161760  
     206A      0.163341   207A      0.164215   208A      0.164871  
     209A      0.165904   210A      0.167974   211A      0.168659  
     212A      0.170037   213A      0.172041   214A      0.172435  
     215A      0.174635   216A      0.175753   217A      0.177039  
     218A      0.178336   219A      0.179519   220A      0.180611  
     221A      0.181121   222A      0.181920   223A      0.183128  
     224A      0.184020   225A      0.185310   226A      0.186310  
     227A      0.187212   228A      0.188675   229A      0.190175  
     230A      0.190986   231A      0.192286   232A      0.193582  
     233A      0.193717   234A      0.194622   235A      0.196543  
     236A      0.196883   237A      0.199621   238A      0.199906  
     239A      0.201771   240A      0.202119   241A      0.203060  
     242A      0.203796   243A      0.205079   244A      0.205318  
     245A      0.206214   246A      0.207904   247A      0.208267  
     248A      0.209256   249A      0.210140   250A      0.211652  
     251A      0.212389   252A      0.213327   253A      0.214947  
     254A      0.215384   255A      0.215957   256A      0.218798  
     257A      0.219074   258A      0.219770   259A      0.220798  
     260A      0.221242   261A      0.223520   262A      0.224289  
     263A      0.225462   264A      0.227735   265A      0.228269  
     266A      0.229699   267A      0.230666   268A      0.231964  
     269A      0.232328   270A      0.234727   271A      0.236031  
     272A      0.237402   273A      0.238127   274A      0.239479  
     275A      0.240815   276A      0.242143   277A      0.242681  
     278A      0.243777   279A      0.244045   280A      0.245052  
     281A      0.248678   282A      0.249234   283A      0.249650  
     284A      0.249915   285A      0.251896   286A      0.253175  
     287A      0.254121   288A      0.254496   289A      0.255981  
     290A      0.256399   291A      0.257830   292A      0.258361  
     293A      0.259801   294A      0.261205   295A      0.262169  
     296A      0.264280   297A      0.264546   298A      0.265702  
     299A      0.266579   300A      0.268780   301A      0.269396  
     302A      0.271937   303A      0.272758   304A      0.273495  
     305A      0.274243   306A      0.276442   307A      0.276884  
     308A      0.278253   309A      0.279509   310A      0.281340  
     311A      0.282412   312A      0.284225   313A      0.285158  
     314A      0.286835   315A      0.287294   316A      0.289169  
     317A      0.290357   318A      0.291364   319A      0.293391  
     320A      0.294675   321A      0.295196   322A      0.296004  
     323A      0.296890   324A      0.298346   325A      0.300134  
     326A      0.302727   327A      0.303186   328A      0.303874  
     329A      0.304899   330A      0.305369   331A      0.306357  
     332A      0.306910   333A      0.308737   334A      0.309917  
     335A      0.312542   336A      0.313106   337A      0.314261  
     338A      0.315479   339A      0.317732   340A      0.319211  
     341A      0.319463   342A      0.320970   343A      0.322024  
     344A      0.323408   345A      0.324281   346A      0.324916  
     347A      0.326248   348A      0.327631   349A      0.328029  
     350A      0.330972   351A      0.332072   352A      0.333665  
     353A      0.335174   354A      0.336089   355A      0.338424  
     356A      0.339892   357A      0.342142   358A      0.343159  
     359A      0.343984   360A      0.346241   361A      0.347905  
     362A      0.349615   363A      0.350433   364A      0.351879  
     365A      0.354122   366A      0.354723   367A      0.356671  
     368A      0.357944   369A      0.360069   370A      0.360847  
     371A      0.362353   372A      0.363067   373A      0.364316  
     374A      0.364508   375A      0.366056   376A      0.367801  
     377A      0.368953   378A      0.369289   379A      0.370267  
     380A      0.372495   381A      0.372678   382A      0.375589  
     383A      0.376079   384A      0.376894   385A      0.378267  
     386A      0.380754   387A      0.381692   388A      0.383177  
     389A      0.385984   390A      0.386648   391A      0.387951  
     392A      0.388573   393A      0.390010   394A      0.391242  
     395A      0.392464   396A      0.394193   397A      0.395474  
     398A      0.396738   399A      0.398337   400A      0.398845  
     401A      0.400488   402A      0.401649   403A      0.404241  
     404A      0.404923   405A      0.406851   406A      0.406990  
     407A      0.407632   408A      0.407858   409A      0.409513  
     410A      0.410408   411A      0.412301   412A      0.413825  
     413A      0.414749   414A      0.415363   415A      0.416582  
     416A      0.417502   417A      0.417631   418A      0.419212  
     419A      0.421224   420A      0.422627   421A      0.424089  
     422A      0.424690   423A      0.425872   424A      0.426442  
     425A      0.427982   426A      0.429822   427A      0.430785  
     428A      0.432169   429A      0.433219   430A      0.434693  
     431A      0.435230   432A      0.435871   433A      0.437481  
     434A      0.437714   435A      0.439266   436A      0.439687  
     437A      0.441104   438A      0.442415   439A      0.444599  
     440A      0.445506   441A      0.446702   442A      0.447667  
     443A      0.448193   444A      0.449438   445A      0.450308  
     446A      0.451201   447A      0.452309   448A      0.454992  
     449A      0.456933   450A      0.458133   451A      0.458979  
     452A      0.459631   453A      0.462109   454A      0.462439  
     455A      0.463183   456A      0.464750   457A      0.466023  
     458A      0.467352   459A      0.468630   460A      0.469710  
     461A      0.470777   462A      0.471423   463A      0.472957  
     464A      0.474079   465A      0.475520   466A      0.476271  
     467A      0.476746   468A      0.477954   469A      0.480121  
     470A      0.480698   471A      0.481282   472A      0.482169  
     473A      0.484683   474A      0.485516   475A      0.486496  
     476A      0.487550   477A      0.489008   478A      0.490278  
     479A      0.490566   480A      0.491980   481A      0.493048  
     482A      0.493595   483A      0.495802   484A      0.496764  
     485A      0.498728   486A      0.500213   487A      0.501296  
     488A      0.502147   489A      0.503327   490A      0.504573  
     491A      0.505251   492A      0.506886   493A      0.508266  
     494A      0.509972   495A      0.511638   496A      0.512403  
     497A      0.513632   498A      0.514172   499A      0.515717  
     500A      0.516179   501A      0.519043   502A      0.519717  
     503A      0.520601   504A      0.521597   505A      0.523133  
     506A      0.525228   507A      0.528557   508A      0.529810  
     509A      0.530606   510A      0.531616   511A      0.534626  
     512A      0.534858   513A      0.536665   514A      0.537955  
     515A      0.538786   516A      0.540385   517A      0.542043  
     518A      0.543054   519A      0.544267   520A      0.544841  
     521A      0.546312   522A      0.547375   523A      0.548967  
     524A      0.549915   525A      0.551308   526A      0.554525  
     527A      0.555382   528A      0.555863   529A      0.557179  
     530A      0.557508   531A      0.558464   532A      0.561092  
     533A      0.562805   534A      0.563536   535A      0.565407  
     536A      0.566025   537A      0.568847   538A      0.570264  
     539A      0.571107   540A      0.571730   541A      0.573521  
     542A      0.574744   543A      0.575511   544A      0.576734  
     545A      0.580295   546A      0.582127   547A      0.583062  
     548A      0.583870   549A      0.584358   550A      0.584898  
     551A      0.586211   552A      0.587929   553A      0.591149  
     554A      0.591584   555A      0.591982   556A      0.593921  
     557A      0.595101   558A      0.596430   559A      0.596755  
     560A      0.599104   561A      0.600171   562A      0.603660  
     563A      0.605608   564A      0.606557   565A      0.607712  
     566A      0.609984   567A      0.610317   568A      0.611579  
     569A      0.614505   570A      0.615951   571A      0.617592  
     572A      0.618327   573A      0.619165   574A      0.621694  
     575A      0.622666   576A      0.625992   577A      0.626829  
     578A      0.627198   579A      0.628851   580A      0.629984  
     581A      0.631622   582A      0.632589   583A      0.634475  
     584A      0.636335   585A      0.637081   586A      0.638587  
     587A      0.640189   588A      0.641674   589A      0.642288  
     590A      0.646250   591A      0.647190   592A      0.648709  
     593A      0.649092   594A      0.651547   595A      0.651845  
     596A      0.654403   597A      0.655784   598A      0.657916  
     599A      0.658658   600A      0.660624   601A      0.661949  
     602A      0.663286   603A      0.664872   604A      0.666799  
     605A      0.668350   606A      0.669364   607A      0.670906  
     608A      0.671405   609A      0.673333   610A      0.674280  
     611A      0.674917   612A      0.675258   613A      0.676730  
     614A      0.679869   615A      0.680587   616A      0.681890  
     617A      0.683974   618A      0.685445   619A      0.686858  
     620A      0.687337   621A      0.688863   622A      0.690041  
     623A      0.692428   624A      0.692678   625A      0.694867  
     626A      0.695983   627A      0.696673   628A      0.697675  
     629A      0.698799   630A      0.700145   631A      0.701396  
     632A      0.702685   633A      0.705922   634A      0.707375  
     635A      0.710191   636A      0.710574   637A      0.712939  
     638A      0.713765   639A      0.714992   640A      0.716197  
     641A      0.716835   642A      0.718749   643A      0.721013  
     644A      0.721956   645A      0.722728   646A      0.723928  
     647A      0.724184   648A      0.725577   649A      0.727375  
     650A      0.728326   651A      0.729923   652A      0.731075  
     653A      0.732454   654A      0.736389   655A      0.737150  
     656A      0.738705   657A      0.740528   658A      0.741061  
     659A      0.742554   660A      0.744290   661A      0.744867  
     662A      0.745564   663A      0.747395   664A      0.748553  
     665A      0.749359   666A      0.752377   667A      0.753649  
     668A      0.754614   669A      0.756195   670A      0.758155  
     671A      0.758969   672A      0.759784   673A      0.761404  
     674A      0.762946   675A      0.763420   676A      0.763828  
     677A      0.766756   678A      0.768024   679A      0.769345  
     680A      0.772217   681A      0.773164   682A      0.774097  
     683A      0.775281   684A      0.777520   685A      0.777787  
     686A      0.779558   687A      0.782234   688A      0.782806  
     689A      0.783437   690A      0.784311   691A      0.785770  
     692A      0.787238   693A      0.788465   694A      0.789975  
     695A      0.791617   696A      0.793040   697A      0.794807  
     698A      0.796967   699A      0.799480   700A      0.800333  
     701A      0.800865   702A      0.802534   703A      0.803384  
     704A      0.805611   705A      0.806755   706A      0.808049  
     707A      0.809407   708A      0.812163   709A      0.813435  
     710A      0.814484   711A      0.814681   712A      0.815976  
     713A      0.816967   714A      0.819242   715A      0.820049  
     716A      0.821031   717A      0.823794   718A      0.824232  
     719A      0.825247   720A      0.825895   721A      0.828429  
     722A      0.829241   723A      0.831262   724A      0.833802  
     725A      0.834759   726A      0.836928   727A      0.839512  
     728A      0.840606   729A      0.841011   730A      0.842040  
     731A      0.844687   732A      0.844987   733A      0.846194  
     734A      0.847981   735A      0.849043   736A      0.850284  
     737A      0.851412   738A      0.852151   739A      0.852840  
     740A      0.853344   741A      0.855622   742A      0.857377  
     743A      0.857518   744A      0.859844   745A      0.863316  
     746A      0.863643   747A      0.864557   748A      0.865838  
     749A      0.867326   750A      0.868189   751A      0.868523  
     752A      0.872409   753A      0.873382   754A      0.874061  
     755A      0.875497   756A      0.877427   757A      0.877783  
     758A      0.879071   759A      0.881787   760A      0.883321  
     761A      0.884605   762A      0.885564   763A      0.887972  
     764A      0.889824   765A      0.890317   766A      0.891965  
     767A      0.894026   768A      0.895490   769A      0.896686  
     770A      0.898296   771A      0.900759   772A      0.902155  
     773A      0.903527   774A      0.904891   775A      0.906619  
     776A      0.907746   777A      0.910612   778A      0.910841  
     779A      0.911653   780A      0.913938   781A      0.914502  
     782A      0.917965   783A      0.918015   784A      0.919467  
     785A      0.920370   786A      0.920909   787A      0.921648  
     788A      0.925696   789A      0.926947   790A      0.928578  
     791A      0.931268   792A      0.932988   793A      0.933366  
     794A      0.933882   795A      0.935296   796A      0.935872  
     797A      0.935984   798A      0.938982   799A      0.940893  
     800A      0.942068   801A      0.943580   802A      0.944407  
     803A      0.946284   804A      0.949077   805A      0.949845  
     806A      0.951719   807A      0.953295   808A      0.956222  
     809A      0.957558   810A      0.959189   811A      0.961265  
     812A      0.962036   813A      0.963889   814A      0.965448  
     815A      0.966416   816A      0.968804   817A      0.971121  
     818A      0.972870   819A      0.973730   820A      0.975585  
     821A      0.976739   822A      0.978459   823A      0.980895  
     824A      0.981348   825A      0.982042   826A      0.985063  
     827A      0.985625   828A      0.986839   829A      0.988007  
     830A      0.989498   831A      0.991455   832A      0.992824  
     833A      0.993751   834A      0.995291   835A      0.996786  
     836A      0.998285   837A      0.998793   838A      1.001031  
     839A      1.003304   840A      1.004997   841A      1.006778  
     842A      1.007839   843A      1.009064   844A      1.010209  
     845A      1.011301   846A      1.014061   847A      1.014397  
     848A      1.017337   849A      1.017885   850A      1.020076  
     851A      1.021594   852A      1.023459   853A      1.024504  
     854A      1.027810   855A      1.028403   856A      1.029032  
     857A      1.029598   858A      1.031158   859A      1.035202  
     860A      1.035669   861A      1.037440   862A      1.038208  
     863A      1.040494   864A      1.042540   865A      1.044415  
     866A      1.044912   867A      1.045947   868A      1.046227  
     869A      1.047316   870A      1.051192   871A      1.053113  
     872A      1.054990   873A      1.057248   874A      1.057871  
     875A      1.060009   876A      1.060513   877A      1.061903  
     878A      1.063268   879A      1.065179   880A      1.066675  
     881A      1.068273   882A      1.069121   883A      1.072155  
     884A      1.072888   885A      1.074918   886A      1.075933  
     887A      1.077820   888A      1.078919   889A      1.079985  
     890A      1.080371   891A      1.082542   892A      1.083068  
     893A      1.086294   894A      1.086790   895A      1.088626  
     896A      1.089706   897A      1.091273   898A      1.093257  
     899A      1.096125   900A      1.096736   901A      1.098615  
     902A      1.100550   903A      1.101203   904A      1.104538  
     905A      1.105306   906A      1.106680   907A      1.107609  
     908A      1.110163   909A      1.111792   910A      1.112954  
     911A      1.113844   912A      1.116770   913A      1.118029  
     914A      1.118139   915A      1.120139   916A      1.122286  
     917A      1.124610   918A      1.124874   919A      1.126588  
     920A      1.127020   921A      1.129821   922A      1.131841  
     923A      1.134238   924A      1.135801   925A      1.137123  
     926A      1.138365   927A      1.139797   928A      1.141269  
     929A      1.142786   930A      1.143499   931A      1.145833  
     932A      1.147460   933A      1.149121   934A      1.150135  
     935A      1.154902   936A      1.155677   937A      1.157656  
     938A      1.159005   939A      1.160866   940A      1.161903  
     941A      1.163353   942A      1.164978   943A      1.166099  
     944A      1.167170   945A      1.169145   946A      1.169593  
     947A      1.171935   948A      1.172850   949A      1.176147  
     950A      1.178596   951A      1.180977   952A      1.181822  
     953A      1.183070   954A      1.184996   955A      1.185697  
     956A      1.187564   957A      1.190416   958A      1.191794  
     959A      1.194945   960A      1.195595   961A      1.196213  
     962A      1.197659   963A      1.199113   964A      1.199973  
     965A      1.202636   966A      1.203238   967A      1.204302  
     968A      1.205672   969A      1.207460   970A      1.208920  
     971A      1.210149   972A      1.212760   973A      1.214043  
     974A      1.216361   975A      1.218303   976A      1.218906  
     977A      1.220934   978A      1.223464   979A      1.224495  
     980A      1.225487   981A      1.227005   982A      1.228816  
     983A      1.229425   984A      1.231336   985A      1.232567  
     986A      1.233784   987A      1.235940   988A      1.238228  
     989A      1.240587   990A      1.241124   991A      1.242850  
     992A      1.244894   993A      1.245906   994A      1.248065  
     995A      1.249964   996A      1.250230   997A      1.251899  
     998A      1.253629   999A      1.254489  1000A      1.255851  
    1001A      1.256616  1002A      1.258777  1003A      1.260023  
    1004A      1.261447  1005A      1.261882  1006A      1.264341  
    1007A      1.264888  1008A      1.269537  1009A      1.269779  
    1010A      1.270307  1011A      1.272124  1012A      1.274484  
    1013A      1.275641  1014A      1.277379  1015A      1.278560  
    1016A      1.279742  1017A      1.282199  1018A      1.282632  
    1019A      1.285030  1020A      1.286888  1021A      1.287500  
    1022A      1.289617  1023A      1.290658  1024A      1.291383  
    1025A      1.294689  1026A      1.296834  1027A      1.297367  
    1028A      1.298015  1029A      1.300085  1030A      1.300890  
    1031A      1.304779  1032A      1.305532  1033A      1.306047  
    1034A      1.308934  1035A      1.310026  1036A      1.310455  
    1037A      1.312408  1038A      1.314135  1039A      1.316189  
    1040A      1.317980  1041A      1.319652  1042A      1.319964  
    1043A      1.321049  1044A      1.322617  1045A      1.323894  
    1046A      1.326157  1047A      1.330030  1048A      1.331627  
    1049A      1.331684  1050A      1.333876  1051A      1.334736  
    1052A      1.335796  1053A      1.336270  1054A      1.338720  
    1055A      1.340632  1056A      1.341885  1057A      1.344418  
    1058A      1.344918  1059A      1.346088  1060A      1.347921  
    1061A      1.350886  1062A      1.351208  1063A      1.352280  
    1064A      1.354681  1065A      1.358181  1066A      1.359071  
    1067A      1.359510  1068A      1.360562  1069A      1.361349  
    1070A      1.363470  1071A      1.366210  1072A      1.369403  
    1073A      1.369742  1074A      1.370058  1075A      1.372105  
    1076A      1.372755  1077A      1.374162  1078A      1.375001  
    1079A      1.376546  1080A      1.378411  1081A      1.380692  
    1082A      1.381906  1083A      1.383343  1084A      1.385660  
    1085A      1.386832  1086A      1.388129  1087A      1.388974  
    1088A      1.390432  1089A      1.392011  1090A      1.393581  
    1091A      1.394296  1092A      1.397219  1093A      1.399495  
    1094A      1.400203  1095A      1.402160  1096A      1.402401  
    1097A      1.404629  1098A      1.405635  1099A      1.408824  
    1100A      1.409325  1101A      1.409984  1102A      1.412015  
    1103A      1.413367  1104A      1.414338  1105A      1.414715  
    1106A      1.416751  1107A      1.419274  1108A      1.419896  
    1109A      1.420378  1110A      1.422236  1111A      1.423448  
    1112A      1.425708  1113A      1.427472  1114A      1.428508  
    1115A      1.429757  1116A      1.430900  1117A      1.434142  
    1118A      1.435216  1119A      1.435906  1120A      1.436700  
    1121A      1.439084  1122A      1.439193  1123A      1.440667  
    1124A      1.443598  1125A      1.444919  1126A      1.446587  
    1127A      1.447128  1128A      1.449673  1129A      1.452444  
    1130A      1.453076  1131A      1.454534  1132A      1.456202  
    1133A      1.457676  1134A      1.459918  1135A      1.461722  
    1136A      1.462793  1137A      1.463610  1138A      1.464791  
    1139A      1.466268  1140A      1.468696  1141A      1.470499  
    1142A      1.472902  1143A      1.473896  1144A      1.475104  
    1145A      1.477444  1146A      1.478154  1147A      1.479329  
    1148A      1.481040  1149A      1.482293  1150A      1.483306  
    1151A      1.484158  1152A      1.486813  1153A      1.488031  
    1154A      1.489677  1155A      1.491674  1156A      1.491994  
    1157A      1.493588  1158A      1.494865  1159A      1.495797  
    1160A      1.499872  1161A      1.501827  1162A      1.503607  
    1163A      1.504247  1164A      1.505163  1165A      1.507879  
    1166A      1.508427  1167A      1.510456  1168A      1.511330  
    1169A      1.514325  1170A      1.514749  1171A      1.515570  
    1172A      1.518646  1173A      1.519618  1174A      1.520842  
    1175A      1.522053  1176A      1.525520  1177A      1.526306  
    1178A      1.528677  1179A      1.529409  1180A      1.529867  
    1181A      1.531484  1182A      1.532380  1183A      1.533336  
    1184A      1.535916  1185A      1.537038  1186A      1.538742  
    1187A      1.539696  1188A      1.541074  1189A      1.543749  
    1190A      1.544795  1191A      1.546448  1192A      1.547958  
    1193A      1.549440  1194A      1.550602  1195A      1.552097  
    1196A      1.553225  1197A      1.555505  1198A      1.556689  
    1199A      1.558510  1200A      1.560563  1201A      1.562619  
    1202A      1.564944  1203A      1.566112  1204A      1.566777  
    1205A      1.569480  1206A      1.570717  1207A      1.571069  
    1208A      1.574242  1209A      1.574540  1210A      1.575241  
    1211A      1.578185  1212A      1.579692  1213A      1.580452  
    1214A      1.581983  1215A      1.584189  1216A      1.587402  
    1217A      1.588387  1218A      1.589920  1219A      1.591174  
    1220A      1.591873  1221A      1.593421  1222A      1.594982  
    1223A      1.597370  1224A      1.598783  1225A      1.602604  
    1226A      1.603308  1227A      1.603929  1228A      1.605262  
    1229A      1.607944  1230A      1.607947  1231A      1.609883  
    1232A      1.612109  1233A      1.613055  1234A      1.613604  
    1235A      1.616615  1236A      1.618297  1237A      1.620780  
    1238A      1.621445  1239A      1.622035  1240A      1.624117  
    1241A      1.625688  1242A      1.628426  1243A      1.629966  
    1244A      1.630805  1245A      1.632389  1246A      1.633906  
    1247A      1.634936  1248A      1.639270  1249A      1.640235  
    1250A      1.640982  1251A      1.643322  1252A      1.644590  
    1253A      1.645826  1254A      1.646867  1255A      1.648635  
    1256A      1.650316  1257A      1.654418  1258A      1.655279  
    1259A      1.656473  1260A      1.657530  1261A      1.658749  
    1262A      1.660575  1263A      1.661507  1264A      1.665186  
    1265A      1.666025  1266A      1.667839  1267A      1.670018  
    1268A      1.670860  1269A      1.674726  1270A      1.675244  
    1271A      1.676717  1272A      1.679042  1273A      1.680152  
    1274A      1.680481  1275A      1.682607  1276A      1.685750  
    1277A      1.686155  1278A      1.688056  1279A      1.689382  
    1280A      1.690921  1281A      1.693784  1282A      1.694793  
    1283A      1.696263  1284A      1.698278  1285A      1.701746  
    1286A      1.703115  1287A      1.703598  1288A      1.704753  
    1289A      1.706282  1290A      1.707487  1291A      1.710154  
    1292A      1.711774  1293A      1.714014  1294A      1.717007  
    1295A      1.717593  1296A      1.721601  1297A      1.722105  
    1298A      1.723667  1299A      1.724564  1300A      1.726356  
    1301A      1.728842  1302A      1.729304  1303A      1.730206  
    1304A      1.731618  1305A      1.732911  1306A      1.735621  
    1307A      1.736823  1308A      1.740757  1309A      1.741149  
    1310A      1.744308  1311A      1.745377  1312A      1.746951  
    1313A      1.748788  1314A      1.751081  1315A      1.753145  
    1316A      1.753829  1317A      1.757528  1318A      1.758517  
    1319A      1.760695  1320A      1.761801  1321A      1.763826  
    1322A      1.765988  1323A      1.767528  1324A      1.768884  
    1325A      1.769922  1326A      1.772708  1327A      1.773820  
    1328A      1.775471  1329A      1.777164  1330A      1.778725  
    1331A      1.782403  1332A      1.783525  1333A      1.784843  
    1334A      1.787595  1335A      1.790625  1336A      1.793222  
    1337A      1.794011  1338A      1.794709  1339A      1.796911  
    1340A      1.798352  1341A      1.798785  1342A      1.800348  
    1343A      1.803054  1344A      1.804846  1345A      1.807112  
    1346A      1.807630  1347A      1.810700  1348A      1.813747  
    1349A      1.815945  1350A      1.816905  1351A      1.818668  
    1352A      1.822238  1353A      1.822873  1354A      1.823889  
    1355A      1.826047  1356A      1.826709  1357A      1.829943  
    1358A      1.830248  1359A      1.831825  1360A      1.832961  
    1361A      1.834646  1362A      1.837519  1363A      1.839079  
    1364A      1.839249  1365A      1.841049  1366A      1.843733  
    1367A      1.843947  1368A      1.845853  1369A      1.847542  
    1370A      1.849306  1371A      1.851477  1372A      1.853140  
    1373A      1.854523  1374A      1.856470  1375A      1.856853  
    1376A      1.859135  1377A      1.860234  1378A      1.861477  
    1379A      1.864824  1380A      1.868648  1381A      1.870607  
    1382A      1.872350  1383A      1.873278  1384A      1.875292  
    1385A      1.877163  1386A      1.881637  1387A      1.883404  
    1388A      1.883813  1389A      1.885877  1390A      1.886409  
    1391A      1.887046  1392A      1.889317  1393A      1.891212  
    1394A      1.891907  1395A      1.896688  1396A      1.897744  
    1397A      1.899326  1398A      1.900356  1399A      1.902868  
    1400A      1.904599  1401A      1.906602  1402A      1.909918  
    1403A      1.910617  1404A      1.912126  1405A      1.913986  
    1406A      1.915404  1407A      1.919000  1408A      1.920052  
    1409A      1.923526  1410A      1.923779  1411A      1.925139  
    1412A      1.927294  1413A      1.928775  1414A      1.929924  
    1415A      1.930802  1416A      1.932469  1417A      1.935190  
    1418A      1.938827  1419A      1.939360  1420A      1.940811  
    1421A      1.943349  1422A      1.945546  1423A      1.945662  
    1424A      1.947379  1425A      1.947766  1426A      1.949225  
    1427A      1.950514  1428A      1.953048  1429A      1.955602  
    1430A      1.956425  1431A      1.959151  1432A      1.960664  
    1433A      1.962061  1434A      1.963834  1435A      1.968738  
    1436A      1.969737  1437A      1.970099  1438A      1.971859  
    1439A      1.976075  1440A      1.976903  1441A      1.978745  
    1442A      1.981388  1443A      1.982838  1444A      1.984303  
    1445A      1.985140  1446A      1.988153  1447A      1.989482  
    1448A      1.990579  1449A      1.993646  1450A      1.995711  
    1451A      1.996248  1452A      1.999406  1453A      2.001162  
    1454A      2.002926  1455A      2.004478  1456A      2.005421  
    1457A      2.007924  1458A      2.010837  1459A      2.011868  
    1460A      2.012619  1461A      2.014593  1462A      2.017076  
    1463A      2.017735  1464A      2.018828  1465A      2.020886  
    1466A      2.024337  1467A      2.025581  1468A      2.028287  
    1469A      2.030812  1470A      2.031947  1471A      2.034093  
    1472A      2.036139  1473A      2.037260  1474A      2.039878  
    1475A      2.041252  1476A      2.042367  1477A      2.044541  
    1478A      2.045422  1479A      2.047931  1480A      2.049754  
    1481A      2.051633  1482A      2.053138  1483A      2.055211  
    1484A      2.057811  1485A      2.059518  1486A      2.062337  
    1487A      2.065489  1488A      2.065715  1489A      2.068395  
    1490A      2.069900  1491A      2.072642  1492A      2.074625  
    1493A      2.077654  1494A      2.081314  1495A      2.083688  
    1496A      2.084079  1497A      2.085950  1498A      2.087881  
    1499A      2.090343  1500A      2.093392  1501A      2.095942  
    1502A      2.099032  1503A      2.100125  1504A      2.101942  
    1505A      2.103631  1506A      2.105128  1507A      2.106204  
    1508A      2.108772  1509A      2.110703  1510A      2.115097  
    1511A      2.115390  1512A      2.117568  1513A      2.118426  
    1514A      2.120880  1515A      2.124631  1516A      2.125801  
    1517A      2.127601  1518A      2.128946  1519A      2.133206  
    1520A      2.133477  1521A      2.137198  1522A      2.138730  
    1523A      2.139013  1524A      2.142442  1525A      2.144154  
    1526A      2.146409  1527A      2.149546  1528A      2.152447  
    1529A      2.153167  1530A      2.154556  1531A      2.158180  
    1532A      2.160792  1533A      2.163379  1534A      2.164000  
    1535A      2.168900  1536A      2.169475  1537A      2.172795  
    1538A      2.174424  1539A      2.174890  1540A      2.177061  
    1541A      2.180648  1542A      2.182152  1543A      2.183468  
    1544A      2.186489  1545A      2.188414  1546A      2.191375  
    1547A      2.193179  1548A      2.195670  1549A      2.197568  
    1550A      2.199296  1551A      2.203424  1552A      2.204137  
    1553A      2.206619  1554A      2.208539  1555A      2.211190  
    1556A      2.215703  1557A      2.217228  1558A      2.221093  
    1559A      2.221798  1560A      2.225730  1561A      2.227402  
    1562A      2.228949  1563A      2.230334  1564A      2.231704  
    1565A      2.235931  1566A      2.236746  1567A      2.239827  
    1568A      2.241515  1569A      2.243433  1570A      2.246578  
    1571A      2.248155  1572A      2.251925  1573A      2.252848  
    1574A      2.254188  1575A      2.256786  1576A      2.258172  
    1577A      2.259002  1578A      2.261531  1579A      2.264712  
    1580A      2.265595  1581A      2.267557  1582A      2.269619  
    1583A      2.272643  1584A      2.274319  1585A      2.275967  
    1586A      2.276907  1587A      2.281119  1588A      2.285439  
    1589A      2.287482  1590A      2.290902  1591A      2.294495  
    1592A      2.297820  1593A      2.298314  1594A      2.299992  
    1595A      2.300890  1596A      2.302739  1597A      2.305515  
    1598A      2.307581  1599A      2.309412  1600A      2.312242  
    1601A      2.314998  1602A      2.316021  1603A      2.318394  
    1604A      2.321191  1605A      2.323496  1606A      2.326039  
    1607A      2.328396  1608A      2.330022  1609A      2.333405  
    1610A      2.334105  1611A      2.339771  1612A      2.341077  
    1613A      2.342053  1614A      2.343189  1615A      2.348562  
    1616A      2.349813  1617A      2.350934  1618A      2.354847  
    1619A      2.355395  1620A      2.358074  1621A      2.360812  
    1622A      2.363952  1623A      2.366943  1624A      2.370223  
    1625A      2.371831  1626A      2.372588  1627A      2.374077  
    1628A      2.379351  1629A      2.381795  1630A      2.383316  
    1631A      2.387802  1632A      2.388618  1633A      2.390549  
    1634A      2.394381  1635A      2.395695  1636A      2.398955  
    1637A      2.399330  1638A      2.401169  1639A      2.406327  
    1640A      2.407355  1641A      2.411915  1642A      2.414067  
    1643A      2.417057  1644A      2.419791  1645A      2.421152  
    1646A      2.424042  1647A      2.426917  1648A      2.429846  
    1649A      2.432985  1650A      2.434164  1651A      2.436803  
    1652A      2.437965  1653A      2.441925  1654A      2.444563  
    1655A      2.446874  1656A      2.449007  1657A      2.451338  
    1658A      2.453155  1659A      2.456075  1660A      2.458559  
    1661A      2.461295  1662A      2.464022  1663A      2.464718  
    1664A      2.468381  1665A      2.472728  1666A      2.473656  
    1667A      2.477648  1668A      2.477959  1669A      2.481442  
    1670A      2.484921  1671A      2.487812  1672A      2.489867  
    1673A      2.491232  1674A      2.495621  1675A      2.496758  
    1676A      2.497614  1677A      2.504447  1678A      2.505356  
    1679A      2.509053  1680A      2.510330  1681A      2.512873  
    1682A      2.513910  1683A      2.517606  1684A      2.520654  
    1685A      2.525917  1686A      2.526507  1687A      2.528225  
    1688A      2.530319  1689A      2.534333  1690A      2.535238  
    1691A      2.537023  1692A      2.543100  1693A      2.545914  
    1694A      2.547538  1695A      2.550925  1696A      2.552800  
    1697A      2.555733  1698A      2.557154  1699A      2.560274  
    1700A      2.562591  1701A      2.565711  1702A      2.566968  
    1703A      2.570957  1704A      2.573875  1705A      2.575104  
    1706A      2.575655  1707A      2.579254  1708A      2.582783  
    1709A      2.583707  1710A      2.590031  1711A      2.591537  
    1712A      2.595791  1713A      2.597674  1714A      2.600839  
    1715A      2.601604  1716A      2.604218  1717A      2.604631  
    1718A      2.609208  1719A      2.611037  1720A      2.613743  
    1721A      2.622207  1722A      2.623159  1723A      2.623627  
    1724A      2.631332  1725A      2.631672  1726A      2.634180  
    1727A      2.636136  1728A      2.641119  1729A      2.642088  
    1730A      2.643398  1731A      2.648282  1732A      2.653448  
    1733A      2.654466  1734A      2.656597  1735A      2.657348  
    1736A      2.659201  1737A      2.660335  1738A      2.662163  
    1739A      2.668661  1740A      2.674550  1741A      2.675052  
    1742A      2.679525  1743A      2.681607  1744A      2.683459  
    1745A      2.684016  1746A      2.687401  1747A      2.695260  
    1748A      2.697007  1749A      2.700207  1750A      2.702078  
    1751A      2.703712  1752A      2.705242  1753A      2.707473  
    1754A      2.711877  1755A      2.715011  1756A      2.715623  
    1757A      2.717861  1758A      2.719941  1759A      2.726098  
    1760A      2.729316  1761A      2.734081  1762A      2.736631  
    1763A      2.738235  1764A      2.740382  1765A      2.742652  
    1766A      2.745021  1767A      2.747754  1768A      2.751300  
    1769A      2.753971  1770A      2.757135  1771A      2.758864  
    1772A      2.760984  1773A      2.765778  1774A      2.769249  
    1775A      2.773248  1776A      2.775528  1777A      2.779965  
    1778A      2.781115  1779A      2.784971  1780A      2.786686  
    1781A      2.792491  1782A      2.795021  1783A      2.797911  
    1784A      2.800444  1785A      2.801088  1786A      2.803076  
    1787A      2.807372  1788A      2.808375  1789A      2.813662  
    1790A      2.818124  1791A      2.819306  1792A      2.824870  
    1793A      2.829614  1794A      2.832821  1795A      2.836255  
    1796A      2.838725  1797A      2.843911  1798A      2.844547  
    1799A      2.847792  1800A      2.855084  1801A      2.858827  
    1802A      2.859178  1803A      2.864724  1804A      2.868285  
    1805A      2.870283  1806A      2.872209  1807A      2.876109  
    1808A      2.879041  1809A      2.883044  1810A      2.888241  
    1811A      2.890960  1812A      2.896177  1813A      2.898165  
    1814A      2.899074  1815A      2.904911  1816A      2.908296  
    1817A      2.909103  1818A      2.914576  1819A      2.916547  
    1820A      2.921767  1821A      2.923313  1822A      2.924580  
    1823A      2.929328  1824A      2.933550  1825A      2.935880  
    1826A      2.939354  1827A      2.942294  1828A      2.951671  
    1829A      2.956733  1830A      2.959921  1831A      2.963535  
    1832A      2.964510  1833A      2.968481  1834A      2.970566  
    1835A      2.972473  1836A      2.978522  1837A      2.983426  
    1838A      2.990032  1839A      2.993839  1840A      2.994741  
    1841A      3.000824  1842A      3.005426  1843A      3.007053  
    1844A      3.010150  1845A      3.014915  1846A      3.020958  
    1847A      3.024029  1848A      3.029462  1849A      3.032986  
    1850A      3.036402  1851A      3.039183  1852A      3.047684  
    1853A      3.050492  1854A      3.051153  1855A      3.058479  
    1856A      3.061039  1857A      3.067819  1858A      3.070248  
    1859A      3.074281  1860A      3.078031  1861A      3.080246  
    1862A      3.082784  1863A      3.084043  1864A      3.088069  
    1865A      3.094239  1866A      3.095975  1867A      3.100700  
    1868A      3.104475  1869A      3.106093  1870A      3.113368  
    1871A      3.118676  1872A      3.121998  1873A      3.123031  
    1874A      3.127899  1875A      3.131328  1876A      3.132654  
    1877A      3.134804  1878A      3.139215  1879A      3.142704  
    1880A      3.149562  1881A      3.151456  1882A      3.153000  
    1883A      3.162164  1884A      3.162838  1885A      3.165890  
    1886A      3.167566  1887A      3.174659  1888A      3.178009  
    1889A      3.184108  1890A      3.189204  1891A      3.194201  
    1892A      3.195255  1893A      3.196758  1894A      3.200087  
    1895A      3.204465  1896A      3.207258  1897A      3.208986  
    1898A      3.212020  1899A      3.216868  1900A      3.219391  
    1901A      3.222392  1902A      3.227749  1903A      3.229291  
    1904A      3.233780  1905A      3.239547  1906A      3.242073  
    1907A      3.247519  1908A      3.248222  1909A      3.252357  
    1910A      3.254785  1911A      3.255898  1912A      3.258988  
    1913A      3.259565  1914A      3.262803  1915A      3.265828  
    1916A      3.268713  1917A      3.275653  1918A      3.277531  
    1919A      3.278924  1920A      3.282205  1921A      3.283804  
    1922A      3.291052  1923A      3.295535  1924A      3.297256  
    1925A      3.299638  1926A      3.301237  1927A      3.304907  
    1928A      3.307500  1929A      3.308159  1930A      3.313200  
    1931A      3.319111  1932A      3.321922  1933A      3.322562  
    1934A      3.326882  1935A      3.328718  1936A      3.332459  
    1937A      3.334945  1938A      3.337794  1939A      3.344049  
    1940A      3.346511  1941A      3.347909  1942A      3.350108  
    1943A      3.352668  1944A      3.354758  1945A      3.357267  
    1946A      3.358497  1947A      3.362031  1948A      3.363871  
    1949A      3.367730  1950A      3.371548  1951A      3.372516  
    1952A      3.375527  1953A      3.378755  1954A      3.380244  
    1955A      3.383930  1956A      3.385018  1957A      3.389341  
    1958A      3.391147  1959A      3.392734  1960A      3.398482  
    1961A      3.401311  1962A      3.403067  1963A      3.407356  
    1964A      3.408920  1965A      3.415100  1966A      3.419672  
    1967A      3.422847  1968A      3.424782  1969A      3.426934  
    1970A      3.428590  1971A      3.431606  1972A      3.434954  
    1973A      3.436554  1974A      3.438833  1975A      3.443287  
    1976A      3.445319  1977A      3.448894  1978A      3.450162  
    1979A      3.451511  1980A      3.453685  1981A      3.456715  
    1982A      3.463107  1983A      3.464125  1984A      3.465475  
    1985A      3.466438  1986A      3.472517  1987A      3.474352  
    1988A      3.477508  1989A      3.482053  1990A      3.484144  
    1991A      3.486571  1992A      3.489081  1993A      3.491473  
    1994A      3.497394  1995A      3.501694  1996A      3.502612  
    1997A      3.504931  1998A      3.508159  1999A      3.514637  
    2000A      3.515379  2001A      3.518249  2002A      3.519061  
    2003A      3.522468  2004A      3.522712  2005A      3.525086  
    2006A      3.529479  2007A      3.531069  2008A      3.534425  
    2009A      3.536449  2010A      3.541517  2011A      3.543624  
    2012A      3.548458  2013A      3.551748  2014A      3.555102  
    2015A      3.557029  2016A      3.560219  2017A      3.562626  
    2018A      3.567415  2019A      3.571351  2020A      3.573885  
    2021A      3.576145  2022A      3.577760  2023A      3.581947  
    2024A      3.585406  2025A      3.586599  2026A      3.592173  
    2027A      3.593734  2028A      3.595650  2029A      3.602411  
    2030A      3.603748  2031A      3.605845  2032A      3.611452  
    2033A      3.611921  2034A      3.616970  2035A      3.621073  
    2036A      3.622008  2037A      3.626447  2038A      3.627988  
    2039A      3.632331  2040A      3.637004  2041A      3.641035  
    2042A      3.643709  2043A      3.644547  2044A      3.649756  
    2045A      3.652317  2046A      3.655537  2047A      3.659229  
    2048A      3.662301  2049A      3.664879  2050A      3.668029  
    2051A      3.669237  2052A      3.671537  2053A      3.673487  
    2054A      3.676995  2055A      3.682349  2056A      3.684427  
    2057A      3.686025  2058A      3.688229  2059A      3.694683  
    2060A      3.695999  2061A      3.698068  2062A      3.701344  
    2063A      3.705776  2064A      3.706207  2065A      3.708325  
    2066A      3.712692  2067A      3.716088  2068A      3.720540  
    2069A      3.722218  2070A      3.724464  2071A      3.728162  
    2072A      3.731928  2073A      3.736109  2074A      3.738860  
    2075A      3.742326  2076A      3.745963  2077A      3.749453  
    2078A      3.751076  2079A      3.754362  2080A      3.754761  
    2081A      3.758567  2082A      3.761831  2083A      3.763442  
    2084A      3.767749  2085A      3.769822  2086A      3.773804  
    2087A      3.775988  2088A      3.781741  2089A      3.784258  
    2090A      3.784419  2091A      3.792328  2092A      3.795885  
    2093A      3.799973  2094A      3.801812  2095A      3.807639  
    2096A      3.812206  2097A      3.814332  2098A      3.820367  
    2099A      3.822846  2100A      3.824092  2101A      3.826397  
    2102A      3.829969  2103A      3.832657  2104A      3.836271  
    2105A      3.839012  2106A      3.842322  2107A      3.843621  
    2108A      3.846994  2109A      3.851878  2110A      3.852605  
    2111A      3.855589  2112A      3.861306  2113A      3.863561  
    2114A      3.864896  2115A      3.869217  2116A      3.870858  
    2117A      3.877456  2118A      3.880892  2119A      3.883339  
    2120A      3.888143  2121A      3.891643  2122A      3.894060  
    2123A      3.895960  2124A      3.899715  2125A      3.903977  
    2126A      3.908124  2127A      3.915342  2128A      3.915973  
    2129A      3.920002  2130A      3.921707  2131A      3.924445  
    2132A      3.928402  2133A      3.932445  2134A      3.937590  
    2135A      3.943972  2136A      3.945801  2137A      3.952264  
    2138A      3.954689  2139A      3.956028  2140A      3.959104  
    2141A      3.960846  2142A      3.964825  2143A      3.970095  
    2144A      3.972055  2145A      3.976092  2146A      3.978548  
    2147A      3.980162  2148A      3.984537  2149A      3.988352  
    2150A      3.990259  2151A      3.994475  2152A      4.000673  
    2153A      4.001858  2154A      4.003344  2155A      4.008619  
    2156A      4.012141  2157A      4.014916  2158A      4.016744  
    2159A      4.020603  2160A      4.022436  2161A      4.026752  
    2162A      4.031790  2163A      4.035146  2164A      4.036826  
    2165A      4.039471  2166A      4.040382  2167A      4.045229  
    2168A      4.051306  2169A      4.052139  2170A      4.054215  
    2171A      4.055127  2172A      4.059331  2173A      4.062956  
    2174A      4.064347  2175A      4.066179  2176A      4.073327  
    2177A      4.074389  2178A      4.076651  2179A      4.080261  
    2180A      4.084757  2181A      4.085691  2182A      4.090894  
    2183A      4.093837  2184A      4.098074  2185A      4.098640  
    2186A      4.103872  2187A      4.106502  2188A      4.108397  
    2189A      4.111125  2190A      4.113514  2191A      4.114200  
    2192A      4.116337  2193A      4.122490  2194A      4.122623  
    2195A      4.126161  2196A      4.126975  2197A      4.129213  
    2198A      4.130266  2199A      4.134057  2200A      4.139583  
    2201A      4.142468  2202A      4.143367  2203A      4.147780  
    2204A      4.150840  2205A      4.153883  2206A      4.155157  
    2207A      4.160208  2208A      4.162763  2209A      4.164168  
    2210A      4.169115  2211A      4.171067  2212A      4.171712  
    2213A      4.178037  2214A      4.179403  2215A      4.184170  
    2216A      4.186330  2217A      4.190637  2218A      4.191123  
    2219A      4.194301  2220A      4.196340  2221A      4.197684  
    2222A      4.200422  2223A      4.205514  2224A      4.208258  
    2225A      4.211509  2226A      4.214653  2227A      4.216843  
    2228A      4.222756  2229A      4.225635  2230A      4.226986  
    2231A      4.227664  2232A      4.229974  2233A      4.232262  
    2234A      4.234731  2235A      4.236230  2236A      4.240890  
    2237A      4.241280  2238A      4.245476  2239A      4.246391  
    2240A      4.248783  2241A      4.252016  2242A      4.253747  
    2243A      4.255512  2244A      4.257825  2245A      4.259721  
    2246A      4.263299  2247A      4.267247  2248A      4.269002  
    2249A      4.271783  2250A      4.272746  2251A      4.276320  
    2252A      4.277799  2253A      4.281114  2254A      4.284225  
    2255A      4.287976  2256A      4.289205  2257A      4.290952  
    2258A      4.295201  2259A      4.296810  2260A      4.300301  
    2261A      4.301576  2262A      4.302822  2263A      4.305184  
    2264A      4.307950  2265A      4.309478  2266A      4.310565  
    2267A      4.312660  2268A      4.317538  2269A      4.319401  
    2270A      4.321496  2271A      4.324349  2272A      4.327662  
    2273A      4.330727  2274A      4.332612  2275A      4.333119  
    2276A      4.335366  2277A      4.338677  2278A      4.339619  
    2279A      4.342077  2280A      4.346133  2281A      4.349360  
    2282A      4.352194  2283A      4.353943  2284A      4.355743  
    2285A      4.356868  2286A      4.360004  2287A      4.361289  
    2288A      4.362344  2289A      4.368497  2290A      4.372339  
    2291A      4.373825  2292A      4.375061  2293A      4.380517  
    2294A      4.382243  2295A      4.383149  2296A      4.384536  
    2297A      4.388529  2298A      4.390872  2299A      4.393977  
    2300A      4.395010  2301A      4.397196  2302A      4.399479  
    2303A      4.402445  2304A      4.404898  2305A      4.406573  
    2306A      4.411054  2307A      4.412194  2308A      4.414026  
    2309A      4.417499  2310A      4.417944  2311A      4.419982  
    2312A      4.422273  2313A      4.425066  2314A      4.426034  
    2315A      4.430016  2316A      4.431195  2317A      4.433497  
    2318A      4.437685  2319A      4.438979  2320A      4.442284  
    2321A      4.443714  2322A      4.446040  2323A      4.447713  
    2324A      4.450948  2325A      4.452826  2326A      4.453253  
    2327A      4.456598  2328A      4.460993  2329A      4.462153  
    2330A      4.464080  2331A      4.467805  2332A      4.468823  
    2333A      4.471774  2334A      4.473968  2335A      4.476805  
    2336A      4.480001  2337A      4.481418  2338A      4.482395  
    2339A      4.483739  2340A      4.485246  2341A      4.490538  
    2342A      4.493913  2343A      4.495063  2344A      4.498631  
    2345A      4.500176  2346A      4.502583  2347A      4.511156  
    2348A      4.511770  2349A      4.512850  2350A      4.514843  
    2351A      4.518971  2352A      4.520424  2353A      4.522681  
    2354A      4.524426  2355A      4.527606  2356A      4.533023  
    2357A      4.533296  2358A      4.535011  2359A      4.538326  
    2360A      4.543204  2361A      4.544106  2362A      4.545206  
    2363A      4.547071  2364A      4.549802  2365A      4.552107  
    2366A      4.556062  2367A      4.558587  2368A      4.561638  
    2369A      4.561966  2370A      4.569044  2371A      4.572105  
    2372A      4.573832  2373A      4.574319  2374A      4.578029  
    2375A      4.580855  2376A      4.585104  2377A      4.585888  
    2378A      4.588164  2379A      4.590130  2380A      4.593488  
    2381A      4.595721  2382A      4.596187  2383A      4.598993  
    2384A      4.604982  2385A      4.607440  2386A      4.609527  
    2387A      4.611992  2388A      4.615500  2389A      4.616768  
    2390A      4.621153  2391A      4.623366  2392A      4.627598  
    2393A      4.628156  2394A      4.629803  2395A      4.634906  
    2396A      4.636297  2397A      4.639575  2398A      4.643175  
    2399A      4.645930  2400A      4.649203  2401A      4.650004  
    2402A      4.652871  2403A      4.656681  2404A      4.657374  
    2405A      4.658295  2406A      4.663018  2407A      4.667240  
    2408A      4.668519  2409A      4.671247  2410A      4.673140  
    2411A      4.677896  2412A      4.681274  2413A      4.681909  
    2414A      4.684958  2415A      4.686287  2416A      4.688989  
    2417A      4.689953  2418A      4.692922  2419A      4.697126  
    2420A      4.697851  2421A      4.700639  2422A      4.704401  
    2423A      4.707319  2424A      4.708359  2425A      4.711679  
    2426A      4.715665  2427A      4.716616  2428A      4.719878  
    2429A      4.721897  2430A      4.722616  2431A      4.726154  
    2432A      4.727459  2433A      4.732175  2434A      4.733800  
    2435A      4.738105  2436A      4.739126  2437A      4.742875  
    2438A      4.748109  2439A      4.748974  2440A      4.753178  
    2441A      4.756471  2442A      4.757312  2443A      4.764524  
    2444A      4.766931  2445A      4.767924  2446A      4.770147  
    2447A      4.773159  2448A      4.776153  2449A      4.778523  
    2450A      4.786799  2451A      4.787633  2452A      4.790381  
    2453A      4.791142  2454A      4.793870  2455A      4.797018  
    2456A      4.799385  2457A      4.802994  2458A      4.806278  
    2459A      4.808940  2460A      4.810794  2461A      4.813321  
    2462A      4.816828  2463A      4.818059  2464A      4.820019  
    2465A      4.826640  2466A      4.829498  2467A      4.830664  
    2468A      4.832442  2469A      4.838280  2470A      4.839274  
    2471A      4.842587  2472A      4.843873  2473A      4.845783  
    2474A      4.848232  2475A      4.851111  2476A      4.851625  
    2477A      4.855344  2478A      4.859185  2479A      4.862173  
    2480A      4.865217  2481A      4.869177  2482A      4.871171  
    2483A      4.874604  2484A      4.877855  2485A      4.879972  
    2486A      4.882244  2487A      4.883533  2488A      4.887978  
    2489A      4.891809  2490A      4.893530  2491A      4.895239  
    2492A      4.897927  2493A      4.901140  2494A      4.903967  
    2495A      4.907815  2496A      4.909396  2497A      4.911987  
    2498A      4.915512  2499A      4.918153  2500A      4.919175  
    2501A      4.923743  2502A      4.929465  2503A      4.930510  
    2504A      4.931435  2505A      4.937570  2506A      4.938942  
    2507A      4.942764  2508A      4.945681  2509A      4.948979  
    2510A      4.954442  2511A      4.956526  2512A      4.958685  
    2513A      4.964724  2514A      4.967301  2515A      4.969588  
    2516A      4.973797  2517A      4.974807  2518A      4.978912  
    2519A      4.982015  2520A      4.984083  2521A      4.985783  
    2522A      4.989765  2523A      4.994362  2524A      4.995012  
    2525A      4.997561  2526A      5.000635  2527A      5.008264  
    2528A      5.008815  2529A      5.011060  2530A      5.014841  
    2531A      5.017733  2532A      5.020489  2533A      5.024948  
    2534A      5.031142  2535A      5.033713  2536A      5.035445  
    2537A      5.036469  2538A      5.039651  2539A      5.043160  
    2540A      5.045747  2541A      5.048017  2542A      5.050235  
    2543A      5.052911  2544A      5.055149  2545A      5.061113  
    2546A      5.063723  2547A      5.064596  2548A      5.067442  
    2549A      5.070145  2550A      5.071852  2551A      5.078042  
    2552A      5.082670  2553A      5.085682  2554A      5.086943  
    2555A      5.089728  2556A      5.095545  2557A      5.098778  
    2558A      5.099502  2559A      5.101247  2560A      5.106477  
    2561A      5.107985  2562A      5.109919  2563A      5.111815  
    2564A      5.114052  2565A      5.118843  2566A      5.120317  
    2567A      5.124975  2568A      5.127251  2569A      5.130778  
    2570A      5.133419  2571A      5.136728  2572A      5.138926  
    2573A      5.145043  2574A      5.145776  2575A      5.146346  
    2576A      5.148644  2577A      5.155247  2578A      5.158032  
    2579A      5.165603  2580A      5.167278  2581A      5.168290  
    2582A      5.170921  2583A      5.173244  2584A      5.177155  
    2585A      5.184343  2586A      5.188711  2587A      5.191843  
    2588A      5.196016  2589A      5.199364  2590A      5.201722  
    2591A      5.203056  2592A      5.207145  2593A      5.209033  
    2594A      5.213410  2595A      5.214850  2596A      5.219260  
    2597A      5.225949  2598A      5.229680  2599A      5.230668  
    2600A      5.234824  2601A      5.236953  2602A      5.241419  
    2603A      5.245381  2604A      5.249435  2605A      5.252025  
    2606A      5.255192  2607A      5.258312  2608A      5.261244  
    2609A      5.262817  2610A      5.266932  2611A      5.269708  
    2612A      5.272171  2613A      5.276695  2614A      5.278288  
    2615A      5.282791  2616A      5.285418  2617A      5.289558  
    2618A      5.292362  2619A      5.296685  2620A      5.300108  
    2621A      5.301531  2622A      5.305756  2623A      5.307642  
    2624A      5.308835  2625A      5.314055  2626A      5.319721  
    2627A      5.323383  2628A      5.325404  2629A      5.328838  
    2630A      5.335700  2631A      5.338790  2632A      5.340038  
    2633A      5.344979  2634A      5.351384  2635A      5.355378  
    2636A      5.358145  2637A      5.361196  2638A      5.365872  
    2639A      5.371989  2640A      5.375512  2641A      5.376364  
    2642A      5.378652  2643A      5.382878  2644A      5.389805  
    2645A      5.391340  2646A      5.393974  2647A      5.395598  
    2648A      5.400974  2649A      5.407006  2650A      5.412283  
    2651A      5.412996  2652A      5.416502  2653A      5.418502  
    2654A      5.425449  2655A      5.427875  2656A      5.432127  
    2657A      5.435571  2658A      5.441447  2659A      5.443243  
    2660A      5.445415  2661A      5.451001  2662A      5.453137  
    2663A      5.460175  2664A      5.461619  2665A      5.464838  
    2666A      5.473589  2667A      5.475848  2668A      5.482510  
    2669A      5.485813  2670A      5.486419  2671A      5.492900  
    2672A      5.496543  2673A      5.499472  2674A      5.505919  
    2675A      5.510300  2676A      5.510790  2677A      5.514496  
    2678A      5.518793  2679A      5.521996  2680A      5.524901  
    2681A      5.528680  2682A      5.530630  2683A      5.534310  
    2684A      5.535966  2685A      5.537842  2686A      5.539945  
    2687A      5.544780  2688A      5.549640  2689A      5.551849  
    2690A      5.558622  2691A      5.560967  2692A      5.565051  
    2693A      5.569149  2694A      5.574011  2695A      5.576777  
    2696A      5.579242  2697A      5.580082  2698A      5.584442  
    2699A      5.590008  2700A      5.593273  2701A      5.595494  
    2702A      5.597715  2703A      5.602046  2704A      5.608764  
    2705A      5.612229  2706A      5.620400  2707A      5.621021  
    2708A      5.628966  2709A      5.630270  2710A      5.631557  
    2711A      5.637747  2712A      5.641877  2713A      5.645642  
    2714A      5.648098  2715A      5.652807  2716A      5.658491  
    2717A      5.658832  2718A      5.661876  2719A      5.666574  
    2720A      5.671282  2721A      5.676772  2722A      5.678347  
    2723A      5.685698  2724A      5.692086  2725A      5.695337  
    2726A      5.696858  2727A      5.699086  2728A      5.703063  
    2729A      5.706657  2730A      5.709778  2731A      5.713007  
    2732A      5.720285  2733A      5.725548  2734A      5.729021  
    2735A      5.735532  2736A      5.737885  2737A      5.744357  
    2738A      5.751617  2739A      5.751813  2740A      5.752236  
    2741A      5.753856  2742A      5.760881  2743A      5.766426  
    2744A      5.768401  2745A      5.771651  2746A      5.779502  
    2747A      5.783956  2748A      5.789487  2749A      5.792494  
    2750A      5.795863  2751A      5.798388  2752A      5.802596  
    2753A      5.806786  2754A      5.808775  2755A      5.817167  
    2756A      5.825443  2757A      5.827219  2758A      5.831500  
    2759A      5.832183  2760A      5.838782  2761A      5.841708  
    2762A      5.852354  2763A      5.856733  2764A      5.858687  
    2765A      5.864905  2766A      5.868229  2767A      5.876001  
    2768A      5.876581  2769A      5.881938  2770A      5.890723  
    2771A      5.892136  2772A      5.894210  2773A      5.900747  
    2774A      5.903936  2775A      5.908224  2776A      5.909707  
    2777A      5.917338  2778A      5.922514  2779A      5.929119  
    2780A      5.933653  2781A      5.940080  2782A      5.947000  
    2783A      5.953577  2784A      5.955836  2785A      5.964810  
    2786A      5.967871  2787A      5.974126  2788A      5.976217  
    2789A      5.987048  2790A      5.988226  2791A      5.993551  
    2792A      5.999037  2793A      6.002726  2794A      6.005099  
    2795A      6.013428  2796A      6.018704  2797A      6.021528  
    2798A      6.026710  2799A      6.036790  2800A      6.038698  
    2801A      6.040448  2802A      6.046512  2803A      6.052241  
    2804A      6.058873  2805A      6.066705  2806A      6.068252  
    2807A      6.075884  2808A      6.080220  2809A      6.083442  
    2810A      6.088921  2811A      6.091702  2812A      6.103363  
    2813A      6.110480  2814A      6.113343  2815A      6.114809  
    2816A      6.116637  2817A      6.128021  2818A      6.131192  
    2819A      6.134931  2820A      6.139733  2821A      6.142566  
    2822A      6.147549  2823A      6.155843  2824A      6.158831  
    2825A      6.166129  2826A      6.173447  2827A      6.177818  
    2828A      6.187699  2829A      6.190026  2830A      6.200685  
    2831A      6.206773  2832A      6.213523  2833A      6.219849  
    2834A      6.224651  2835A      6.226161  2836A      6.231032  
    2837A      6.236925  2838A      6.241365  2839A      6.245911  
    2840A      6.252183  2841A      6.261224  2842A      6.266994  
    2843A      6.268276  2844A      6.277669  2845A      6.285577  
    2846A      6.288392  2847A      6.297428  2848A      6.299281  
    2849A      6.315032  2850A      6.319507  2851A      6.321456  
    2852A      6.325961  2853A      6.333930  2854A      6.357853  
    2855A      6.363850  2856A      6.372884  2857A      6.377856  
    2858A      6.389182  2859A      6.389929  2860A      6.396281  
    2861A      6.399365  2862A      6.406444  2863A      6.411392  
    2864A      6.421824  2865A      6.429527  2866A      6.437336  
    2867A      6.440547  2868A      6.455646  2869A      6.465389  
    2870A      6.471623  2871A      6.475520  2872A      6.496659  
    2873A      6.509927  2874A      6.519135  2875A      6.529465  
    2876A      6.530271  2877A      6.544096  2878A      6.554026  
    2879A      6.559093  2880A      6.568724  2881A      6.578534  
    2882A      6.585491  2883A      6.593621  2884A      6.611064  
    2885A      6.614527  2886A      6.617913  2887A      6.627320  
    2888A      6.637899  2889A      6.646613  2890A      6.662970  
    2891A      6.672637  2892A      6.709539  2893A      6.713073  
    2894A      6.728999  2895A      6.750896  2896A      6.757593  
    2897A      6.766697  2898A      6.793754  2899A      6.812008  
    2900A      6.822232  2901A      6.828140  2902A      6.830440  
    2903A      6.835465  2904A      6.851107  2905A      6.883662  
    2906A      6.885242  2907A      6.901476  2908A      6.927446  
    2909A      6.937761  2910A      6.971968  2911A      6.983541  
    2912A      7.005829  2913A      7.007126  2914A      7.012969  
    2915A      7.034272  2916A      7.054327  2917A      7.067522  
    2918A      7.091175  2919A      7.107131  2920A      7.124647  
    2921A      7.132561  2922A      7.151473  2923A      7.160675  
    2924A      7.184926  2925A      7.187142  2926A      7.208522  
    2927A      7.220911  2928A      7.228095  2929A      7.247317  
    2930A      7.270572  2931A      7.280119  2932A      7.291726  
    2933A      7.319576  2934A      7.337877  2935A      7.354611  
    2936A      7.359315  2937A      7.391928  2938A      7.410143  
    2939A      7.433068  2940A      7.436121  2941A      7.456838  
    2942A      7.468201  2943A      7.476369  2944A      7.490263  
    2945A      7.517079  2946A      7.519914  2947A      7.536789  
    2948A      7.561891  2949A      7.568421  2950A      7.595208  
    2951A      7.608303  2952A      7.636667  2953A      7.657668  
    2954A      7.660114  2955A      7.676765  2956A      7.693832  
    2957A      7.715198  2958A      7.733217  2959A      7.743644  
    2960A      7.751017  2961A      7.757215  2962A      7.765140  
    2963A      7.775567  2964A      7.782135  2965A      7.787869  
    2966A      7.795259  2967A      7.827164  2968A      7.827959  
    2969A      7.859207  2970A      7.867746  2971A      7.887103  
    2972A      7.899540  2973A      7.915612  2974A      7.945814  
    2975A      7.966309  2976A      7.986574  2977A      8.040581  
    2978A      8.069095  2979A      8.110209  2980A      8.143673  
    2981A      8.170290  2982A      8.194078  2983A      8.224071  
    2984A      8.228746  2985A      8.261137  2986A      8.274092  
    2987A      8.305171  2988A      8.311630  2989A      8.354717  
    2990A      8.379091  2991A      8.395662  2992A      8.420877  
    2993A      8.447418  2994A      8.481035  2995A      8.560091  
    2996A      8.585115  2997A      8.621405  2998A      8.641751  
    2999A      8.665241  3000A      8.712574  3001A      8.816838  
    3002A      8.853572  3003A      8.887768  3004A      8.973302  
    3005A      8.991531  3006A      9.062535  3007A      9.196887  
    3008A      9.285771  3009A      9.378537  3010A      9.396405  
    3011A      9.549355  3012A      9.612477  3013A      9.636063  
    3014A      9.698219  3015A      9.733120  3016A      9.790045  
    3017A      9.896454  3018A      9.948098  3019A      9.966090  
    3020A     10.009796  3021A     10.026124  3022A     10.091703  
    3023A     10.124318  3024A     10.216474  3025A     10.262516  
    3026A     10.344513  3027A     10.402788  3028A     10.475267  
    3029A     10.553238  3030A     10.671658  3031A     10.730298  
    3032A     10.798199  3033A     10.960977  3034A     11.036741  
    3035A     11.147708  3036A     11.181701  3037A     11.260028  
    3038A     11.355557  3039A     11.361053  3040A     11.421943  
    3041A     11.637291  3042A     11.817602  3043A     11.835036  
    3044A     11.942347  3045A     12.135725  3046A     12.184435  
    3047A     12.237216  3048A     12.284686  3049A     12.503339  
    3050A     12.617791  3051A     12.667368  3052A     14.922842  
    3053A     15.343197  3054A     15.715064  3055A     16.149376  
    3056A     16.426445  3057A     16.726933  3058A     17.015720  
    3059A     17.296138  3060A     17.708035  3061A     18.006122  
    3062A     18.474900  3063A     18.802637  3064A     19.199156  
    3065A     19.841422  3066A     20.375595  3067A     20.786576  
    3068A     20.925518  3069A     21.334977  3070A     21.393572  
    3071A     21.644576  3072A     21.829499  3073A     22.370119  
    3074A     22.547123  3075A     22.710839  3076A     49.709833  
    3077A     50.590742  3078A     51.364550  3079A     52.220360  
    3080A     52.909937  3081A     53.172635  3082A     53.452734  
    3083A     54.228291  3084A     55.141157  3085A     55.921520  
    3086A     56.670531  3087A     57.538952  3088A     58.088328  
    3089A     58.530985  3090A     59.574618  3091A     60.603275  
    3092A     61.334219  3093A     61.503390  3094A     61.740312  
    3095A     62.359987  3096A     62.603798  3097A     63.510760  
    3098A     64.090988  3099A     64.295702  

    Final Occupation by Irrep:
              A 
    DOCC [    82 ]
    NA   [    82 ]
    NB   [    82 ]

  @DF-RKS Final Energy:  -925.79621442436951

   => Energetics <=

    Nuclear Repulsion Energy =           1863.8004869688352301
    One-Electron Energy =               -4954.8446648607996394
    Two-Electron Energy =                2301.5862601773342249
    DFT Exchange-Correlation Energy =    -136.3132151608732840
    Empirical Dispersion Energy =          -0.0250815488660150
    VV10 Nonlocal Energy =                  0.0000000000000000
    Total Energy =                       -925.7962144243695093

Computation Completed


Properties will be evaluated at   0.000000,   0.000000,   0.000000 [a0]

Properties computed using the SCF density matrix


 Multipole Moments:

 ------------------------------------------------------------------------------------
     Multipole            Electronic (a.u.)      Nuclear  (a.u.)        Total (a.u.)
 ------------------------------------------------------------------------------------

 L = 1.  Multiply by 2.5417464519 to convert [e a0] to [Debye]
 Dipole X            :      -4034.8993922         4034.8790109           -0.0203812
 Dipole Y            :      -3189.3546345         3189.5933564            0.2387219
 Dipole Z            :      -7377.8161296         7378.1192754            0.3031458
 Magnitude           :                                                    0.3863948

 ------------------------------------------------------------------------------------

*** tstop() called on atl1-1-02-003-20-2.pace.gatech.edu at Sat Jun 13 12:47:29 2026
Module time:
	user time   =   19426.06 seconds =     323.77 minutes
	system time =    2025.03 seconds =      33.75 minutes
	total time  =       3929 seconds =      65.48 minutes
Total time:
	user time   =   19426.06 seconds =     323.77 minutes
	system time =    2025.03 seconds =      33.75 minutes
	total time  =       3929 seconds =      65.48 minutes

    Psi4 stopped on: Saturday, 13 June 2026 12:47PM
    Psi4 wall time for execution: 1:05:37.72

*** Psi4 exiting successfully. Buy a developer a beer!
