
    -----------------------------------------------------------------------
          Psi4: An Open-Source Ab Initio Electronic Structure Package
                               Psi4 1.9.1 release

                         Git: Rev {} zzzzzzz 


    D. G. A. Smith, L. A. Burns, A. C. Simmonett, R. M. Parrish,
    M. C. Schieber, R. Galvelis, P. Kraus, H. Kruse, R. Di Remigio,
    A. Alenaizan, A. M. James, S. Lehtola, J. P. Misiewicz, M. Scheurer,
    R. A. Shaw, J. B. Schriber, Y. Xie, Z. L. Glick, D. A. Sirianni,
    J. S. O'Brien, J. M. Waldrop, A. Kumar, E. G. Hohenstein,
    B. P. Pritchard, B. R. Brooks, H. F. Schaefer III, A. Yu. Sokolov,
    K. Patkowski, A. E. DePrince III, U. Bozkaya, R. A. King,
    F. A. Evangelista, J. M. Turney, T. D. Crawford, C. D. Sherrill,
    J. Chem. Phys. 152(18) 184108 (2020). https://doi.org/10.1063/5.0006002

                            Additional Code Authors
    E. T. Seidl, C. L. Janssen, E. F. Valeev, M. L. Leininger,
    J. F. Gonthier, R. M. Richard, H. R. McAlexander, M. Saitow, X. Wang,
    P. Verma, M. H. Lechner, A. Jiang, S. Behnle, A. G. Heide,
    M. F. Herbst, and D. L. Poole

             Previous Authors, Complete List of Code Contributors,
                       and Citations for Specific Modules
    https://github.com/psi4/psi4/blob/master/codemeta.json
    https://github.com/psi4/psi4/graphs/contributors
    http://psicode.org/psi4manual/master/introduction.html#citing-psifour

    -----------------------------------------------------------------------


    Psi4 started on: Saturday, 13 June 2026 11:42AM

    Process ID: 1182470
    Host:       atl1-1-03-004-6-2.pace.gatech.edu
    PSIDATADIR: /storage/home/hcoda1/5/vlita3/.conda/envs/p4_qcml/share/psi4
    Memory:     250.0 GiB
    Threads:    10
    
  ==> Input QCSchema <==

--------------------------------------------------------------------------
{'driver': 'energy',
 'extras': {},
 'id': '222',
 'keywords': {},
 'model': {'basis': 'aug-cc-pvtz', 'method': 'pbe-d3'},
 'molecule': {'extras': {},
              'fix_com': True,
              'fix_orientation': True,
              'fragment_charges': [0.0, 0.0],
              'fragment_multiplicities': [1, 1],
              'fragments': [[0, 1, 2, 3, 4, 5, 6, 7, 8, 9, 10, 11, 12, 13, 14, 15, 16, 17, 18, 19, 20, 21, 22, 23, 24,
                             25, 26, 27, 28, 29, 30, 31, 32, 33, 34, 35, 36, 37, 38, 39, 40, 41, 42, 43],
                            [44, 45, 46, 47, 48, 49, 50, 51, 52, 53, 54, 55, 56, 57, 58, 59, 60, 61, 62, 63, 64, 65, 66,
                             67, 68, 69, 70, 71, 72, 73, 74, 75, 76, 77, 78, 79, 80, 81, 82, 83, 84, 85, 86, 87]],
              'geometry': [25.47963781, 23.08351049, 43.1296896, 24.89690954, 20.52012331, 43.887087, 25.07057198,
                           18.48699404, 42.07353641, 25.8424877, 19.04880944, 39.52013663, 26.46903607, 21.61452675,
                           38.85199593, 26.30318821, 23.59330066, 40.54460103, 24.46577176, 15.9279092, 42.77036087,
                           23.76811717, 15.37695629, 45.40838081, 23.59859476, 17.38880058, 47.22265844, 24.1081018,
                           20.02007671, 46.44346413, 22.96694077, 16.77267612, 49.77192758, 22.51062738, 14.29130626,
                           50.58597185, 22.67427055, 12.32177999, 48.76231557, 23.27971306, 12.86309326, 46.25226043,
                           25.97467497, 17.0727052, 37.71068154, 25.34789586, 14.59123463, 38.39437083, 24.59969708,
                           14.0277518, 40.88784347, 25.20039992, 25.0588727, 44.92111126, 24.35321071, 24.59525103,
                           47.39946073, 23.84084877, 22.08099208, 48.12795237, 21.86046838, 13.69556932, 53.32235171,
                           24.04555383, 26.76370654, 49.27889773, 26.50915633, 27.41178979, 50.73375129, 26.93108599,
                           26.27094839, 39.72356046, 27.10311578, 21.98163565, 36.89906984, 22.32265299, 10.34583799,
                           49.33666834, 23.39372081, 11.28300305, 44.90489504, 26.57612038, 17.51973959, 35.76596134,
                           25.43664936, 13.06203906, 36.97800898, 24.12002947, 12.05854919, 41.3527408, 25.62817825,
                           27.01761767, 44.36171793, 23.18724332, 21.75219607, 50.07608394, 23.27013145, 12.38510294,
                           54.17857328, 21.79629273, 15.42803966, 54.50687769, 19.98705402, 12.74487252, 53.47527914,
                           22.53167906, 26.28198386, 50.6619148, 23.38069793, 28.48102898, 48.25612267, 27.19569266,
                           25.7565067, 51.83310019, 28.04156267, 27.96965392, 49.40821263, 28.39145441, 27.1428651,
                           40.95513515, 25.23456206, 27.51897461, 39.79892028, 27.66207922, 26.29954115, 37.75755015,
                           26.2022166, 29.00071195, 52.0780899, 22.83611537, 18.29134925, 51.1881473, 30.81342193,
                           18.71017989, 45.99359029, 31.5788239, 19.74555973, 43.58027113, 32.18922921, 22.39746574,
                           43.36009841, 32.04731473, 23.98056161, 45.57578145, 31.25562095, 22.88485355, 47.94186375,
                           30.64065655, 20.36296812, 48.19759324, 32.96098858, 23.46875558, 40.98068543, 32.9776879,
                           21.8498177, 38.71563215, 32.39688051, 19.20754673, 38.92783428, 31.75108262, 18.1119644,
                           41.41040042, 32.38510148, 17.70859001, 36.6883681, 32.89884869, 18.70388423, 34.28627015,
                           33.46045747, 21.32787429, 34.10603582, 33.50020544, 22.84413785, 36.26471359, 32.71084168,
                           26.57519902, 45.39430813, 33.51746054, 27.59229626, 43.0833912, 33.64071365, 26.05933156,
                           40.9078722, 30.26834315, 16.09166271, 46.16720061, 30.49746548, 14.47431826, 44.06910385,
                           31.23964841, 15.50757785, 41.72580743, 32.85245858, 17.05660123, 31.93007182, 30.0352396,
                           11.64386798, 44.33912194, 32.45644731, 10.16276856, 45.08627623, 29.83741229, 19.30937345,
                           50.74453249, 31.15944353, 24.13692378, 49.60598037, 33.86115259, 22.17547238, 32.24063318,
                           33.92403613, 24.86828461, 36.03931452, 32.60693264, 27.77144276, 47.1004289, 34.05705016,
                           29.60331272, 42.95688301, 34.27807476, 26.92308174, 39.12655219, 29.64722791, 15.28713696,
                           47.98302787, 31.38145507, 14.21615321, 40.10268471, 34.735737, 17.01308892, 30.98680081,
                           32.31443775, 15.0754773, 32.37170495, 31.48589123, 17.79122297, 30.50534659, 29.28049933,
                           10.88478084, 42.52649407, 28.54357618, 11.31799443, 45.78690148, 33.97269455, 10.41059171,
                           43.64975571, 33.2192207, 10.84125701, 46.92494523, 31.18221652, 17.84465276, 51.44063809,
                           27.94896357, 18.39273342, 50.64394079, 29.74125873, 20.82714016, 52.19033882, 32.06613232,
                           8.10297733, 45.26704002, 31.91846208, 15.68652669, 36.81860417],
              'id': 5,
              'identifiers': {'molecular_formula': 'C48H40',
                              'molecule_hash': '15b64246f541ee1ce312b171a08939958d334f77'},
              'molecular_charge': 0.0,
              'molecular_multiplicity': 1,
              'name': 'C48H40',
              'provenance': {'creator': 'QCElemental',
                             'routine': 'qcelemental.molparse.from_string',
                             'version': '0.29.0'},
              'schema_name': 'qcschema_molecule',
              'schema_version': 2,
              'symbols': ['C', 'C', 'C', 'C', 'C', 'C', 'C', 'C', 'C', 'C', 'C', 'C', 'C', 'C', 'C', 'C', 'C', 'C', 'C',
                          'C', 'C', 'C', 'C', 'C', 'H', 'H', 'H', 'H', 'H', 'H', 'H', 'H', 'H', 'H', 'H', 'H', 'H', 'H',
                          'H', 'H', 'H', 'H', 'H', 'H', 'C', 'C', 'C', 'C', 'C', 'C', 'C', 'C', 'C', 'C', 'C', 'C', 'C',
                          'C', 'C', 'C', 'C', 'C', 'C', 'C', 'C', 'C', 'C', 'C', 'H', 'H', 'H', 'H', 'H', 'H', 'H', 'H',
                          'H', 'H', 'H', 'H', 'H', 'H', 'H', 'H', 'H', 'H', 'H', 'H'],
              'validated': True},
 'protocols': {},
 'provenance': {'creator': 'QCElemental', 'routine': 'qcelemental.models.results', 'version': '0.29.0'},
 'schema_name': 'qcschema_input',
 'schema_version': 1}
--------------------------------------------------------------------------

Scratch directory: /tmp/tmp1vj0dd3__psi_scratch/
   => Libint2 <=

    Primary   basis highest AM E, G, H:  6, 6, 3
    Auxiliary basis highest AM E, G, H:  7, 7, 4
    Onebody   basis highest AM E, G, H:  -, -, -
    Solid Harmonics ordering:            Gaussian

*** tstart() called on atl1-1-03-004-6-2.pace.gatech.edu
*** at Sat Jun 13 11:42:00 2026

   => Loading Basis Set <=

    Name: AUG-CC-PVTZ
    Role: ORBITAL
    Keyword: BASIS
    atoms 1-24, 45-68  entry C          line   239 file /storage/home/hcoda1/5/vlita3/.conda/envs/p4_qcml/share/psi4/basis/aug-cc-pvtz.gbs 
    atoms 25-44, 69-88 entry H          line    40 file /storage/home/hcoda1/5/vlita3/.conda/envs/p4_qcml/share/psi4/basis/aug-cc-pvtz.gbs 

   => PBE-D3: Empirical Dispersion <=

    Grimme's -D3 (zero-damping) Dispersion Correction
    Grimme S.; Antony J.; Ehrlich S.; Krieg H. (2010), J. Chem. Phys., 132: 154104

        s6 =       1.000000
        s8 =       0.722000
       sr6 =       1.217000
    alpha6 =      14.000000
       sr8 =       1.000000


         ---------------------------------------------------------
                                   SCF
               by Justin Turney, Rob Parrish, Andy Simmonett
                          and Daniel G. A. Smith
                              RKS Reference
                       10 Threads, 256000 MiB Core
         ---------------------------------------------------------

  ==> Geometry <==

    Molecular point group: c1
    Full point group: C1

    Geometry (in Bohr), charge = 0, multiplicity = 1:

       Center              X                  Y                   Z               Mass       
    ------------   -----------------  -----------------  -----------------  -----------------
         C           25.479637810000    23.083510490000    43.129689600000    12.000000000000
         C           24.896909540000    20.520123310000    43.887087000000    12.000000000000
         C           25.070571980000    18.486994040000    42.073536410000    12.000000000000
         C           25.842487700000    19.048809440000    39.520136630000    12.000000000000
         C           26.469036070000    21.614526750000    38.851995930000    12.000000000000
         C           26.303188210000    23.593300660000    40.544601030000    12.000000000000
         C           24.465771760000    15.927909200000    42.770360870000    12.000000000000
         C           23.768117170000    15.376956290000    45.408380810000    12.000000000000
         C           23.598594760000    17.388800580000    47.222658440000    12.000000000000
         C           24.108101800000    20.020076710000    46.443464130000    12.000000000000
         C           22.966940770000    16.772676120000    49.771927580000    12.000000000000
         C           22.510627380000    14.291306260000    50.585971850000    12.000000000000
         C           22.674270550000    12.321779990000    48.762315570000    12.000000000000
         C           23.279713060000    12.863093260000    46.252260430000    12.000000000000
         C           25.974674970000    17.072705200000    37.710681540000    12.000000000000
         C           25.347895860000    14.591234630000    38.394370830000    12.000000000000
         C           24.599697080000    14.027751800000    40.887843470000    12.000000000000
         C           25.200399920000    25.058872700000    44.921111260000    12.000000000000
         C           24.353210710000    24.595251030000    47.399460730000    12.000000000000
         C           23.840848770000    22.080992080000    48.127952370000    12.000000000000
         C           21.860468380000    13.695569320000    53.322351710000    12.000000000000
         C           24.045553830000    26.763706540000    49.278897730000    12.000000000000
         C           26.509156330000    27.411789790000    50.733751290000    12.000000000000
         C           26.931085990000    26.270948390000    39.723560460000    12.000000000000
         H           27.103115780000    21.981635650000    36.899069840000     1.007825032230
         H           22.322652990000    10.345837990000    49.336668340000     1.007825032230
         H           23.393720810000    11.283003050000    44.904895040000     1.007825032230
         H           26.576120380000    17.519739590000    35.765961340000     1.007825032230
         H           25.436649360000    13.062039060000    36.978008980000     1.007825032230
         H           24.120029470000    12.058549190000    41.352740800000     1.007825032230
         H           25.628178250000    27.017617670000    44.361717930000     1.007825032230
         H           23.187243320000    21.752196070000    50.076083940000     1.007825032230
         H           23.270131450000    12.385102940000    54.178573280000     1.007825032230
         H           21.796292730000    15.428039660000    54.506877690000     1.007825032230
         H           19.987054020000    12.744872520000    53.475279140000     1.007825032230
         H           22.531679060000    26.281983860000    50.661914800000     1.007825032230
         H           23.380697930000    28.481028980000    48.256122670000     1.007825032230
         H           27.195692660000    25.756506700000    51.833100190000     1.007825032230
         H           28.041562670000    27.969653920000    49.408212630000     1.007825032230
         H           28.391454410000    27.142865100000    40.955135150000     1.007825032230
         H           25.234562060000    27.518974610000    39.798920280000     1.007825032230
         H           27.662079220000    26.299541150000    37.757550150000     1.007825032230
         H           26.202216600000    29.000711950000    52.078089900000     1.007825032230
         H           22.836115370000    18.291349250000    51.188147300000     1.007825032230
         C           30.813421930000    18.710179890000    45.993590290000    12.000000000000
         C           31.578823900000    19.745559730000    43.580271130000    12.000000000000
         C           32.189229210000    22.397465740000    43.360098410000    12.000000000000
         C           32.047314730000    23.980561610000    45.575781450000    12.000000000000
         C           31.255620950000    22.884853550000    47.941863750000    12.000000000000
         C           30.640656550000    20.362968120000    48.197593240000    12.000000000000
         C           32.960988580000    23.468755580000    40.980685430000    12.000000000000
         C           32.977687900000    21.849817700000    38.715632150000    12.000000000000
         C           32.396880510000    19.207546730000    38.927834280000    12.000000000000
         C           31.751082620000    18.111964400000    41.410400420000    12.000000000000
         C           32.385101480000    17.708590010000    36.688368100000    12.000000000000
         C           32.898848690000    18.703884230000    34.286270150000    12.000000000000
         C           33.460457470000    21.327874290000    34.106035820000    12.000000000000
         C           33.500205440000    22.844137850000    36.264713590000    12.000000000000
         C           32.710841680000    26.575199020000    45.394308130000    12.000000000000
         C           33.517460540000    27.592296260000    43.083391200000    12.000000000000
         C           33.640713650000    26.059331560000    40.907872200000    12.000000000000
         C           30.268343150000    16.091662710000    46.167200610000    12.000000000000
         C           30.497465480000    14.474318260000    44.069103850000    12.000000000000
         C           31.239648410000    15.507577850000    41.725807430000    12.000000000000
         C           32.852458580000    17.056601230000    31.930071820000    12.000000000000
         C           30.035239600000    11.643867980000    44.339121940000    12.000000000000
         C           32.456447310000    10.162768560000    45.086276230000    12.000000000000
         C           29.837412290000    19.309373450000    50.744532490000    12.000000000000
         H           31.159443530000    24.136923780000    49.605980370000     1.007825032230
         H           33.861152590000    22.175472380000    32.240633180000     1.007825032230
         H           33.924036130000    24.868284610000    36.039314520000     1.007825032230
         H           32.606932640000    27.771442760000    47.100428900000     1.007825032230
         H           34.057050160000    29.603312720000    42.956883010000     1.007825032230
         H           34.278074760000    26.923081740000    39.126552190000     1.007825032230
         H           29.647227910000    15.287136960000    47.983027870000     1.007825032230
         H           31.381455070000    14.216153210000    40.102684710000     1.007825032230
         H           34.735737000000    17.013088920000    30.986800810000     1.007825032230
         H           32.314437750000    15.075477300000    32.371704950000     1.007825032230
         H           31.485891230000    17.791222970000    30.505346590000     1.007825032230
         H           29.280499330000    10.884780840000    42.526494070000     1.007825032230
         H           28.543576180000    11.317994430000    45.786901480000     1.007825032230
         H           33.972694550000    10.410591710000    43.649755710000     1.007825032230
         H           33.219220700000    10.841257010000    46.924945230000     1.007825032230
         H           31.182216520000    17.844652760000    51.440638090000     1.007825032230
         H           27.948963570000    18.392733420000    50.643940790000     1.007825032230
         H           29.741258730000    20.827140160000    52.190338820000     1.007825032230
         H           32.066132320000     8.102977330000    45.267040020000     1.007825032230
         H           31.918462080000    15.686526690000    36.818604170000     1.007825032230

  Running in c1 symmetry.

  Rotational constants: A =      0.00210  B =      0.00003  C =      0.00003 [cm^-1]
  Rotational constants: A =     62.96897  B =      0.94325  C =      0.93874 [MHz]
  Nuclear repulsion = 6199.614502676580742

  Charge       = 0
  Multiplicity = 1
  Electrons    = 328
  Nalpha       = 164
  Nbeta        = 164

  ==> Algorithm <==

  SCF Algorithm Type is DF.
  DIIS enabled.
  MOM disabled.
  Fractional occupation disabled.
  Guess Type is SAD.
  Energy threshold   = 1.00e-06
  Density threshold  = 1.00e-06
  Integral threshold = 1.00e-12

  ==> Primary Basis <==

  Basis Set: AUG-CC-PVTZ
    Blend: AUG-CC-PVTZ
    Number of shells: 1032
    Number of basis functions: 3128
    Number of Cartesian functions: 3640
    Spherical Harmonics?: true
    Max angular momentum: 3

  ==> DFT Potential <==

   => LibXC <=

    Version 7.0.0
    S. Lehtola, C. Steigemann, M. J.T. Oliveira, and M. A.L. Marques.,  SoftwareX 7, 1–5 (2018) (10.1016/j.softx.2017.11.002)

   => Composite Functional: PBE-D3ZERO2B <= 

    PBE GGA Exchange-Correlation Functional

    J.P. Perdew et. al., Phys. Rev. Lett., 77(18), 3865-3868, 1996


    Deriv               =              1
    GGA                 =           TRUE
    Meta                =          FALSE

    Exchange Hybrid     =          FALSE
    MP2 Hybrid          =          FALSE

   => Exchange Functionals <=

    1.0000     XC_GGA_X_PBE

   => Correlation Functionals <=

    1.0000     XC_GGA_C_PBE

   => LibXC Density Thresholds  <==

    XC_GGA_C_PBE:  1.00E-12 
    XC_GGA_X_PBE:  1.00E-15 

   => Molecular Quadrature <=

    Radial Scheme          =       TREUTLER
    Pruning Scheme         =           NONE
    Nuclear Scheme         =       TREUTLER

    Blocking Scheme        =         OCTREE
    BS radius alpha        =              1
    Pruning alpha          =              1
    Radial Points          =             75
    Spherical Points       =            302
    Total Points           =        1755895
    Total Blocks           =          12038
    Max Points             =            256
    Max Functions          =           2202
    Weights Tolerance      =       1.00E-15

   => Loading Basis Set <=

    Name: (AUG-CC-PVTZ AUX)
    Role: JKFIT
    Keyword: DF_BASIS_SCF
    atoms 1-24, 45-68  entry C          line   162 file /storage/home/hcoda1/5/vlita3/.conda/envs/p4_qcml/share/psi4/basis/aug-cc-pvtz-jkfit.gbs 
    atoms 25-44, 69-88 entry H          line    70 file /storage/home/hcoda1/5/vlita3/.conda/envs/p4_qcml/share/psi4/basis/aug-cc-pvtz-jkfit.gbs 

  ==> Integral Setup <==

  ==> DiskDFJK: Density-Fitted J/K Matrices <==

    J tasked:                  Yes
    K tasked:                   No
    wK tasked:                  No
    OpenMP threads:             10
    Integrals threads:          10
    Memory [MiB]:           172800
    Algorithm:                Disk
    Integral Cache:           NONE
    Schwarz Cutoff:          1E-12
    Fitting Condition:       1E-10

   => Auxiliary Basis Set <=

  Basis Set: (AUG-CC-PVTZ AUX)
    Blend: AUG-CC-PVTZ-JKFIT
    Number of shells: 2000
    Number of basis functions: 6832
    Number of Cartesian functions: 8488
    Spherical Harmonics?: true
    Max angular momentum: 4

  Minimum eigenvalue in the overlap matrix is 6.3711160731E-10.
  Reciprocal condition number of the overlap matrix is 1.7895063395E-11.
    Using canonical orthogonalization.
  Overall, 29 of 3128 possible MOs eliminated.


  ==> Pre-Iterations <==

  SCF Guess: Superposition of Atomic Densities via on-the-fly atomic UHF (no occupation information).

   -------------------------
    Irrep   Nso     Nmo    
   -------------------------
     A       3128    3099 
   -------------------------
    Total    3128    3099
   -------------------------

  ==> Iterations <==

                           Total Energy        Delta E     RMS |[F,P]|

   @DF-RKS iter SAD: -1849.99843559576107   -1.85000e+03   0.00000e+00 
   @DF-RKS iter   1: -1846.86173537285981    3.13670e+00   9.53305e-04 DIIS/ADIIS
   @DF-RKS iter   2: -1789.91712623024705    5.69446e+01   3.00082e-03 DIIS/ADIIS
   @DF-RKS iter   3: -1830.06953025345729   -4.01524e+01   1.65932e-03 DIIS/ADIIS
   @DF-RKS iter   4: -1849.05547999564328   -1.89859e+01   5.74400e-04 DIIS/ADIIS
   @DF-RKS iter   5: -1840.88664594796433    8.16883e+00   1.05041e-03 DIIS/ADIIS
   @DF-RKS iter   6: -1851.38174559689196   -1.04951e+01   2.01435e-04 DIIS/ADIIS
   @DF-RKS iter   7: -1851.34155048267053    4.01951e-02   2.21044e-04 DIIS/ADIIS
   @DF-RKS iter   8: -1851.57043623814548   -2.28886e-01   9.70650e-05 DIIS
   @DF-RKS iter   9: -1851.61717210545407   -4.67359e-02   2.31083e-05 DIIS
   @DF-RKS iter  10: -1851.61904069674938   -1.86859e-03   1.38398e-05 DIIS
   @DF-RKS iter  11: -1851.61977877617096   -7.38079e-04   7.53105e-06 DIIS
   @DF-RKS iter  12: -1851.62008398906369   -3.05213e-04   2.51399e-06 DIIS
   @DF-RKS iter  13: -1851.62011584839411   -3.18593e-05   1.04910e-06 DIIS
   @DF-RKS iter  14: -1851.62012092556120   -5.07717e-06   4.84884e-07 DIIS
   @DF-RKS iter  15: -1851.62012168047340   -7.54912e-07   3.13975e-07 DIIS
  Energy and wave function converged.


  ==> Post-Iterations <==

   Electrons on quadrature grid:
      Ntotal   =  328.0005031438 ; deviation = 5.031e-04 

    Orbital Energies [Eh]
    ---------------------

    Doubly Occupied:                                                      

       1A     -9.908876     2A     -9.907688     3A     -9.906982  
       4A     -9.905934     5A     -9.905627     6A     -9.905341  
       7A     -9.905190     8A     -9.905174     9A     -9.904863  
      10A     -9.902879    11A     -9.902342    12A     -9.901537  
      13A     -9.901373    14A     -9.901086    15A     -9.900863  
      16A     -9.900661    17A     -9.900603    18A     -9.900495  
      19A     -9.899672    20A     -9.899635    21A     -9.899246  
      22A     -9.896719    23A     -9.896623    24A     -9.896516  
      25A     -9.895109    26A     -9.894745    27A     -9.894363  
      28A     -9.893783    29A     -9.893356    30A     -9.893163  
      31A     -9.893076    32A     -9.892337    33A     -9.891995  
      34A     -9.891892    35A     -9.891882    36A     -9.891111  
      37A     -9.891029    38A     -9.890276    39A     -9.889996  
      40A     -9.887860    41A     -9.886508    42A     -9.886462  
      43A     -9.885990    44A     -9.885737    45A     -9.885602  
      46A     -9.884645    47A     -9.881555    48A     -9.881404  
      49A     -0.807854    50A     -0.804009    51A     -0.777928  
      52A     -0.776454    53A     -0.769317    54A     -0.766719  
      55A     -0.739917    56A     -0.738622    57A     -0.725304  
      58A     -0.723430    59A     -0.705205    60A     -0.703550  
      61A     -0.688417    62A     -0.686646    63A     -0.684087  
      64A     -0.682900    65A     -0.670790    66A     -0.669438  
      67A     -0.646287    68A     -0.644545    69A     -0.641379  
      70A     -0.639219    71A     -0.616350    72A     -0.615025  
      73A     -0.613541    74A     -0.611842    75A     -0.574825  
      76A     -0.572086    77A     -0.565109    78A     -0.563295  
      79A     -0.549219    80A     -0.548278    81A     -0.545217  
      82A     -0.544471    83A     -0.534871    84A     -0.532536  
      85A     -0.515318    86A     -0.514217    87A     -0.482422  
      88A     -0.480630    89A     -0.473921    90A     -0.472946  
      91A     -0.462147    92A     -0.459914    93A     -0.445702  
      94A     -0.444643    95A     -0.436234    96A     -0.434794  
      97A     -0.415259    98A     -0.414326    99A     -0.412168  
     100A     -0.410795   101A     -0.405536   102A     -0.403636  
     103A     -0.396071   104A     -0.394382   105A     -0.392969  
     106A     -0.391097   107A     -0.388171   108A     -0.381631  
     109A     -0.378986   110A     -0.376194   111A     -0.373847  
     112A     -0.372875   113A     -0.370845   114A     -0.367963  
     115A     -0.367187   116A     -0.366094   117A     -0.365133  
     118A     -0.363726   119A     -0.358311   120A     -0.355397  
     121A     -0.355110   122A     -0.354373   123A     -0.350044  
     124A     -0.347961   125A     -0.338843   126A     -0.337167  
     127A     -0.336838   128A     -0.334994   129A     -0.333718  
     130A     -0.331632   131A     -0.327417   132A     -0.325444  
     133A     -0.324702   134A     -0.320807   135A     -0.319245  
     136A     -0.318503   137A     -0.314852   138A     -0.313672  
     139A     -0.309841   140A     -0.306372   141A     -0.304121  
     142A     -0.302879   143A     -0.301375   144A     -0.298048  
     145A     -0.296280   146A     -0.292491   147A     -0.274911  
     148A     -0.272880   149A     -0.272059   150A     -0.271301  
     151A     -0.270831   152A     -0.269934   153A     -0.260585  
     154A     -0.253062   155A     -0.251365   156A     -0.246355  
     157A     -0.222942   158A     -0.220651   159A     -0.215382  
     160A     -0.212272   161A     -0.195564   162A     -0.193477  
     163A     -0.180072   164A     -0.178644  

    Virtual:                                                              

     165A     -0.083971   166A     -0.081585   167A     -0.070617  
     168A     -0.067457   169A     -0.054458   170A     -0.052198  
     171A     -0.044937   172A     -0.043087   173A     -0.025990  
     174A     -0.023652   175A     -0.020383   176A     -0.012688  
     177A     -0.011604   178A     -0.010761   179A     -0.006449  
     180A     -0.005019   181A     -0.003995   182A     -0.001475  
     183A     -0.000137   184A      0.000373   185A      0.003257  
     186A      0.005615   187A      0.008326   188A      0.009496  
     189A      0.010619   190A      0.012635   191A      0.017965  
     192A      0.018550   193A      0.019413   194A      0.021977  
     195A      0.022877   196A      0.024158   197A      0.025480  
     198A      0.027599   199A      0.030021   200A      0.031505  
     201A      0.034643   202A      0.036262   203A      0.036722  
     204A      0.038070   205A      0.038793   206A      0.041454  
     207A      0.042821   208A      0.044078   209A      0.047161  
     210A      0.047930   211A      0.050022   212A      0.051410  
     213A      0.051638   214A      0.053410   215A      0.054333  
     216A      0.056010   217A      0.057532   218A      0.060157  
     219A      0.061724   220A      0.063013   221A      0.063810  
     222A      0.065064   223A      0.065173   224A      0.066700  
     225A      0.068323   226A      0.069028   227A      0.069580  
     228A      0.070584   229A      0.072467   230A      0.073357  
     231A      0.074737   232A      0.075412   233A      0.077180  
     234A      0.079418   235A      0.080023   236A      0.080986  
     237A      0.082035   238A      0.082857   239A      0.083626  
     240A      0.084790   241A      0.085494   242A      0.087187  
     243A      0.088031   244A      0.088227   245A      0.088968  
     246A      0.090597   247A      0.091586   248A      0.092848  
     249A      0.094018   250A      0.094729   251A      0.095600  
     252A      0.097439   253A      0.098222   254A      0.098897  
     255A      0.100085   256A      0.100986   257A      0.101543  
     258A      0.102961   259A      0.103970   260A      0.104834  
     261A      0.105592   262A      0.107530   263A      0.108018  
     264A      0.109119   265A      0.110915   266A      0.111811  
     267A      0.113021   268A      0.114406   269A      0.115400  
     270A      0.115784   271A      0.116698   272A      0.117506  
     273A      0.118018   274A      0.119563   275A      0.120703  
     276A      0.121910   277A      0.123552   278A      0.124850  
     279A      0.125995   280A      0.126974   281A      0.127683  
     282A      0.129735   283A      0.130004   284A      0.132695  
     285A      0.133288   286A      0.133533   287A      0.136048  
     288A      0.136578   289A      0.137095   290A      0.138175  
     291A      0.139559   292A      0.140947   293A      0.142871  
     294A      0.143570   295A      0.144277   296A      0.145472  
     297A      0.146019   298A      0.148680   299A      0.150243  
     300A      0.152076   301A      0.152865   302A      0.153175  
     303A      0.155465   304A      0.156833   305A      0.157182  
     306A      0.158326   307A      0.159627   308A      0.161730  
     309A      0.162747   310A      0.163954   311A      0.164717  
     312A      0.165437   313A      0.166554   314A      0.166932  
     315A      0.168691   316A      0.170189   317A      0.170522  
     318A      0.172185   319A      0.172606   320A      0.173983  
     321A      0.175214   322A      0.177265   323A      0.178143  
     324A      0.178470   325A      0.179258   326A      0.181146  
     327A      0.181258   328A      0.181767   329A      0.183298  
     330A      0.184578   331A      0.185477   332A      0.185994  
     333A      0.187647   334A      0.187690   335A      0.188319  
     336A      0.189629   337A      0.190253   338A      0.191983  
     339A      0.192201   340A      0.193062   341A      0.193138  
     342A      0.193657   343A      0.195127   344A      0.195471  
     345A      0.195937   346A      0.197966   347A      0.198234  
     348A      0.200588   349A      0.201623   350A      0.202270  
     351A      0.202453   352A      0.203554   353A      0.203900  
     354A      0.204973   355A      0.207161   356A      0.207498  
     357A      0.207866   358A      0.210216   359A      0.210564  
     360A      0.211484   361A      0.213183   362A      0.213761  
     363A      0.214210   364A      0.214516   365A      0.215765  
     366A      0.217481   367A      0.218023   368A      0.218605  
     369A      0.218776   370A      0.220446   371A      0.222689  
     372A      0.223241   373A      0.223581   374A      0.225432  
     375A      0.225784   376A      0.226784   377A      0.227157  
     378A      0.228172   379A      0.229940   380A      0.230706  
     381A      0.230888   382A      0.232823   383A      0.233188  
     384A      0.234632   385A      0.234984   386A      0.235876  
     387A      0.236712   388A      0.238957   389A      0.239228  
     390A      0.240442   391A      0.240870   392A      0.242140  
     393A      0.242513   394A      0.244456   395A      0.244708  
     396A      0.245815   397A      0.247055   398A      0.247414  
     399A      0.248542   400A      0.249492   401A      0.250600  
     402A      0.251615   403A      0.252762   404A      0.253576  
     405A      0.254548   406A      0.255760   407A      0.256057  
     408A      0.257465   409A      0.258303   410A      0.259068  
     411A      0.260522   412A      0.261018   413A      0.263118  
     414A      0.264242   415A      0.264550   416A      0.266045  
     417A      0.267356   418A      0.268463   419A      0.269953  
     420A      0.270147   421A      0.271427   422A      0.272333  
     423A      0.272753   424A      0.273531   425A      0.273779  
     426A      0.275423   427A      0.276258   428A      0.277902  
     429A      0.280066   430A      0.281502   431A      0.281962  
     432A      0.283411   433A      0.284259   434A      0.284992  
     435A      0.286174   436A      0.287428   437A      0.288612  
     438A      0.289654   439A      0.290295   440A      0.291358  
     441A      0.293030   442A      0.294238   443A      0.294649  
     444A      0.295022   445A      0.295557   446A      0.297318  
     447A      0.298087   448A      0.299860   449A      0.300248  
     450A      0.302155   451A      0.302942   452A      0.305478  
     453A      0.306536   454A      0.307189   455A      0.308112  
     456A      0.308619   457A      0.309107   458A      0.311074  
     459A      0.311652   460A      0.313388   461A      0.313875  
     462A      0.314928   463A      0.316340   464A      0.316910  
     465A      0.318860   466A      0.320731   467A      0.322076  
     468A      0.323106   469A      0.325027   470A      0.325742  
     471A      0.326926   472A      0.327416   473A      0.328627  
     474A      0.331519   475A      0.333353   476A      0.333799  
     477A      0.334196   478A      0.336015   479A      0.337407  
     480A      0.338783   481A      0.339128   482A      0.340712  
     483A      0.341454   484A      0.343373   485A      0.344346  
     486A      0.347774   487A      0.348926   488A      0.349789  
     489A      0.351132   490A      0.353251   491A      0.353812  
     492A      0.355273   493A      0.356395   494A      0.357462  
     495A      0.358371   496A      0.359725   497A      0.361559  
     498A      0.361903   499A      0.364715   500A      0.365807  
     501A      0.366265   502A      0.366652   503A      0.368843  
     504A      0.370169   505A      0.371197   506A      0.373008  
     507A      0.374713   508A      0.376240   509A      0.376953  
     510A      0.378043   511A      0.378263   512A      0.380863  
     513A      0.381465   514A      0.383194   515A      0.384338  
     516A      0.385704   517A      0.387303   518A      0.389356  
     519A      0.390184   520A      0.390783   521A      0.391676  
     522A      0.392530   523A      0.393372   524A      0.394662  
     525A      0.396507   526A      0.398897   527A      0.400105  
     528A      0.400714   529A      0.401266   530A      0.403381  
     531A      0.403613   532A      0.404769   533A      0.405384  
     534A      0.405888   535A      0.407522   536A      0.408072  
     537A      0.409648   538A      0.411527   539A      0.412270  
     540A      0.414073   541A      0.415854   542A      0.416617  
     543A      0.417527   544A      0.418410   545A      0.418820  
     546A      0.419671   547A      0.420864   548A      0.421697  
     549A      0.422808   550A      0.423109   551A      0.425602  
     552A      0.426115   553A      0.426439   554A      0.428694  
     555A      0.428971   556A      0.430476   557A      0.430753  
     558A      0.432575   559A      0.432777   560A      0.434425  
     561A      0.435021   562A      0.435602   563A      0.436860  
     564A      0.437970   565A      0.439084   566A      0.439995  
     567A      0.440253   568A      0.441534   569A      0.443076  
     570A      0.443148   571A      0.444142   572A      0.445164  
     573A      0.446102   574A      0.446515   575A      0.447681  
     576A      0.449158   577A      0.450454   578A      0.451299  
     579A      0.452075   580A      0.453102   581A      0.454085  
     582A      0.455649   583A      0.457517   584A      0.457950  
     585A      0.458591   586A      0.460583   587A      0.461518  
     588A      0.462357   589A      0.463021   590A      0.463873  
     591A      0.465166   592A      0.465382   593A      0.466883  
     594A      0.467603   595A      0.469943   596A      0.470562  
     597A      0.471617   598A      0.472489   599A      0.473325  
     600A      0.474474   601A      0.476047   602A      0.476798  
     603A      0.478006   604A      0.478477   605A      0.480106  
     606A      0.480939   607A      0.481526   608A      0.482075  
     609A      0.482942   610A      0.484664   611A      0.485611  
     612A      0.487245   613A      0.488137   614A      0.489573  
     615A      0.490904   616A      0.491544   617A      0.492806  
     618A      0.493725   619A      0.493933   620A      0.496072  
     621A      0.498758   622A      0.499457   623A      0.501232  
     624A      0.501863   625A      0.502932   626A      0.503761  
     627A      0.504336   628A      0.505217   629A      0.506832  
     630A      0.507928   631A      0.509502   632A      0.510281  
     633A      0.511086   634A      0.512367   635A      0.514352  
     636A      0.515741   637A      0.516833   638A      0.517948  
     639A      0.519205   640A      0.521134   641A      0.521261  
     642A      0.521530   643A      0.523856   644A      0.524750  
     645A      0.527006   646A      0.527742   647A      0.528904  
     648A      0.530771   649A      0.531452   650A      0.533492  
     651A      0.535161   652A      0.536017   653A      0.536211  
     654A      0.538582   655A      0.539941   656A      0.540865  
     657A      0.542732   658A      0.543621   659A      0.545113  
     660A      0.545541   661A      0.547878   662A      0.548503  
     663A      0.550003   664A      0.552161   665A      0.552830  
     666A      0.554265   667A      0.556196   668A      0.557006  
     669A      0.559519   670A      0.560407   671A      0.560569  
     672A      0.562663   673A      0.563607   674A      0.564964  
     675A      0.565980   676A      0.567737   677A      0.568773  
     678A      0.571228   679A      0.572247   680A      0.574005  
     681A      0.574038   682A      0.575490   683A      0.577286  
     684A      0.578824   685A      0.580090   686A      0.581254  
     687A      0.583595   688A      0.584594   689A      0.587032  
     690A      0.588567   691A      0.589868   692A      0.591043  
     693A      0.591965   694A      0.593594   695A      0.594504  
     696A      0.595269   697A      0.597305   698A      0.598044  
     699A      0.601281   700A      0.602189   701A      0.605074  
     702A      0.605767   703A      0.606939   704A      0.607634  
     705A      0.609933   706A      0.610703   707A      0.611090  
     708A      0.613236   709A      0.614495   710A      0.615775  
     711A      0.617247   712A      0.620421   713A      0.621627  
     714A      0.624611   715A      0.625544   716A      0.626096  
     717A      0.626491   718A      0.627460   719A      0.628924  
     720A      0.629931   721A      0.632122   722A      0.633643  
     723A      0.634568   724A      0.635427   725A      0.636570  
     726A      0.639479   727A      0.640928   728A      0.643633  
     729A      0.643880   730A      0.645990   731A      0.647107  
     732A      0.648293   733A      0.649690   734A      0.651024  
     735A      0.652032   736A      0.652643   737A      0.654712  
     738A      0.655572   739A      0.656217   740A      0.658250  
     741A      0.660766   742A      0.661810   743A      0.663753  
     744A      0.666013   745A      0.667114   746A      0.668172  
     747A      0.669327   748A      0.670984   749A      0.672239  
     750A      0.673613   751A      0.675523   752A      0.676604  
     753A      0.678484   754A      0.679652   755A      0.681326  
     756A      0.681884   757A      0.683525   758A      0.684570  
     759A      0.686005   760A      0.686699   761A      0.688418  
     762A      0.690126   763A      0.691542   764A      0.692729  
     765A      0.694134   766A      0.694682   767A      0.696878  
     768A      0.698064   769A      0.699545   770A      0.701281  
     771A      0.702340   772A      0.703449   773A      0.704323  
     774A      0.705886   775A      0.707042   776A      0.708151  
     777A      0.708867   778A      0.710857   779A      0.711514  
     780A      0.711752   781A      0.714701   782A      0.717196  
     783A      0.718591   784A      0.718949   785A      0.721426  
     786A      0.723648   787A      0.723758   788A      0.724014  
     789A      0.725009   790A      0.727015   791A      0.729217  
     792A      0.730516   793A      0.731683   794A      0.733802  
     795A      0.735020   796A      0.735949   797A      0.737477  
     798A      0.738631   799A      0.739627   800A      0.742412  
     801A      0.742765   802A      0.744659   803A      0.745657  
     804A      0.746517   805A      0.747838   806A      0.748943  
     807A      0.750805   808A      0.752246   809A      0.752342  
     810A      0.753586   811A      0.755066   812A      0.756836  
     813A      0.757655   814A      0.758919   815A      0.760706  
     816A      0.762275   817A      0.763195   818A      0.763626  
     819A      0.765264   820A      0.768134   821A      0.768375  
     822A      0.769258   823A      0.770713   824A      0.773606  
     825A      0.774448   826A      0.775259   827A      0.776333  
     828A      0.777633   829A      0.779010   830A      0.779345  
     831A      0.782284   832A      0.783954   833A      0.784510  
     834A      0.786405   835A      0.786884   836A      0.790580  
     837A      0.791102   838A      0.793534   839A      0.793822  
     840A      0.795875   841A      0.797638   842A      0.799486  
     843A      0.800056   844A      0.801346   845A      0.802126  
     846A      0.804547   847A      0.804855   848A      0.806078  
     849A      0.806432   850A      0.807610   851A      0.808748  
     852A      0.809805   853A      0.811561   854A      0.813796  
     855A      0.814671   856A      0.816175   857A      0.818045  
     858A      0.818269   859A      0.819719   860A      0.821209  
     861A      0.822137   862A      0.824164   863A      0.824661  
     864A      0.825228   865A      0.825772   866A      0.827333  
     867A      0.828257   868A      0.829886   869A      0.832012  
     870A      0.833793   871A      0.834600   872A      0.836437  
     873A      0.837698   874A      0.838067   875A      0.839310  
     876A      0.840011   877A      0.841680   878A      0.842492  
     879A      0.843879   880A      0.845071   881A      0.846125  
     882A      0.847568   883A      0.848839   884A      0.850191  
     885A      0.851078   886A      0.852229   887A      0.852790  
     888A      0.855056   889A      0.856041   890A      0.858980  
     891A      0.859341   892A      0.859436   893A      0.861412  
     894A      0.862070   895A      0.864074   896A      0.865605  
     897A      0.867616   898A      0.868422   899A      0.868693  
     900A      0.869094   901A      0.871564   902A      0.872407  
     903A      0.874160   904A      0.875392   905A      0.876891  
     906A      0.877267   907A      0.879432   908A      0.880436  
     909A      0.881395   910A      0.882109   911A      0.883187  
     912A      0.884505   913A      0.886942   914A      0.887165  
     915A      0.887754   916A      0.889953   917A      0.892488  
     918A      0.892686   919A      0.895736   920A      0.897203  
     921A      0.898090   922A      0.898739   923A      0.901937  
     924A      0.902640   925A      0.904671   926A      0.905554  
     927A      0.906418   928A      0.906582   929A      0.909110  
     930A      0.909339   931A      0.912078   932A      0.912841  
     933A      0.914823   934A      0.915698   935A      0.916808  
     936A      0.917956   937A      0.920198   938A      0.921680  
     939A      0.923394   940A      0.925523   941A      0.926311  
     942A      0.927250   943A      0.928534   944A      0.929478  
     945A      0.930551   946A      0.931283   947A      0.932929  
     948A      0.935202   949A      0.938138   950A      0.938250  
     951A      0.939646   952A      0.941043   953A      0.941864  
     954A      0.943557   955A      0.944683   956A      0.945897  
     957A      0.947265   958A      0.947646   959A      0.948710  
     960A      0.950750   961A      0.951795   962A      0.953891  
     963A      0.955219   964A      0.956806   965A      0.958127  
     966A      0.959636   967A      0.960696   968A      0.961603  
     969A      0.962768   970A      0.963706   971A      0.966271  
     972A      0.968768   973A      0.969245   974A      0.971191  
     975A      0.972444   976A      0.973496   977A      0.975407  
     978A      0.975626   979A      0.977485   980A      0.979209  
     981A      0.980026   982A      0.981344   983A      0.983040  
     984A      0.984283   985A      0.985469   986A      0.986967  
     987A      0.988552   988A      0.990662   989A      0.991500  
     990A      0.992360   991A      0.992821   992A      0.994630  
     993A      0.996688   994A      0.998331   995A      1.000032  
     996A      1.001267   997A      1.002673   998A      1.004642  
     999A      1.004836  1000A      1.006736  1001A      1.009052  
    1002A      1.009193  1003A      1.010843  1004A      1.013405  
    1005A      1.013917  1006A      1.015331  1007A      1.017457  
    1008A      1.018430  1009A      1.019288  1010A      1.020871  
    1011A      1.022400  1012A      1.023675  1013A      1.025842  
    1014A      1.026424  1015A      1.027407  1016A      1.028801  
    1017A      1.030228  1018A      1.031629  1019A      1.033644  
    1020A      1.036450  1021A      1.037097  1022A      1.039625  
    1023A      1.040612  1024A      1.042029  1025A      1.042208  
    1026A      1.043312  1027A      1.045390  1028A      1.047242  
    1029A      1.048218  1030A      1.049498  1031A      1.051878  
    1032A      1.053446  1033A      1.055163  1034A      1.056089  
    1035A      1.057633  1036A      1.059072  1037A      1.060575  
    1038A      1.061029  1039A      1.061902  1040A      1.063520  
    1041A      1.064595  1042A      1.065384  1043A      1.067893  
    1044A      1.069700  1045A      1.071942  1046A      1.073754  
    1047A      1.076073  1048A      1.077066  1049A      1.078048  
    1050A      1.078751  1051A      1.079670  1052A      1.082501  
    1053A      1.084241  1054A      1.084878  1055A      1.086910  
    1056A      1.087899  1057A      1.088599  1058A      1.091451  
    1059A      1.092106  1060A      1.093106  1061A      1.093654  
    1062A      1.096341  1063A      1.097913  1064A      1.098648  
    1065A      1.101705  1066A      1.103116  1067A      1.105355  
    1068A      1.106701  1069A      1.107763  1070A      1.109490  
    1071A      1.112388  1072A      1.113270  1073A      1.115357  
    1074A      1.118090  1075A      1.118854  1076A      1.120035  
    1077A      1.120302  1078A      1.122623  1079A      1.124989  
    1080A      1.125325  1081A      1.126764  1082A      1.129309  
    1083A      1.129531  1084A      1.132022  1085A      1.134167  
    1086A      1.134690  1087A      1.136504  1088A      1.138614  
    1089A      1.140757  1090A      1.141209  1091A      1.144649  
    1092A      1.145664  1093A      1.146692  1094A      1.148430  
    1095A      1.151276  1096A      1.151878  1097A      1.154114  
    1098A      1.154435  1099A      1.154908  1100A      1.155979  
    1101A      1.157494  1102A      1.159731  1103A      1.162874  
    1104A      1.165060  1105A      1.166080  1106A      1.168197  
    1107A      1.168514  1108A      1.170476  1109A      1.170783  
    1110A      1.172262  1111A      1.175432  1112A      1.176955  
    1113A      1.178152  1114A      1.179548  1115A      1.180542  
    1116A      1.181759  1117A      1.185111  1118A      1.185688  
    1119A      1.186928  1120A      1.187621  1121A      1.189705  
    1122A      1.192444  1123A      1.194010  1124A      1.195391  
    1125A      1.195952  1126A      1.197021  1127A      1.200879  
    1128A      1.201820  1129A      1.205236  1130A      1.205811  
    1131A      1.206803  1132A      1.207269  1133A      1.209569  
    1134A      1.211106  1135A      1.213044  1136A      1.213543  
    1137A      1.215242  1138A      1.218869  1139A      1.220600  
    1140A      1.221329  1141A      1.222514  1142A      1.224982  
    1143A      1.225736  1144A      1.227064  1145A      1.227962  
    1146A      1.230070  1147A      1.232235  1148A      1.233626  
    1149A      1.235649  1150A      1.237060  1151A      1.239037  
    1152A      1.240076  1153A      1.243210  1154A      1.243462  
    1155A      1.244985  1156A      1.245864  1157A      1.248126  
    1158A      1.248841  1159A      1.249824  1160A      1.249959  
    1161A      1.253279  1162A      1.254745  1163A      1.256015  
    1164A      1.256315  1165A      1.258256  1166A      1.260623  
    1167A      1.261596  1168A      1.261861  1169A      1.265282  
    1170A      1.265950  1171A      1.268489  1172A      1.269589  
    1173A      1.272513  1174A      1.274812  1175A      1.275532  
    1176A      1.276464  1177A      1.277595  1178A      1.280022  
    1179A      1.281143  1180A      1.283093  1181A      1.285537  
    1182A      1.285851  1183A      1.287947  1184A      1.288893  
    1185A      1.291336  1186A      1.292632  1187A      1.294453  
    1188A      1.296084  1189A      1.297297  1190A      1.299974  
    1191A      1.300512  1192A      1.302333  1193A      1.303025  
    1194A      1.305341  1195A      1.306020  1196A      1.307060  
    1197A      1.307725  1198A      1.308818  1199A      1.310810  
    1200A      1.311483  1201A      1.313144  1202A      1.315564  
    1203A      1.316531  1204A      1.318962  1205A      1.320714  
    1206A      1.322964  1207A      1.323284  1208A      1.323805  
    1209A      1.325966  1210A      1.326900  1211A      1.327875  
    1212A      1.329444  1213A      1.332913  1214A      1.333317  
    1215A      1.335362  1216A      1.336886  1217A      1.338078  
    1218A      1.338177  1219A      1.339685  1220A      1.342765  
    1221A      1.344607  1222A      1.346810  1223A      1.348529  
    1224A      1.350323  1225A      1.351841  1226A      1.352077  
    1227A      1.353970  1228A      1.355382  1229A      1.356340  
    1230A      1.358451  1231A      1.360795  1232A      1.363143  
    1233A      1.363943  1234A      1.365798  1235A      1.365953  
    1236A      1.366789  1237A      1.367479  1238A      1.368329  
    1239A      1.370306  1240A      1.372518  1241A      1.374441  
    1242A      1.376328  1243A      1.377445  1244A      1.378139  
    1245A      1.380636  1246A      1.383363  1247A      1.384907  
    1248A      1.384969  1249A      1.386570  1250A      1.389852  
    1251A      1.390382  1252A      1.391483  1253A      1.392339  
    1254A      1.393043  1255A      1.395948  1256A      1.397257  
    1257A      1.398747  1258A      1.399130  1259A      1.402113  
    1260A      1.402607  1261A      1.403804  1262A      1.406720  
    1263A      1.407715  1264A      1.407869  1265A      1.410915  
    1266A      1.411761  1267A      1.412115  1268A      1.413522  
    1269A      1.415587  1270A      1.417075  1271A      1.418480  
    1272A      1.420253  1273A      1.421155  1274A      1.423804  
    1275A      1.424204  1276A      1.425746  1277A      1.426214  
    1278A      1.428550  1279A      1.429457  1280A      1.430683  
    1281A      1.432271  1282A      1.434724  1283A      1.435408  
    1284A      1.436244  1285A      1.437274  1286A      1.437825  
    1287A      1.438347  1288A      1.439406  1289A      1.441250  
    1290A      1.442707  1291A      1.443625  1292A      1.444427  
    1293A      1.448164  1294A      1.450178  1295A      1.451009  
    1296A      1.451722  1297A      1.453094  1298A      1.453994  
    1299A      1.454420  1300A      1.455699  1301A      1.458036  
    1302A      1.458450  1303A      1.462084  1304A      1.463393  
    1305A      1.464215  1306A      1.465145  1307A      1.466427  
    1308A      1.467827  1309A      1.469648  1310A      1.470524  
    1311A      1.471330  1312A      1.471866  1313A      1.473904  
    1314A      1.476331  1315A      1.477202  1316A      1.479369  
    1317A      1.481029  1318A      1.483600  1319A      1.484696  
    1320A      1.485156  1321A      1.487470  1322A      1.488170  
    1323A      1.490700  1324A      1.491284  1325A      1.493380  
    1326A      1.494238  1327A      1.495580  1328A      1.497652  
    1329A      1.499925  1330A      1.500667  1331A      1.502444  
    1332A      1.502888  1333A      1.504268  1334A      1.505383  
    1335A      1.506854  1336A      1.507699  1337A      1.509953  
    1338A      1.511169  1339A      1.513290  1340A      1.513704  
    1341A      1.515528  1342A      1.516246  1343A      1.518254  
    1344A      1.521013  1345A      1.522909  1346A      1.523192  
    1347A      1.524756  1348A      1.526288  1349A      1.526611  
    1350A      1.528279  1351A      1.529059  1352A      1.532709  
    1353A      1.533412  1354A      1.534578  1355A      1.535180  
    1356A      1.535878  1357A      1.538062  1358A      1.540944  
    1359A      1.542710  1360A      1.543889  1361A      1.545113  
    1362A      1.546772  1363A      1.548300  1364A      1.549759  
    1365A      1.551789  1366A      1.552513  1367A      1.555371  
    1368A      1.556048  1369A      1.556442  1370A      1.558948  
    1371A      1.559513  1372A      1.560614  1373A      1.563286  
    1374A      1.563967  1375A      1.565188  1376A      1.566479  
    1377A      1.567982  1378A      1.569806  1379A      1.572287  
    1380A      1.572873  1381A      1.573775  1382A      1.575379  
    1383A      1.576697  1384A      1.578183  1385A      1.578649  
    1386A      1.580930  1387A      1.583164  1388A      1.583356  
    1389A      1.586275  1390A      1.587557  1391A      1.588719  
    1392A      1.589140  1393A      1.590533  1394A      1.593036  
    1395A      1.595659  1396A      1.595980  1397A      1.597770  
    1398A      1.599612  1399A      1.600144  1400A      1.601056  
    1401A      1.603170  1402A      1.605166  1403A      1.606012  
    1404A      1.607114  1405A      1.609462  1406A      1.609732  
    1407A      1.612743  1408A      1.614009  1409A      1.614928  
    1410A      1.616894  1411A      1.618338  1412A      1.619998  
    1413A      1.621853  1414A      1.622540  1415A      1.626029  
    1416A      1.626964  1417A      1.628116  1418A      1.628517  
    1419A      1.629989  1420A      1.633770  1421A      1.635256  
    1422A      1.637177  1423A      1.638298  1424A      1.639835  
    1425A      1.641617  1426A      1.643834  1427A      1.644635  
    1428A      1.645539  1429A      1.648130  1430A      1.650305  
    1431A      1.650788  1432A      1.653366  1433A      1.654548  
    1434A      1.657558  1435A      1.659025  1436A      1.660951  
    1437A      1.661571  1438A      1.662164  1439A      1.664265  
    1440A      1.665982  1441A      1.667282  1442A      1.669167  
    1443A      1.672256  1444A      1.673441  1445A      1.675746  
    1446A      1.676390  1447A      1.676913  1448A      1.679121  
    1449A      1.680650  1450A      1.681985  1451A      1.682926  
    1452A      1.685341  1453A      1.686239  1454A      1.687434  
    1455A      1.690481  1456A      1.690799  1457A      1.693000  
    1458A      1.695078  1459A      1.697256  1460A      1.698858  
    1461A      1.700733  1462A      1.701778  1463A      1.703071  
    1464A      1.704949  1465A      1.706003  1466A      1.708647  
    1467A      1.711585  1468A      1.713255  1469A      1.715621  
    1470A      1.716809  1471A      1.719010  1472A      1.720531  
    1473A      1.720871  1474A      1.723233  1475A      1.724149  
    1476A      1.725446  1477A      1.730185  1478A      1.730485  
    1479A      1.734118  1480A      1.734865  1481A      1.736990  
    1482A      1.738194  1483A      1.739534  1484A      1.743372  
    1485A      1.745912  1486A      1.747072  1487A      1.748769  
    1488A      1.749942  1489A      1.750797  1490A      1.753080  
    1491A      1.755228  1492A      1.756786  1493A      1.759265  
    1494A      1.761239  1495A      1.764577  1496A      1.768397  
    1497A      1.769479  1498A      1.770409  1499A      1.772805  
    1500A      1.773548  1501A      1.773649  1502A      1.776463  
    1503A      1.777268  1504A      1.781162  1505A      1.783671  
    1506A      1.784955  1507A      1.786817  1508A      1.786980  
    1509A      1.788849  1510A      1.791164  1511A      1.794748  
    1512A      1.795614  1513A      1.796861  1514A      1.798257  
    1515A      1.801931  1516A      1.804139  1517A      1.805728  
    1518A      1.807582  1519A      1.809346  1520A      1.809541  
    1521A      1.812239  1522A      1.813727  1523A      1.816409  
    1524A      1.819237  1525A      1.820188  1526A      1.822125  
    1527A      1.825573  1528A      1.828081  1529A      1.828547  
    1530A      1.829400  1531A      1.831841  1532A      1.833893  
    1533A      1.836056  1534A      1.836964  1535A      1.839594  
    1536A      1.841408  1537A      1.842280  1538A      1.844970  
    1539A      1.846819  1540A      1.848670  1541A      1.849095  
    1542A      1.851096  1543A      1.852428  1544A      1.854826  
    1545A      1.855961  1546A      1.859060  1547A      1.860211  
    1548A      1.862769  1549A      1.865644  1550A      1.867910  
    1551A      1.869716  1552A      1.871522  1553A      1.872032  
    1554A      1.874511  1555A      1.878635  1556A      1.879266  
    1557A      1.880844  1558A      1.882158  1559A      1.882417  
    1560A      1.885679  1561A      1.887843  1562A      1.890342  
    1563A      1.892542  1564A      1.894623  1565A      1.896689  
    1566A      1.899469  1567A      1.900541  1568A      1.904268  
    1569A      1.905962  1570A      1.907684  1571A      1.909100  
    1572A      1.912425  1573A      1.912845  1574A      1.915242  
    1575A      1.916533  1576A      1.918783  1577A      1.919957  
    1578A      1.922281  1579A      1.923802  1580A      1.924247  
    1581A      1.928797  1582A      1.929729  1583A      1.930731  
    1584A      1.933930  1585A      1.934782  1586A      1.935155  
    1587A      1.937959  1588A      1.940670  1589A      1.941372  
    1590A      1.942125  1591A      1.945127  1592A      1.946497  
    1593A      1.948494  1594A      1.951820  1595A      1.952750  
    1596A      1.956000  1597A      1.957622  1598A      1.958943  
    1599A      1.961096  1600A      1.962449  1601A      1.966650  
    1602A      1.970028  1603A      1.971475  1604A      1.973046  
    1605A      1.976888  1606A      1.977381  1607A      1.977787  
    1608A      1.980526  1609A      1.981782  1610A      1.984030  
    1611A      1.985749  1612A      1.986141  1613A      1.989250  
    1614A      1.991301  1615A      1.992261  1616A      1.993920  
    1617A      1.997486  1618A      1.997706  1619A      2.000484  
    1620A      2.000779  1621A      2.004477  1622A      2.005849  
    1623A      2.007832  1624A      2.008566  1625A      2.009466  
    1626A      2.010453  1627A      2.011294  1628A      2.013859  
    1629A      2.016820  1630A      2.018203  1631A      2.018451  
    1632A      2.020324  1633A      2.023096  1634A      2.024641  
    1635A      2.029110  1636A      2.029672  1637A      2.031524  
    1638A      2.032620  1639A      2.036143  1640A      2.037526  
    1641A      2.038281  1642A      2.040709  1643A      2.041539  
    1644A      2.042677  1645A      2.043501  1646A      2.046681  
    1647A      2.049704  1648A      2.050729  1649A      2.053002  
    1650A      2.055143  1651A      2.056820  1652A      2.059673  
    1653A      2.062453  1654A      2.065694  1655A      2.067074  
    1656A      2.070474  1657A      2.071853  1658A      2.073762  
    1659A      2.075518  1660A      2.076868  1661A      2.079308  
    1662A      2.081841  1663A      2.084741  1664A      2.084937  
    1665A      2.089604  1666A      2.091064  1667A      2.093320  
    1668A      2.095205  1669A      2.097043  1670A      2.098500  
    1671A      2.101024  1672A      2.103047  1673A      2.104576  
    1674A      2.107771  1675A      2.110713  1676A      2.112870  
    1677A      2.113227  1678A      2.114848  1679A      2.115487  
    1680A      2.117889  1681A      2.120034  1682A      2.124076  
    1683A      2.125933  1684A      2.126991  1685A      2.131285  
    1686A      2.131984  1687A      2.132376  1688A      2.136038  
    1689A      2.137677  1690A      2.139594  1691A      2.143518  
    1692A      2.147578  1693A      2.149395  1694A      2.152281  
    1695A      2.153829  1696A      2.156902  1697A      2.157441  
    1698A      2.159750  1699A      2.161326  1700A      2.163821  
    1701A      2.166756  1702A      2.168374  1703A      2.169223  
    1704A      2.171226  1705A      2.172564  1706A      2.175163  
    1707A      2.179210  1708A      2.180407  1709A      2.182284  
    1710A      2.184033  1711A      2.186959  1712A      2.189651  
    1713A      2.191863  1714A      2.195025  1715A      2.196270  
    1716A      2.199456  1717A      2.202741  1718A      2.204147  
    1719A      2.207386  1720A      2.208313  1721A      2.209290  
    1722A      2.212450  1723A      2.216030  1724A      2.217524  
    1725A      2.218506  1726A      2.220525  1727A      2.223425  
    1728A      2.225863  1729A      2.227698  1730A      2.229032  
    1731A      2.230608  1732A      2.234319  1733A      2.235845  
    1734A      2.238033  1735A      2.240867  1736A      2.244932  
    1737A      2.245903  1738A      2.247870  1739A      2.248381  
    1740A      2.250777  1741A      2.252928  1742A      2.258009  
    1743A      2.258604  1744A      2.260654  1745A      2.263403  
    1746A      2.265909  1747A      2.267950  1748A      2.272161  
    1749A      2.275714  1750A      2.276512  1751A      2.277170  
    1752A      2.280160  1753A      2.281762  1754A      2.283660  
    1755A      2.285747  1756A      2.288308  1757A      2.290122  
    1758A      2.291981  1759A      2.295928  1760A      2.296144  
    1761A      2.298812  1762A      2.304393  1763A      2.306314  
    1764A      2.308669  1765A      2.312076  1766A      2.313866  
    1767A      2.316463  1768A      2.318271  1769A      2.319707  
    1770A      2.320890  1771A      2.322658  1772A      2.326146  
    1773A      2.329522  1774A      2.330455  1775A      2.333094  
    1776A      2.334549  1777A      2.337399  1778A      2.341020  
    1779A      2.345338  1780A      2.348181  1781A      2.349188  
    1782A      2.353316  1783A      2.355806  1784A      2.358759  
    1785A      2.359855  1786A      2.361686  1787A      2.365300  
    1788A      2.366135  1789A      2.367373  1790A      2.372857  
    1791A      2.374948  1792A      2.375714  1793A      2.381543  
    1794A      2.383177  1795A      2.383651  1796A      2.385581  
    1797A      2.390076  1798A      2.393525  1799A      2.396075  
    1800A      2.400885  1801A      2.402552  1802A      2.405313  
    1803A      2.407083  1804A      2.408630  1805A      2.412429  
    1806A      2.414267  1807A      2.414699  1808A      2.421540  
    1809A      2.423003  1810A      2.425121  1811A      2.428549  
    1812A      2.430727  1813A      2.432820  1814A      2.433917  
    1815A      2.439575  1816A      2.440642  1817A      2.446602  
    1818A      2.447375  1819A      2.449575  1820A      2.452335  
    1821A      2.454365  1822A      2.457811  1823A      2.461937  
    1824A      2.462927  1825A      2.464240  1826A      2.468240  
    1827A      2.471365  1828A      2.473314  1829A      2.476155  
    1830A      2.478005  1831A      2.483523  1832A      2.488359  
    1833A      2.489571  1834A      2.490683  1835A      2.492488  
    1836A      2.497146  1837A      2.497989  1838A      2.501370  
    1839A      2.506476  1840A      2.509671  1841A      2.511321  
    1842A      2.517376  1843A      2.518499  1844A      2.521159  
    1845A      2.525360  1846A      2.528720  1847A      2.532552  
    1848A      2.535463  1849A      2.535744  1850A      2.541854  
    1851A      2.542413  1852A      2.545039  1853A      2.546193  
    1854A      2.548308  1855A      2.553966  1856A      2.555663  
    1857A      2.562905  1858A      2.564718  1859A      2.566837  
    1860A      2.571800  1861A      2.572798  1862A      2.576021  
    1863A      2.580221  1864A      2.582657  1865A      2.587495  
    1866A      2.589043  1867A      2.591747  1868A      2.594310  
    1869A      2.597848  1870A      2.600776  1871A      2.604785  
    1872A      2.606794  1873A      2.613578  1874A      2.615608  
    1875A      2.618609  1876A      2.621649  1877A      2.624900  
    1878A      2.627355  1879A      2.630993  1880A      2.635524  
    1881A      2.637230  1882A      2.639752  1883A      2.645381  
    1884A      2.654010  1885A      2.658185  1886A      2.660036  
    1887A      2.665089  1888A      2.670444  1889A      2.673248  
    1890A      2.676761  1891A      2.678003  1892A      2.689263  
    1893A      2.690501  1894A      2.694337  1895A      2.697880  
    1896A      2.705722  1897A      2.709997  1898A      2.715058  
    1899A      2.717341  1900A      2.720709  1901A      2.722339  
    1902A      2.729163  1903A      2.734444  1904A      2.743071  
    1905A      2.749384  1906A      2.756528  1907A      2.761009  
    1908A      2.762185  1909A      2.766832  1910A      2.769765  
    1911A      2.773842  1912A      2.777899  1913A      2.779271  
    1914A      2.786747  1915A      2.790598  1916A      2.792457  
    1917A      2.798078  1918A      2.803528  1919A      2.810241  
    1920A      2.815046  1921A      2.818585  1922A      2.822984  
    1923A      2.829950  1924A      2.837997  1925A      2.840935  
    1926A      2.841913  1927A      2.849013  1928A      2.855248  
    1929A      2.857837  1930A      2.867227  1931A      2.868974  
    1932A      2.873371  1933A      2.882312  1934A      2.884318  
    1935A      2.895832  1936A      2.907646  1937A      2.913669  
    1938A      2.914632  1939A      2.921037  1940A      2.927115  
    1941A      2.940350  1942A      2.943062  1943A      2.947617  
    1944A      2.949094  1945A      2.955716  1946A      2.958064  
    1947A      2.964732  1948A      2.969649  1949A      2.975471  
    1950A      2.976357  1951A      2.982818  1952A      2.985874  
    1953A      2.990385  1954A      2.991981  1955A      2.997305  
    1956A      3.000325  1957A      3.006184  1958A      3.013240  
    1959A      3.016950  1960A      3.019781  1961A      3.023051  
    1962A      3.025857  1963A      3.032648  1964A      3.034867  
    1965A      3.040082  1966A      3.042343  1967A      3.048874  
    1968A      3.051642  1969A      3.053026  1970A      3.058952  
    1971A      3.065586  1972A      3.070191  1973A      3.074435  
    1974A      3.076520  1975A      3.081716  1976A      3.084930  
    1977A      3.087119  1978A      3.091813  1979A      3.093937  
    1980A      3.097949  1981A      3.100927  1982A      3.101478  
    1983A      3.104497  1984A      3.107845  1985A      3.109692  
    1986A      3.111327  1987A      3.116757  1988A      3.120265  
    1989A      3.127443  1990A      3.129859  1991A      3.131996  
    1992A      3.132890  1993A      3.137631  1994A      3.141736  
    1995A      3.143821  1996A      3.144481  1997A      3.146320  
    1998A      3.151848  1999A      3.155804  2000A      3.158894  
    2001A      3.161962  2002A      3.165590  2003A      3.167078  
    2004A      3.169473  2005A      3.170798  2006A      3.178665  
    2007A      3.180905  2008A      3.182066  2009A      3.184390  
    2010A      3.186632  2011A      3.188121  2012A      3.193093  
    2013A      3.195039  2014A      3.197869  2015A      3.199626  
    2016A      3.202251  2017A      3.205549  2018A      3.207107  
    2019A      3.210999  2020A      3.212026  2021A      3.216429  
    2022A      3.217306  2023A      3.220075  2024A      3.222288  
    2025A      3.223909  2026A      3.225535  2027A      3.229059  
    2028A      3.230006  2029A      3.234272  2030A      3.236245  
    2031A      3.237912  2032A      3.240133  2033A      3.245175  
    2034A      3.246019  2035A      3.247104  2036A      3.250141  
    2037A      3.251667  2038A      3.253940  2039A      3.256827  
    2040A      3.258675  2041A      3.260181  2042A      3.263832  
    2043A      3.265394  2044A      3.266184  2045A      3.269295  
    2046A      3.273918  2047A      3.274991  2048A      3.278919  
    2049A      3.281313  2050A      3.283564  2051A      3.285846  
    2052A      3.286813  2053A      3.287989  2054A      3.291209  
    2055A      3.293733  2056A      3.296542  2057A      3.297502  
    2058A      3.298772  2059A      3.300205  2060A      3.302992  
    2061A      3.306530  2062A      3.309503  2063A      3.311414  
    2064A      3.311831  2065A      3.315816  2066A      3.317000  
    2067A      3.319952  2068A      3.320831  2069A      3.322932  
    2070A      3.323211  2071A      3.324253  2072A      3.326935  
    2073A      3.330713  2074A      3.332237  2075A      3.333490  
    2076A      3.337427  2077A      3.338637  2078A      3.343678  
    2079A      3.345880  2080A      3.346591  2081A      3.347612  
    2082A      3.351437  2083A      3.351641  2084A      3.355132  
    2085A      3.356029  2086A      3.359303  2087A      3.360999  
    2088A      3.362419  2089A      3.363136  2090A      3.366610  
    2091A      3.367878  2092A      3.369053  2093A      3.370796  
    2094A      3.374297  2095A      3.374756  2096A      3.376420  
    2097A      3.378783  2098A      3.379208  2099A      3.383355  
    2100A      3.384603  2101A      3.387359  2102A      3.389092  
    2103A      3.391674  2104A      3.391890  2105A      3.394263  
    2106A      3.397046  2107A      3.399376  2108A      3.401071  
    2109A      3.402685  2110A      3.404063  2111A      3.409046  
    2112A      3.410457  2113A      3.411324  2114A      3.412786  
    2115A      3.416775  2116A      3.417794  2117A      3.420893  
    2118A      3.421605  2119A      3.422792  2120A      3.426405  
    2121A      3.430622  2122A      3.431331  2123A      3.432651  
    2124A      3.434610  2125A      3.437004  2126A      3.437719  
    2127A      3.441059  2128A      3.443244  2129A      3.446405  
    2130A      3.449108  2131A      3.451969  2132A      3.452570  
    2133A      3.453235  2134A      3.455337  2135A      3.457108  
    2136A      3.459356  2137A      3.462573  2138A      3.463930  
    2139A      3.464407  2140A      3.468060  2141A      3.468783  
    2142A      3.471287  2143A      3.473693  2144A      3.474608  
    2145A      3.477402  2146A      3.478692  2147A      3.481966  
    2148A      3.482812  2149A      3.483216  2150A      3.485176  
    2151A      3.488898  2152A      3.490950  2153A      3.493768  
    2154A      3.494316  2155A      3.497771  2156A      3.498803  
    2157A      3.501290  2158A      3.504656  2159A      3.505427  
    2160A      3.507821  2161A      3.511550  2162A      3.513122  
    2163A      3.515407  2164A      3.516367  2165A      3.517492  
    2166A      3.519525  2167A      3.521839  2168A      3.522465  
    2169A      3.525846  2170A      3.528016  2171A      3.530023  
    2172A      3.532963  2173A      3.534887  2174A      3.536652  
    2175A      3.538729  2176A      3.541825  2177A      3.544284  
    2178A      3.545043  2179A      3.547146  2180A      3.547269  
    2181A      3.549995  2182A      3.552042  2183A      3.554593  
    2184A      3.554935  2185A      3.556382  2186A      3.559970  
    2187A      3.560804  2188A      3.563447  2189A      3.564945  
    2190A      3.567613  2191A      3.569542  2192A      3.572213  
    2193A      3.572826  2194A      3.575919  2195A      3.579680  
    2196A      3.582369  2197A      3.583087  2198A      3.584759  
    2199A      3.586178  2200A      3.588429  2201A      3.589308  
    2202A      3.591286  2203A      3.593105  2204A      3.594900  
    2205A      3.597174  2206A      3.600602  2207A      3.605198  
    2208A      3.607183  2209A      3.608535  2210A      3.610891  
    2211A      3.613824  2212A      3.614805  2213A      3.616064  
    2214A      3.618414  2215A      3.619545  2216A      3.624457  
    2217A      3.624940  2218A      3.628480  2219A      3.630971  
    2220A      3.631650  2221A      3.635261  2222A      3.637193  
    2223A      3.639747  2224A      3.640971  2225A      3.642548  
    2226A      3.643434  2227A      3.647608  2228A      3.649044  
    2229A      3.650073  2230A      3.652307  2231A      3.655551  
    2232A      3.657320  2233A      3.658680  2234A      3.661239  
    2235A      3.663255  2236A      3.666026  2237A      3.666979  
    2238A      3.669931  2239A      3.671982  2240A      3.673884  
    2241A      3.676364  2242A      3.677556  2243A      3.680148  
    2244A      3.682357  2245A      3.684668  2246A      3.686193  
    2247A      3.687420  2248A      3.688562  2249A      3.689667  
    2250A      3.692980  2251A      3.694755  2252A      3.696786  
    2253A      3.698987  2254A      3.701354  2255A      3.702365  
    2256A      3.702532  2257A      3.705917  2258A      3.707870  
    2259A      3.712327  2260A      3.712993  2261A      3.716046  
    2262A      3.716244  2263A      3.720182  2264A      3.720898  
    2265A      3.721712  2266A      3.725066  2267A      3.727132  
    2268A      3.728028  2269A      3.730236  2270A      3.732109  
    2271A      3.733529  2272A      3.734621  2273A      3.736665  
    2274A      3.739513  2275A      3.742798  2276A      3.743392  
    2277A      3.745914  2278A      3.747945  2279A      3.749477  
    2280A      3.752586  2281A      3.753621  2282A      3.756500  
    2283A      3.757287  2284A      3.758769  2285A      3.760970  
    2286A      3.763913  2287A      3.765764  2288A      3.766952  
    2289A      3.769036  2290A      3.772736  2291A      3.776828  
    2292A      3.777517  2293A      3.778608  2294A      3.779270  
    2295A      3.781967  2296A      3.782615  2297A      3.787019  
    2298A      3.787649  2299A      3.791575  2300A      3.794836  
    2301A      3.795209  2302A      3.798237  2303A      3.798900  
    2304A      3.799463  2305A      3.803532  2306A      3.804225  
    2307A      3.805569  2308A      3.808262  2309A      3.809232  
    2310A      3.812352  2311A      3.812783  2312A      3.816491  
    2313A      3.817330  2314A      3.817936  2315A      3.822475  
    2316A      3.826751  2317A      3.828894  2318A      3.829409  
    2319A      3.832047  2320A      3.834131  2321A      3.837111  
    2322A      3.837928  2323A      3.840375  2324A      3.842771  
    2325A      3.845248  2326A      3.847880  2327A      3.848227  
    2328A      3.850720  2329A      3.853129  2330A      3.853398  
    2331A      3.856931  2332A      3.858779  2333A      3.860920  
    2334A      3.861019  2335A      3.865423  2336A      3.866614  
    2337A      3.869617  2338A      3.870703  2339A      3.873037  
    2340A      3.874689  2341A      3.876025  2342A      3.877772  
    2343A      3.882423  2344A      3.884205  2345A      3.886593  
    2346A      3.888844  2347A      3.889586  2348A      3.892644  
    2349A      3.894386  2350A      3.897461  2351A      3.901515  
    2352A      3.903187  2353A      3.904024  2354A      3.906114  
    2355A      3.907733  2356A      3.911050  2357A      3.913018  
    2358A      3.914936  2359A      3.916872  2360A      3.917799  
    2361A      3.921783  2362A      3.922301  2363A      3.924910  
    2364A      3.927113  2365A      3.928823  2366A      3.930392  
    2367A      3.930775  2368A      3.934914  2369A      3.937460  
    2370A      3.937858  2371A      3.939448  2372A      3.940775  
    2373A      3.944088  2374A      3.947330  2375A      3.948695  
    2376A      3.951458  2377A      3.953361  2378A      3.954990  
    2379A      3.957163  2380A      3.959175  2381A      3.960607  
    2382A      3.962126  2383A      3.963468  2384A      3.967371  
    2385A      3.969847  2386A      3.971267  2387A      3.974043  
    2388A      3.976439  2389A      3.978142  2390A      3.979250  
    2391A      3.981108  2392A      3.983823  2393A      3.987448  
    2394A      3.988151  2395A      3.988849  2396A      3.990665  
    2397A      3.996261  2398A      3.997592  2399A      3.999274  
    2400A      4.001443  2401A      4.002463  2402A      4.006203  
    2403A      4.007621  2404A      4.009879  2405A      4.011118  
    2406A      4.013998  2407A      4.015690  2408A      4.020584  
    2409A      4.022255  2410A      4.023278  2411A      4.024696  
    2412A      4.027109  2413A      4.027591  2414A      4.031692  
    2415A      4.034985  2416A      4.036176  2417A      4.036904  
    2418A      4.040763  2419A      4.042747  2420A      4.043056  
    2421A      4.044048  2422A      4.045115  2423A      4.048948  
    2424A      4.051234  2425A      4.054025  2426A      4.056415  
    2427A      4.057447  2428A      4.058775  2429A      4.061156  
    2430A      4.063294  2431A      4.065173  2432A      4.068558  
    2433A      4.071337  2434A      4.072006  2435A      4.073846  
    2436A      4.074872  2437A      4.079464  2438A      4.080783  
    2439A      4.082378  2440A      4.083078  2441A      4.085134  
    2442A      4.087282  2443A      4.089947  2444A      4.091000  
    2445A      4.093694  2446A      4.094754  2447A      4.096426  
    2448A      4.099786  2449A      4.102252  2450A      4.102893  
    2451A      4.107039  2452A      4.107823  2453A      4.111393  
    2454A      4.114560  2455A      4.115368  2456A      4.118814  
    2457A      4.119513  2458A      4.122897  2459A      4.124769  
    2460A      4.127221  2461A      4.128417  2462A      4.130581  
    2463A      4.133768  2464A      4.136247  2465A      4.137462  
    2466A      4.138414  2467A      4.143369  2468A      4.144426  
    2469A      4.145852  2470A      4.146921  2471A      4.151134  
    2472A      4.153514  2473A      4.153858  2474A      4.155523  
    2475A      4.159946  2476A      4.161017  2477A      4.163685  
    2478A      4.165299  2479A      4.167279  2480A      4.170648  
    2481A      4.171317  2482A      4.173045  2483A      4.176379  
    2484A      4.179382  2485A      4.180439  2486A      4.180771  
    2487A      4.188211  2488A      4.188878  2489A      4.189177  
    2490A      4.191760  2491A      4.195814  2492A      4.197905  
    2493A      4.199594  2494A      4.200574  2495A      4.204137  
    2496A      4.207376  2497A      4.210043  2498A      4.210534  
    2499A      4.212153  2500A      4.216388  2501A      4.216700  
    2502A      4.218996  2503A      4.222825  2504A      4.223663  
    2505A      4.226408  2506A      4.228855  2507A      4.230195  
    2508A      4.233235  2509A      4.234907  2510A      4.238025  
    2511A      4.240262  2512A      4.243131  2513A      4.245636  
    2514A      4.246323  2515A      4.248532  2516A      4.252455  
    2517A      4.254022  2518A      4.257233  2519A      4.257437  
    2520A      4.261194  2521A      4.263258  2522A      4.265229  
    2523A      4.266180  2524A      4.269055  2525A      4.272085  
    2526A      4.274543  2527A      4.277097  2528A      4.280620  
    2529A      4.281277  2530A      4.284421  2531A      4.286523  
    2532A      4.287189  2533A      4.290688  2534A      4.292259  
    2535A      4.294063  2536A      4.297382  2537A      4.299259  
    2538A      4.300872  2539A      4.302509  2540A      4.305250  
    2541A      4.310503  2542A      4.311801  2543A      4.313151  
    2544A      4.314553  2545A      4.316864  2546A      4.319586  
    2547A      4.321159  2548A      4.326851  2549A      4.327005  
    2550A      4.328430  2551A      4.332498  2552A      4.334015  
    2553A      4.335773  2554A      4.339106  2555A      4.342371  
    2556A      4.344002  2557A      4.344439  2558A      4.347162  
    2559A      4.350065  2560A      4.352268  2561A      4.353446  
    2562A      4.355828  2563A      4.356676  2564A      4.359816  
    2565A      4.362251  2566A      4.364130  2567A      4.367369  
    2568A      4.369895  2569A      4.370812  2570A      4.371010  
    2571A      4.375831  2572A      4.376028  2573A      4.378218  
    2574A      4.381130  2575A      4.383235  2576A      4.385920  
    2577A      4.388245  2578A      4.390006  2579A      4.393088  
    2580A      4.394994  2581A      4.395912  2582A      4.401492  
    2583A      4.401708  2584A      4.405824  2585A      4.408246  
    2586A      4.410059  2587A      4.412420  2588A      4.413794  
    2589A      4.415873  2590A      4.417410  2591A      4.419968  
    2592A      4.423216  2593A      4.425534  2594A      4.427987  
    2595A      4.430623  2596A      4.433761  2597A      4.434858  
    2598A      4.435637  2599A      4.438518  2600A      4.442686  
    2601A      4.446049  2602A      4.447825  2603A      4.449638  
    2604A      4.452906  2605A      4.454796  2606A      4.458622  
    2607A      4.460082  2608A      4.462087  2609A      4.464555  
    2610A      4.467045  2611A      4.469688  2612A      4.471061  
    2613A      4.471471  2614A      4.474179  2615A      4.475404  
    2616A      4.478103  2617A      4.482525  2618A      4.484937  
    2619A      4.486748  2620A      4.487455  2621A      4.491196  
    2622A      4.492389  2623A      4.494352  2624A      4.497711  
    2625A      4.499255  2626A      4.501271  2627A      4.504116  
    2628A      4.507946  2629A      4.508787  2630A      4.511499  
    2631A      4.513721  2632A      4.517802  2633A      4.522144  
    2634A      4.523105  2635A      4.525660  2636A      4.526928  
    2637A      4.530131  2638A      4.532065  2639A      4.533612  
    2640A      4.534851  2641A      4.535669  2642A      4.538991  
    2643A      4.543714  2644A      4.547620  2645A      4.549347  
    2646A      4.552706  2647A      4.553158  2648A      4.555477  
    2649A      4.560430  2650A      4.560974  2651A      4.566847  
    2652A      4.567724  2653A      4.570941  2654A      4.571913  
    2655A      4.575730  2656A      4.579391  2657A      4.581798  
    2658A      4.586475  2659A      4.587389  2660A      4.589933  
    2661A      4.590612  2662A      4.593289  2663A      4.596743  
    2664A      4.600462  2665A      4.603466  2666A      4.605485  
    2667A      4.609087  2668A      4.613803  2669A      4.616421  
    2670A      4.620359  2671A      4.620917  2672A      4.623243  
    2673A      4.625256  2674A      4.630368  2675A      4.632175  
    2676A      4.635774  2677A      4.638061  2678A      4.642338  
    2679A      4.644919  2680A      4.646703  2681A      4.650488  
    2682A      4.653037  2683A      4.654911  2684A      4.657569  
    2685A      4.663900  2686A      4.664648  2687A      4.668049  
    2688A      4.670491  2689A      4.671468  2690A      4.677019  
    2691A      4.677228  2692A      4.681128  2693A      4.683983  
    2694A      4.685337  2695A      4.689098  2696A      4.690241  
    2697A      4.693669  2698A      4.696090  2699A      4.700769  
    2700A      4.701028  2701A      4.702411  2702A      4.705985  
    2703A      4.712108  2704A      4.713095  2705A      4.716211  
    2706A      4.722088  2707A      4.722680  2708A      4.724969  
    2709A      4.726915  2710A      4.730854  2711A      4.734004  
    2712A      4.734810  2713A      4.740158  2714A      4.740978  
    2715A      4.741761  2716A      4.744427  2717A      4.747902  
    2718A      4.749233  2719A      4.750309  2720A      4.753605  
    2721A      4.757501  2722A      4.759120  2723A      4.763847  
    2724A      4.769498  2725A      4.772235  2726A      4.775913  
    2727A      4.776921  2728A      4.780955  2729A      4.783972  
    2730A      4.785887  2731A      4.789442  2732A      4.792373  
    2733A      4.794612  2734A      4.799316  2735A      4.800641  
    2736A      4.803172  2737A      4.805054  2738A      4.811238  
    2739A      4.813147  2740A      4.814613  2741A      4.819106  
    2742A      4.819776  2743A      4.823476  2744A      4.828818  
    2745A      4.831791  2746A      4.833629  2747A      4.834878  
    2748A      4.840506  2749A      4.842362  2750A      4.847642  
    2751A      4.851487  2752A      4.853897  2753A      4.854248  
    2754A      4.859544  2755A      4.862643  2756A      4.865308  
    2757A      4.868482  2758A      4.869693  2759A      4.872618  
    2760A      4.878946  2761A      4.880236  2762A      4.884140  
    2763A      4.887872  2764A      4.889998  2765A      4.895090  
    2766A      4.899133  2767A      4.901873  2768A      4.904161  
    2769A      4.906780  2770A      4.908970  2771A      4.911746  
    2772A      4.914142  2773A      4.921964  2774A      4.923149  
    2775A      4.927183  2776A      4.928486  2777A      4.931218  
    2778A      4.933988  2779A      4.936040  2780A      4.940039  
    2781A      4.943687  2782A      4.949519  2783A      4.950617  
    2784A      4.954120  2785A      4.955565  2786A      4.964273  
    2787A      4.966663  2788A      4.968535  2789A      4.970847  
    2790A      4.972794  2791A      4.975237  2792A      4.979336  
    2793A      4.982443  2794A      4.985169  2795A      4.993340  
    2796A      4.995069  2797A      5.000152  2798A      5.003533  
    2799A      5.005710  2800A      5.006954  2801A      5.013201  
    2802A      5.017825  2803A      5.020620  2804A      5.024904  
    2805A      5.028451  2806A      5.031680  2807A      5.034821  
    2808A      5.043003  2809A      5.046447  2810A      5.048439  
    2811A      5.051850  2812A      5.055245  2813A      5.057297  
    2814A      5.061255  2815A      5.066788  2816A      5.068979  
    2817A      5.072449  2818A      5.074095  2819A      5.078207  
    2820A      5.086008  2821A      5.090363  2822A      5.090774  
    2823A      5.095619  2824A      5.097050  2825A      5.103084  
    2826A      5.104614  2827A      5.105983  2828A      5.113095  
    2829A      5.115246  2830A      5.118726  2831A      5.121188  
    2832A      5.125756  2833A      5.130405  2834A      5.132508  
    2835A      5.139983  2836A      5.141102  2837A      5.145449  
    2838A      5.147964  2839A      5.150563  2840A      5.157885  
    2841A      5.159715  2842A      5.162700  2843A      5.168982  
    2844A      5.170781  2845A      5.173295  2846A      5.184526  
    2847A      5.186646  2848A      5.191057  2849A      5.193180  
    2850A      5.195670  2851A      5.200302  2852A      5.202906  
    2853A      5.208195  2854A      5.211617  2855A      5.216850  
    2856A      5.224938  2857A      5.226437  2858A      5.230798  
    2859A      5.238347  2860A      5.242526  2861A      5.247067  
    2862A      5.255358  2863A      5.257576  2864A      5.261040  
    2865A      5.263021  2866A      5.267165  2867A      5.270937  
    2868A      5.272015  2869A      5.276876  2870A      5.280949  
    2871A      5.282523  2872A      5.282818  2873A      5.286206  
    2874A      5.290414  2875A      5.295941  2876A      5.296120  
    2877A      5.300743  2878A      5.305472  2879A      5.312629  
    2880A      5.314943  2881A      5.320508  2882A      5.323388  
    2883A      5.336327  2884A      5.342856  2885A      5.349048  
    2886A      5.351445  2887A      5.356799  2888A      5.360669  
    2889A      5.365683  2890A      5.369081  2891A      5.378896  
    2892A      5.379773  2893A      5.391373  2894A      5.396989  
    2895A      5.403307  2896A      5.409745  2897A      5.416185  
    2898A      5.420672  2899A      5.427987  2900A      5.433634  
    2901A      5.437873  2902A      5.441395  2903A      5.450396  
    2904A      5.462426  2905A      5.468904  2906A      5.479678  
    2907A      5.486984  2908A      5.489836  2909A      5.490671  
    2910A      5.507828  2911A      5.513098  2912A      5.521238  
    2913A      5.528617  2914A      5.535771  2915A      5.543141  
    2916A      5.550117  2917A      5.556425  2918A      5.570875  
    2919A      5.577911  2920A      5.587937  2921A      5.592715  
    2922A      5.597748  2923A      5.603411  2924A      5.621318  
    2925A      5.623963  2926A      5.632603  2927A      5.634957  
    2928A      5.638934  2929A      5.646602  2930A      5.650241  
    2931A      5.658527  2932A      5.675804  2933A      5.681942  
    2934A      5.698901  2935A      5.705232  2936A      5.711610  
    2937A      5.716212  2938A      5.723526  2939A      5.732213  
    2940A      5.737381  2941A      5.749218  2942A      5.752287  
    2943A      5.757881  2944A      5.763696  2945A      5.769507  
    2946A      5.775834  2947A      5.784866  2948A      5.791162  
    2949A      5.797916  2950A      5.798954  2951A      5.808550  
    2952A      5.810211  2953A      5.822847  2954A      5.832621  
    2955A      5.840475  2956A      5.844409  2957A      5.861492  
    2958A      5.870966  2959A      5.882514  2960A      5.887089  
    2961A      5.894031  2962A      5.902250  2963A      5.906876  
    2964A      5.908865  2965A      5.924938  2966A      5.938453  
    2967A      5.943291  2968A      5.954279  2969A      5.974640  
    2970A      5.984912  2971A      5.988245  2972A      5.994223  
    2973A      6.004074  2974A      6.016716  2975A      6.033050  
    2976A      6.036459  2977A      6.048556  2978A      6.062283  
    2979A      6.071202  2980A      6.084471  2981A      6.092582  
    2982A      6.097188  2983A      6.104891  2984A      6.111291  
    2985A      6.117627  2986A      6.131826  2987A      6.136979  
    2988A      6.142076  2989A      6.156368  2990A      6.161567  
    2991A      6.167885  2992A      6.175366  2993A      6.195489  
    2994A      6.205609  2995A      6.207080  2996A      6.221278  
    2997A      6.230727  2998A      6.234986  2999A      6.246042  
    3000A      6.255851  3001A      6.272288  3002A      6.283397  
    3003A      6.287573  3004A      6.294687  3005A      6.324619  
    3006A      6.332218  3007A      6.342095  3008A      6.360796  
    3009A      6.366466  3010A      6.377346  3011A      6.383887  
    3012A      6.395836  3013A      6.397062  3014A      6.410707  
    3015A      6.416999  3016A      6.426728  3017A      6.429256  
    3018A      6.431610  3019A      6.433594  3020A      6.441256  
    3021A      6.446616  3022A      6.463341  3023A      6.463887  
    3024A      6.474567  3025A      6.484659  3026A      6.489412  
    3027A      6.499614  3028A      6.509409  3029A      6.511923  
    3030A      6.532509  3031A      6.538681  3032A      6.550108  
    3033A      6.558486  3034A      6.564631  3035A      6.565563  
    3036A      6.570860  3037A      6.585267  3038A      6.597319  
    3039A      6.601470  3040A      6.610525  3041A      6.617073  
    3042A      6.628731  3043A      6.645104  3044A      6.647589  
    3045A      6.682267  3046A      6.691181  3047A      6.709791  
    3048A      6.758013  3049A      6.761423  3050A      6.832922  
    3051A      6.834007  3052A     14.885668  3053A     14.970402  
    3054A     15.289571  3055A     15.357353  3056A     15.684917  
    3057A     15.728095  3058A     16.133030  3059A     16.176342  
    3060A     16.422538  3061A     16.489816  3062A     16.706849  
    3063A     16.752666  3064A     16.859586  3065A     17.008345  
    3066A     17.230477  3067A     17.347405  3068A     17.705196  
    3069A     17.743288  3070A     18.004699  3071A     18.088112  
    3072A     18.443704  3073A     18.539311  3074A     18.805974  
    3075A     18.878291  3076A     19.195419  3077A     19.266167  
    3078A     19.762328  3079A     19.835285  3080A     20.275941  
    3081A     20.367499  3082A     20.632693  3083A     20.868714  
    3084A     20.990337  3085A     21.123432  3086A     21.286121  
    3087A     21.349705  3088A     21.388545  3089A     21.393433  
    3090A     21.624778  3091A     21.702943  3092A     21.779933  
    3093A     21.849888  3094A     22.347489  3095A     22.396799  
    3096A     22.546817  3097A     22.652700  3098A     22.726835  
    3099A     22.776436  

    Final Occupation by Irrep:
              A 
    DOCC [   164 ]
    NA   [   164 ]
    NB   [   164 ]

  @DF-RKS Final Energy: -1851.62012168047340

   => Energetics <=

    Nuclear Repulsion Energy =           6199.6145026765807415
    One-Electron Energy =              -14854.8621509646472987
    Two-Electron Energy =                7076.3818513561809596
    DFT Exchange-Correlation Energy =    -272.6690105862519431
    Empirical Dispersion Energy =          -0.0853141623359021
    VV10 Nonlocal Energy =                  0.0000000000000000
    Total Energy =                      -1851.6201216804734031

Computation Completed


Properties will be evaluated at   0.000000,   0.000000,   0.000000 [a0]

Properties computed using the SCF density matrix


 Multipole Moments:

 ------------------------------------------------------------------------------------
     Multipole            Electronic (a.u.)      Nuclear  (a.u.)        Total (a.u.)
 ------------------------------------------------------------------------------------

 L = 1.  Multiply by 2.5417464519 to convert [e a0] to [Debye]
 Dipole X            :      -9279.8309294         9279.6775776           -0.1533518
 Dipole Y            :      -6403.5951346         6403.4265459           -0.1685886
 Dipole Z            :     -14279.0244473        14279.2482355            0.2237883
 Magnitude           :                                                    0.3194058

 ------------------------------------------------------------------------------------

*** tstop() called on atl1-1-03-004-6-2.pace.gatech.edu at Sat Jun 13 12:58:03 2026
Module time:
	user time   =   22991.33 seconds =     383.19 minutes
	system time =    2316.45 seconds =      38.61 minutes
	total time  =       4563 seconds =      76.05 minutes
Total time:
	user time   =   22991.33 seconds =     383.19 minutes
	system time =    2316.45 seconds =      38.61 minutes
	total time  =       4563 seconds =      76.05 minutes

    Psi4 stopped on: Saturday, 13 June 2026 12:58PM
    Psi4 wall time for execution: 1:16:12.49

*** Psi4 exiting successfully. Buy a developer a beer!
