
    -----------------------------------------------------------------------
          Psi4: An Open-Source Ab Initio Electronic Structure Package
                               Psi4 1.9.1 release

                         Git: Rev {} zzzzzzz 


    D. G. A. Smith, L. A. Burns, A. C. Simmonett, R. M. Parrish,
    M. C. Schieber, R. Galvelis, P. Kraus, H. Kruse, R. Di Remigio,
    A. Alenaizan, A. M. James, S. Lehtola, J. P. Misiewicz, M. Scheurer,
    R. A. Shaw, J. B. Schriber, Y. Xie, Z. L. Glick, D. A. Sirianni,
    J. S. O'Brien, J. M. Waldrop, A. Kumar, E. G. Hohenstein,
    B. P. Pritchard, B. R. Brooks, H. F. Schaefer III, A. Yu. Sokolov,
    K. Patkowski, A. E. DePrince III, U. Bozkaya, R. A. King,
    F. A. Evangelista, J. M. Turney, T. D. Crawford, C. D. Sherrill,
    J. Chem. Phys. 152(18) 184108 (2020). https://doi.org/10.1063/5.0006002

                            Additional Code Authors
    E. T. Seidl, C. L. Janssen, E. F. Valeev, M. L. Leininger,
    J. F. Gonthier, R. M. Richard, H. R. McAlexander, M. Saitow, X. Wang,
    P. Verma, M. H. Lechner, A. Jiang, S. Behnle, A. G. Heide,
    M. F. Herbst, and D. L. Poole

             Previous Authors, Complete List of Code Contributors,
                       and Citations for Specific Modules
    https://github.com/psi4/psi4/blob/master/codemeta.json
    https://github.com/psi4/psi4/graphs/contributors
    http://psicode.org/psi4manual/master/introduction.html#citing-psifour

    -----------------------------------------------------------------------


    Psi4 started on: Saturday, 13 June 2026 11:34AM

    Process ID: 497708
    Host:       atl1-1-03-004-11-2.pace.gatech.edu
    PSIDATADIR: /storage/home/hcoda1/5/vlita3/.conda/envs/p4_qcml/share/psi4
    Memory:     250.0 GiB
    Threads:    10
    
  ==> Input QCSchema <==

--------------------------------------------------------------------------
{'driver': 'energy',
 'extras': {},
 'id': '220',
 'keywords': {},
 'model': {'basis': 'aug-cc-pvtz', 'method': 'pbe-d3'},
 'molecule': {'extras': {},
              'fix_com': True,
              'fix_orientation': True,
              'fragment_charges': [0.0, 0.0],
              'fragment_multiplicities': [1, 1],
              'fragments': [[0, 1, 2, 3, 4, 5, 6, 7, 8, 9, 10, 11, 12, 13, 14, 15, 16, 17, 18, 19, 20, 21, 22, 23, 24,
                             25, 26, 27, 28, 29, 30, 31, 32, 33, 34, 35, 36, 37, 38, 39, 40, 41, 42, 43, 44, 45, 46, 47,
                             48, 49, 50, 51, 52, 53, 54, 55],
                            [56, 57, 58, 59, 60, 61, 62, 63, 64, 65, 66, 67, 68, 69, 70, 71, 72, 73, 74, 75, 76, 77, 78,
                             79, 80, 81, 82, 83, 84, 85, 86, 87, 88, 89, 90, 91, 92, 93, 94, 95, 96, 97, 98, 99, 100,
                             101, 102, 103, 104, 105, 106, 107, 108, 109, 110, 111]],
              'geometry': [39.18725066, 24.74029443, 4.00810911, 37.91546498, 22.14947992, 3.77378307, 35.03363264,
                           22.26853266, 4.05535227, 33.7429497, 19.68527705, 3.82102623, 30.85922763, 19.81566815,
                           4.07613925, 29.56287551, 17.23808172, 3.82858513, 26.67726371, 17.37792145, 4.05535227,
                           25.37335269, 14.80600419, 3.78890088, 22.48774089, 14.95907201, 3.99866048, 21.17249151,
                           12.3909342, 3.72653992, 18.28876944, 12.55534038, 3.93818925, 16.9621817, 9.99287175,
                           3.67551731, 14.08034936, 10.16483683, 3.9060639, 12.74809244, 7.60425793, 3.66417896,
                           9.86814983, 7.77811273, 3.92685089, 8.53400318, 5.21564411, 3.71142211, 5.65595029,
                           5.38571946, 4.00621939, 4.34070091, 2.8138022, 3.80590842, 2.28845834, 3.00088509,
                           4.00432966, 38.81875407, 25.57933283, 5.86570989, 41.23760351, 24.59667525, 3.76811389,
                           38.46915474, 26.04798491, 2.57191726, 38.38222733, 21.31233124, 1.93318983, 38.68647324,
                           20.86635588, 5.21186465, 34.56120111, 23.10568134, 5.89594551, 34.26073465, 23.5516567,
                           2.61538096, 34.22860931, 18.8424592, 1.98610216, 34.50072987, 18.40782219, 5.27044616,
                           30.37356801, 20.65281683, 5.91484277, 30.10333718, 21.10257164, 2.63238849, 30.06365293,
                           16.39337414, 1.99744051, 30.30175842, 15.95495768, 5.28556397, 26.17648629, 18.2131804,
                           5.89027633, 25.94216025, 18.67049412, 2.60593233, 25.88168901, 13.96507607, 1.95964599,
                           26.09711779, 13.51532125, 5.24776945, 21.97940457, 15.79433096, 5.83169482, 21.76586551,
                           16.25353441, 2.54546109, 21.67893811, 11.5518958, 1.89728503, 21.89247716, 11.09647181,
                           5.18351876, 17.78610229, 13.3962685, 5.76933386, 17.56878379, 13.8516925, 2.48310013,
                           17.45540022, 9.14816417, 1.84248297, 17.68594681, 8.69651963, 5.1287167, 13.59468975,
                           11.01521359, 5.73909824, 13.3528048, 11.4574095, 2.45286451, 13.21863425, 6.7557709,
                           1.82925489, 13.48697536, 6.31168526, 5.1135989, 9.4032772, 8.63604839, 5.76177496,
                           9.12359773, 9.0631265, 2.47743095, 8.983758, 4.35959817, 1.87271859, 9.29178336, 3.92874061,
                           5.15517287, 5.21186465, 6.2493243, 5.84114345, 4.90005984, 6.66506404, 2.55868917,
                           4.72431531, 1.92563092, 1.9747638, 5.00966396, 1.52500898, 5.28367425, 9.39004912,
                           8.90249978, -3.87960774, 8.09936617, 6.31924416, -4.11393378, 5.21753383, 6.43829691,
                           -3.83236458, 3.94574815, 3.84748239, -4.06669062, 12.27188146, 8.77210867, -4.13661049,
                           13.57012331, 11.35158484, -3.88716664, 16.45384537, 11.20985538, -4.11393378, 17.75964613,
                           13.78177263, -3.84748239, 20.64525792, 13.62870482, -4.05724199, 21.95861758, 16.19684262,
                           -3.78512143, 24.84422937, 16.03243645, -3.99677076, 26.16892739, 18.5967948, -3.73409882,
                           29.05075973, 18.42294, -3.96464541, 30.38301665, 20.98540862, -3.72276047, 33.26295926,
                           20.80966409, -3.98732212, 34.5971059, 23.37213272, -3.77000362, 37.47515879, 23.20205737,
                           -4.0648009, 38.79040818, 25.77397463, -3.86637965, 40.84265075, 25.58878146, -4.0648009,
                           38.12144513, 27.06276784, -5.34414548, 37.91924443, 22.33845253, -5.89972496, 38.23104924,
                           21.92271278, -2.61727068, 34.14735109, 24.23006838, -1.93318983, 33.83932573, 24.65903621,
                           -5.21564411, 33.72783189, 19.95172843, -5.82035647, 34.00751135, 19.52465033, -2.53601246,
                           29.91247484, 21.83389565, -1.8878364, 29.64413373, 22.27609157, -5.17218041, 29.53641934,
                           17.57256324, -5.79767975, 29.78019401, 17.13225705, -2.51144602, 25.67759859, 19.43961265,
                           -1.90106448, 25.44516228, 19.8912572, -5.18729821, 25.34500679, 15.19150832, -5.82791537,
                           25.5623253, 14.73797405, -2.54168164, 21.45217098, 17.03777075, -1.95586654, 21.24052165,
                           17.49130502, -5.24210027, 21.15359425, 12.79344587, -5.89027633, 21.3671333, 12.33424242,
                           -2.6040426, 17.24942007, 14.62270076, -2.02011723, 17.03588102, 15.07245558, -5.30635096,
                           16.9546228, 10.37459643, -5.95074757, 17.18894884, 9.91728271, -2.66451384, 13.06934588,
                           12.19440269, -2.05791175, 12.82935067, 12.63281915, -5.34414548, 12.75754107, 7.93684973,
                           -5.97531401, 13.02777191, 7.48520518, -2.69285973, 8.9043895, 9.74531763, -2.04468367,
                           8.57179771, 5.48209549, -5.95641675, 8.87037443, 5.03612012, -2.67585219, 4.75077148,
                           7.27544558, -1.99177134, 4.44652557, 7.72142095, -5.27044616, 1.8953953, 3.99110158,
                           -3.82858513, 4.31424474, 3.00844399, -5.92618113, 4.66384408, 2.53979191, -2.63238849,
                           8.63037921, 10.17995464, -5.3309174, 38.40679377, 26.6621459, -2.03334531],
              'id': 13,
              'identifiers': {'molecular_formula': 'C36H76',
                              'molecule_hash': '5a1027ed7a2872ae334f0d27d7734dfd003db69d'},
              'masses': [12.0, 12.0, 12.0, 12.0, 12.0, 12.0, 12.0, 12.0, 12.0, 12.0, 12.0, 12.0, 12.0, 12.0, 12.0, 12.0,
                         12.0, 12.0, 1.00782503223, 1.00782503223, 1.00782503223, 1.00782503223, 1.00782503223,
                         1.00782503223, 1.00782503223, 1.00782503223, 1.00782503223, 1.00782503223, 1.00782503223,
                         1.00782503223, 1.00782503223, 1.00782503223, 1.00782503223, 1.00782503223, 1.00782503223,
                         1.00782503223, 1.00782503223, 1.00782503223, 1.00782503223, 1.00782503223, 1.00782503223,
                         1.00782503223, 1.00782503223, 1.00782503223, 1.00782503223, 1.00782503223, 1.00782503223,
                         1.00782503223, 1.00782503223, 1.00782503223, 1.00782503223, 1.00782503223, 1.00782503223,
                         1.00782503223, 1.00782503223, 1.00782503223, 12.0, 12.0, 12.0, 12.0, 12.0, 12.0, 12.0, 12.0,
                         12.0, 12.0, 12.0, 12.0, 12.0, 12.0, 12.0, 12.0, 12.0, 12.0, 1.00782503223, 1.00782503223,
                         1.00782503223, 1.00782503223, 1.00782503223, 1.00782503223, 1.00782503223, 1.00782503223,
                         1.00782503223, 1.00782503223, 1.00782503223, 1.00782503223, 1.00782503223, 1.00782503223,
                         1.00782503223, 1.00782503223, 1.00782503223, 1.00782503223, 1.00782503223, 1.00782503223,
                         1.00782503223, 1.00782503223, 1.00782503223, 1.00782503223, 1.00782503223, 1.00782503223,
                         1.00782503223, 1.00782503223, 1.00782503223, 1.00782503223, 1.00782503223, 1.00782503223,
                         1.00782503223, 1.00782503223, 1.00782503223, 1.00782503223, 1.00782503223, 1.00782503223],
              'molecular_charge': 0.0,
              'molecular_multiplicity': 1,
              'name': 'C36H76 ([1],[0])',
              'provenance': {'creator': 'QCElemental',
                             'routine': 'qcelemental.molparse.from_schema',
                             'version': '0.29.0'},
              'real': [False, False, False, False, False, False, False, False, False, False, False, False, False, False,
                       False, False, False, False, False, False, False, False, False, False, False, False, False, False,
                       False, False, False, False, False, False, False, False, False, False, False, False, False, False,
                       False, False, False, False, False, False, False, False, False, False, False, False, False, False,
                       True, True, True, True, True, True, True, True, True, True, True, True, True, True, True, True,
                       True, True, True, True, True, True, True, True, True, True, True, True, True, True, True, True,
                       True, True, True, True, True, True, True, True, True, True, True, True, True, True, True, True,
                       True, True, True, True, True, True, True, True],
              'schema_name': 'qcschema_molecule',
              'schema_version': 2,
              'symbols': ['C', 'C', 'C', 'C', 'C', 'C', 'C', 'C', 'C', 'C', 'C', 'C', 'C', 'C', 'C', 'C', 'C', 'C', 'H',
                          'H', 'H', 'H', 'H', 'H', 'H', 'H', 'H', 'H', 'H', 'H', 'H', 'H', 'H', 'H', 'H', 'H', 'H', 'H',
                          'H', 'H', 'H', 'H', 'H', 'H', 'H', 'H', 'H', 'H', 'H', 'H', 'H', 'H', 'H', 'H', 'H', 'H', 'C',
                          'C', 'C', 'C', 'C', 'C', 'C', 'C', 'C', 'C', 'C', 'C', 'C', 'C', 'C', 'C', 'C', 'C', 'H', 'H',
                          'H', 'H', 'H', 'H', 'H', 'H', 'H', 'H', 'H', 'H', 'H', 'H', 'H', 'H', 'H', 'H', 'H', 'H', 'H',
                          'H', 'H', 'H', 'H', 'H', 'H', 'H', 'H', 'H', 'H', 'H', 'H', 'H', 'H', 'H', 'H', 'H'],
              'validated': True},
 'protocols': {},
 'provenance': {'creator': 'QCElemental', 'routine': 'qcelemental.models.results', 'version': '0.29.0'},
 'schema_name': 'qcschema_input',
 'schema_version': 1}
--------------------------------------------------------------------------

Scratch directory: /tmp/tmpftipdfsh_psi_scratch/
   => Libint2 <=

    Primary   basis highest AM E, G, H:  6, 6, 3
    Auxiliary basis highest AM E, G, H:  7, 7, 4
    Onebody   basis highest AM E, G, H:  -, -, -
    Solid Harmonics ordering:            Gaussian

*** tstart() called on atl1-1-03-004-11-2.pace.gatech.edu
*** at Sat Jun 13 11:34:13 2026

   => Loading Basis Set <=

    Name: AUG-CC-PVTZ
    Role: ORBITAL
    Keyword: BASIS
    atoms 1-18, 57-74   entry C          line   239 file /storage/home/hcoda1/5/vlita3/.conda/envs/p4_qcml/share/psi4/basis/aug-cc-pvtz.gbs 
    atoms 19-56, 75-112 entry H          line    40 file /storage/home/hcoda1/5/vlita3/.conda/envs/p4_qcml/share/psi4/basis/aug-cc-pvtz.gbs 

   => PBE-D3: Empirical Dispersion <=

    Grimme's -D3 (zero-damping) Dispersion Correction
    Grimme S.; Antony J.; Ehrlich S.; Krieg H. (2010), J. Chem. Phys., 132: 154104

        s6 =       1.000000
        s8 =       0.722000
       sr6 =       1.217000
    alpha6 =      14.000000
       sr8 =       1.000000


         ---------------------------------------------------------
                                   SCF
               by Justin Turney, Rob Parrish, Andy Simmonett
                          and Daniel G. A. Smith
                              RKS Reference
                       10 Threads, 256000 MiB Core
         ---------------------------------------------------------

  ==> Geometry <==

    Molecular point group: c1
    Full point group: C1

    Geometry (in Bohr), charge = 0, multiplicity = 1:

       Center              X                  Y                   Z               Mass       
    ------------   -----------------  -----------------  -----------------  -----------------
      Gh(C)          39.187250660000    24.740294430000     4.008109110000    12.000000000000
      Gh(C)          37.915464980000    22.149479920000     3.773783070000    12.000000000000
      Gh(C)          35.033632640000    22.268532660000     4.055352270000    12.000000000000
      Gh(C)          33.742949700000    19.685277050000     3.821026230000    12.000000000000
      Gh(C)          30.859227630000    19.815668150000     4.076139250000    12.000000000000
      Gh(C)          29.562875510000    17.238081720000     3.828585130000    12.000000000000
      Gh(C)          26.677263710000    17.377921450000     4.055352270000    12.000000000000
      Gh(C)          25.373352690000    14.806004190000     3.788900880000    12.000000000000
      Gh(C)          22.487740890000    14.959072010000     3.998660480000    12.000000000000
      Gh(C)          21.172491510000    12.390934200000     3.726539920000    12.000000000000
      Gh(C)          18.288769440000    12.555340380000     3.938189250000    12.000000000000
      Gh(C)          16.962181700000     9.992871750000     3.675517310000    12.000000000000
      Gh(C)          14.080349360000    10.164836830000     3.906063900000    12.000000000000
      Gh(C)          12.748092440000     7.604257930000     3.664178960000    12.000000000000
      Gh(C)           9.868149830000     7.778112730000     3.926850890000    12.000000000000
      Gh(C)           8.534003180000     5.215644110000     3.711422110000    12.000000000000
      Gh(C)           5.655950290000     5.385719460000     4.006219390000    12.000000000000
      Gh(C)           4.340700910000     2.813802200000     3.805908420000    12.000000000000
      Gh(H)           2.288458340000     3.000885090000     4.004329660000     1.007825032230
      Gh(H)          38.818754070000    25.579332830000     5.865709890000     1.007825032230
      Gh(H)          41.237603510000    24.596675250000     3.768113890000     1.007825032230
      Gh(H)          38.469154740000    26.047984910000     2.571917260000     1.007825032230
      Gh(H)          38.382227330000    21.312331240000     1.933189830000     1.007825032230
      Gh(H)          38.686473240000    20.866355880000     5.211864650000     1.007825032230
      Gh(H)          34.561201110000    23.105681340000     5.895945510000     1.007825032230
      Gh(H)          34.260734650000    23.551656700000     2.615380960000     1.007825032230
      Gh(H)          34.228609310000    18.842459200000     1.986102160000     1.007825032230
      Gh(H)          34.500729870000    18.407822190000     5.270446160000     1.007825032230
      Gh(H)          30.373568010000    20.652816830000     5.914842770000     1.007825032230
      Gh(H)          30.103337180000    21.102571640000     2.632388490000     1.007825032230
      Gh(H)          30.063652930000    16.393374140000     1.997440510000     1.007825032230
      Gh(H)          30.301758420000    15.954957680000     5.285563970000     1.007825032230
      Gh(H)          26.176486290000    18.213180400000     5.890276330000     1.007825032230
      Gh(H)          25.942160250000    18.670494120000     2.605932330000     1.007825032230
      Gh(H)          25.881689010000    13.965076070000     1.959645990000     1.007825032230
      Gh(H)          26.097117790000    13.515321250000     5.247769450000     1.007825032230
      Gh(H)          21.979404570000    15.794330960000     5.831694820000     1.007825032230
      Gh(H)          21.765865510000    16.253534410000     2.545461090000     1.007825032230
      Gh(H)          21.678938110000    11.551895800000     1.897285030000     1.007825032230
      Gh(H)          21.892477160000    11.096471810000     5.183518760000     1.007825032230
      Gh(H)          17.786102290000    13.396268500000     5.769333860000     1.007825032230
      Gh(H)          17.568783790000    13.851692500000     2.483100130000     1.007825032230
      Gh(H)          17.455400220000     9.148164170000     1.842482970000     1.007825032230
      Gh(H)          17.685946810000     8.696519630000     5.128716700000     1.007825032230
      Gh(H)          13.594689750000    11.015213590000     5.739098240000     1.007825032230
      Gh(H)          13.352804800000    11.457409500000     2.452864510000     1.007825032230
      Gh(H)          13.218634250000     6.755770900000     1.829254890000     1.007825032230
      Gh(H)          13.486975360000     6.311685260000     5.113598900000     1.007825032230
      Gh(H)           9.403277200000     8.636048390000     5.761774960000     1.007825032230
      Gh(H)           9.123597730000     9.063126500000     2.477430950000     1.007825032230
      Gh(H)           8.983758000000     4.359598170000     1.872718590000     1.007825032230
      Gh(H)           9.291783360000     3.928740610000     5.155172870000     1.007825032230
      Gh(H)           5.211864650000     6.249324300000     5.841143450000     1.007825032230
      Gh(H)           4.900059840000     6.665064040000     2.558689170000     1.007825032230
      Gh(H)           4.724315310000     1.925630920000     1.974763800000     1.007825032230
      Gh(H)           5.009663960000     1.525008980000     5.283674250000     1.007825032230
         C            9.390049120000     8.902499780000    -3.879607740000    12.000000000000
         C            8.099366170000     6.319244160000    -4.113933780000    12.000000000000
         C            5.217533830000     6.438296910000    -3.832364580000    12.000000000000
         C            3.945748150000     3.847482390000    -4.066690620000    12.000000000000
         C           12.271881460000     8.772108670000    -4.136610490000    12.000000000000
         C           13.570123310000    11.351584840000    -3.887166640000    12.000000000000
         C           16.453845370000    11.209855380000    -4.113933780000    12.000000000000
         C           17.759646130000    13.781772630000    -3.847482390000    12.000000000000
         C           20.645257920000    13.628704820000    -4.057241990000    12.000000000000
         C           21.958617580000    16.196842620000    -3.785121430000    12.000000000000
         C           24.844229370000    16.032436450000    -3.996770760000    12.000000000000
         C           26.168927390000    18.596794800000    -3.734098820000    12.000000000000
         C           29.050759730000    18.422940000000    -3.964645410000    12.000000000000
         C           30.383016650000    20.985408620000    -3.722760470000    12.000000000000
         C           33.262959260000    20.809664090000    -3.987322120000    12.000000000000
         C           34.597105900000    23.372132720000    -3.770003620000    12.000000000000
         C           37.475158790000    23.202057370000    -4.064800900000    12.000000000000
         C           38.790408180000    25.773974630000    -3.866379650000    12.000000000000
         H           40.842650750000    25.588781460000    -4.064800900000     1.007825032230
         H           38.121445130000    27.062767840000    -5.344145480000     1.007825032230
         H           37.919244430000    22.338452530000    -5.899724960000     1.007825032230
         H           38.231049240000    21.922712780000    -2.617270680000     1.007825032230
         H           34.147351090000    24.230068380000    -1.933189830000     1.007825032230
         H           33.839325730000    24.659036210000    -5.215644110000     1.007825032230
         H           33.727831890000    19.951728430000    -5.820356470000     1.007825032230
         H           34.007511350000    19.524650330000    -2.536012460000     1.007825032230
         H           29.912474840000    21.833895650000    -1.887836400000     1.007825032230
         H           29.644133730000    22.276091570000    -5.172180410000     1.007825032230
         H           29.536419340000    17.572563240000    -5.797679750000     1.007825032230
         H           29.780194010000    17.132257050000    -2.511446020000     1.007825032230
         H           25.677598590000    19.439612650000    -1.901064480000     1.007825032230
         H           25.445162280000    19.891257200000    -5.187298210000     1.007825032230
         H           25.345006790000    15.191508320000    -5.827915370000     1.007825032230
         H           25.562325300000    14.737974050000    -2.541681640000     1.007825032230
         H           21.452170980000    17.037770750000    -1.955866540000     1.007825032230
         H           21.240521650000    17.491305020000    -5.242100270000     1.007825032230
         H           21.153594250000    12.793445870000    -5.890276330000     1.007825032230
         H           21.367133300000    12.334242420000    -2.604042600000     1.007825032230
         H           17.249420070000    14.622700760000    -2.020117230000     1.007825032230
         H           17.035881020000    15.072455580000    -5.306350960000     1.007825032230
         H           16.954622800000    10.374596430000    -5.950747570000     1.007825032230
         H           17.188948840000     9.917282710000    -2.664513840000     1.007825032230
         H           13.069345880000    12.194402690000    -2.057911750000     1.007825032230
         H           12.829350670000    12.632819150000    -5.344145480000     1.007825032230
         H           12.757541070000     7.936849730000    -5.975314010000     1.007825032230
         H           13.027771910000     7.485205180000    -2.692859730000     1.007825032230
         H            8.904389500000     9.745317630000    -2.044683670000     1.007825032230
         H            8.571797710000     5.482095490000    -5.956416750000     1.007825032230
         H            8.870374430000     5.036120120000    -2.675852190000     1.007825032230
         H            4.750771480000     7.275445580000    -1.991771340000     1.007825032230
         H            4.446525570000     7.721420950000    -5.270446160000     1.007825032230
         H            1.895395300000     3.991101580000    -3.828585130000     1.007825032230
         H            4.314244740000     3.008443990000    -5.926181130000     1.007825032230
         H            4.663844080000     2.539791910000    -2.632388490000     1.007825032230
         H            8.630379210000    10.179954640000    -5.330917400000     1.007825032230
         H           38.406793770000    26.662145900000    -2.033345310000     1.007825032230

  Running in c1 symmetry.

  Rotational constants: A =      0.00674  B =      0.00014  C =      0.00014 [cm^-1]
  Rotational constants: A =    202.03768  B =      4.27015  C =      4.19674 [MHz]
  Nuclear repulsion = 1177.211817927325001

  Charge       = 0
  Multiplicity = 1
  Electrons    = 146
  Nalpha       = 73
  Nbeta        = 73

  ==> Algorithm <==

  SCF Algorithm Type is DF.
  DIIS enabled.
  MOM disabled.
  Fractional occupation disabled.
  Guess Type is SAD.
  Energy threshold   = 1.00e-06
  Density threshold  = 1.00e-06
  Integral threshold = 1.00e-12

  ==> Primary Basis <==

  Basis Set: AUG-CC-PVTZ
    Blend: AUG-CC-PVTZ
    Number of shells: 1188
    Number of basis functions: 3404
    Number of Cartesian functions: 3880
    Spherical Harmonics?: true
    Max angular momentum: 3

  ==> DFT Potential <==

   => LibXC <=

    Version 7.0.0
    S. Lehtola, C. Steigemann, M. J.T. Oliveira, and M. A.L. Marques.,  SoftwareX 7, 1–5 (2018) (10.1016/j.softx.2017.11.002)

   => Composite Functional: PBE-D3ZERO2B <= 

    PBE GGA Exchange-Correlation Functional

    J.P. Perdew et. al., Phys. Rev. Lett., 77(18), 3865-3868, 1996


    Deriv               =              1
    GGA                 =           TRUE
    Meta                =          FALSE

    Exchange Hybrid     =          FALSE
    MP2 Hybrid          =          FALSE

   => Exchange Functionals <=

    1.0000     XC_GGA_X_PBE

   => Correlation Functionals <=

    1.0000     XC_GGA_C_PBE

   => LibXC Density Thresholds  <==

    XC_GGA_C_PBE:  1.00E-12 
    XC_GGA_X_PBE:  1.00E-15 

   => Molecular Quadrature <=

    Radial Scheme          =       TREUTLER
    Pruning Scheme         =           NONE
    Nuclear Scheme         =       TREUTLER

    Blocking Scheme        =         OCTREE
    BS radius alpha        =              1
    Pruning alpha          =              1
    Radial Points          =             75
    Spherical Points       =            302
    Total Points           =        2287807
    Total Blocks           =          15476
    Max Points             =            256
    Max Functions          =           1540
    Weights Tolerance      =       1.00E-15

   => Loading Basis Set <=

    Name: (AUG-CC-PVTZ AUX)
    Role: JKFIT
    Keyword: DF_BASIS_SCF
    atoms 1-18, 57-74   entry C          line   162 file /storage/home/hcoda1/5/vlita3/.conda/envs/p4_qcml/share/psi4/basis/aug-cc-pvtz-jkfit.gbs 
    atoms 19-56, 75-112 entry H          line    70 file /storage/home/hcoda1/5/vlita3/.conda/envs/p4_qcml/share/psi4/basis/aug-cc-pvtz-jkfit.gbs 

  ==> Integral Setup <==

  ==> DiskDFJK: Density-Fitted J/K Matrices <==

    J tasked:                  Yes
    K tasked:                   No
    wK tasked:                  No
    OpenMP threads:             10
    Integrals threads:          10
    Memory [MiB]:           172368
    Algorithm:                Disk
    Integral Cache:           NONE
    Schwarz Cutoff:          1E-12
    Fitting Condition:       1E-10

   => Auxiliary Basis Set <=

  Basis Set: (AUG-CC-PVTZ AUX)
    Blend: AUG-CC-PVTZ-JKFIT
    Number of shells: 2144
    Number of basis functions: 7240
    Number of Cartesian functions: 8896
    Spherical Harmonics?: true
    Max angular momentum: 4

  Minimum eigenvalue in the overlap matrix is 2.2061596341E-08.
  Reciprocal condition number of the overlap matrix is 6.8411741151E-10.
    Using canonical orthogonalization.
  Overall, 1 of 3404 possible MOs eliminated.


  ==> Pre-Iterations <==

  SCF Guess: Superposition of Atomic Densities via on-the-fly atomic UHF (no occupation information).

   -------------------------
    Irrep   Nso     Nmo    
   -------------------------
     A       3404    3403 
   -------------------------
    Total    3404    3403
   -------------------------

  ==> Iterations <==

                           Total Energy        Delta E     RMS |[F,P]|

   @DF-RKS iter SAD:  -705.89542830903304   -7.05895e+02   0.00000e+00 
   @DF-RKS iter   1:  -704.56340014767272    1.33203e+00   7.52322e-04 DIIS/ADIIS
   @DF-RKS iter   2:  -686.33873736342719    1.82247e+01   1.56536e-03 DIIS/ADIIS
   @DF-RKS iter   3:  -707.90407095884871   -2.15653e+01   1.52215e-04 DIIS/ADIIS
   @DF-RKS iter   4:  -707.99137357205916   -8.73026e-02   1.22441e-04 DIIS/ADIIS
   @DF-RKS iter   5:  -708.07259903339150   -8.12255e-02   2.61289e-05 DIIS
   @DF-RKS iter   6:  -708.07597605101762   -3.37702e-03   7.64396e-06 DIIS
   @DF-RKS iter   7:  -708.07627815908302   -3.02108e-04   2.77119e-06 DIIS
   @DF-RKS iter   8:  -708.07632163616711   -4.34771e-05   5.24327e-07 DIIS
   @DF-RKS iter   9:  -708.07632299212389   -1.35596e-06   2.31047e-07 DIIS
   @DF-RKS iter  10:  -708.07632330316528   -3.11041e-07   5.90765e-08 DIIS
  Energy and wave function converged.


  ==> Post-Iterations <==

   Electrons on quadrature grid:
      Ntotal   =  146.0011814429 ; deviation = 1.181e-03 

    Orbital Energies [Eh]
    ---------------------

    Doubly Occupied:                                                      

       1A     -9.878459     2A     -9.878445     3A     -9.876464  
       4A     -9.876446     5A     -9.876356     6A     -9.876342  
       7A     -9.876296     8A     -9.876290     9A     -9.876268  
      10A     -9.876249    11A     -9.876224    12A     -9.876169  
      13A     -9.876136    14A     -9.876115    15A     -9.876070  
      16A     -9.876040    17A     -9.870750    18A     -9.870609  
      19A     -0.740730    20A     -0.735739    21A     -0.727310  
      22A     -0.715613    23A     -0.700733    24A     -0.682842  
      25A     -0.662210    26A     -0.638973    27A     -0.613761  
      28A     -0.587397    29A     -0.560901    30A     -0.536793  
      31A     -0.519254    32A     -0.518693    33A     -0.515492  
      34A     -0.512637    35A     -0.508685    36A     -0.508295  
      37A     -0.437579    38A     -0.432906    39A     -0.425115  
      40A     -0.414496    41A     -0.401357    42A     -0.387839  
      43A     -0.387333    44A     -0.386120    45A     -0.379147  
      46A     -0.374568    47A     -0.369350    48A     -0.365091  
      49A     -0.352243    50A     -0.351665    51A     -0.347688  
      52A     -0.334102    53A     -0.333067    54A     -0.321374  
      55A     -0.317611    56A     -0.317297    57A     -0.303890  
      58A     -0.303110    59A     -0.295474    60A     -0.291564  
      61A     -0.290757    62A     -0.287346    63A     -0.283411  
      64A     -0.283031    65A     -0.281083    66A     -0.280092  
      67A     -0.278576    68A     -0.277202    69A     -0.276831  
      70A     -0.275913    71A     -0.275805    72A     -0.266494  
      73A     -0.249064  

    Virtual:                                                              

      74A     -0.021768    75A     -0.018811    76A     -0.013916  
      77A     -0.011179    78A     -0.009870    79A     -0.007362  
      80A     -0.005905    81A     -0.004535    82A      0.001117  
      83A      0.002668    84A      0.004098    85A      0.011422  
      86A      0.013665    87A      0.014900    88A      0.022923  
      89A      0.023001    90A      0.023847    91A      0.026035  
      92A      0.026379    93A      0.027133    94A      0.027317  
      95A      0.027465    96A      0.028063    97A      0.034384  
      98A      0.034611    99A      0.035244   100A      0.037528  
     101A      0.037622   102A      0.039889   103A      0.042537  
     104A      0.043942   105A      0.045336   106A      0.047095  
     107A      0.047922   108A      0.049481   109A      0.049703  
     110A      0.053488   111A      0.055057   112A      0.056243  
     113A      0.058479   114A      0.060098   115A      0.060298  
     116A      0.061984   117A      0.063018   118A      0.063363  
     119A      0.064018   120A      0.064446   121A      0.065019  
     122A      0.065672   123A      0.067051   124A      0.067285  
     125A      0.069204   126A      0.072138   127A      0.072985  
     128A      0.073265   129A      0.074052   130A      0.074514  
     131A      0.075552   132A      0.076596   133A      0.076671  
     134A      0.077683   135A      0.078430   136A      0.080135  
     137A      0.081899   138A      0.082513   139A      0.082915  
     140A      0.083229   141A      0.085709   142A      0.086834  
     143A      0.087517   144A      0.087951   145A      0.088555  
     146A      0.089912   147A      0.092058   148A      0.092494  
     149A      0.094126   150A      0.094394   151A      0.096590  
     152A      0.097062   153A      0.098114   154A      0.098407  
     155A      0.099849   156A      0.099913   157A      0.100428  
     158A      0.102249   159A      0.102916   160A      0.103449  
     161A      0.103592   162A      0.106291   163A      0.107192  
     164A      0.108620   165A      0.109305   166A      0.110664  
     167A      0.112209   168A      0.112661   169A      0.113062  
     170A      0.113281   171A      0.113809   172A      0.114568  
     173A      0.115201   174A      0.117448   175A      0.117996  
     176A      0.118825   177A      0.119602   178A      0.120258  
     179A      0.121803   180A      0.123503   181A      0.123705  
     182A      0.124851   183A      0.126045   184A      0.126547  
     185A      0.127719   186A      0.127790   187A      0.129316  
     188A      0.129652   189A      0.130168   190A      0.131476  
     191A      0.134608   192A      0.135888   193A      0.136331  
     194A      0.137297   195A      0.138289   196A      0.138830  
     197A      0.141732   198A      0.141905   199A      0.143410  
     200A      0.144486   201A      0.144593   202A      0.144862  
     203A      0.145760   204A      0.148663   205A      0.148846  
     206A      0.149228   207A      0.150183   208A      0.150934  
     209A      0.152532   210A      0.153433   211A      0.155475  
     212A      0.155772   213A      0.156548   214A      0.157063  
     215A      0.157973   216A      0.158603   217A      0.159229  
     218A      0.160807   219A      0.161648   220A      0.162108  
     221A      0.163315   222A      0.164385   223A      0.165561  
     224A      0.166024   225A      0.166461   226A      0.167584  
     227A      0.169843   228A      0.170783   229A      0.171502  
     230A      0.172700   231A      0.173077   232A      0.173663  
     233A      0.174784   234A      0.175738   235A      0.176559  
     236A      0.178110   237A      0.178711   238A      0.178977  
     239A      0.179890   240A      0.181052   241A      0.182031  
     242A      0.183428   243A      0.185055   244A      0.186785  
     245A      0.187851   246A      0.188911   247A      0.189049  
     248A      0.190274   249A      0.190680   250A      0.191928  
     251A      0.192319   252A      0.192758   253A      0.193784  
     254A      0.195716   255A      0.196264   256A      0.197531  
     257A      0.198712   258A      0.199728   259A      0.201016  
     260A      0.201293   261A      0.202942   262A      0.203146  
     263A      0.204256   264A      0.205678   265A      0.206355  
     266A      0.207449   267A      0.208003   268A      0.208967  
     269A      0.209532   270A      0.211381   271A      0.211649  
     272A      0.212899   273A      0.213191   274A      0.214112  
     275A      0.214728   276A      0.215096   277A      0.219012  
     278A      0.219449   279A      0.220259   280A      0.220782  
     281A      0.222078   282A      0.222469   283A      0.223872  
     284A      0.225241   285A      0.226098   286A      0.227630  
     287A      0.227845   288A      0.228746   289A      0.228953  
     290A      0.229415   291A      0.231637   292A      0.232562  
     293A      0.233388   294A      0.233969   295A      0.234666  
     296A      0.234848   297A      0.236133   298A      0.236487  
     299A      0.237105   300A      0.239655   301A      0.240467  
     302A      0.241657   303A      0.242756   304A      0.244131  
     305A      0.244434   306A      0.247575   307A      0.248741  
     308A      0.250581   309A      0.250969   310A      0.252593  
     311A      0.254194   312A      0.255568   313A      0.256171  
     314A      0.259663   315A      0.259860   316A      0.261693  
     317A      0.262333   318A      0.264363   319A      0.264676  
     320A      0.265205   321A      0.267653   322A      0.268443  
     323A      0.269928   324A      0.271548   325A      0.271894  
     326A      0.273823   327A      0.274957   328A      0.275732  
     329A      0.276885   330A      0.277809   331A      0.279258  
     332A      0.280101   333A      0.281170   334A      0.283579  
     335A      0.284286   336A      0.285333   337A      0.285958  
     338A      0.286076   339A      0.286816   340A      0.287369  
     341A      0.289577   342A      0.289992   343A      0.290453  
     344A      0.293337   345A      0.294549   346A      0.295792  
     347A      0.296723   348A      0.299941   349A      0.301163  
     350A      0.301978   351A      0.303161   352A      0.304683  
     353A      0.305063   354A      0.306540   355A      0.309776  
     356A      0.310996   357A      0.311602   358A      0.312731  
     359A      0.313151   360A      0.314431   361A      0.315790  
     362A      0.316085   363A      0.317965   364A      0.319484  
     365A      0.320217   366A      0.322509   367A      0.322904  
     368A      0.323293   369A      0.324002   370A      0.324829  
     371A      0.326888   372A      0.327575   373A      0.327751  
     374A      0.328567   375A      0.329248   376A      0.330784  
     377A      0.331556   378A      0.332999   379A      0.333291  
     380A      0.333692   381A      0.334619   382A      0.335172  
     383A      0.335735   384A      0.338089   385A      0.338734  
     386A      0.339225   387A      0.340269   388A      0.341206  
     389A      0.342406   390A      0.343386   391A      0.343947  
     392A      0.344870   393A      0.345307   394A      0.347096  
     395A      0.347695   396A      0.348607   397A      0.350442  
     398A      0.350906   399A      0.352097   400A      0.352383  
     401A      0.353749   402A      0.354175   403A      0.355218  
     404A      0.356644   405A      0.360707   406A      0.361789  
     407A      0.362900   408A      0.363628   409A      0.364342  
     410A      0.364658   411A      0.367044   412A      0.367899  
     413A      0.368624   414A      0.369985   415A      0.370115  
     416A      0.370294   417A      0.372455   418A      0.373318  
     419A      0.374019   420A      0.375849   421A      0.376913  
     422A      0.379225   423A      0.379776   424A      0.380944  
     425A      0.382114   426A      0.383975   427A      0.384853  
     428A      0.385283   429A      0.386413   430A      0.387166  
     431A      0.388820   432A      0.390184   433A      0.391463  
     434A      0.392188   435A      0.392634   436A      0.393221  
     437A      0.395490   438A      0.396261   439A      0.396637  
     440A      0.397990   441A      0.398893   442A      0.398975  
     443A      0.399521   444A      0.400830   445A      0.402442  
     446A      0.403060   447A      0.404707   448A      0.406587  
     449A      0.406964   450A      0.407425   451A      0.409799  
     452A      0.411028   453A      0.412035   454A      0.412505  
     455A      0.414049   456A      0.414946   457A      0.415367  
     458A      0.415557   459A      0.417371   460A      0.417877  
     461A      0.419184   462A      0.419270   463A      0.420456  
     464A      0.421761   465A      0.422255   466A      0.423287  
     467A      0.423449   468A      0.424093   469A      0.424606  
     470A      0.426427   471A      0.427305   472A      0.428451  
     473A      0.429452   474A      0.431982   475A      0.432630  
     476A      0.433511   477A      0.434538   478A      0.435417  
     479A      0.436045   480A      0.438171   481A      0.439817  
     482A      0.440839   483A      0.441525   484A      0.443535  
     485A      0.444705   486A      0.446566   487A      0.447422  
     488A      0.447812   489A      0.448763   490A      0.449659  
     491A      0.450479   492A      0.451800   493A      0.452494  
     494A      0.452746   495A      0.454252   496A      0.454869  
     497A      0.457387   498A      0.458520   499A      0.458669  
     500A      0.459438   501A      0.460043   502A      0.461310  
     503A      0.462264   504A      0.463974   505A      0.464962  
     506A      0.465848   507A      0.466901   508A      0.467973  
     509A      0.468724   510A      0.469256   511A      0.469586  
     512A      0.471045   513A      0.471768   514A      0.472856  
     515A      0.473830   516A      0.474891   517A      0.475826  
     518A      0.477062   519A      0.478772   520A      0.480125  
     521A      0.481563   522A      0.481740   523A      0.482534  
     524A      0.484656   525A      0.485477   526A      0.486844  
     527A      0.487253   528A      0.488656   529A      0.490514  
     530A      0.491238   531A      0.493018   532A      0.495545  
     533A      0.496751   534A      0.497780   535A      0.498755  
     536A      0.500300   537A      0.500625   538A      0.502088  
     539A      0.502276   540A      0.503801   541A      0.506605  
     542A      0.507140   543A      0.507985   544A      0.508061  
     545A      0.510214   546A      0.512030   547A      0.513243  
     548A      0.513841   549A      0.515144   550A      0.516922  
     551A      0.517591   552A      0.518834   553A      0.519721  
     554A      0.520468   555A      0.522377   556A      0.523875  
     557A      0.525088   558A      0.525235   559A      0.527667  
     560A      0.528060   561A      0.529524   562A      0.532523  
     563A      0.532944   564A      0.533480   565A      0.534063  
     566A      0.536071   567A      0.536784   568A      0.539382  
     569A      0.542461   570A      0.542864   571A      0.544529  
     572A      0.545152   573A      0.545888   574A      0.547024  
     575A      0.547755   576A      0.548945   577A      0.550378  
     578A      0.551914   579A      0.552160   580A      0.553433  
     581A      0.554456   582A      0.555892   583A      0.556438  
     584A      0.557098   585A      0.558915   586A      0.560140  
     587A      0.561723   588A      0.563112   589A      0.563807  
     590A      0.566517   591A      0.567217   592A      0.568422  
     593A      0.569227   594A      0.569703   595A      0.570919  
     596A      0.571830   597A      0.572478   598A      0.574085  
     599A      0.575327   600A      0.576143   601A      0.577563  
     602A      0.578047   603A      0.578202   604A      0.579643  
     605A      0.580565   606A      0.584792   607A      0.584962  
     608A      0.585262   609A      0.587699   610A      0.588671  
     611A      0.589952   612A      0.590454   613A      0.590920  
     614A      0.592626   615A      0.593192   616A      0.593813  
     617A      0.595611   618A      0.596268   619A      0.598459  
     620A      0.598947   621A      0.601427   622A      0.602199  
     623A      0.603080   624A      0.604071   625A      0.605422  
     626A      0.605851   627A      0.606735   628A      0.607502  
     629A      0.608849   630A      0.609203   631A      0.610273  
     632A      0.613497   633A      0.614391   634A      0.615067  
     635A      0.615730   636A      0.618577   637A      0.620738  
     638A      0.622534   639A      0.623161   640A      0.625381  
     641A      0.626783   642A      0.629238   643A      0.629737  
     644A      0.630113   645A      0.630802   646A      0.631470  
     647A      0.634250   648A      0.635605   649A      0.637061  
     650A      0.637289   651A      0.638248   652A      0.640122  
     653A      0.640953   654A      0.641860   655A      0.642279  
     656A      0.643623   657A      0.645151   658A      0.646073  
     659A      0.646178   660A      0.647706   661A      0.649971  
     662A      0.653149   663A      0.653993   664A      0.655438  
     665A      0.655930   666A      0.657079   667A      0.658484  
     668A      0.659978   669A      0.660931   670A      0.662264  
     671A      0.664030   672A      0.666946   673A      0.668066  
     674A      0.669000   675A      0.669553   676A      0.671928  
     677A      0.672555   678A      0.673650   679A      0.675715  
     680A      0.676313   681A      0.678551   682A      0.679715  
     683A      0.680448   684A      0.681362   685A      0.682385  
     686A      0.684525   687A      0.685903   688A      0.687157  
     689A      0.688373   690A      0.689078   691A      0.691647  
     692A      0.693806   693A      0.695441   694A      0.696671  
     695A      0.696995   696A      0.698141   697A      0.700349  
     698A      0.700943   699A      0.701483   700A      0.702787  
     701A      0.703965   702A      0.705092   703A      0.705731  
     704A      0.707042   705A      0.707821   706A      0.708441  
     707A      0.710030   708A      0.710909   709A      0.711788  
     710A      0.712788   711A      0.714981   712A      0.716871  
     713A      0.717734   714A      0.719918   715A      0.720875  
     716A      0.721506   717A      0.723400   718A      0.724058  
     719A      0.726509   720A      0.727421   721A      0.728122  
     722A      0.730219   723A      0.730936   724A      0.732632  
     725A      0.733078   726A      0.734248   727A      0.735192  
     728A      0.736074   729A      0.737955   730A      0.738795  
     731A      0.739625   732A      0.741138   733A      0.742252  
     734A      0.744036   735A      0.744135   736A      0.745590  
     737A      0.747410   738A      0.747724   739A      0.748843  
     740A      0.749235   741A      0.750470   742A      0.751193  
     743A      0.752281   744A      0.752758   745A      0.754495  
     746A      0.755536   747A      0.755913   748A      0.756103  
     749A      0.757234   750A      0.759763   751A      0.760091  
     752A      0.763625   753A      0.765439   754A      0.766423  
     755A      0.768829   756A      0.770665   757A      0.771519  
     758A      0.772445   759A      0.773007   760A      0.773959  
     761A      0.774612   762A      0.774771   763A      0.777062  
     764A      0.777524   765A      0.779370   766A      0.780674  
     767A      0.781874   768A      0.783769   769A      0.784400  
     770A      0.784916   771A      0.786545   772A      0.789572  
     773A      0.790344   774A      0.791909   775A      0.792417  
     776A      0.795166   777A      0.796375   778A      0.796774  
     779A      0.797631   780A      0.798475   781A      0.800732  
     782A      0.801396   783A      0.802953   784A      0.803079  
     785A      0.804462   786A      0.806815   787A      0.808677  
     788A      0.809860   789A      0.810899   790A      0.811590  
     791A      0.812169   792A      0.814571   793A      0.815608  
     794A      0.816458   795A      0.818237   796A      0.818359  
     797A      0.819491   798A      0.821766   799A      0.822168  
     800A      0.823228   801A      0.824882   802A      0.825596  
     803A      0.826668   804A      0.827644   805A      0.828262  
     806A      0.828643   807A      0.830835   808A      0.831004  
     809A      0.833441   810A      0.833921   811A      0.834972  
     812A      0.837543   813A      0.838100   814A      0.838995  
     815A      0.840044   816A      0.842190   817A      0.842774  
     818A      0.846001   819A      0.846612   820A      0.847806  
     821A      0.848698   822A      0.849887   823A      0.851225  
     824A      0.852400   825A      0.853254   826A      0.855186  
     827A      0.856688   828A      0.857499   829A      0.858358  
     830A      0.859602   831A      0.860189   832A      0.861712  
     833A      0.862773   834A      0.864197   835A      0.865489  
     836A      0.866399   837A      0.866817   838A      0.868906  
     839A      0.869472   840A      0.869999   841A      0.871113  
     842A      0.871618   843A      0.872244   844A      0.874021  
     845A      0.875565   846A      0.877184   847A      0.877788  
     848A      0.880181   849A      0.881572   850A      0.882837  
     851A      0.883855   852A      0.886847   853A      0.887470  
     854A      0.888319   855A      0.891021   856A      0.892338  
     857A      0.895078   858A      0.896153   859A      0.898188  
     860A      0.898436   861A      0.899483   862A      0.900863  
     863A      0.901975   864A      0.902930   865A      0.904797  
     866A      0.907549   867A      0.908043   868A      0.909182  
     869A      0.910698   870A      0.911684   871A      0.912991  
     872A      0.914913   873A      0.915967   874A      0.917862  
     875A      0.919450   876A      0.920105   877A      0.923299  
     878A      0.923641   879A      0.926004   880A      0.926916  
     881A      0.929249   882A      0.929947   883A      0.931322  
     884A      0.932979   885A      0.933527   886A      0.935804  
     887A      0.936795   888A      0.939673   889A      0.940088  
     890A      0.941138   891A      0.941699   892A      0.944876  
     893A      0.945617   894A      0.948105   895A      0.950728  
     896A      0.951318   897A      0.952385   898A      0.953278  
     899A      0.954424   900A      0.956094   901A      0.957330  
     902A      0.958517   903A      0.959244   904A      0.960415  
     905A      0.960783   906A      0.962647   907A      0.962933  
     908A      0.964240   909A      0.966536   910A      0.967523  
     911A      0.968738   912A      0.970118   913A      0.971466  
     914A      0.972076   915A      0.975002   916A      0.976648  
     917A      0.977584   918A      0.978661   919A      0.979147  
     920A      0.980557   921A      0.981304   922A      0.982593  
     923A      0.984203   924A      0.985270   925A      0.986056  
     926A      0.987565   927A      0.988976   928A      0.989301  
     929A      0.990304   930A      0.991379   931A      0.992652  
     932A      0.994637   933A      0.995634   934A      0.995946  
     935A      0.997222   936A      0.997564   937A      1.000458  
     938A      1.001977   939A      1.003444   940A      1.004714  
     941A      1.005379   942A      1.007813   943A      1.008385  
     944A      1.009199   945A      1.011884   946A      1.013451  
     947A      1.014582   948A      1.015124   949A      1.017072  
     950A      1.019551   951A      1.021639   952A      1.021921  
     953A      1.022442   954A      1.024112   955A      1.024947  
     956A      1.026145   957A      1.026828   958A      1.027034  
     959A      1.028449   960A      1.031768   961A      1.032334  
     962A      1.033439   963A      1.035243   964A      1.038057  
     965A      1.039500   966A      1.040293   967A      1.041410  
     968A      1.044413   969A      1.045824   970A      1.046436  
     971A      1.047145   972A      1.049520   973A      1.051244  
     974A      1.051817   975A      1.054366   976A      1.055020  
     977A      1.056707   978A      1.057736   979A      1.060851  
     980A      1.061940   981A      1.063141   982A      1.063852  
     983A      1.064602   984A      1.066130   985A      1.067010  
     986A      1.067586   987A      1.069029   988A      1.071607  
     989A      1.072852   990A      1.074090   991A      1.075622  
     992A      1.077676   993A      1.078553   994A      1.081324  
     995A      1.083154   996A      1.084517   997A      1.087956  
     998A      1.088465   999A      1.089958  1000A      1.092155  
    1001A      1.092928  1002A      1.094284  1003A      1.096641  
    1004A      1.097897  1005A      1.099053  1006A      1.101533  
    1007A      1.103010  1008A      1.104760  1009A      1.105810  
    1010A      1.107367  1011A      1.108659  1012A      1.111243  
    1013A      1.112046  1014A      1.113000  1015A      1.114908  
    1016A      1.115245  1017A      1.116668  1018A      1.118218  
    1019A      1.118513  1020A      1.119599  1021A      1.120723  
    1022A      1.121616  1023A      1.122451  1024A      1.123261  
    1025A      1.124557  1026A      1.125754  1027A      1.125953  
    1028A      1.127312  1029A      1.128907  1030A      1.130953  
    1031A      1.131283  1032A      1.133136  1033A      1.133598  
    1034A      1.135405  1035A      1.136977  1036A      1.137430  
    1037A      1.138839  1038A      1.139679  1039A      1.141135  
    1040A      1.142831  1041A      1.143625  1042A      1.145646  
    1043A      1.146310  1044A      1.148226  1045A      1.149231  
    1046A      1.149950  1047A      1.151654  1048A      1.152974  
    1049A      1.153647  1050A      1.153888  1051A      1.154702  
    1052A      1.155840  1053A      1.158440  1054A      1.158862  
    1055A      1.159686  1056A      1.160765  1057A      1.163211  
    1058A      1.163505  1059A      1.165224  1060A      1.165713  
    1061A      1.167621  1062A      1.168542  1063A      1.170076  
    1064A      1.171166  1065A      1.171986  1066A      1.172736  
    1067A      1.174941  1068A      1.175922  1069A      1.178476  
    1070A      1.180538  1071A      1.181024  1072A      1.183170  
    1073A      1.184285  1074A      1.186164  1075A      1.188371  
    1076A      1.190207  1077A      1.191088  1078A      1.191709  
    1079A      1.193944  1080A      1.195323  1081A      1.196108  
    1082A      1.198601  1083A      1.200074  1084A      1.201405  
    1085A      1.201888  1086A      1.203698  1087A      1.203863  
    1088A      1.204994  1089A      1.207659  1090A      1.208654  
    1091A      1.209133  1092A      1.210530  1093A      1.210948  
    1094A      1.212332  1095A      1.213763  1096A      1.214716  
    1097A      1.215737  1098A      1.216260  1099A      1.218488  
    1100A      1.220034  1101A      1.221183  1102A      1.222856  
    1103A      1.226196  1104A      1.227534  1105A      1.228991  
    1106A      1.229854  1107A      1.231187  1108A      1.233634  
    1109A      1.234855  1110A      1.236676  1111A      1.237902  
    1112A      1.238183  1113A      1.240136  1114A      1.241917  
    1115A      1.243064  1116A      1.244828  1117A      1.245800  
    1118A      1.247621  1119A      1.249778  1120A      1.251651  
    1121A      1.253311  1122A      1.254532  1123A      1.255915  
    1124A      1.258116  1125A      1.258611  1126A      1.259662  
    1127A      1.260766  1128A      1.261564  1129A      1.264178  
    1130A      1.265818  1131A      1.267049  1132A      1.268213  
    1133A      1.269618  1134A      1.270431  1135A      1.271513  
    1136A      1.272363  1137A      1.274204  1138A      1.274465  
    1139A      1.276939  1140A      1.278840  1141A      1.280089  
    1142A      1.281414  1143A      1.281913  1144A      1.284569  
    1145A      1.284938  1146A      1.285668  1147A      1.288834  
    1148A      1.289899  1149A      1.291379  1150A      1.292744  
    1151A      1.294561  1152A      1.295328  1153A      1.297850  
    1154A      1.299173  1155A      1.299709  1156A      1.300473  
    1157A      1.301711  1158A      1.302646  1159A      1.303386  
    1160A      1.304829  1161A      1.306686  1162A      1.308200  
    1163A      1.309308  1164A      1.311779  1165A      1.312105  
    1166A      1.312829  1167A      1.315206  1168A      1.318065  
    1169A      1.318992  1170A      1.319365  1171A      1.320916  
    1172A      1.321925  1173A      1.322585  1174A      1.323831  
    1175A      1.325216  1176A      1.326333  1177A      1.328069  
    1178A      1.328568  1179A      1.329013  1180A      1.330508  
    1181A      1.331724  1182A      1.334187  1183A      1.335853  
    1184A      1.337418  1185A      1.338986  1186A      1.340374  
    1187A      1.340700  1188A      1.342241  1189A      1.342773  
    1190A      1.345283  1191A      1.346467  1192A      1.348123  
    1193A      1.349021  1194A      1.349598  1195A      1.351016  
    1196A      1.351792  1197A      1.352193  1198A      1.352934  
    1199A      1.355904  1200A      1.357806  1201A      1.358492  
    1202A      1.360595  1203A      1.362329  1204A      1.363984  
    1205A      1.365176  1206A      1.366095  1207A      1.368575  
    1208A      1.370594  1209A      1.371013  1210A      1.373613  
    1211A      1.376392  1212A      1.377483  1213A      1.379366  
    1214A      1.381103  1215A      1.383675  1216A      1.385439  
    1217A      1.386171  1218A      1.387020  1219A      1.387963  
    1220A      1.389028  1221A      1.391570  1222A      1.393365  
    1223A      1.394071  1224A      1.397639  1225A      1.397812  
    1226A      1.398648  1227A      1.400431  1228A      1.402954  
    1229A      1.404493  1230A      1.405613  1231A      1.405833  
    1232A      1.408300  1233A      1.409207  1234A      1.410531  
    1235A      1.412621  1236A      1.413071  1237A      1.414950  
    1238A      1.417538  1239A      1.417631  1240A      1.418561  
    1241A      1.419396  1242A      1.420746  1243A      1.423547  
    1244A      1.424162  1245A      1.424947  1246A      1.426844  
    1247A      1.428515  1248A      1.429691  1249A      1.431329  
    1250A      1.432448  1251A      1.433702  1252A      1.435486  
    1253A      1.437268  1254A      1.438821  1255A      1.439595  
    1256A      1.440288  1257A      1.443459  1258A      1.445741  
    1259A      1.446694  1260A      1.448231  1261A      1.449260  
    1262A      1.450661  1263A      1.451952  1264A      1.453979  
    1265A      1.454028  1266A      1.454178  1267A      1.456791  
    1268A      1.457695  1269A      1.459370  1270A      1.459580  
    1271A      1.462147  1272A      1.463638  1273A      1.464986  
    1274A      1.466093  1275A      1.468418  1276A      1.470012  
    1277A      1.471614  1278A      1.472036  1279A      1.476275  
    1280A      1.477271  1281A      1.477668  1282A      1.479285  
    1283A      1.480735  1284A      1.481634  1285A      1.483238  
    1286A      1.485052  1287A      1.486441  1288A      1.487257  
    1289A      1.489140  1290A      1.489732  1291A      1.490757  
    1292A      1.493831  1293A      1.495834  1294A      1.497157  
    1295A      1.497789  1296A      1.498220  1297A      1.499629  
    1298A      1.500861  1299A      1.502126  1300A      1.502360  
    1301A      1.504158  1302A      1.505850  1303A      1.507704  
    1304A      1.509435  1305A      1.510412  1306A      1.511558  
    1307A      1.512271  1308A      1.516292  1309A      1.516723  
    1310A      1.517689  1311A      1.518700  1312A      1.521014  
    1313A      1.522765  1314A      1.524308  1315A      1.525337  
    1316A      1.526637  1317A      1.527863  1318A      1.528920  
    1319A      1.529486  1320A      1.530514  1321A      1.533750  
    1322A      1.534293  1323A      1.536636  1324A      1.537130  
    1325A      1.539560  1326A      1.540810  1327A      1.542052  
    1328A      1.543857  1329A      1.544592  1330A      1.546588  
    1331A      1.547169  1332A      1.548758  1333A      1.551045  
    1334A      1.553072  1335A      1.554034  1336A      1.555989  
    1337A      1.556715  1338A      1.557708  1339A      1.560701  
    1340A      1.561710  1341A      1.562437  1342A      1.563279  
    1343A      1.564413  1344A      1.566172  1345A      1.568300  
    1346A      1.568925  1347A      1.569269  1348A      1.570881  
    1349A      1.573677  1350A      1.574333  1351A      1.575548  
    1352A      1.576271  1353A      1.577863  1354A      1.579292  
    1355A      1.579970  1356A      1.582238  1357A      1.582972  
    1358A      1.583794  1359A      1.584726  1360A      1.585784  
    1361A      1.587696  1362A      1.589382  1363A      1.589560  
    1364A      1.590820  1365A      1.592709  1366A      1.593600  
    1367A      1.593646  1368A      1.595488  1369A      1.596487  
    1370A      1.597250  1371A      1.598778  1372A      1.599572  
    1373A      1.600417  1374A      1.602071  1375A      1.602636  
    1376A      1.603498  1377A      1.604655  1378A      1.606543  
    1379A      1.607730  1380A      1.608884  1381A      1.609657  
    1382A      1.610198  1383A      1.612558  1384A      1.613005  
    1385A      1.613735  1386A      1.613982  1387A      1.615564  
    1388A      1.616531  1389A      1.618395  1390A      1.620170  
    1391A      1.622200  1392A      1.622647  1393A      1.623708  
    1394A      1.625405  1395A      1.627031  1396A      1.628093  
    1397A      1.628659  1398A      1.628880  1399A      1.630229  
    1400A      1.631965  1401A      1.633042  1402A      1.635329  
    1403A      1.635893  1404A      1.637952  1405A      1.638588  
    1406A      1.639079  1407A      1.640649  1408A      1.641895  
    1409A      1.643992  1410A      1.644112  1411A      1.645622  
    1412A      1.647234  1413A      1.648158  1414A      1.649443  
    1415A      1.650432  1416A      1.651022  1417A      1.652871  
    1418A      1.653742  1419A      1.654312  1420A      1.656199  
    1421A      1.656845  1422A      1.657876  1423A      1.659981  
    1424A      1.660220  1425A      1.660660  1426A      1.661984  
    1427A      1.663493  1428A      1.664287  1429A      1.665019  
    1430A      1.667408  1431A      1.668531  1432A      1.668834  
    1433A      1.670430  1434A      1.671628  1435A      1.672283  
    1436A      1.673543  1437A      1.674063  1438A      1.675578  
    1439A      1.677627  1440A      1.679393  1441A      1.680838  
    1442A      1.682672  1443A      1.683585  1444A      1.685258  
    1445A      1.685802  1446A      1.687806  1447A      1.690610  
    1448A      1.691884  1449A      1.691994  1450A      1.693281  
    1451A      1.695154  1452A      1.695710  1453A      1.696491  
    1454A      1.697357  1455A      1.699300  1456A      1.700924  
    1457A      1.702816  1458A      1.704640  1459A      1.705287  
    1460A      1.705932  1461A      1.707403  1462A      1.708908  
    1463A      1.710313  1464A      1.710744  1465A      1.712132  
    1466A      1.712732  1467A      1.714446  1468A      1.715819  
    1469A      1.717263  1470A      1.718376  1471A      1.719180  
    1472A      1.720058  1473A      1.721963  1474A      1.723119  
    1475A      1.723832  1476A      1.727155  1477A      1.728114  
    1478A      1.728711  1479A      1.732828  1480A      1.733205  
    1481A      1.734351  1482A      1.736319  1483A      1.740030  
    1484A      1.740688  1485A      1.742304  1486A      1.743687  
    1487A      1.744660  1488A      1.745293  1489A      1.746542  
    1490A      1.749061  1491A      1.750317  1492A      1.751874  
    1493A      1.753725  1494A      1.754589  1495A      1.756523  
    1496A      1.757299  1497A      1.760659  1498A      1.760985  
    1499A      1.762346  1500A      1.762593  1501A      1.763250  
    1502A      1.765299  1503A      1.766349  1504A      1.767567  
    1505A      1.769703  1506A      1.770894  1507A      1.772894  
    1508A      1.773340  1509A      1.775857  1510A      1.777217  
    1511A      1.779160  1512A      1.782883  1513A      1.783325  
    1514A      1.784884  1515A      1.786496  1516A      1.789447  
    1517A      1.790458  1518A      1.790784  1519A      1.791540  
    1520A      1.792252  1521A      1.794920  1522A      1.795509  
    1523A      1.798560  1524A      1.799888  1525A      1.801520  
    1526A      1.803000  1527A      1.803417  1528A      1.806016  
    1529A      1.807105  1530A      1.809184  1531A      1.810901  
    1532A      1.814287  1533A      1.814627  1534A      1.816387  
    1535A      1.817815  1536A      1.819287  1537A      1.820561  
    1538A      1.824218  1539A      1.825510  1540A      1.825969  
    1541A      1.827491  1542A      1.831436  1543A      1.833001  
    1544A      1.835878  1545A      1.836962  1546A      1.837780  
    1547A      1.839366  1548A      1.840908  1549A      1.841462  
    1550A      1.843783  1551A      1.844761  1552A      1.847777  
    1553A      1.848818  1554A      1.851239  1555A      1.852534  
    1556A      1.856043  1557A      1.857373  1558A      1.858603  
    1559A      1.860405  1560A      1.862759  1561A      1.864603  
    1562A      1.866937  1563A      1.868501  1564A      1.869332  
    1565A      1.870643  1566A      1.873434  1567A      1.876278  
    1568A      1.876714  1569A      1.879262  1570A      1.880527  
    1571A      1.882704  1572A      1.884452  1573A      1.885552  
    1574A      1.886947  1575A      1.890435  1576A      1.893028  
    1577A      1.895373  1578A      1.895823  1579A      1.898368  
    1580A      1.898963  1581A      1.899061  1582A      1.902258  
    1583A      1.904277  1584A      1.905869  1585A      1.906640  
    1586A      1.907975  1587A      1.909552  1588A      1.911068  
    1589A      1.912105  1590A      1.913962  1591A      1.917361  
    1592A      1.918625  1593A      1.920623  1594A      1.922321  
    1595A      1.924179  1596A      1.924493  1597A      1.926625  
    1598A      1.929971  1599A      1.930010  1600A      1.931675  
    1601A      1.933990  1602A      1.934848  1603A      1.936288  
    1604A      1.936993  1605A      1.939998  1606A      1.941934  
    1607A      1.943210  1608A      1.944820  1609A      1.948280  
    1610A      1.950247  1611A      1.951439  1612A      1.952832  
    1613A      1.954594  1614A      1.954843  1615A      1.955488  
    1616A      1.958595  1617A      1.960352  1618A      1.961985  
    1619A      1.965132  1620A      1.965289  1621A      1.968114  
    1622A      1.970441  1623A      1.971280  1624A      1.972781  
    1625A      1.973542  1626A      1.975204  1627A      1.975735  
    1628A      1.977952  1629A      1.979322  1630A      1.979733  
    1631A      1.981691  1632A      1.983291  1633A      1.984277  
    1634A      1.984847  1635A      1.987056  1636A      1.988948  
    1637A      1.990339  1638A      1.992621  1639A      1.994287  
    1640A      1.995902  1641A      1.997444  1642A      1.999042  
    1643A      2.000122  1644A      2.001520  1645A      2.002439  
    1646A      2.004008  1647A      2.007568  1648A      2.008785  
    1649A      2.010384  1650A      2.011712  1651A      2.016054  
    1652A      2.017731  1653A      2.018903  1654A      2.019573  
    1655A      2.020823  1656A      2.021508  1657A      2.025243  
    1658A      2.025805  1659A      2.027238  1660A      2.028899  
    1661A      2.032021  1662A      2.033727  1663A      2.035989  
    1664A      2.038399  1665A      2.040328  1666A      2.041370  
    1667A      2.045593  1668A      2.045658  1669A      2.046965  
    1670A      2.047737  1671A      2.050678  1672A      2.051972  
    1673A      2.052504  1674A      2.054626  1675A      2.056259  
    1676A      2.058546  1677A      2.059749  1678A      2.062837  
    1679A      2.064577  1680A      2.067590  1681A      2.068727  
    1682A      2.070218  1683A      2.074044  1684A      2.075751  
    1685A      2.078876  1686A      2.083405  1687A      2.084101  
    1688A      2.087950  1689A      2.089543  1690A      2.090220  
    1691A      2.093199  1692A      2.095142  1693A      2.096783  
    1694A      2.101343  1695A      2.102706  1696A      2.105910  
    1697A      2.107232  1698A      2.107599  1699A      2.110049  
    1700A      2.111473  1701A      2.114267  1702A      2.117104  
    1703A      2.118522  1704A      2.120060  1705A      2.120961  
    1706A      2.123935  1707A      2.124500  1708A      2.126885  
    1709A      2.129266  1710A      2.130119  1711A      2.132662  
    1712A      2.135975  1713A      2.138986  1714A      2.139353  
    1715A      2.140586  1716A      2.142966  1717A      2.143878  
    1718A      2.144898  1719A      2.146448  1720A      2.148555  
    1721A      2.150543  1722A      2.152359  1723A      2.154187  
    1724A      2.155857  1725A      2.157156  1726A      2.161801  
    1727A      2.163704  1728A      2.164463  1729A      2.167330  
    1730A      2.168551  1731A      2.170554  1732A      2.171741  
    1733A      2.173453  1734A      2.176916  1735A      2.178319  
    1736A      2.179202  1737A      2.182188  1738A      2.182635  
    1739A      2.186191  1740A      2.188549  1741A      2.189730  
    1742A      2.190949  1743A      2.193078  1744A      2.195222  
    1745A      2.196700  1746A      2.199860  1747A      2.200264  
    1748A      2.201123  1749A      2.204777  1750A      2.206194  
    1751A      2.210578  1752A      2.214310  1753A      2.214877  
    1754A      2.217045  1755A      2.219536  1756A      2.221735  
    1757A      2.222239  1758A      2.224517  1759A      2.225604  
    1760A      2.229178  1761A      2.231196  1762A      2.232329  
    1763A      2.236174  1764A      2.238198  1765A      2.239477  
    1766A      2.240953  1767A      2.246686  1768A      2.247341  
    1769A      2.250441  1770A      2.252351  1771A      2.253291  
    1772A      2.254826  1773A      2.256912  1774A      2.258202  
    1775A      2.258880  1776A      2.261902  1777A      2.263061  
    1778A      2.264667  1779A      2.266881  1780A      2.268398  
    1781A      2.269854  1782A      2.273711  1783A      2.275373  
    1784A      2.276697  1785A      2.278704  1786A      2.280087  
    1787A      2.285736  1788A      2.287963  1789A      2.289170  
    1790A      2.291773  1791A      2.293161  1792A      2.295606  
    1793A      2.297605  1794A      2.299187  1795A      2.300941  
    1796A      2.301987  1797A      2.303951  1798A      2.306321  
    1799A      2.307022  1800A      2.308471  1801A      2.310006  
    1802A      2.312502  1803A      2.312908  1804A      2.314168  
    1805A      2.317299  1806A      2.318329  1807A      2.319500  
    1808A      2.320167  1809A      2.322412  1810A      2.324644  
    1811A      2.327718  1812A      2.327982  1813A      2.329536  
    1814A      2.332637  1815A      2.333464  1816A      2.334861  
    1817A      2.336299  1818A      2.338939  1819A      2.339960  
    1820A      2.342063  1821A      2.344209  1822A      2.347531  
    1823A      2.347904  1824A      2.350980  1825A      2.352218  
    1826A      2.353591  1827A      2.354735  1828A      2.356561  
    1829A      2.359371  1830A      2.362353  1831A      2.365772  
    1832A      2.367360  1833A      2.368911  1834A      2.371176  
    1835A      2.373668  1836A      2.375419  1837A      2.376296  
    1838A      2.378384  1839A      2.379042  1840A      2.381330  
    1841A      2.383371  1842A      2.384325  1843A      2.387460  
    1844A      2.390735  1845A      2.393975  1846A      2.395293  
    1847A      2.396166  1848A      2.397402  1849A      2.399348  
    1850A      2.401092  1851A      2.404800  1852A      2.405076  
    1853A      2.410041  1854A      2.411189  1855A      2.415282  
    1856A      2.415905  1857A      2.417322  1858A      2.421339  
    1859A      2.422285  1860A      2.425575  1861A      2.429232  
    1862A      2.432661  1863A      2.435070  1864A      2.436297  
    1865A      2.438679  1866A      2.440416  1867A      2.443935  
    1868A      2.448456  1869A      2.450258  1870A      2.454689  
    1871A      2.460444  1872A      2.462887  1873A      2.463897  
    1874A      2.466926  1875A      2.467778  1876A      2.471642  
    1877A      2.473943  1878A      2.476381  1879A      2.479479  
    1880A      2.480783  1881A      2.483852  1882A      2.484842  
    1883A      2.486601  1884A      2.492470  1885A      2.495876  
    1886A      2.496540  1887A      2.498526  1888A      2.500620  
    1889A      2.501637  1890A      2.505137  1891A      2.508859  
    1892A      2.511496  1893A      2.512152  1894A      2.512998  
    1895A      2.515053  1896A      2.517056  1897A      2.519960  
    1898A      2.521646  1899A      2.522061  1900A      2.522867  
    1901A      2.530292  1902A      2.532079  1903A      2.535026  
    1904A      2.537591  1905A      2.538649  1906A      2.541925  
    1907A      2.543209  1908A      2.546239  1909A      2.547977  
    1910A      2.550694  1911A      2.559747  1912A      2.562656  
    1913A      2.565804  1914A      2.568307  1915A      2.571679  
    1916A      2.574415  1917A      2.576287  1918A      2.578741  
    1919A      2.582628  1920A      2.583455  1921A      2.586107  
    1922A      2.593942  1923A      2.595447  1924A      2.600203  
    1925A      2.607748  1926A      2.608983  1927A      2.611585  
    1928A      2.611803  1929A      2.614288  1930A      2.616679  
    1931A      2.618920  1932A      2.622084  1933A      2.627657  
    1934A      2.630438  1935A      2.633857  1936A      2.639973  
    1937A      2.640722  1938A      2.644925  1939A      2.645859  
    1940A      2.649249  1941A      2.651595  1942A      2.658958  
    1943A      2.659616  1944A      2.659901  1945A      2.661329  
    1946A      2.662883  1947A      2.666248  1948A      2.669577  
    1949A      2.672111  1950A      2.673445  1951A      2.675621  
    1952A      2.680090  1953A      2.685494  1954A      2.686376  
    1955A      2.687733  1956A      2.689340  1957A      2.695019  
    1958A      2.699992  1959A      2.700895  1960A      2.704474  
    1961A      2.704884  1962A      2.706766  1963A      2.709378  
    1964A      2.713681  1965A      2.718132  1966A      2.722915  
    1967A      2.726931  1968A      2.728820  1969A      2.730743  
    1970A      2.733043  1971A      2.736114  1972A      2.739187  
    1973A      2.741433  1974A      2.743144  1975A      2.745365  
    1976A      2.746835  1977A      2.750548  1978A      2.751432  
    1979A      2.752594  1980A      2.754547  1981A      2.759649  
    1982A      2.761478  1983A      2.762715  1984A      2.764182  
    1985A      2.769091  1986A      2.772476  1987A      2.774344  
    1988A      2.776571  1989A      2.780525  1990A      2.783736  
    1991A      2.785621  1992A      2.786342  1993A      2.791012  
    1994A      2.792784  1995A      2.798531  1996A      2.799685  
    1997A      2.802770  1998A      2.805226  1999A      2.808117  
    2000A      2.810992  2001A      2.815380  2002A      2.816174  
    2003A      2.820115  2004A      2.822905  2005A      2.824623  
    2006A      2.825935  2007A      2.827611  2008A      2.829976  
    2009A      2.837971  2010A      2.841422  2011A      2.844247  
    2012A      2.847971  2013A      2.850802  2014A      2.853722  
    2015A      2.857352  2016A      2.860398  2017A      2.861736  
    2018A      2.862944  2019A      2.867523  2020A      2.867933  
    2021A      2.869232  2022A      2.871260  2023A      2.874387  
    2024A      2.875410  2025A      2.877209  2026A      2.883054  
    2027A      2.885085  2028A      2.886768  2029A      2.889000  
    2030A      2.890338  2031A      2.895891  2032A      2.898085  
    2033A      2.901282  2034A      2.902191  2035A      2.905865  
    2036A      2.913932  2037A      2.914222  2038A      2.917916  
    2039A      2.923348  2040A      2.925502  2041A      2.933452  
    2042A      2.939347  2043A      2.942947  2044A      2.951921  
    2045A      2.953889  2046A      2.963749  2047A      2.965744  
    2048A      2.969044  2049A      2.978791  2050A      2.980784  
    2051A      2.991455  2052A      2.992294  2053A      2.995117  
    2054A      2.998759  2055A      3.000213  2056A      3.005851  
    2057A      3.008053  2058A      3.018384  2059A      3.019233  
    2060A      3.024010  2061A      3.024819  2062A      3.027329  
    2063A      3.032106  2064A      3.034810  2065A      3.038654  
    2066A      3.039354  2067A      3.044185  2068A      3.046931  
    2069A      3.048408  2070A      3.055479  2071A      3.057261  
    2072A      3.059458  2073A      3.064630  2074A      3.067518  
    2075A      3.072772  2076A      3.074591  2077A      3.080019  
    2078A      3.092648  2079A      3.100877  2080A      3.106707  
    2081A      3.113845  2082A      3.118930  2083A      3.124221  
    2084A      3.126434  2085A      3.132871  2086A      3.137345  
    2087A      3.137984  2088A      3.141477  2089A      3.145023  
    2090A      3.153013  2091A      3.156481  2092A      3.157352  
    2093A      3.158874  2094A      3.167423  2095A      3.171418  
    2096A      3.177269  2097A      3.179520  2098A      3.180637  
    2099A      3.186425  2100A      3.192112  2101A      3.195849  
    2102A      3.196357  2103A      3.204090  2104A      3.205924  
    2105A      3.212172  2106A      3.215528  2107A      3.217661  
    2108A      3.222392  2109A      3.223417  2110A      3.231286  
    2111A      3.232720  2112A      3.239787  2113A      3.241396  
    2114A      3.245616  2115A      3.250369  2116A      3.253780  
    2117A      3.257483  2118A      3.260370  2119A      3.264308  
    2120A      3.266497  2121A      3.278886  2122A      3.280381  
    2123A      3.283992  2124A      3.285411  2125A      3.289121  
    2126A      3.292603  2127A      3.294026  2128A      3.297686  
    2129A      3.300805  2130A      3.303582  2131A      3.305748  
    2132A      3.309992  2133A      3.313097  2134A      3.314997  
    2135A      3.318518  2136A      3.320843  2137A      3.324884  
    2138A      3.326727  2139A      3.328722  2140A      3.330985  
    2141A      3.333444  2142A      3.335449  2143A      3.337935  
    2144A      3.341933  2145A      3.344309  2146A      3.348578  
    2147A      3.352423  2148A      3.356272  2149A      3.356391  
    2150A      3.359577  2151A      3.363045  2152A      3.364744  
    2153A      3.368440  2154A      3.371461  2155A      3.377856  
    2156A      3.382328  2157A      3.383073  2158A      3.393420  
    2159A      3.396248  2160A      3.397035  2161A      3.400230  
    2162A      3.405596  2163A      3.406149  2164A      3.410619  
    2165A      3.412931  2166A      3.417522  2167A      3.419607  
    2168A      3.423681  2169A      3.433363  2170A      3.434097  
    2171A      3.434796  2172A      3.437600  2173A      3.440147  
    2174A      3.442366  2175A      3.444573  2176A      3.446225  
    2177A      3.447812  2178A      3.451651  2179A      3.455431  
    2180A      3.459010  2181A      3.462699  2182A      3.466577  
    2183A      3.467465  2184A      3.468350  2185A      3.471470  
    2186A      3.475224  2187A      3.476410  2188A      3.478900  
    2189A      3.481910  2190A      3.483246  2191A      3.486996  
    2192A      3.492901  2193A      3.498014  2194A      3.506350  
    2195A      3.508789  2196A      3.509738  2197A      3.512726  
    2198A      3.515352  2199A      3.517746  2200A      3.518886  
    2201A      3.523359  2202A      3.529169  2203A      3.533344  
    2204A      3.536173  2205A      3.538679  2206A      3.544043  
    2207A      3.546809  2208A      3.548755  2209A      3.550286  
    2210A      3.552247  2211A      3.554111  2212A      3.561896  
    2213A      3.566134  2214A      3.567294  2215A      3.569351  
    2216A      3.574691  2217A      3.577463  2218A      3.580306  
    2219A      3.585677  2220A      3.586564  2221A      3.587464  
    2222A      3.589403  2223A      3.593810  2224A      3.597112  
    2225A      3.600891  2226A      3.604326  2227A      3.609233  
    2228A      3.611435  2229A      3.612275  2230A      3.616219  
    2231A      3.619836  2232A      3.621221  2233A      3.624941  
    2234A      3.627993  2235A      3.631092  2236A      3.632409  
    2237A      3.633180  2238A      3.637108  2239A      3.637982  
    2240A      3.641332  2241A      3.646041  2242A      3.647991  
    2243A      3.653932  2244A      3.654261  2245A      3.657335  
    2246A      3.661987  2247A      3.664860  2248A      3.667704  
    2249A      3.669950  2250A      3.672019  2251A      3.674772  
    2252A      3.676637  2253A      3.683389  2254A      3.685679  
    2255A      3.689201  2256A      3.694189  2257A      3.696268  
    2258A      3.698645  2259A      3.701468  2260A      3.702092  
    2261A      3.705112  2262A      3.710550  2263A      3.714549  
    2264A      3.717333  2265A      3.717954  2266A      3.719491  
    2267A      3.721449  2268A      3.726368  2269A      3.733803  
    2270A      3.737147  2271A      3.739579  2272A      3.741276  
    2273A      3.743582  2274A      3.744758  2275A      3.750677  
    2276A      3.752589  2277A      3.752804  2278A      3.757535  
    2279A      3.761584  2280A      3.768248  2281A      3.769294  
    2282A      3.770324  2283A      3.774633  2284A      3.778514  
    2285A      3.779300  2286A      3.784639  2287A      3.787056  
    2288A      3.791594  2289A      3.794326  2290A      3.797367  
    2291A      3.800677  2292A      3.805914  2293A      3.810936  
    2294A      3.816385  2295A      3.817961  2296A      3.822295  
    2297A      3.824931  2298A      3.825678  2299A      3.827740  
    2300A      3.835312  2301A      3.837567  2302A      3.838009  
    2303A      3.844742  2304A      3.846744  2305A      3.851167  
    2306A      3.854806  2307A      3.857850  2308A      3.858828  
    2309A      3.861612  2310A      3.865669  2311A      3.868612  
    2312A      3.871156  2313A      3.873672  2314A      3.874341  
    2315A      3.875629  2316A      3.884878  2317A      3.887165  
    2318A      3.900734  2319A      3.901525  2320A      3.902987  
    2321A      3.907864  2322A      3.913780  2323A      3.914970  
    2324A      3.916776  2325A      3.923241  2326A      3.929160  
    2327A      3.933132  2328A      3.936720  2329A      3.943744  
    2330A      3.949346  2331A      3.952395  2332A      3.955693  
    2333A      3.957109  2334A      3.961855  2335A      3.963979  
    2336A      3.972101  2337A      3.975008  2338A      3.976546  
    2339A      3.978535  2340A      3.980518  2341A      3.987826  
    2342A      3.990605  2343A      3.994815  2344A      3.997010  
    2345A      3.999440  2346A      4.003413  2347A      4.006134  
    2348A      4.011655  2349A      4.014129  2350A      4.017410  
    2351A      4.018711  2352A      4.026754  2353A      4.027506  
    2354A      4.032214  2355A      4.034712  2356A      4.039162  
    2357A      4.043835  2358A      4.050635  2359A      4.053533  
    2360A      4.054772  2361A      4.058277  2362A      4.059144  
    2363A      4.061398  2364A      4.068103  2365A      4.069036  
    2366A      4.082053  2367A      4.088966  2368A      4.090849  
    2369A      4.096079  2370A      4.102630  2371A      4.104767  
    2372A      4.110895  2373A      4.112279  2374A      4.119116  
    2375A      4.119948  2376A      4.120388  2377A      4.123580  
    2378A      4.132204  2379A      4.141812  2380A      4.143575  
    2381A      4.144015  2382A      4.147461  2383A      4.151216  
    2384A      4.153866  2385A      4.158767  2386A      4.159546  
    2387A      4.161014  2388A      4.166296  2389A      4.167468  
    2390A      4.168950  2391A      4.173469  2392A      4.174704  
    2393A      4.176674  2394A      4.182086  2395A      4.183984  
    2396A      4.187900  2397A      4.190200  2398A      4.194875  
    2399A      4.198130  2400A      4.199665  2401A      4.205416  
    2402A      4.206403  2403A      4.209434  2404A      4.211293  
    2405A      4.213401  2406A      4.215724  2407A      4.219105  
    2408A      4.223148  2409A      4.223946  2410A      4.224932  
    2411A      4.229142  2412A      4.230086  2413A      4.230743  
    2414A      4.233590  2415A      4.236851  2416A      4.239250  
    2417A      4.242318  2418A      4.242974  2419A      4.247454  
    2420A      4.252678  2421A      4.254266  2422A      4.258797  
    2423A      4.261484  2424A      4.264592  2425A      4.266796  
    2426A      4.268063  2427A      4.269643  2428A      4.271481  
    2429A      4.274681  2430A      4.277817  2431A      4.278659  
    2432A      4.282978  2433A      4.286756  2434A      4.287666  
    2435A      4.289193  2436A      4.291754  2437A      4.296418  
    2438A      4.299270  2439A      4.301001  2440A      4.306501  
    2441A      4.308124  2442A      4.309593  2443A      4.312290  
    2444A      4.314726  2445A      4.315260  2446A      4.318135  
    2447A      4.320301  2448A      4.321506  2449A      4.324493  
    2450A      4.325743  2451A      4.329774  2452A      4.330489  
    2453A      4.336755  2454A      4.339192  2455A      4.340883  
    2456A      4.342467  2457A      4.343989  2458A      4.350498  
    2459A      4.352604  2460A      4.354264  2461A      4.355030  
    2462A      4.355993  2463A      4.361108  2464A      4.361602  
    2465A      4.364384  2466A      4.364607  2467A      4.366842  
    2468A      4.368650  2469A      4.372543  2470A      4.374124  
    2471A      4.376537  2472A      4.378496  2473A      4.383116  
    2474A      4.384724  2475A      4.386109  2476A      4.387566  
    2477A      4.392753  2478A      4.396151  2479A      4.399942  
    2480A      4.400107  2481A      4.403069  2482A      4.405493  
    2483A      4.408153  2484A      4.410937  2485A      4.416145  
    2486A      4.418430  2487A      4.418855  2488A      4.419011  
    2489A      4.421094  2490A      4.424643  2491A      4.425594  
    2492A      4.430657  2493A      4.435427  2494A      4.435726  
    2495A      4.436780  2496A      4.440353  2497A      4.441216  
    2498A      4.444937  2499A      4.445538  2500A      4.448764  
    2501A      4.449218  2502A      4.452717  2503A      4.455430  
    2504A      4.457984  2505A      4.458384  2506A      4.460167  
    2507A      4.461359  2508A      4.463911  2509A      4.466635  
    2510A      4.467724  2511A      4.470391  2512A      4.471723  
    2513A      4.474507  2514A      4.477222  2515A      4.479244  
    2516A      4.480843  2517A      4.482110  2518A      4.486386  
    2519A      4.490357  2520A      4.494113  2521A      4.494458  
    2522A      4.495991  2523A      4.499856  2524A      4.502574  
    2525A      4.503881  2526A      4.506247  2527A      4.509834  
    2528A      4.510963  2529A      4.512471  2530A      4.514630  
    2531A      4.515949  2532A      4.518736  2533A      4.524431  
    2534A      4.526206  2535A      4.527532  2536A      4.528499  
    2537A      4.530889  2538A      4.532357  2539A      4.533194  
    2540A      4.534806  2541A      4.537115  2542A      4.540134  
    2543A      4.547539  2544A      4.551322  2545A      4.552865  
    2546A      4.556757  2547A      4.560119  2548A      4.563213  
    2549A      4.566987  2550A      4.570360  2551A      4.572076  
    2552A      4.573500  2553A      4.574616  2554A      4.580241  
    2555A      4.582354  2556A      4.585020  2557A      4.586958  
    2558A      4.589370  2559A      4.592379  2560A      4.594230  
    2561A      4.598123  2562A      4.599014  2563A      4.600911  
    2564A      4.605695  2565A      4.610402  2566A      4.611515  
    2567A      4.614614  2568A      4.616305  2569A      4.618372  
    2570A      4.623048  2571A      4.624899  2572A      4.627104  
    2573A      4.629428  2574A      4.629943  2575A      4.635002  
    2576A      4.636093  2577A      4.637095  2578A      4.643650  
    2579A      4.645961  2580A      4.648632  2581A      4.649286  
    2582A      4.651814  2583A      4.654096  2584A      4.658161  
    2585A      4.661328  2586A      4.664854  2587A      4.668457  
    2588A      4.674269  2589A      4.680319  2590A      4.682052  
    2591A      4.688610  2592A      4.689742  2593A      4.692775  
    2594A      4.693822  2595A      4.703567  2596A      4.706126  
    2597A      4.709036  2598A      4.712844  2599A      4.715437  
    2600A      4.718190  2601A      4.720151  2602A      4.724387  
    2603A      4.728046  2604A      4.732979  2605A      4.734544  
    2606A      4.740686  2607A      4.742313  2608A      4.744049  
    2609A      4.746978  2610A      4.748403  2611A      4.751940  
    2612A      4.754989  2613A      4.756306  2614A      4.758697  
    2615A      4.762676  2616A      4.762829  2617A      4.765099  
    2618A      4.765953  2619A      4.768887  2620A      4.769047  
    2621A      4.774049  2622A      4.776779  2623A      4.780662  
    2624A      4.784901  2625A      4.788867  2626A      4.790464  
    2627A      4.791728  2628A      4.793444  2629A      4.795702  
    2630A      4.797789  2631A      4.801738  2632A      4.803781  
    2633A      4.805885  2634A      4.809023  2635A      4.812146  
    2636A      4.815923  2637A      4.817176  2638A      4.820692  
    2639A      4.826548  2640A      4.831696  2641A      4.831975  
    2642A      4.833101  2643A      4.833910  2644A      4.837161  
    2645A      4.837646  2646A      4.840926  2647A      4.841671  
    2648A      4.844289  2649A      4.852403  2650A      4.853424  
    2651A      4.855562  2652A      4.858385  2653A      4.862365  
    2654A      4.862819  2655A      4.867112  2656A      4.868569  
    2657A      4.871016  2658A      4.873139  2659A      4.875149  
    2660A      4.877026  2661A      4.879074  2662A      4.882022  
    2663A      4.885353  2664A      4.886083  2665A      4.886888  
    2666A      4.889508  2667A      4.892200  2668A      4.895050  
    2669A      4.896042  2670A      4.898873  2671A      4.901565  
    2672A      4.903587  2673A      4.906471  2674A      4.908367  
    2675A      4.911589  2676A      4.914511  2677A      4.919550  
    2678A      4.921171  2679A      4.923274  2680A      4.924867  
    2681A      4.927938  2682A      4.928727  2683A      4.930955  
    2684A      4.934657  2685A      4.937449  2686A      4.939164  
    2687A      4.941071  2688A      4.943676  2689A      4.945014  
    2690A      4.947831  2691A      4.951915  2692A      4.953136  
    2693A      4.954224  2694A      4.957553  2695A      4.959442  
    2696A      4.961092  2697A      4.963091  2698A      4.964385  
    2699A      4.968146  2700A      4.969743  2701A      4.974355  
    2702A      4.975708  2703A      4.977773  2704A      4.980047  
    2705A      4.980547  2706A      4.981912  2707A      4.984423  
    2708A      4.985661  2709A      4.989525  2710A      4.989939  
    2711A      4.991588  2712A      4.994452  2713A      4.997056  
    2714A      4.998373  2715A      5.001372  2716A      5.001776  
    2717A      5.002532  2718A      5.007356  2719A      5.008176  
    2720A      5.010395  2721A      5.011616  2722A      5.012441  
    2723A      5.014362  2724A      5.018361  2725A      5.018899  
    2726A      5.019599  2727A      5.022093  2728A      5.023643  
    2729A      5.025509  2730A      5.026323  2731A      5.027930  
    2732A      5.029383  2733A      5.033497  2734A      5.035754  
    2735A      5.037156  2736A      5.038990  2737A      5.041585  
    2738A      5.042151  2739A      5.042959  2740A      5.045428  
    2741A      5.046935  2742A      5.050618  2743A      5.051109  
    2744A      5.053412  2745A      5.055389  2746A      5.056455  
    2747A      5.057573  2748A      5.060490  2749A      5.062159  
    2750A      5.063292  2751A      5.064955  2752A      5.066657  
    2753A      5.069488  2754A      5.072306  2755A      5.072908  
    2756A      5.075360  2757A      5.076045  2758A      5.078333  
    2759A      5.078971  2760A      5.080475  2761A      5.084370  
    2762A      5.085430  2763A      5.087569  2764A      5.091148  
    2765A      5.092537  2766A      5.092886  2767A      5.095777  
    2768A      5.096647  2769A      5.098950  2770A      5.100759  
    2771A      5.102179  2772A      5.105069  2773A      5.105689  
    2774A      5.106659  2775A      5.108463  2776A      5.110486  
    2777A      5.113069  2778A      5.114456  2779A      5.115283  
    2780A      5.115756  2781A      5.116775  2782A      5.118491  
    2783A      5.118892  2784A      5.123284  2785A      5.125258  
    2786A      5.128399  2787A      5.130780  2788A      5.134150  
    2789A      5.135060  2790A      5.137836  2791A      5.140967  
    2792A      5.143676  2793A      5.145019  2794A      5.151435  
    2795A      5.153247  2796A      5.157997  2797A      5.159234  
    2798A      5.159893  2799A      5.161146  2800A      5.162565  
    2801A      5.164185  2802A      5.167884  2803A      5.170174  
    2804A      5.171775  2805A      5.172629  2806A      5.174663  
    2807A      5.175950  2808A      5.183222  2809A      5.184747  
    2810A      5.185576  2811A      5.189000  2812A      5.190372  
    2813A      5.191844  2814A      5.193857  2815A      5.196173  
    2816A      5.200112  2817A      5.202919  2818A      5.204453  
    2819A      5.205638  2820A      5.207752  2821A      5.208654  
    2822A      5.211051  2823A      5.213227  2824A      5.214579  
    2825A      5.217281  2826A      5.220406  2827A      5.223219  
    2828A      5.226736  2829A      5.228514  2830A      5.229925  
    2831A      5.232573  2832A      5.233274  2833A      5.234313  
    2834A      5.238321  2835A      5.239396  2836A      5.240431  
    2837A      5.242968  2838A      5.245672  2839A      5.249101  
    2840A      5.251610  2841A      5.252399  2842A      5.254625  
    2843A      5.256354  2844A      5.258654  2845A      5.262109  
    2846A      5.267090  2847A      5.269282  2848A      5.269905  
    2849A      5.271541  2850A      5.276995  2851A      5.280034  
    2852A      5.282491  2853A      5.285794  2854A      5.288696  
    2855A      5.291506  2856A      5.293936  2857A      5.295998  
    2858A      5.297568  2859A      5.303514  2860A      5.306622  
    2861A      5.307925  2862A      5.312651  2863A      5.314847  
    2864A      5.316372  2865A      5.317769  2866A      5.318287  
    2867A      5.321737  2868A      5.327175  2869A      5.333067  
    2870A      5.334594  2871A      5.335168  2872A      5.336814  
    2873A      5.339396  2874A      5.340719  2875A      5.345429  
    2876A      5.349073  2877A      5.353154  2878A      5.355083  
    2879A      5.358193  2880A      5.360056  2881A      5.364517  
    2882A      5.367014  2883A      5.368584  2884A      5.370922  
    2885A      5.372538  2886A      5.377117  2887A      5.381911  
    2888A      5.387139  2889A      5.394219  2890A      5.395441  
    2891A      5.399208  2892A      5.400188  2893A      5.404732  
    2894A      5.408834  2895A      5.410166  2896A      5.411691  
    2897A      5.413735  2898A      5.418575  2899A      5.420427  
    2900A      5.421730  2901A      5.423565  2902A      5.425383  
    2903A      5.427942  2904A      5.429971  2905A      5.433356  
    2906A      5.436295  2907A      5.439882  2908A      5.442177  
    2909A      5.444848  2910A      5.445625  2911A      5.447250  
    2912A      5.453463  2913A      5.454924  2914A      5.460288  
    2915A      5.461897  2916A      5.464897  2917A      5.477203  
    2918A      5.480908  2919A      5.484724  2920A      5.489511  
    2921A      5.491823  2922A      5.497706  2923A      5.500617  
    2924A      5.503272  2925A      5.504141  2926A      5.511829  
    2927A      5.515691  2928A      5.520922  2929A      5.522527  
    2930A      5.524157  2931A      5.528497  2932A      5.529353  
    2933A      5.537488  2934A      5.540360  2935A      5.542616  
    2936A      5.544710  2937A      5.546505  2938A      5.547564  
    2939A      5.550539  2940A      5.552278  2941A      5.557164  
    2942A      5.557817  2943A      5.562249  2944A      5.565480  
    2945A      5.566496  2946A      5.572463  2947A      5.575812  
    2948A      5.578187  2949A      5.584091  2950A      5.585664  
    2951A      5.589681  2952A      5.590586  2953A      5.594858  
    2954A      5.596299  2955A      5.597952  2956A      5.599097  
    2957A      5.603596  2958A      5.606894  2959A      5.611467  
    2960A      5.614395  2961A      5.618418  2962A      5.618638  
    2963A      5.621782  2964A      5.625994  2965A      5.627584  
    2966A      5.633294  2967A      5.636521  2968A      5.644419  
    2969A      5.650520  2970A      5.651349  2971A      5.656405  
    2972A      5.662039  2973A      5.662913  2974A      5.664775  
    2975A      5.666997  2976A      5.674507  2977A      5.677813  
    2978A      5.681886  2979A      5.683124  2980A      5.686608  
    2981A      5.690100  2982A      5.690536  2983A      5.693986  
    2984A      5.695422  2985A      5.696371  2986A      5.698495  
    2987A      5.703101  2988A      5.706833  2989A      5.709957  
    2990A      5.711875  2991A      5.718632  2992A      5.719548  
    2993A      5.721495  2994A      5.724084  2995A      5.727060  
    2996A      5.730999  2997A      5.733763  2998A      5.737456  
    2999A      5.741544  3000A      5.743554  3001A      5.747070  
    3002A      5.747933  3003A      5.753067  3004A      5.756826  
    3005A      5.758739  3006A      5.760972  3007A      5.763545  
    3008A      5.766913  3009A      5.774002  3010A      5.775926  
    3011A      5.779121  3012A      5.781835  3013A      5.784354  
    3014A      5.785673  3015A      5.790944  3016A      5.794336  
    3017A      5.796104  3018A      5.799661  3019A      5.800305  
    3020A      5.805834  3021A      5.807931  3022A      5.808887  
    3023A      5.812191  3024A      5.813402  3025A      5.820370  
    3026A      5.821382  3027A      5.825354  3028A      5.827075  
    3029A      5.828677  3030A      5.830270  3031A      5.832537  
    3032A      5.833839  3033A      5.837195  3034A      5.841565  
    3035A      5.842454  3036A      5.846671  3037A      5.851219  
    3038A      5.853367  3039A      5.856926  3040A      5.858178  
    3041A      5.861133  3042A      5.862952  3043A      5.865366  
    3044A      5.868684  3045A      5.870725  3046A      5.873786  
    3047A      5.877693  3048A      5.880743  3049A      5.883520  
    3050A      5.887724  3051A      5.889806  3052A      5.890097  
    3053A      5.891542  3054A      5.893299  3055A      5.894651  
    3056A      5.896556  3057A      5.898315  3058A      5.903943  
    3059A      5.905187  3060A      5.906922  3061A      5.908916  
    3062A      5.910700  3063A      5.915970  3064A      5.917806  
    3065A      5.918381  3066A      5.919653  3067A      5.921178  
    3068A      5.923773  3069A      5.927817  3070A      5.928217  
    3071A      5.930469  3072A      5.932513  3073A      5.937694  
    3074A      5.939281  3075A      5.945816  3076A      5.948498  
    3077A      5.956198  3078A      5.962330  3079A      5.968727  
    3080A      5.971887  3081A      5.975884  3082A      5.977436  
    3083A      5.980078  3084A      5.985087  3085A      5.985887  
    3086A      5.989860  3087A      5.997245  3088A      6.004070  
    3089A      6.006193  3090A      6.008669  3091A      6.011491  
    3092A      6.012697  3093A      6.015477  3094A      6.016174  
    3095A      6.026479  3096A      6.027089  3097A      6.034859  
    3098A      6.039778  3099A      6.042188  3100A      6.049571  
    3101A      6.050044  3102A      6.058451  3103A      6.058831  
    3104A      6.063406  3105A      6.063790  3106A      6.066619  
    3107A      6.070717  3108A      6.080188  3109A      6.083639  
    3110A      6.085236  3111A      6.086593  3112A      6.091817  
    3113A      6.094936  3114A      6.096438  3115A      6.100336  
    3116A      6.101299  3117A      6.115940  3118A      6.116288  
    3119A      6.124529  3120A      6.133644  3121A      6.145512  
    3122A      6.150441  3123A      6.153208  3124A      6.160769  
    3125A      6.163619  3126A      6.173025  3127A      6.179984  
    3128A      6.180991  3129A      6.184705  3130A      6.188054  
    3131A      6.189315  3132A      6.198644  3133A      6.202960  
    3134A      6.210958  3135A      6.213585  3136A      6.218823  
    3137A      6.228093  3138A      6.230868  3139A      6.235735  
    3140A      6.241190  3141A      6.249179  3142A      6.251765  
    3143A      6.255649  3144A      6.259033  3145A      6.262780  
    3146A      6.266650  3147A      6.269654  3148A      6.273654  
    3149A      6.280852  3150A      6.292028  3151A      6.297270  
    3152A      6.306567  3153A      6.310835  3154A      6.311398  
    3155A      6.317801  3156A      6.319198  3157A      6.327752  
    3158A      6.329307  3159A      6.342659  3160A      6.352732  
    3161A      6.356455  3162A      6.367618  3163A      6.370098  
    3164A      6.377894  3165A      6.387022  3166A      6.391422  
    3167A      6.406745  3168A      6.411722  3169A      6.416381  
    3170A      6.420714  3171A      6.425286  3172A      6.427029  
    3173A      6.431997  3174A      6.433183  3175A      6.434905  
    3176A      6.445775  3177A      6.448990  3178A      6.454294  
    3179A      6.466528  3180A      6.490534  3181A      6.498518  
    3182A      6.513617  3183A      6.520810  3184A      6.525218  
    3185A      6.535445  3186A      6.540939  3187A      6.546145  
    3188A      6.550540  3189A      6.557663  3190A      6.560959  
    3191A      6.564468  3192A      6.569178  3193A      6.573252  
    3194A      6.574286  3195A      6.586946  3196A      6.589426  
    3197A      6.601367  3198A      6.610377  3199A      6.620802  
    3200A      6.622669  3201A      6.626356  3202A      6.634290  
    3203A      6.643124  3204A      6.665959  3205A      6.678310  
    3206A      6.687556  3207A      6.693798  3208A      6.703636  
    3209A      6.719972  3210A      6.751466  3211A      6.753504  
    3212A      6.761628  3213A      6.776517  3214A      6.782782  
    3215A      6.788180  3216A      6.788724  3217A      6.796869  
    3218A      6.817391  3219A      6.837795  3220A      6.888227  
    3221A      6.900340  3222A      6.906794  3223A      6.923886  
    3224A      6.928173  3225A      6.937128  3226A      6.961738  
    3227A      6.969017  3228A      6.995594  3229A      7.005101  
    3230A      7.028307  3231A      7.034391  3232A      7.057792  
    3233A      7.059711  3234A      7.077709  3235A      7.081322  
    3236A      7.099247  3237A      7.102436  3238A      7.129224  
    3239A      7.132725  3240A      7.160958  3241A      7.164485  
    3242A      7.192884  3243A      7.193459  3244A      7.218406  
    3245A      7.224055  3246A      7.238953  3247A      7.241790  
    3248A      7.265913  3249A      7.277773  3250A      7.286351  
    3251A      7.302386  3252A      7.315903  3253A      7.326909  
    3254A      7.351600  3255A      7.354194  3256A      7.364844  
    3257A      7.402189  3258A      7.415547  3259A      7.429707  
    3260A      7.443198  3261A      7.446418  3262A      7.508910  
    3263A      7.558250  3264A      7.590007  3265A      7.598099  
    3266A      7.626050  3267A      7.628817  3268A      7.648259  
    3269A      7.652168  3270A      7.664765  3271A      7.668473  
    3272A      7.675133  3273A      7.680249  3274A      7.694218  
    3275A      7.699229  3276A      7.706297  3277A      7.730337  
    3278A      7.741909  3279A      7.757447  3280A      7.819486  
    3281A      7.835813  3282A      7.838582  3283A      7.858044  
    3284A      7.862396  3285A      7.883083  3286A      7.886345  
    3287A      7.919587  3288A      7.926354  3289A      7.936021  
    3290A      7.937370  3291A      7.946862  3292A      7.956097  
    3293A      7.968672  3294A      7.974646  3295A      7.985245  
    3296A      7.991814  3297A      7.995167  3298A      8.003366  
    3299A      8.007112  3300A      8.014932  3301A      8.025316  
    3302A      8.037688  3303A      8.053958  3304A      8.055724  
    3305A      8.075447  3306A      8.111968  3307A      8.145353  
    3308A      8.169380  3309A      8.190997  3310A      8.198519  
    3311A      8.216258  3312A      8.218646  3313A      8.333604  
    3314A      8.344640  3315A      8.388861  3316A      8.391383  
    3317A      8.484000  3318A      8.511261  3319A      8.533120  
    3320A      8.541208  3321A      8.565157  3322A      8.574310  
    3323A      8.590663  3324A      8.596805  3325A      8.618203  
    3326A      8.621944  3327A      8.646861  3328A      8.648446  
    3329A      8.677236  3330A      8.678581  3331A      8.730513  
    3332A      8.731264  3333A      9.058187  3334A      9.086028  
    3335A      9.173926  3336A      9.267482  3337A      9.332758  
    3338A      9.377340  3339A      9.396821  3340A      9.430088  
    3341A      9.436760  3342A      9.439241  3343A      9.480959  
    3344A      9.483576  3345A      9.536252  3346A      9.693804  
    3347A      9.859865  3348A     10.001195  3349A     10.103538  
    3350A     10.485569  3351A     10.486964  3352A     10.547101  
    3353A     10.551864  3354A     10.580875  3355A     10.598328  
    3356A     10.617603  3357A     10.658440  3358A     10.687682  
    3359A     10.748881  3360A     10.768820  3361A     10.872409  
    3362A     10.882571  3363A     10.890115  3364A     10.994323  
    3365A     11.049770  3366A     11.101520  3367A     11.113634  
    3368A     17.020993  3369A     17.029834  3370A     17.254799  
    3371A     17.295081  3372A     17.369520  3373A     17.407081  
    3374A     17.502271  3375A     17.553485  3376A     17.602536  
    3377A     17.618385  3378A     17.681827  3379A     17.900870  
    3380A     17.921893  3381A     17.962447  3382A     18.374594  
    3383A     18.691541  3384A     18.944342  3385A     18.953421  
    3386A     53.573333  3387A     53.585491  3388A     54.131992  
    3389A     54.215767  3390A     54.351181  3391A     54.492334  
    3392A     54.695448  3393A     54.726321  3394A     54.796511  
    3395A     54.959874  3396A     54.988062  3397A     55.251529  
    3398A     55.271790  3399A     55.383546  3400A     56.194469  
    3401A     56.842686  3402A     57.373457  3403A     57.381177  

    Final Occupation by Irrep:
              A 
    DOCC [    73 ]
    NA   [    73 ]
    NB   [    73 ]

  @DF-RKS Final Energy:  -708.07632330316528

   => Energetics <=

    Nuclear Repulsion Energy =           1177.2118179273250007
    One-Electron Energy =               -3289.2270540225417790
    Two-Electron Energy =                1514.9142394892830907
    DFT Exchange-Correlation Energy =    -110.9491660605141163
    Empirical Dispersion Energy =          -0.0261606367172866
    VV10 Nonlocal Energy =                  0.0000000000000000
    Total Energy =                       -708.0763233031652817

Computation Completed


Properties will be evaluated at   0.000000,   0.000000,   0.000000 [a0]

Properties computed using the SCF density matrix


 Multipole Moments:

 ------------------------------------------------------------------------------------
     Multipole            Electronic (a.u.)      Nuclear  (a.u.)        Total (a.u.)
 ------------------------------------------------------------------------------------

 L = 1.  Multiply by 2.5417464519 to convert [e a0] to [Debye]
 Dipole X            :      -3113.8288915         3113.8283486           -0.0005429
 Dipole Y            :      -2170.7511775         2170.7510770           -0.0001004
 Dipole Z            :        574.6155805         -574.6146922            0.0008883
 Magnitude           :                                                    0.0010459

 ------------------------------------------------------------------------------------

*** tstop() called on atl1-1-03-004-11-2.pace.gatech.edu at Sat Jun 13 12:22:35 2026
Module time:
	user time   =   15988.09 seconds =     266.47 minutes
	system time =    1364.38 seconds =      22.74 minutes
	total time  =       2902 seconds =      48.37 minutes
Total time:
	user time   =   15988.09 seconds =     266.47 minutes
	system time =    1364.38 seconds =      22.74 minutes
	total time  =       2902 seconds =      48.37 minutes

    Psi4 stopped on: Saturday, 13 June 2026 12:22PM
    Psi4 wall time for execution: 0:48:31.53

*** Psi4 exiting successfully. Buy a developer a beer!
