
    -----------------------------------------------------------------------
          Psi4: An Open-Source Ab Initio Electronic Structure Package
                               Psi4 1.9.1 release

                         Git: Rev {} zzzzzzz 


    D. G. A. Smith, L. A. Burns, A. C. Simmonett, R. M. Parrish,
    M. C. Schieber, R. Galvelis, P. Kraus, H. Kruse, R. Di Remigio,
    A. Alenaizan, A. M. James, S. Lehtola, J. P. Misiewicz, M. Scheurer,
    R. A. Shaw, J. B. Schriber, Y. Xie, Z. L. Glick, D. A. Sirianni,
    J. S. O'Brien, J. M. Waldrop, A. Kumar, E. G. Hohenstein,
    B. P. Pritchard, B. R. Brooks, H. F. Schaefer III, A. Yu. Sokolov,
    K. Patkowski, A. E. DePrince III, U. Bozkaya, R. A. King,
    F. A. Evangelista, J. M. Turney, T. D. Crawford, C. D. Sherrill,
    J. Chem. Phys. 152(18) 184108 (2020). https://doi.org/10.1063/5.0006002

                            Additional Code Authors
    E. T. Seidl, C. L. Janssen, E. F. Valeev, M. L. Leininger,
    J. F. Gonthier, R. M. Richard, H. R. McAlexander, M. Saitow, X. Wang,
    P. Verma, M. H. Lechner, A. Jiang, S. Behnle, A. G. Heide,
    M. F. Herbst, and D. L. Poole

             Previous Authors, Complete List of Code Contributors,
                       and Citations for Specific Modules
    https://github.com/psi4/psi4/blob/master/codemeta.json
    https://github.com/psi4/psi4/graphs/contributors
    http://psicode.org/psi4manual/master/introduction.html#citing-psifour

    -----------------------------------------------------------------------


    Psi4 started on: Saturday, 13 June 2026 11:17AM

    Process ID: 2252159
    Host:       atl1-1-03-004-18-1.pace.gatech.edu
    PSIDATADIR: /storage/home/hcoda1/5/vlita3/.conda/envs/p4_qcml/share/psi4
    Memory:     250.0 GiB
    Threads:    10
    
  ==> Input QCSchema <==

--------------------------------------------------------------------------
{'driver': 'energy',
 'extras': {},
 'id': '215',
 'keywords': {},
 'model': {'basis': 'aug-cc-pvtz', 'method': 'pbe-d3'},
 'molecule': {'extras': {},
              'fix_com': True,
              'fix_orientation': True,
              'fragment_charges': [0.0, 0.0],
              'fragment_multiplicities': [1, 1],
              'fragments': [[0, 1, 2, 3, 4, 5, 6, 7, 8, 9, 10, 11, 12, 13, 14, 15, 16, 17, 18, 19, 20, 21, 22, 23, 24,
                             25, 26, 27, 28, 29, 30, 31, 32, 33, 34, 35, 36, 37, 38, 39, 40, 41, 42, 43, 44, 45, 46, 47,
                             48, 49, 50, 51, 52, 53, 54, 55, 56, 57, 58, 59, 60, 61, 62, 63, 64, 65, 66, 67, 68, 69, 70,
                             71],
                            [72, 73, 74, 75, 76, 77, 78, 79, 80, 81, 82, 83, 84, 85, 86, 87, 88, 89, 90, 91]],
              'geometry': [-0.27392714, 6.18819166, -1.19323544, -2.46344698, 5.77825337, -2.60449614, -4.6940608,
                           5.39705781, -1.25234985, -4.71896739, 5.33938337, 1.40379628, -2.51326016, 5.65638493,
                           2.81229042, -0.29786241, 6.1264921, 1.46128175, -7.4236946, 4.94664159, -2.11437677,
                           -8.0102089, 2.21933216, -1.3518118, -8.03725088, 2.16388759, 1.30730308, -7.46490952,
                           4.85601033, 2.19433108, -8.21278754, 0.01810099, -2.78449255, -8.41651891, -2.24308601,
                           -1.44718061, -8.44656555, -2.29788807, 1.20944929, -8.27108559, -0.09424159, 2.64331111,
                           -8.82968863, 6.36030791, 0.05739419, 2.39027678, 6.99321499, -1.97848656, 2.35234998,
                           6.89052727, 2.33048585, 4.24147139, 4.87579576, 1.47132186, 4.26509297, 4.93957402,
                           -1.18371122, 5.91295305, 3.35513315, 2.83024282, 7.66850862, 1.97164575, 1.43096487,
                           7.69269711, 2.03631218, -1.22332744, 5.96134893, 3.48626124, -2.58482409, 2.91214355,
                           8.90127146, 0.22748523, 9.87956377, 0.34201964, -2.07607202, 9.16122218, -2.35520346,
                           -1.32189933, 9.13548411, -2.42066358, 1.33912796, 9.83927481, 0.23553924, 2.23913649,
                           8.55002806, -4.47912335, -2.729596, 7.90073706, -6.7005909, -1.42801501, 7.87418641,
                           -6.76523843, 1.20657123, 8.49702124, -4.61078057, 2.62830668, 11.77284258, 0.92596769,
                           0.1150709, -8.31764844, -5.08264518, 1.9809621, -5.66577687, -5.91321761, 1.16915466,
                           -5.63425624, -5.85826437, -1.48990165, -8.26696598, -4.99384695, -2.32929532, -3.49926256,
                           -6.47956853, 2.52781105, -1.27490751, -7.03089613, 1.18478458, -1.24350593, -6.97650981,
                           -1.44679133, -3.43540871, -6.36901955, -2.81856431, -9.87669139, -6.270716, -0.2182029,
                           -2.4529401, 5.84171037, -4.65828828, -2.54030214, 5.62747212, 4.86674397, -7.86022133,
                           5.46728004, -4.05896164, -7.93792687, 5.29540945, 4.15038659, -8.11773431, 0.05695332,
                           -4.83605482, -8.21892915, -0.14041005, 4.69617729, -8.40519945, 8.38335422, 0.10379812,
                           -10.87140543, 6.03249712, 0.03110168, 2.58575005, 7.68646102, -3.90969218, 2.51428061,
                           7.49055311, 4.29570653, 5.92036077, 3.32542665, 4.88460188, 6.00539845, 3.55672913,
                           -4.63769027, 1.57808761, 10.48166831, 0.25357668, 4.86729199, 9.57563912, 0.26070473,
                           10.52462179, 0.60197793, -4.01470426, 10.44833354, 0.39868497, 4.19987852, 8.5531839,
                           -4.43267388, -4.7823677, 7.42214502, -8.39155563, -2.48982755, 7.37512864, -8.50599744,
                           2.1742055, 8.4600204, -4.66543145, 4.68064374, 12.34503276, 2.91199237, 0.16959272,
                           13.42257349, -0.321261, 0.09956022, -8.86591468, -5.52843157, 3.91606055, -8.76902842,
                           -5.35979242, -4.29349555, -3.50574432, -6.49980749, 4.58215122, 0.4449946, -7.48906022,
                           2.20842844, 0.50076797, -7.39238184, -2.44683628, -3.39254972, -6.30418305, -4.87158167,
                           -11.84561594, -5.6407569, -0.22849246, -9.76051103, -8.33473156, -0.2592572, 0.45225115,
                           -0.84580551, -2.67537976, 2.67838443, -1.53842793, -1.2866805, 2.65068104, -1.59445642,
                           1.27425178, 0.39459182, -0.96458424, 2.64450164, -1.86313012, -0.39368286, 1.25325503,
                           -1.83502422, -0.33633346, -1.30877329, 0.51180775, -0.67721548, -5.30584073, 2.77402347,
                           -1.11680357, -6.67834882, 4.65792923, -1.46517081, -7.76197447, -1.67832057, -0.01779464,
                           -6.70601441, -3.49875233, 0.52904962, -7.81566159, 0.39835616, -0.91584254, 5.28048061,
                           2.63210503, -1.41763286, 6.67793308, 4.4946569, -1.81660506, 7.78079614, -1.82246132,
                           -0.32547131, 6.66298535, -3.66775054, 0.16586372, 7.75745803, 4.38153789, -2.03474371,
                           -2.30489896, 4.33176251, -2.13518265, 2.30622176, -3.59287959, 0.00412869, 2.26776584,
                           -3.54227272, 0.1076148, -2.34208877],
              'id': 12,
              'identifiers': {'molecular_formula': 'C54H34N4',
                              'molecule_hash': '4a657d34a675ca0620b0386855333ac1d6937145'},
              'masses': [12.0, 12.0, 12.0, 12.0, 12.0, 12.0, 12.0, 12.0, 12.0, 12.0, 12.0, 12.0, 12.0, 12.0, 12.0, 12.0,
                         12.0, 12.0, 12.0, 12.0, 12.0, 12.0, 12.0, 12.0, 12.0, 12.0, 12.0, 12.0, 12.0, 12.0, 12.0, 12.0,
                         12.0, 12.0, 12.0, 12.0, 12.0, 12.0, 12.0, 12.0, 12.0, 12.0, 1.00782503223, 1.00782503223,
                         1.00782503223, 1.00782503223, 1.00782503223, 1.00782503223, 1.00782503223, 1.00782503223,
                         1.00782503223, 1.00782503223, 1.00782503223, 1.00782503223, 1.00782503223, 1.00782503223,
                         1.00782503223, 1.00782503223, 1.00782503223, 1.00782503223, 1.00782503223, 1.00782503223,
                         1.00782503223, 1.00782503223, 1.00782503223, 1.00782503223, 1.00782503223, 1.00782503223,
                         1.00782503223, 1.00782503223, 1.00782503223, 1.00782503223, 12.0, 12.0, 12.0, 12.0, 12.0, 12.0,
                         12.0, 12.0, 14.00307400443, 12.0, 14.00307400443, 12.0, 12.0, 14.00307400443, 12.0,
                         14.00307400443, 1.00782503223, 1.00782503223, 1.00782503223, 1.00782503223],
              'molecular_charge': 0.0,
              'molecular_multiplicity': 1,
              'name': 'C54H34N4 ([0],[1])',
              'provenance': {'creator': 'QCElemental',
                             'routine': 'qcelemental.molparse.from_schema',
                             'version': '0.29.0'},
              'real': [True, True, True, True, True, True, True, True, True, True, True, True, True, True, True, True,
                       True, True, True, True, True, True, True, True, True, True, True, True, True, True, True, True,
                       True, True, True, True, True, True, True, True, True, True, True, True, True, True, True, True,
                       True, True, True, True, True, True, True, True, True, True, True, True, True, True, True, True,
                       True, True, True, True, True, True, True, True, False, False, False, False, False, False, False,
                       False, False, False, False, False, False, False, False, False, False, False, False, False],
              'schema_name': 'qcschema_molecule',
              'schema_version': 2,
              'symbols': ['C', 'C', 'C', 'C', 'C', 'C', 'C', 'C', 'C', 'C', 'C', 'C', 'C', 'C', 'C', 'C', 'C', 'C', 'C',
                          'C', 'C', 'C', 'C', 'C', 'C', 'C', 'C', 'C', 'C', 'C', 'C', 'C', 'C', 'C', 'C', 'C', 'C', 'C',
                          'C', 'C', 'C', 'C', 'H', 'H', 'H', 'H', 'H', 'H', 'H', 'H', 'H', 'H', 'H', 'H', 'H', 'H', 'H',
                          'H', 'H', 'H', 'H', 'H', 'H', 'H', 'H', 'H', 'H', 'H', 'H', 'H', 'H', 'H', 'C', 'C', 'C', 'C',
                          'C', 'C', 'C', 'C', 'N', 'C', 'N', 'C', 'C', 'N', 'C', 'N', 'H', 'H', 'H', 'H'],
              'validated': True},
 'protocols': {},
 'provenance': {'creator': 'QCElemental', 'routine': 'qcelemental.models.results', 'version': '0.29.0'},
 'schema_name': 'qcschema_input',
 'schema_version': 1}
--------------------------------------------------------------------------

Scratch directory: /tmp/tmpyff_ro_o_psi_scratch/
   => Libint2 <=

    Primary   basis highest AM E, G, H:  6, 6, 3
    Auxiliary basis highest AM E, G, H:  7, 7, 4
    Onebody   basis highest AM E, G, H:  -, -, -
    Solid Harmonics ordering:            Gaussian

*** tstart() called on atl1-1-03-004-18-1.pace.gatech.edu
*** at Sat Jun 13 11:18:00 2026

   => Loading Basis Set <=

    Name: AUG-CC-PVTZ
    Role: ORBITAL
    Keyword: BASIS
    atoms 1-42, 73-80, 82, 84-85, 87 entry C          line   239 file /storage/home/hcoda1/5/vlita3/.conda/envs/p4_qcml/share/psi4/basis/aug-cc-pvtz.gbs 
    atoms 43-72, 89-92               entry H          line    40 file /storage/home/hcoda1/5/vlita3/.conda/envs/p4_qcml/share/psi4/basis/aug-cc-pvtz.gbs 
    atoms 81, 83, 86, 88             entry N          line   285 file /storage/home/hcoda1/5/vlita3/.conda/envs/p4_qcml/share/psi4/basis/aug-cc-pvtz.gbs 

   => PBE-D3: Empirical Dispersion <=

    Grimme's -D3 (zero-damping) Dispersion Correction
    Grimme S.; Antony J.; Ehrlich S.; Krieg H. (2010), J. Chem. Phys., 132: 154104

        s6 =       1.000000
        s8 =       0.722000
       sr6 =       1.217000
    alpha6 =      14.000000
       sr8 =       1.000000


         ---------------------------------------------------------
                                   SCF
               by Justin Turney, Rob Parrish, Andy Simmonett
                          and Daniel G. A. Smith
                              RKS Reference
                       10 Threads, 256000 MiB Core
         ---------------------------------------------------------

  ==> Geometry <==

    Molecular point group: c1
    Full point group: C1

    Geometry (in Bohr), charge = 0, multiplicity = 1:

       Center              X                  Y                   Z               Mass       
    ------------   -----------------  -----------------  -----------------  -----------------
         C           -0.273927140000     6.188191660000    -1.193235440000    12.000000000000
         C           -2.463446980000     5.778253370000    -2.604496140000    12.000000000000
         C           -4.694060800000     5.397057810000    -1.252349850000    12.000000000000
         C           -4.718967390000     5.339383370000     1.403796280000    12.000000000000
         C           -2.513260160000     5.656384930000     2.812290420000    12.000000000000
         C           -0.297862410000     6.126492100000     1.461281750000    12.000000000000
         C           -7.423694600000     4.946641590000    -2.114376770000    12.000000000000
         C           -8.010208900000     2.219332160000    -1.351811800000    12.000000000000
         C           -8.037250880000     2.163887590000     1.307303080000    12.000000000000
         C           -7.464909520000     4.856010330000     2.194331080000    12.000000000000
         C           -8.212787540000     0.018100990000    -2.784492550000    12.000000000000
         C           -8.416518910000    -2.243086010000    -1.447180610000    12.000000000000
         C           -8.446565550000    -2.297888070000     1.209449290000    12.000000000000
         C           -8.271085590000    -0.094241590000     2.643311110000    12.000000000000
         C           -8.829688630000     6.360307910000     0.057394190000    12.000000000000
         C            2.390276780000     6.993214990000    -1.978486560000    12.000000000000
         C            2.352349980000     6.890527270000     2.330485850000    12.000000000000
         C            4.241471390000     4.875795760000     1.471321860000    12.000000000000
         C            4.265092970000     4.939574020000    -1.183711220000    12.000000000000
         C            5.912953050000     3.355133150000     2.830242820000    12.000000000000
         C            7.668508620000     1.971645750000     1.430964870000    12.000000000000
         C            7.692697110000     2.036312180000    -1.223327440000    12.000000000000
         C            5.961348930000     3.486261240000    -2.584824090000    12.000000000000
         C            2.912143550000     8.901271460000     0.227485230000    12.000000000000
         C            9.879563770000     0.342019640000    -2.076072020000    12.000000000000
         C            9.161222180000    -2.355203460000    -1.321899330000    12.000000000000
         C            9.135484110000    -2.420663580000     1.339127960000    12.000000000000
         C            9.839274810000     0.235539240000     2.239136490000    12.000000000000
         C            8.550028060000    -4.479123350000    -2.729596000000    12.000000000000
         C            7.900737060000    -6.700590900000    -1.428015010000    12.000000000000
         C            7.874186410000    -6.765238430000     1.206571230000    12.000000000000
         C            8.497021240000    -4.610780570000     2.628306680000    12.000000000000
         C           11.772842580000     0.925967690000     0.115070900000    12.000000000000
         C           -8.317648440000    -5.082645180000     1.980962100000    12.000000000000
         C           -5.665776870000    -5.913217610000     1.169154660000    12.000000000000
         C           -5.634256240000    -5.858264370000    -1.489901650000    12.000000000000
         C           -8.266965980000    -4.993846950000    -2.329295320000    12.000000000000
         C           -3.499262560000    -6.479568530000     2.527811050000    12.000000000000
         C           -1.274907510000    -7.030896130000     1.184784580000    12.000000000000
         C           -1.243505930000    -6.976509810000    -1.446791330000    12.000000000000
         C           -3.435408710000    -6.369019550000    -2.818564310000    12.000000000000
         C           -9.876691390000    -6.270716000000    -0.218202900000    12.000000000000
         H           -2.452940100000     5.841710370000    -4.658288280000     1.007825032230
         H           -2.540302140000     5.627472120000     4.866743970000     1.007825032230
         H           -7.860221330000     5.467280040000    -4.058961640000     1.007825032230
         H           -7.937926870000     5.295409450000     4.150386590000     1.007825032230
         H           -8.117734310000     0.056953320000    -4.836054820000     1.007825032230
         H           -8.218929150000    -0.140410050000     4.696177290000     1.007825032230
         H           -8.405199450000     8.383354220000     0.103798120000     1.007825032230
         H          -10.871405430000     6.032497120000     0.031101680000     1.007825032230
         H            2.585750050000     7.686461020000    -3.909692180000     1.007825032230
         H            2.514280610000     7.490553110000     4.295706530000     1.007825032230
         H            5.920360770000     3.325426650000     4.884601880000     1.007825032230
         H            6.005398450000     3.556729130000    -4.637690270000     1.007825032230
         H            1.578087610000    10.481668310000     0.253576680000     1.007825032230
         H            4.867291990000     9.575639120000     0.260704730000     1.007825032230
         H           10.524621790000     0.601977930000    -4.014704260000     1.007825032230
         H           10.448333540000     0.398684970000     4.199878520000     1.007825032230
         H            8.553183900000    -4.432673880000    -4.782367700000     1.007825032230
         H            7.422145020000    -8.391555630000    -2.489827550000     1.007825032230
         H            7.375128640000    -8.505997440000     2.174205500000     1.007825032230
         H            8.460020400000    -4.665431450000     4.680643740000     1.007825032230
         H           12.345032760000     2.911992370000     0.169592720000     1.007825032230
         H           13.422573490000    -0.321261000000     0.099560220000     1.007825032230
         H           -8.865914680000    -5.528431570000     3.916060550000     1.007825032230
         H           -8.769028420000    -5.359792420000    -4.293495550000     1.007825032230
         H           -3.505744320000    -6.499807490000     4.582151220000     1.007825032230
         H            0.444994600000    -7.489060220000     2.208428440000     1.007825032230
         H            0.500767970000    -7.392381840000    -2.446836280000     1.007825032230
         H           -3.392549720000    -6.304183050000    -4.871581670000     1.007825032230
         H          -11.845615940000    -5.640756900000    -0.228492460000     1.007825032230
         H           -9.760511030000    -8.334731560000    -0.259257200000     1.007825032230
      Gh(C)           0.452251150000    -0.845805510000    -2.675379760000    12.000000000000
      Gh(C)           2.678384430000    -1.538427930000    -1.286680500000    12.000000000000
      Gh(C)           2.650681040000    -1.594456420000     1.274251780000    12.000000000000
      Gh(C)           0.394591820000    -0.964584240000     2.644501640000    12.000000000000
      Gh(C)          -1.863130120000    -0.393682860000     1.253255030000    12.000000000000
      Gh(C)          -1.835024220000    -0.336333460000    -1.308773290000    12.000000000000
      Gh(C)           0.511807750000    -0.677215480000    -5.305840730000    12.000000000000
      Gh(C)           2.774023470000    -1.116803570000    -6.678348820000    12.000000000000
      Gh(N)           4.657929230000    -1.465170810000    -7.761974470000    14.003074004430
      Gh(C)          -1.678320570000    -0.017794640000    -6.706014410000    12.000000000000
      Gh(N)          -3.498752330000     0.529049620000    -7.815661590000    14.003074004430
      Gh(C)           0.398356160000    -0.915842540000     5.280480610000    12.000000000000
      Gh(C)           2.632105030000    -1.417632860000     6.677933080000    12.000000000000
      Gh(N)           4.494656900000    -1.816605060000     7.780796140000    14.003074004430
      Gh(C)          -1.822461320000    -0.325471310000     6.662985350000    12.000000000000
      Gh(N)          -3.667750540000     0.165863720000     7.757458030000    14.003074004430
      Gh(H)           4.381537890000    -2.034743710000    -2.304898960000     1.007825032230
      Gh(H)           4.331762510000    -2.135182650000     2.306221760000     1.007825032230
      Gh(H)          -3.592879590000     0.004128690000     2.267765840000     1.007825032230
      Gh(H)          -3.542272720000     0.107614800000    -2.342088770000     1.007825032230

  Running in c1 symmetry.

  Rotational constants: A =      0.00267  B =      0.00168  C =      0.00146 [cm^-1]
  Rotational constants: A =     80.12542  B =     50.33918  C =     43.84220 [MHz]
  Nuclear repulsion = 4480.390671897964239

  Charge       = 0
  Multiplicity = 1
  Electrons    = 282
  Nalpha       = 141
  Nbeta        = 141

  ==> Algorithm <==

  SCF Algorithm Type is DF.
  DIIS enabled.
  MOM disabled.
  Fractional occupation disabled.
  Guess Type is SAD.
  Energy threshold   = 1.00e-06
  Density threshold  = 1.00e-06
  Integral threshold = 1.00e-12

  ==> Primary Basis <==

  Basis Set: AUG-CC-PVTZ
    Blend: AUG-CC-PVTZ
    Number of shells: 1118
    Number of basis functions: 3450
    Number of Cartesian functions: 4040
    Spherical Harmonics?: true
    Max angular momentum: 3

  ==> DFT Potential <==

   => LibXC <=

    Version 7.0.0
    S. Lehtola, C. Steigemann, M. J.T. Oliveira, and M. A.L. Marques.,  SoftwareX 7, 1–5 (2018) (10.1016/j.softx.2017.11.002)

   => Composite Functional: PBE-D3ZERO2B <= 

    PBE GGA Exchange-Correlation Functional

    J.P. Perdew et. al., Phys. Rev. Lett., 77(18), 3865-3868, 1996


    Deriv               =              1
    GGA                 =           TRUE
    Meta                =          FALSE

    Exchange Hybrid     =          FALSE
    MP2 Hybrid          =          FALSE

   => Exchange Functionals <=

    1.0000     XC_GGA_X_PBE

   => Correlation Functionals <=

    1.0000     XC_GGA_C_PBE

   => LibXC Density Thresholds  <==

    XC_GGA_C_PBE:  1.00E-12 
    XC_GGA_X_PBE:  1.00E-15 

   => Molecular Quadrature <=

    Radial Scheme          =       TREUTLER
    Pruning Scheme         =           NONE
    Nuclear Scheme         =       TREUTLER

    Blocking Scheme        =         OCTREE
    BS radius alpha        =              1
    Pruning alpha          =              1
    Radial Points          =             75
    Spherical Points       =            302
    Total Points           =        1810751
    Total Blocks           =          12182
    Max Points             =            256
    Max Functions          =           2258
    Weights Tolerance      =       1.00E-15

   => Loading Basis Set <=

    Name: (AUG-CC-PVTZ AUX)
    Role: JKFIT
    Keyword: DF_BASIS_SCF
    atoms 1-42, 73-80, 82, 84-85, 87 entry C          line   162 file /storage/home/hcoda1/5/vlita3/.conda/envs/p4_qcml/share/psi4/basis/aug-cc-pvtz-jkfit.gbs 
    atoms 43-72, 89-92               entry H          line    70 file /storage/home/hcoda1/5/vlita3/.conda/envs/p4_qcml/share/psi4/basis/aug-cc-pvtz-jkfit.gbs 
    atoms 81, 83, 86, 88             entry N          line   224 file /storage/home/hcoda1/5/vlita3/.conda/envs/p4_qcml/share/psi4/basis/aug-cc-pvtz-jkfit.gbs 

  ==> Integral Setup <==

  ==> DiskDFJK: Density-Fitted J/K Matrices <==

    J tasked:                  Yes
    K tasked:                   No
    wK tasked:                  No
    OpenMP threads:             10
    Integrals threads:          10
    Memory [MiB]:           172800
    Algorithm:                Disk
    Integral Cache:           NONE
    Schwarz Cutoff:          1E-12
    Fitting Condition:       1E-10

   => Auxiliary Basis Set <=

  Basis Set: (AUG-CC-PVTZ AUX)
    Blend: AUG-CC-PVTZ-JKFIT
    Number of shells: 2216
    Number of basis functions: 7596
    Number of Cartesian functions: 9468
    Spherical Harmonics?: true
    Max angular momentum: 4

  Minimum eigenvalue in the overlap matrix is 3.2999283483E-10.
  Reciprocal condition number of the overlap matrix is 8.9829939844E-12.
    Using canonical orthogonalization.
  Overall, 31 of 3450 possible MOs eliminated.


  ==> Pre-Iterations <==

  SCF Guess: Superposition of Atomic Densities via on-the-fly atomic UHF (no occupation information).

   -------------------------
    Irrep   Nso     Nmo    
   -------------------------
     A       3450    3419 
   -------------------------
    Total    3450    3419
   -------------------------

  ==> Iterations <==

                           Total Energy        Delta E     RMS |[F,P]|

   @DF-RKS iter SAD: -1617.60855140132048   -1.61761e+03   0.00000e+00 
   @DF-RKS iter   1: -1612.80594376822751    4.80261e+00   8.03387e-04 DIIS/ADIIS
   @DF-RKS iter   2: -1559.96063975384664    5.28453e+01   2.72898e-03 DIIS/ADIIS
   @DF-RKS iter   3: -1614.35430207636750   -5.43937e+01   5.06304e-04 DIIS/ADIIS
   @DF-RKS iter   4: -1591.18740532463562    2.31669e+01   1.37360e-03 DIIS/ADIIS
   @DF-RKS iter   5: -1616.45599898709929   -2.52686e+01   2.91344e-04 DIIS/ADIIS
   @DF-RKS iter   6: -1616.79443647133189   -3.38437e-01   1.75002e-04 DIIS/ADIIS
   @DF-RKS iter   7: -1616.94803429294188   -1.53598e-01   8.56110e-05 DIIS
   @DF-RKS iter   8: -1616.99379773043916   -4.57634e-02   2.40995e-05 DIIS
   @DF-RKS iter   9: -1616.99634652266991   -2.54879e-03   2.28365e-05 DIIS
   @DF-RKS iter  10: -1616.99924983475125   -2.90331e-03   7.89759e-06 DIIS
   @DF-RKS iter  11: -1616.99952906064595   -2.79226e-04   4.42873e-06 DIIS
   @DF-RKS iter  12: -1616.99964117580157   -1.12115e-04   1.54538e-06 DIIS
   @DF-RKS iter  13: -1616.99965277340675   -1.15976e-05   6.55013e-07 DIIS
   @DF-RKS iter  14: -1616.99965547573129   -2.70232e-06   2.20821e-07 DIIS
   @DF-RKS iter  15: -1616.99965568180619   -2.06075e-07   1.25386e-07 DIIS
  Energy and wave function converged.


  ==> Post-Iterations <==

   Electrons on quadrature grid:
      Ntotal   =  281.9995859875 ; deviation = -4.140e-04 

    Orbital Energies [Eh]
    ---------------------

    Doubly Occupied:                                                      

       1A     -9.905988     2A     -9.905973     3A     -9.904531  
       4A     -9.904504     5A     -9.903309     6A     -9.903293  
       7A     -9.903001     8A     -9.902969     9A     -9.894339  
      10A     -9.893704    11A     -9.892177    12A     -9.891801  
      13A     -9.891051    14A     -9.890685    15A     -9.890493  
      16A     -9.890301    17A     -9.890079    18A     -9.889694  
      19A     -9.889095    20A     -9.889068    21A     -9.888761  
      22A     -9.888733    23A     -9.888663    24A     -9.888662  
      25A     -9.888446    26A     -9.888387    27A     -9.888271  
      28A     -9.888068    29A     -9.887470    30A     -9.887410  
      31A     -9.887017    32A     -9.886971    33A     -9.886137  
      34A     -9.886076    35A     -9.885471    36A     -9.885331  
      37A     -9.885275    38A     -9.885040    39A     -9.882750  
      40A     -9.882698    41A     -9.880284    42A     -9.879834  
      43A     -0.831741    44A     -0.828702    45A     -0.822582  
      46A     -0.815576    47A     -0.769396    48A     -0.762895  
      49A     -0.750380    50A     -0.733892    51A     -0.717473  
      52A     -0.696527    53A     -0.692821    54A     -0.685179  
      55A     -0.675860    56A     -0.668452    57A     -0.661679  
      58A     -0.654125    59A     -0.644518    60A     -0.640895  
      61A     -0.629787    62A     -0.628544    63A     -0.620305  
      64A     -0.613153    65A     -0.598120    66A     -0.567418  
      67A     -0.562435    68A     -0.553916    69A     -0.545210  
      70A     -0.541085    71A     -0.523942    72A     -0.521669  
      73A     -0.519512    74A     -0.515543    75A     -0.511634  
      76A     -0.501534    77A     -0.497961    78A     -0.478243  
      79A     -0.467625    80A     -0.463708    81A     -0.461233  
      82A     -0.458388    83A     -0.451448    84A     -0.445645  
      85A     -0.435234    86A     -0.432150    87A     -0.418956  
      88A     -0.405293    89A     -0.401838    90A     -0.396021  
      91A     -0.394373    92A     -0.394291    93A     -0.392726  
      94A     -0.391602    95A     -0.377741    96A     -0.374942  
      97A     -0.370603    98A     -0.370189    99A     -0.366845  
     100A     -0.363625   101A     -0.361859   102A     -0.361189  
     103A     -0.361008   104A     -0.358876   105A     -0.358390  
     106A     -0.348037   107A     -0.345316   108A     -0.338325  
     109A     -0.335157   110A     -0.329311   111A     -0.324196  
     112A     -0.321408   113A     -0.316220   114A     -0.312843  
     115A     -0.309392   116A     -0.309119   117A     -0.306937  
     118A     -0.302525   119A     -0.301449   120A     -0.301061  
     121A     -0.299297   122A     -0.296262   123A     -0.290058  
     124A     -0.289406   125A     -0.287982   126A     -0.283734  
     127A     -0.280736   128A     -0.278585   129A     -0.276874  
     130A     -0.276515   131A     -0.271659   132A     -0.226563  
     133A     -0.223947   134A     -0.220308   135A     -0.217945  
     136A     -0.215765   137A     -0.214151   138A     -0.212396  
     139A     -0.202010   140A     -0.191569   141A     -0.178856  

    Virtual:                                                              

     142A     -0.052710   143A     -0.052256   144A     -0.047816  
     145A     -0.044534   146A     -0.035135   147A     -0.031430  
     148A     -0.024999   149A     -0.021472   150A     -0.019877  
     151A     -0.017044   152A     -0.013209   153A     -0.012564  
     154A     -0.011564   155A     -0.006413   156A     -0.004808  
     157A     -0.003063   158A     -0.002818   159A     -0.000324  
     160A      0.000872   161A      0.006834   162A      0.010523  
     163A      0.011287   164A      0.012139   165A      0.012239  
     166A      0.015686   167A      0.019592   168A      0.020466  
     169A      0.024190   170A      0.025935   171A      0.028387  
     172A      0.028957   173A      0.030826   174A      0.031556  
     175A      0.033476   176A      0.036468   177A      0.042469  
     178A      0.042620   179A      0.043798   180A      0.045554  
     181A      0.047065   182A      0.048554   183A      0.050903  
     184A      0.050932   185A      0.051957   186A      0.052969  
     187A      0.054831   188A      0.055167   189A      0.057772  
     190A      0.058310   191A      0.060152   192A      0.060697  
     193A      0.062122   194A      0.063618   195A      0.063658  
     196A      0.064287   197A      0.067789   198A      0.067811  
     199A      0.068938   200A      0.070161   201A      0.070650  
     202A      0.071154   203A      0.073124   204A      0.073782  
     205A      0.073882   206A      0.075937   207A      0.076485  
     208A      0.077048   209A      0.079211   210A      0.080696  
     211A      0.081242   212A      0.082561   213A      0.084404  
     214A      0.085486   215A      0.085997   216A      0.086964  
     217A      0.087738   218A      0.088377   219A      0.089364  
     220A      0.090317   221A      0.090587   222A      0.091524  
     223A      0.093027   224A      0.094004   225A      0.096693  
     226A      0.097167   227A      0.098301   228A      0.099029  
     229A      0.099568   230A      0.101385   231A      0.102261  
     232A      0.102898   233A      0.104169   234A      0.104204  
     235A      0.106229   236A      0.106411   237A      0.108562  
     238A      0.108964   239A      0.110385   240A      0.111938  
     241A      0.112064   242A      0.112905   243A      0.114227  
     244A      0.116006   245A      0.117284   246A      0.117484  
     247A      0.118914   248A      0.119182   249A      0.121062  
     250A      0.121811   251A      0.122665   252A      0.123393  
     253A      0.125760   254A      0.126912   255A      0.128937  
     256A      0.131202   257A      0.131464   258A      0.132720  
     259A      0.134125   260A      0.136766   261A      0.138934  
     262A      0.141678   263A      0.142177   264A      0.143764  
     265A      0.145257   266A      0.145934   267A      0.147046  
     268A      0.147242   269A      0.150009   270A      0.150057  
     271A      0.151737   272A      0.152862   273A      0.153295  
     274A      0.154570   275A      0.154720   276A      0.155376  
     277A      0.155456   278A      0.155987   279A      0.157255  
     280A      0.157448   281A      0.159975   282A      0.161936  
     283A      0.162585   284A      0.162997   285A      0.163648  
     286A      0.165829   287A      0.166354   288A      0.166987  
     289A      0.167127   290A      0.169139   291A      0.170862  
     292A      0.171452   293A      0.171698   294A      0.173265  
     295A      0.174362   296A      0.175147   297A      0.175615  
     298A      0.176465   299A      0.177366   300A      0.178192  
     301A      0.180320   302A      0.180856   303A      0.181360  
     304A      0.182137   305A      0.182979   306A      0.183437  
     307A      0.183775   308A      0.184487   309A      0.184647  
     310A      0.186835   311A      0.187347   312A      0.187929  
     313A      0.188516   314A      0.189001   315A      0.190411  
     316A      0.190731   317A      0.191623   318A      0.194127  
     319A      0.194916   320A      0.195235   321A      0.196396  
     322A      0.196719   323A      0.197223   324A      0.197880  
     325A      0.200292   326A      0.201615   327A      0.202067  
     328A      0.202416   329A      0.202987   330A      0.203906  
     331A      0.204027   332A      0.205393   333A      0.205475  
     334A      0.205904   335A      0.207081   336A      0.208166  
     337A      0.208180   338A      0.210347   339A      0.211428  
     340A      0.211625   341A      0.211990   342A      0.212121  
     343A      0.213318   344A      0.213481   345A      0.213993  
     346A      0.215417   347A      0.216539   348A      0.217593  
     349A      0.219116   350A      0.219541   351A      0.219931  
     352A      0.220392   353A      0.220843   354A      0.222289  
     355A      0.222603   356A      0.225093   357A      0.225992  
     358A      0.226930   359A      0.228149   360A      0.229158  
     361A      0.229431   362A      0.230861   363A      0.231240  
     364A      0.231982   365A      0.233658   366A      0.233881  
     367A      0.236816   368A      0.238123   369A      0.238737  
     370A      0.239313   371A      0.240154   372A      0.242017  
     373A      0.242636   374A      0.243968   375A      0.244723  
     376A      0.244754   377A      0.246733   378A      0.247079  
     379A      0.249112   380A      0.249601   381A      0.249863  
     382A      0.251742   383A      0.252086   384A      0.253384  
     385A      0.253704   386A      0.254428   387A      0.255457  
     388A      0.255865   389A      0.258127   390A      0.258606  
     391A      0.258656   392A      0.259616   393A      0.261292  
     394A      0.262640   395A      0.263349   396A      0.265130  
     397A      0.265797   398A      0.266651   399A      0.267815  
     400A      0.268134   401A      0.270068   402A      0.272157  
     403A      0.273055   404A      0.273783   405A      0.274318  
     406A      0.274559   407A      0.276017   408A      0.277135  
     409A      0.278755   410A      0.279650   411A      0.279694  
     412A      0.280139   413A      0.281700   414A      0.282401  
     415A      0.284018   416A      0.284629   417A      0.286143  
     418A      0.286870   419A      0.288324   420A      0.289495  
     421A      0.289800   422A      0.290236   423A      0.292509  
     424A      0.292878   425A      0.294171   426A      0.294833  
     427A      0.295803   428A      0.296023   429A      0.298356  
     430A      0.299412   431A      0.299817   432A      0.303051  
     433A      0.303670   434A      0.305250   435A      0.305984  
     436A      0.306411   437A      0.306578   438A      0.308024  
     439A      0.309520   440A      0.310495   441A      0.311179  
     442A      0.314026   443A      0.314225   444A      0.315256  
     445A      0.315498   446A      0.317862   447A      0.318258  
     448A      0.319122   449A      0.320934   450A      0.323575  
     451A      0.324098   452A      0.326479   453A      0.327971  
     454A      0.328057   455A      0.329235   456A      0.330726  
     457A      0.331259   458A      0.331732   459A      0.333284  
     460A      0.335526   461A      0.336964   462A      0.337596  
     463A      0.338280   464A      0.339356   465A      0.341574  
     466A      0.342005   467A      0.342345   468A      0.344165  
     469A      0.347561   470A      0.348472   471A      0.351404  
     472A      0.351656   473A      0.352500   474A      0.354717  
     475A      0.356498   476A      0.356902   477A      0.358250  
     478A      0.358857   479A      0.360084   480A      0.362092  
     481A      0.362516   482A      0.365205   483A      0.365552  
     484A      0.367121   485A      0.367311   486A      0.369919  
     487A      0.371469   488A      0.373172   489A      0.374959  
     490A      0.375608   491A      0.377429   492A      0.378312  
     493A      0.378821   494A      0.379951   495A      0.381102  
     496A      0.381692   497A      0.385341   498A      0.385890  
     499A      0.386181   500A      0.387994   501A      0.388818  
     502A      0.389768   503A      0.391957   504A      0.392677  
     505A      0.394407   506A      0.396369   507A      0.396552  
     508A      0.397436   509A      0.397915   510A      0.398983  
     511A      0.400068   512A      0.401192   513A      0.401791  
     514A      0.401978   515A      0.403164   516A      0.405851  
     517A      0.406061   518A      0.408272   519A      0.408468  
     520A      0.409763   521A      0.411241   522A      0.412035  
     523A      0.413479   524A      0.413790   525A      0.415972  
     526A      0.416454   527A      0.417678   528A      0.418993  
     529A      0.419404   530A      0.420028   531A      0.422715  
     532A      0.423068   533A      0.424110   534A      0.424890  
     535A      0.426162   536A      0.426189   537A      0.426555  
     538A      0.427109   539A      0.427737   540A      0.428559  
     541A      0.429206   542A      0.430284   543A      0.431328  
     544A      0.432982   545A      0.433677   546A      0.436438  
     547A      0.436725   548A      0.439409   549A      0.439750  
     550A      0.440075   551A      0.440177   552A      0.442571  
     553A      0.443032   554A      0.444860   555A      0.445052  
     556A      0.445741   557A      0.447086   558A      0.448487  
     559A      0.449068   560A      0.449621   561A      0.450755  
     562A      0.453198   563A      0.453452   564A      0.454036  
     565A      0.454215   566A      0.455119   567A      0.455352  
     568A      0.456492   569A      0.457740   570A      0.459820  
     571A      0.460097   572A      0.461392   573A      0.462120  
     574A      0.463540   575A      0.464330   576A      0.465156  
     577A      0.465665   578A      0.466356   579A      0.466936  
     580A      0.467970   581A      0.470075   582A      0.470822  
     583A      0.471144   584A      0.472239   585A      0.472675  
     586A      0.475626   587A      0.476342   588A      0.477535  
     589A      0.478307   590A      0.479910   591A      0.480815  
     592A      0.481804   593A      0.482329   594A      0.484104  
     595A      0.485701   596A      0.485755   597A      0.486259  
     598A      0.486403   599A      0.487755   600A      0.488444  
     601A      0.489476   602A      0.491242   603A      0.491384  
     604A      0.492019   605A      0.494550   606A      0.495096  
     607A      0.495627   608A      0.495780   609A      0.497502  
     610A      0.498895   611A      0.499103   612A      0.501059  
     613A      0.502958   614A      0.504335   615A      0.505257  
     616A      0.506017   617A      0.506889   618A      0.509567  
     619A      0.509980   620A      0.512597   621A      0.512863  
     622A      0.513785   623A      0.516985   624A      0.517059  
     625A      0.518582   626A      0.519557   627A      0.521688  
     628A      0.523740   629A      0.524003   630A      0.524504  
     631A      0.525742   632A      0.528192   633A      0.529151  
     634A      0.530401   635A      0.530689   636A      0.532074  
     637A      0.533730   638A      0.535208   639A      0.536028  
     640A      0.536365   641A      0.536778   642A      0.538300  
     643A      0.539187   644A      0.540999   645A      0.542111  
     646A      0.542835   647A      0.543604   648A      0.545780  
     649A      0.546968   650A      0.547837   651A      0.549681  
     652A      0.550586   653A      0.552052   654A      0.554106  
     655A      0.554306   656A      0.555021   657A      0.556635  
     658A      0.557564   659A      0.557863   660A      0.558810  
     661A      0.560382   662A      0.563005   663A      0.563665  
     664A      0.565105   665A      0.566132   666A      0.566286  
     667A      0.569446   668A      0.570139   669A      0.570644  
     670A      0.573248   671A      0.574093   672A      0.574166  
     673A      0.575669   674A      0.578049   675A      0.579872  
     676A      0.580157   677A      0.582621   678A      0.583933  
     679A      0.584935   680A      0.586648   681A      0.588761  
     682A      0.589340   683A      0.592484   684A      0.593064  
     685A      0.594866   686A      0.596578   687A      0.596674  
     688A      0.597222   689A      0.598710   690A      0.599482  
     691A      0.600853   692A      0.601272   693A      0.604824  
     694A      0.605447   695A      0.607335   696A      0.609008  
     697A      0.610409   698A      0.611932   699A      0.612696  
     700A      0.614807   701A      0.615251   702A      0.615820  
     703A      0.617946   704A      0.619205   705A      0.620782  
     706A      0.622147   707A      0.622859   708A      0.624093  
     709A      0.625618   710A      0.627945   711A      0.629519  
     712A      0.631117   713A      0.631574   714A      0.632555  
     715A      0.634722   716A      0.635454   717A      0.635539  
     718A      0.637905   719A      0.637913   720A      0.638731  
     721A      0.640579   722A      0.641518   723A      0.644778  
     724A      0.645086   725A      0.647400   726A      0.649111  
     727A      0.649597   728A      0.650799   729A      0.652549  
     730A      0.653674   731A      0.654157   732A      0.657384  
     733A      0.658615   734A      0.660197   735A      0.660867  
     736A      0.661827   737A      0.664308   738A      0.664651  
     739A      0.665159   740A      0.666853   741A      0.668322  
     742A      0.671145   743A      0.672063   744A      0.674190  
     745A      0.674454   746A      0.676106   747A      0.676570  
     748A      0.678259   749A      0.681137   750A      0.683218  
     751A      0.684213   752A      0.685117   753A      0.687351  
     754A      0.687571   755A      0.689330   756A      0.690457  
     757A      0.693565   758A      0.695854   759A      0.697536  
     760A      0.697676   761A      0.700490   762A      0.701340  
     763A      0.702309   764A      0.702543   765A      0.704167  
     766A      0.706062   767A      0.707000   768A      0.708560  
     769A      0.710290   770A      0.710633   771A      0.711517  
     772A      0.712789   773A      0.713748   774A      0.715874  
     775A      0.716125   776A      0.717751   777A      0.719509  
     778A      0.720604   779A      0.722003   780A      0.722382  
     781A      0.723509   782A      0.725619   783A      0.725949  
     784A      0.727480   785A      0.729547   786A      0.730078  
     787A      0.732612   788A      0.732968   789A      0.734345  
     790A      0.735389   791A      0.737823   792A      0.738067  
     793A      0.740285   794A      0.741801   795A      0.742873  
     796A      0.744375   797A      0.744937   798A      0.745559  
     799A      0.746088   800A      0.747792   801A      0.748728  
     802A      0.749651   803A      0.751173   804A      0.752684  
     805A      0.754109   806A      0.757830   807A      0.758231  
     808A      0.759554   809A      0.759955   810A      0.760899  
     811A      0.762980   812A      0.764752   813A      0.766423  
     814A      0.767879   815A      0.770141   816A      0.772010  
     817A      0.772256   818A      0.772885   819A      0.773422  
     820A      0.773539   821A      0.776471   822A      0.777239  
     823A      0.777531   824A      0.779332   825A      0.780541  
     826A      0.780697   827A      0.783273   828A      0.784987  
     829A      0.785311   830A      0.786043   831A      0.787555  
     832A      0.788361   833A      0.788860   834A      0.790806  
     835A      0.791629   836A      0.793821   837A      0.794648  
     838A      0.796162   839A      0.796742   840A      0.799375  
     841A      0.799970   842A      0.801564   843A      0.802392  
     844A      0.802638   845A      0.803039   846A      0.805454  
     847A      0.807550   848A      0.807715   849A      0.807934  
     850A      0.808340   851A      0.809496   852A      0.810337  
     853A      0.812860   854A      0.813336   855A      0.814697  
     856A      0.816523   857A      0.817960   858A      0.819635  
     859A      0.820020   860A      0.821439   861A      0.822949  
     862A      0.824041   863A      0.825449   864A      0.826377  
     865A      0.826796   866A      0.828616   867A      0.830166  
     868A      0.831970   869A      0.833327   870A      0.834780  
     871A      0.834950   872A      0.835638   873A      0.836169  
     874A      0.838721   875A      0.839928   876A      0.840075  
     877A      0.841274   878A      0.843983   879A      0.844804  
     880A      0.845966   881A      0.847305   882A      0.847432  
     883A      0.848844   884A      0.849866   885A      0.850998  
     886A      0.851415   887A      0.854404   888A      0.856047  
     889A      0.856541   890A      0.857380   891A      0.858534  
     892A      0.861836   893A      0.862868   894A      0.863609  
     895A      0.864669   896A      0.865776   897A      0.866157  
     898A      0.867059   899A      0.867940   900A      0.868955  
     901A      0.870074   902A      0.870315   903A      0.872190  
     904A      0.872704   905A      0.873398   906A      0.875335  
     907A      0.875646   908A      0.876896   909A      0.878223  
     910A      0.880756   911A      0.881369   912A      0.881754  
     913A      0.882996   914A      0.885249   915A      0.886564  
     916A      0.888021   917A      0.888214   918A      0.888829  
     919A      0.891421   920A      0.894600   921A      0.895239  
     922A      0.895965   923A      0.896652   924A      0.898719  
     925A      0.900746   926A      0.901326   927A      0.902687  
     928A      0.904270   929A      0.905180   930A      0.906517  
     931A      0.906521   932A      0.910062   933A      0.910135  
     934A      0.912453   935A      0.912841   936A      0.914017  
     937A      0.915090   938A      0.917143   939A      0.918422  
     940A      0.919017   941A      0.919988   942A      0.921149  
     943A      0.921598   944A      0.922500   945A      0.923451  
     946A      0.927254   947A      0.927764   948A      0.929025  
     949A      0.931257   950A      0.932841   951A      0.933837  
     952A      0.936928   953A      0.938031   954A      0.939227  
     955A      0.939987   956A      0.940314   957A      0.942573  
     958A      0.944552   959A      0.946161   960A      0.947428  
     961A      0.949076   962A      0.950129   963A      0.950516  
     964A      0.950731   965A      0.951794   966A      0.953802  
     967A      0.955390   968A      0.956113   969A      0.956967  
     970A      0.957492   971A      0.960204   972A      0.961107  
     973A      0.964623   974A      0.965172   975A      0.966137  
     976A      0.966503   977A      0.968488   978A      0.969407  
     979A      0.972366   980A      0.972985   981A      0.976498  
     982A      0.976982   983A      0.977721   984A      0.978449  
     985A      0.980355   986A      0.982087   987A      0.984152  
     988A      0.985847   989A      0.985998   990A      0.986801  
     991A      0.987422   992A      0.989793   993A      0.990533  
     994A      0.992094   995A      0.992272   996A      0.995616  
     997A      0.995982   998A      0.998280   999A      1.000406  
    1000A      1.000626  1001A      1.002008  1002A      1.002342  
    1003A      1.002864  1004A      1.004622  1005A      1.006501  
    1006A      1.006650  1007A      1.010724  1008A      1.010985  
    1009A      1.013473  1010A      1.013728  1011A      1.014356  
    1012A      1.015015  1013A      1.017957  1014A      1.019775  
    1015A      1.020986  1016A      1.022086  1017A      1.022497  
    1018A      1.023549  1019A      1.024835  1020A      1.026089  
    1021A      1.028647  1022A      1.029799  1023A      1.030594  
    1024A      1.032748  1025A      1.034429  1026A      1.036033  
    1027A      1.037426  1028A      1.037721  1029A      1.041728  
    1030A      1.043485  1031A      1.043859  1032A      1.044422  
    1033A      1.044874  1034A      1.046620  1035A      1.047635  
    1036A      1.049614  1037A      1.051123  1038A      1.051842  
    1039A      1.053810  1040A      1.055280  1041A      1.056594  
    1042A      1.057322  1043A      1.060759  1044A      1.061277  
    1045A      1.063756  1046A      1.065123  1047A      1.065869  
    1048A      1.066933  1049A      1.069334  1050A      1.071723  
    1051A      1.073027  1052A      1.074765  1053A      1.076397  
    1054A      1.077290  1055A      1.077687  1056A      1.078014  
    1057A      1.080696  1058A      1.082158  1059A      1.084862  
    1060A      1.085650  1061A      1.089459  1062A      1.090719  
    1063A      1.093272  1064A      1.094466  1065A      1.096006  
    1066A      1.096118  1067A      1.096910  1068A      1.098631  
    1069A      1.100032  1070A      1.101459  1071A      1.102868  
    1072A      1.104741  1073A      1.106549  1074A      1.107023  
    1075A      1.107819  1076A      1.109642  1077A      1.110633  
    1078A      1.112739  1079A      1.113352  1080A      1.113825  
    1081A      1.117975  1082A      1.120133  1083A      1.122337  
    1084A      1.123760  1085A      1.124413  1086A      1.126825  
    1087A      1.127024  1088A      1.129895  1089A      1.132753  
    1090A      1.132923  1091A      1.133865  1092A      1.135488  
    1093A      1.135691  1094A      1.137462  1095A      1.137899  
    1096A      1.138474  1097A      1.142465  1098A      1.145053  
    1099A      1.145959  1100A      1.149576  1101A      1.150176  
    1102A      1.150582  1103A      1.151462  1104A      1.153050  
    1105A      1.153677  1106A      1.155267  1107A      1.157876  
    1108A      1.159002  1109A      1.159367  1110A      1.160445  
    1111A      1.161576  1112A      1.162765  1113A      1.165198  
    1114A      1.168682  1115A      1.170757  1116A      1.171698  
    1117A      1.174375  1118A      1.176473  1119A      1.177045  
    1120A      1.179795  1121A      1.181497  1122A      1.181631  
    1123A      1.184992  1124A      1.185961  1125A      1.187211  
    1126A      1.187850  1127A      1.188762  1128A      1.191680  
    1129A      1.192407  1130A      1.194781  1131A      1.195034  
    1132A      1.196780  1133A      1.197362  1134A      1.199161  
    1135A      1.199703  1136A      1.201105  1137A      1.201645  
    1138A      1.203505  1139A      1.203791  1140A      1.205649  
    1141A      1.205924  1142A      1.206479  1143A      1.208354  
    1144A      1.211036  1145A      1.214411  1146A      1.214754  
    1147A      1.216269  1148A      1.216781  1149A      1.219025  
    1150A      1.219934  1151A      1.222343  1152A      1.223503  
    1153A      1.224442  1154A      1.227762  1155A      1.228459  
    1156A      1.229593  1157A      1.231230  1158A      1.232827  
    1159A      1.233192  1160A      1.235108  1161A      1.237591  
    1162A      1.241801  1163A      1.242590  1164A      1.244258  
    1165A      1.244845  1166A      1.246284  1167A      1.247185  
    1168A      1.248332  1169A      1.250069  1170A      1.251304  
    1171A      1.252461  1172A      1.253340  1173A      1.254561  
    1174A      1.258450  1175A      1.259560  1176A      1.261062  
    1177A      1.261105  1178A      1.263443  1179A      1.264216  
    1180A      1.266010  1181A      1.267276  1182A      1.268350  
    1183A      1.269723  1184A      1.270403  1185A      1.271864  
    1186A      1.272549  1187A      1.273926  1188A      1.275499  
    1189A      1.275960  1190A      1.276960  1191A      1.282876  
    1192A      1.284284  1193A      1.285576  1194A      1.285973  
    1195A      1.288902  1196A      1.289271  1197A      1.289803  
    1198A      1.291545  1199A      1.292226  1200A      1.293434  
    1201A      1.296264  1202A      1.296687  1203A      1.297399  
    1204A      1.300362  1205A      1.303313  1206A      1.304877  
    1207A      1.306271  1208A      1.307808  1209A      1.309456  
    1210A      1.309915  1211A      1.311361  1212A      1.313630  
    1213A      1.315667  1214A      1.316593  1215A      1.317344  
    1216A      1.319302  1217A      1.320819  1218A      1.323854  
    1219A      1.325013  1220A      1.326032  1221A      1.326959  
    1222A      1.329329  1223A      1.330366  1224A      1.332173  
    1225A      1.333434  1226A      1.334080  1227A      1.336346  
    1228A      1.336888  1229A      1.339618  1230A      1.339968  
    1231A      1.340972  1232A      1.342813  1233A      1.344524  
    1234A      1.346858  1235A      1.349134  1236A      1.350762  
    1237A      1.353712  1238A      1.354435  1239A      1.355048  
    1240A      1.357538  1241A      1.358012  1242A      1.359746  
    1243A      1.361743  1244A      1.362717  1245A      1.364998  
    1246A      1.365804  1247A      1.368241  1248A      1.368529  
    1249A      1.370105  1250A      1.371999  1251A      1.374547  
    1252A      1.375415  1253A      1.375788  1254A      1.376302  
    1255A      1.377896  1256A      1.380221  1257A      1.381884  
    1258A      1.385219  1259A      1.385799  1260A      1.386331  
    1261A      1.386886  1262A      1.387206  1263A      1.388540  
    1264A      1.389504  1265A      1.391262  1266A      1.392690  
    1267A      1.395077  1268A      1.395625  1269A      1.397800  
    1270A      1.399259  1271A      1.400604  1272A      1.402136  
    1273A      1.402901  1274A      1.403133  1275A      1.406244  
    1276A      1.407386  1277A      1.408140  1278A      1.409755  
    1279A      1.410814  1280A      1.412800  1281A      1.413452  
    1282A      1.413794  1283A      1.415914  1284A      1.417919  
    1285A      1.420035  1286A      1.420616  1287A      1.425017  
    1288A      1.425764  1289A      1.427306  1290A      1.428207  
    1291A      1.428828  1292A      1.429295  1293A      1.430536  
    1294A      1.433132  1295A      1.433657  1296A      1.434341  
    1297A      1.434925  1298A      1.438027  1299A      1.438618  
    1300A      1.441895  1301A      1.442256  1302A      1.444652  
    1303A      1.445101  1304A      1.446024  1305A      1.446190  
    1306A      1.448902  1307A      1.452364  1308A      1.453128  
    1309A      1.455106  1310A      1.455971  1311A      1.456952  
    1312A      1.458188  1313A      1.460373  1314A      1.461039  
    1315A      1.462496  1316A      1.462891  1317A      1.464991  
    1318A      1.465651  1319A      1.466811  1320A      1.469291  
    1321A      1.470706  1322A      1.472821  1323A      1.473769  
    1324A      1.474190  1325A      1.476520  1326A      1.478536  
    1327A      1.481516  1328A      1.482352  1329A      1.483894  
    1330A      1.485295  1331A      1.487389  1332A      1.488431  
    1333A      1.488910  1334A      1.489302  1335A      1.490977  
    1336A      1.491449  1337A      1.493020  1338A      1.493142  
    1339A      1.493662  1340A      1.498855  1341A      1.499729  
    1342A      1.500622  1343A      1.500855  1344A      1.503479  
    1345A      1.504965  1346A      1.505423  1347A      1.506415  
    1348A      1.509294  1349A      1.513814  1350A      1.514335  
    1351A      1.517050  1352A      1.517176  1353A      1.519075  
    1354A      1.519833  1355A      1.520680  1356A      1.522863  
    1357A      1.524020  1358A      1.524950  1359A      1.527832  
    1360A      1.529349  1361A      1.530496  1362A      1.532678  
    1363A      1.533574  1364A      1.535251  1365A      1.535894  
    1366A      1.538219  1367A      1.539305  1368A      1.540018  
    1369A      1.542561  1370A      1.542731  1371A      1.543762  
    1372A      1.545024  1373A      1.547608  1374A      1.549080  
    1375A      1.549993  1376A      1.552169  1377A      1.554523  
    1378A      1.554988  1379A      1.556042  1380A      1.557215  
    1381A      1.557334  1382A      1.558268  1383A      1.559018  
    1384A      1.559363  1385A      1.562267  1386A      1.564350  
    1387A      1.564904  1388A      1.568066  1389A      1.570430  
    1390A      1.571786  1391A      1.572479  1392A      1.574925  
    1393A      1.576644  1394A      1.577464  1395A      1.577845  
    1396A      1.580728  1397A      1.581457  1398A      1.582689  
    1399A      1.585059  1400A      1.585690  1401A      1.587891  
    1402A      1.588408  1403A      1.591853  1404A      1.592396  
    1405A      1.594874  1406A      1.596308  1407A      1.598629  
    1408A      1.598870  1409A      1.600999  1410A      1.601974  
    1411A      1.604297  1412A      1.604985  1413A      1.607622  
    1414A      1.608706  1415A      1.610132  1416A      1.612175  
    1417A      1.612581  1418A      1.614798  1419A      1.616413  
    1420A      1.617077  1421A      1.618089  1422A      1.619038  
    1423A      1.621419  1424A      1.622918  1425A      1.623429  
    1426A      1.624061  1427A      1.628533  1428A      1.628832  
    1429A      1.630798  1430A      1.630978  1431A      1.631695  
    1432A      1.635465  1433A      1.635812  1434A      1.638861  
    1435A      1.639057  1436A      1.640757  1437A      1.641754  
    1438A      1.643081  1439A      1.644880  1440A      1.649283  
    1441A      1.650589  1442A      1.652283  1443A      1.653901  
    1444A      1.655681  1445A      1.656698  1446A      1.657207  
    1447A      1.657699  1448A      1.659055  1449A      1.660346  
    1450A      1.663311  1451A      1.665614  1452A      1.667554  
    1453A      1.668110  1454A      1.670326  1455A      1.671280  
    1456A      1.674736  1457A      1.676514  1458A      1.679914  
    1459A      1.680462  1460A      1.683508  1461A      1.684310  
    1462A      1.685137  1463A      1.686140  1464A      1.687315  
    1465A      1.687502  1466A      1.692127  1467A      1.693888  
    1468A      1.694407  1469A      1.695379  1470A      1.696734  
    1471A      1.698501  1472A      1.698898  1473A      1.700648  
    1474A      1.701577  1475A      1.703213  1476A      1.706129  
    1477A      1.708860  1478A      1.710119  1479A      1.713535  
    1480A      1.714534  1481A      1.715283  1482A      1.716360  
    1483A      1.717456  1484A      1.720583  1485A      1.722078  
    1486A      1.722162  1487A      1.724343  1488A      1.726327  
    1489A      1.726580  1490A      1.728480  1491A      1.729162  
    1492A      1.729393  1493A      1.731478  1494A      1.732687  
    1495A      1.733971  1496A      1.736720  1497A      1.739082  
    1498A      1.739123  1499A      1.740706  1500A      1.741191  
    1501A      1.741587  1502A      1.742690  1503A      1.743516  
    1504A      1.746020  1505A      1.746771  1506A      1.747019  
    1507A      1.750291  1508A      1.750911  1509A      1.752892  
    1510A      1.754053  1511A      1.754875  1512A      1.758724  
    1513A      1.761109  1514A      1.761839  1515A      1.763302  
    1516A      1.766352  1517A      1.766796  1518A      1.768649  
    1519A      1.770250  1520A      1.772525  1521A      1.773830  
    1522A      1.774344  1523A      1.776737  1524A      1.777480  
    1525A      1.778236  1526A      1.780939  1527A      1.781524  
    1528A      1.784003  1529A      1.785352  1530A      1.788921  
    1531A      1.789828  1532A      1.790763  1533A      1.793033  
    1534A      1.795152  1535A      1.796097  1536A      1.797975  
    1537A      1.798576  1538A      1.799195  1539A      1.800560  
    1540A      1.801943  1541A      1.804450  1542A      1.807478  
    1543A      1.808242  1544A      1.808697  1545A      1.809461  
    1546A      1.812250  1547A      1.813448  1548A      1.816633  
    1549A      1.817114  1550A      1.818380  1551A      1.820216  
    1552A      1.821427  1553A      1.823319  1554A      1.824140  
    1555A      1.824971  1556A      1.826442  1557A      1.827238  
    1558A      1.828830  1559A      1.830829  1560A      1.833740  
    1561A      1.835096  1562A      1.835804  1563A      1.840232  
    1564A      1.841004  1565A      1.842063  1566A      1.843348  
    1567A      1.843778  1568A      1.845057  1569A      1.847142  
    1570A      1.848769  1571A      1.849456  1572A      1.852555  
    1573A      1.854460  1574A      1.855210  1575A      1.857912  
    1576A      1.858860  1577A      1.859062  1578A      1.861667  
    1579A      1.863400  1580A      1.864023  1581A      1.864794  
    1582A      1.867014  1583A      1.868274  1584A      1.870008  
    1585A      1.871505  1586A      1.872130  1587A      1.874431  
    1588A      1.875013  1589A      1.876800  1590A      1.880498  
    1591A      1.880970  1592A      1.882977  1593A      1.884512  
    1594A      1.886762  1595A      1.887288  1596A      1.888404  
    1597A      1.892949  1598A      1.893338  1599A      1.894977  
    1600A      1.897059  1601A      1.897998  1602A      1.899954  
    1603A      1.900411  1604A      1.901779  1605A      1.902766  
    1606A      1.904092  1607A      1.907813  1608A      1.908244  
    1609A      1.911072  1610A      1.912339  1611A      1.912670  
    1612A      1.914839  1613A      1.918191  1614A      1.920159  
    1615A      1.920726  1616A      1.920956  1617A      1.925150  
    1618A      1.925847  1619A      1.928198  1620A      1.929044  
    1621A      1.930352  1622A      1.932240  1623A      1.932406  
    1624A      1.934856  1625A      1.935556  1626A      1.940721  
    1627A      1.943912  1628A      1.944333  1629A      1.946276  
    1630A      1.947347  1631A      1.948683  1632A      1.951564  
    1633A      1.952505  1634A      1.954528  1635A      1.955734  
    1636A      1.956626  1637A      1.957977  1638A      1.959473  
    1639A      1.961766  1640A      1.964846  1641A      1.965794  
    1642A      1.966211  1643A      1.968898  1644A      1.972771  
    1645A      1.973876  1646A      1.974638  1647A      1.976437  
    1648A      1.979250  1649A      1.980399  1650A      1.981209  
    1651A      1.982685  1652A      1.983099  1653A      1.984935  
    1654A      1.987339  1655A      1.988351  1656A      1.990155  
    1657A      1.992009  1658A      1.993099  1659A      1.995993  
    1660A      1.996057  1661A      1.997782  1662A      1.998675  
    1663A      2.002775  1664A      2.003584  1665A      2.004004  
    1666A      2.006565  1667A      2.007781  1668A      2.008903  
    1669A      2.011996  1670A      2.014154  1671A      2.016015  
    1672A      2.016938  1673A      2.019543  1674A      2.021087  
    1675A      2.022640  1676A      2.024604  1677A      2.026555  
    1678A      2.026870  1679A      2.027625  1680A      2.030279  
    1681A      2.031622  1682A      2.032475  1683A      2.037258  
    1684A      2.037979  1685A      2.040382  1686A      2.041486  
    1687A      2.043936  1688A      2.046523  1689A      2.047625  
    1690A      2.050497  1691A      2.051340  1692A      2.054018  
    1693A      2.055410  1694A      2.055808  1695A      2.058940  
    1696A      2.060525  1697A      2.062344  1698A      2.065253  
    1699A      2.066462  1700A      2.066727  1701A      2.068604  
    1702A      2.071291  1703A      2.073610  1704A      2.074747  
    1705A      2.075817  1706A      2.079057  1707A      2.079543  
    1708A      2.081412  1709A      2.081538  1710A      2.086872  
    1711A      2.087444  1712A      2.089466  1713A      2.091025  
    1714A      2.092400  1715A      2.095061  1716A      2.095595  
    1717A      2.096686  1718A      2.098562  1719A      2.101007  
    1720A      2.102395  1721A      2.102691  1722A      2.108759  
    1723A      2.111002  1724A      2.113426  1725A      2.114986  
    1726A      2.116210  1727A      2.118456  1728A      2.118836  
    1729A      2.121229  1730A      2.121793  1731A      2.122807  
    1732A      2.124685  1733A      2.126154  1734A      2.127690  
    1735A      2.129728  1736A      2.131831  1737A      2.136046  
    1738A      2.138242  1739A      2.139028  1740A      2.142247  
    1741A      2.145364  1742A      2.145653  1743A      2.145964  
    1744A      2.147895  1745A      2.148485  1746A      2.149332  
    1747A      2.152460  1748A      2.154124  1749A      2.155872  
    1750A      2.156923  1751A      2.159359  1752A      2.160077  
    1753A      2.161221  1754A      2.165179  1755A      2.166356  
    1756A      2.167187  1757A      2.168764  1758A      2.170729  
    1759A      2.173777  1760A      2.174700  1761A      2.175178  
    1762A      2.177863  1763A      2.178262  1764A      2.182030  
    1765A      2.184412  1766A      2.184891  1767A      2.185854  
    1768A      2.186871  1769A      2.189885  1770A      2.192211  
    1771A      2.195107  1772A      2.197138  1773A      2.199024  
    1774A      2.201265  1775A      2.202936  1776A      2.204587  
    1777A      2.205329  1778A      2.210088  1779A      2.210647  
    1780A      2.210832  1781A      2.211785  1782A      2.218874  
    1783A      2.219129  1784A      2.219861  1785A      2.220599  
    1786A      2.221189  1787A      2.224571  1788A      2.224933  
    1789A      2.227039  1790A      2.228075  1791A      2.231008  
    1792A      2.233449  1793A      2.234696  1794A      2.238316  
    1795A      2.239188  1796A      2.242107  1797A      2.242632  
    1798A      2.245521  1799A      2.246859  1800A      2.246967  
    1801A      2.248652  1802A      2.250258  1803A      2.253679  
    1804A      2.255097  1805A      2.256837  1806A      2.258325  
    1807A      2.259016  1808A      2.260403  1809A      2.261302  
    1810A      2.265461  1811A      2.267867  1812A      2.269093  
    1813A      2.271543  1814A      2.273165  1815A      2.275622  
    1816A      2.275992  1817A      2.277613  1818A      2.281246  
    1819A      2.282917  1820A      2.283213  1821A      2.284817  
    1822A      2.285540  1823A      2.286817  1824A      2.290186  
    1825A      2.291009  1826A      2.292038  1827A      2.294406  
    1828A      2.295229  1829A      2.297019  1830A      2.299335  
    1831A      2.300654  1832A      2.302184  1833A      2.305573  
    1834A      2.307009  1835A      2.308169  1836A      2.309103  
    1837A      2.313526  1838A      2.313998  1839A      2.317088  
    1840A      2.318047  1841A      2.318683  1842A      2.319491  
    1843A      2.322463  1844A      2.327979  1845A      2.329229  
    1846A      2.329739  1847A      2.333018  1848A      2.334042  
    1849A      2.336373  1850A      2.337597  1851A      2.340443  
    1852A      2.340641  1853A      2.341897  1854A      2.342650  
    1855A      2.343773  1856A      2.347653  1857A      2.348635  
    1858A      2.353648  1859A      2.355085  1860A      2.355813  
    1861A      2.359078  1862A      2.359637  1863A      2.363802  
    1864A      2.364609  1865A      2.367307  1866A      2.368687  
    1867A      2.369595  1868A      2.372029  1869A      2.377038  
    1870A      2.377564  1871A      2.381405  1872A      2.381519  
    1873A      2.384374  1874A      2.385522  1875A      2.390191  
    1876A      2.391995  1877A      2.395068  1878A      2.396673  
    1879A      2.397815  1880A      2.401376  1881A      2.402834  
    1882A      2.406573  1883A      2.407439  1884A      2.408664  
    1885A      2.409800  1886A      2.411639  1887A      2.414163  
    1888A      2.414928  1889A      2.417821  1890A      2.421067  
    1891A      2.422347  1892A      2.423715  1893A      2.425798  
    1894A      2.427496  1895A      2.430375  1896A      2.431497  
    1897A      2.434589  1898A      2.434836  1899A      2.436498  
    1900A      2.442657  1901A      2.446977  1902A      2.449204  
    1903A      2.451905  1904A      2.452734  1905A      2.453691  
    1906A      2.454305  1907A      2.457927  1908A      2.462593  
    1909A      2.463316  1910A      2.465647  1911A      2.470313  
    1912A      2.472790  1913A      2.473821  1914A      2.475590  
    1915A      2.477013  1916A      2.478662  1917A      2.483651  
    1918A      2.484566  1919A      2.486155  1920A      2.489696  
    1921A      2.490598  1922A      2.494248  1923A      2.495661  
    1924A      2.498232  1925A      2.500064  1926A      2.503005  
    1927A      2.504694  1928A      2.505548  1929A      2.507460  
    1930A      2.511635  1931A      2.513340  1932A      2.514831  
    1933A      2.518235  1934A      2.519571  1935A      2.520113  
    1936A      2.523471  1937A      2.523972  1938A      2.525757  
    1939A      2.526100  1940A      2.532993  1941A      2.535658  
    1942A      2.537723  1943A      2.539563  1944A      2.542493  
    1945A      2.545922  1946A      2.548785  1947A      2.549494  
    1948A      2.550755  1949A      2.555709  1950A      2.556207  
    1951A      2.559664  1952A      2.560646  1953A      2.562864  
    1954A      2.564715  1955A      2.566858  1956A      2.568423  
    1957A      2.569525  1958A      2.575292  1959A      2.576358  
    1960A      2.578587  1961A      2.581555  1962A      2.583080  
    1963A      2.585494  1964A      2.588900  1965A      2.589975  
    1966A      2.591864  1967A      2.594667  1968A      2.597325  
    1969A      2.601402  1970A      2.606623  1971A      2.607171  
    1972A      2.608074  1973A      2.612885  1974A      2.614022  
    1975A      2.617276  1976A      2.618144  1977A      2.623123  
    1978A      2.628029  1979A      2.629276  1980A      2.631161  
    1981A      2.634396  1982A      2.637419  1983A      2.637825  
    1984A      2.638570  1985A      2.640469  1986A      2.641553  
    1987A      2.643579  1988A      2.650573  1989A      2.653561  
    1990A      2.659312  1991A      2.661658  1992A      2.667016  
    1993A      2.668601  1994A      2.672273  1995A      2.672828  
    1996A      2.674880  1997A      2.676494  1998A      2.678014  
    1999A      2.682435  2000A      2.684325  2001A      2.693670  
    2002A      2.698221  2003A      2.699474  2004A      2.700307  
    2005A      2.702190  2006A      2.705604  2007A      2.709390  
    2008A      2.711848  2009A      2.717080  2010A      2.717362  
    2011A      2.719433  2012A      2.722011  2013A      2.729069  
    2014A      2.732867  2015A      2.733442  2016A      2.739958  
    2017A      2.742818  2018A      2.751840  2019A      2.751948  
    2020A      2.753175  2021A      2.754873  2022A      2.762822  
    2023A      2.764089  2024A      2.766369  2025A      2.766792  
    2026A      2.773230  2027A      2.775875  2028A      2.777964  
    2029A      2.785124  2030A      2.786103  2031A      2.787158  
    2032A      2.792760  2033A      2.794746  2034A      2.796797  
    2035A      2.797505  2036A      2.802224  2037A      2.803226  
    2038A      2.803874  2039A      2.817319  2040A      2.817569  
    2041A      2.819051  2042A      2.821813  2043A      2.822538  
    2044A      2.826276  2045A      2.829968  2046A      2.835134  
    2047A      2.839398  2048A      2.840848  2049A      2.847908  
    2050A      2.851069  2051A      2.856529  2052A      2.857070  
    2053A      2.860491  2054A      2.865298  2055A      2.868475  
    2056A      2.870238  2057A      2.873632  2058A      2.877749  
    2059A      2.886862  2060A      2.887532  2061A      2.891121  
    2062A      2.895927  2063A      2.898811  2064A      2.907504  
    2065A      2.909879  2066A      2.912439  2067A      2.914916  
    2068A      2.917005  2069A      2.919800  2070A      2.924578  
    2071A      2.933457  2072A      2.934361  2073A      2.941047  
    2074A      2.941515  2075A      2.949529  2076A      2.951842  
    2077A      2.952708  2078A      2.959347  2079A      2.962395  
    2080A      2.963517  2081A      2.971327  2082A      2.971664  
    2083A      2.977480  2084A      2.980788  2085A      2.982612  
    2086A      2.985478  2087A      2.989626  2088A      2.992654  
    2089A      3.003117  2090A      3.008071  2091A      3.012804  
    2092A      3.018055  2093A      3.018307  2094A      3.024921  
    2095A      3.025941  2096A      3.029129  2097A      3.031384  
    2098A      3.032902  2099A      3.035193  2100A      3.044215  
    2101A      3.048773  2102A      3.054960  2103A      3.058356  
    2104A      3.061642  2105A      3.062617  2106A      3.070095  
    2107A      3.076234  2108A      3.078740  2109A      3.083712  
    2110A      3.084038  2111A      3.093653  2112A      3.095185  
    2113A      3.096485  2114A      3.099338  2115A      3.106288  
    2116A      3.108132  2117A      3.110055  2118A      3.114413  
    2119A      3.118479  2120A      3.125762  2121A      3.127594  
    2122A      3.134154  2123A      3.134947  2124A      3.135949  
    2125A      3.142158  2126A      3.146607  2127A      3.147141  
    2128A      3.151200  2129A      3.153429  2130A      3.154249  
    2131A      3.158247  2132A      3.159930  2133A      3.160438  
    2134A      3.166573  2135A      3.167727  2136A      3.172731  
    2137A      3.177405  2138A      3.178674  2139A      3.186453  
    2140A      3.187892  2141A      3.188754  2142A      3.193493  
    2143A      3.197760  2144A      3.201921  2145A      3.202391  
    2146A      3.208366  2147A      3.209594  2148A      3.211952  
    2149A      3.216802  2150A      3.217936  2151A      3.218728  
    2152A      3.224848  2153A      3.227112  2154A      3.228420  
    2155A      3.231573  2156A      3.234253  2157A      3.234318  
    2158A      3.238420  2159A      3.238700  2160A      3.239462  
    2161A      3.247442  2162A      3.249732  2163A      3.250249  
    2164A      3.252566  2165A      3.253424  2166A      3.255273  
    2167A      3.261171  2168A      3.262254  2169A      3.269901  
    2170A      3.272107  2171A      3.275569  2172A      3.278389  
    2173A      3.279100  2174A      3.280686  2175A      3.284516  
    2176A      3.289164  2177A      3.293420  2178A      3.293983  
    2179A      3.295621  2180A      3.299904  2181A      3.302857  
    2182A      3.305378  2183A      3.307293  2184A      3.311146  
    2185A      3.312451  2186A      3.314148  2187A      3.316827  
    2188A      3.319856  2189A      3.320379  2190A      3.322121  
    2191A      3.323477  2192A      3.327011  2193A      3.327815  
    2194A      3.331561  2195A      3.334593  2196A      3.337954  
    2197A      3.338772  2198A      3.342608  2199A      3.343159  
    2200A      3.347090  2201A      3.349083  2202A      3.352688  
    2203A      3.353693  2204A      3.355647  2205A      3.357811  
    2206A      3.360162  2207A      3.362821  2208A      3.363824  
    2209A      3.364931  2210A      3.371224  2211A      3.373703  
    2212A      3.376589  2213A      3.377358  2214A      3.380008  
    2215A      3.380830  2216A      3.381990  2217A      3.383975  
    2218A      3.387012  2219A      3.390080  2220A      3.393010  
    2221A      3.393630  2222A      3.398249  2223A      3.399634  
    2224A      3.401004  2225A      3.406589  2226A      3.407135  
    2227A      3.409283  2228A      3.411129  2229A      3.413414  
    2230A      3.415344  2231A      3.417830  2232A      3.418137  
    2233A      3.421601  2234A      3.421971  2235A      3.429193  
    2236A      3.429736  2237A      3.430251  2238A      3.431922  
    2239A      3.436207  2240A      3.439049  2241A      3.439233  
    2242A      3.440975  2243A      3.443237  2244A      3.443618  
    2245A      3.449722  2246A      3.451286  2247A      3.453481  
    2248A      3.454735  2249A      3.457014  2250A      3.459800  
    2251A      3.462667  2252A      3.463334  2253A      3.465715  
    2254A      3.466564  2255A      3.467017  2256A      3.468746  
    2257A      3.469785  2258A      3.475060  2259A      3.475779  
    2260A      3.476318  2261A      3.478748  2262A      3.479844  
    2263A      3.480442  2264A      3.483153  2265A      3.483947  
    2266A      3.489073  2267A      3.493357  2268A      3.493561  
    2269A      3.496364  2270A      3.500739  2271A      3.500979  
    2272A      3.503087  2273A      3.505753  2274A      3.506196  
    2275A      3.506261  2276A      3.508694  2277A      3.514381  
    2278A      3.514937  2279A      3.516791  2280A      3.519322  
    2281A      3.520602  2282A      3.525774  2283A      3.527640  
    2284A      3.530461  2285A      3.531068  2286A      3.533457  
    2287A      3.535931  2288A      3.537929  2289A      3.538727  
    2290A      3.540396  2291A      3.542073  2292A      3.546442  
    2293A      3.546524  2294A      3.547583  2295A      3.551727  
    2296A      3.552825  2297A      3.554246  2298A      3.558477  
    2299A      3.562111  2300A      3.562902  2301A      3.566022  
    2302A      3.566141  2303A      3.567948  2304A      3.570217  
    2305A      3.571146  2306A      3.572291  2307A      3.575540  
    2308A      3.578036  2309A      3.579905  2310A      3.583220  
    2311A      3.586586  2312A      3.587801  2313A      3.588980  
    2314A      3.592233  2315A      3.594946  2316A      3.596529  
    2317A      3.596974  2318A      3.600783  2319A      3.603039  
    2320A      3.604816  2321A      3.606002  2322A      3.607641  
    2323A      3.608459  2324A      3.610224  2325A      3.611622  
    2326A      3.614280  2327A      3.616690  2328A      3.619178  
    2329A      3.623520  2330A      3.623763  2331A      3.625883  
    2332A      3.627625  2333A      3.628800  2334A      3.632100  
    2335A      3.634542  2336A      3.637581  2337A      3.640580  
    2338A      3.641528  2339A      3.643209  2340A      3.644531  
    2341A      3.645398  2342A      3.647543  2343A      3.650823  
    2344A      3.652701  2345A      3.653188  2346A      3.657366  
    2347A      3.658333  2348A      3.663381  2349A      3.664486  
    2350A      3.665192  2351A      3.667662  2352A      3.670850  
    2353A      3.674376  2354A      3.675430  2355A      3.676478  
    2356A      3.678856  2357A      3.679933  2358A      3.680290  
    2359A      3.685869  2360A      3.686209  2361A      3.689168  
    2362A      3.691079  2363A      3.692034  2364A      3.693688  
    2365A      3.694495  2366A      3.697746  2367A      3.699268  
    2368A      3.700281  2369A      3.702024  2370A      3.703224  
    2371A      3.705295  2372A      3.709459  2373A      3.711090  
    2374A      3.713059  2375A      3.715272  2376A      3.715398  
    2377A      3.717318  2378A      3.723701  2379A      3.724610  
    2380A      3.727795  2381A      3.728797  2382A      3.731581  
    2383A      3.732633  2384A      3.733179  2385A      3.734527  
    2386A      3.737588  2387A      3.739048  2388A      3.739915  
    2389A      3.741890  2390A      3.746884  2391A      3.747575  
    2392A      3.749031  2393A      3.750308  2394A      3.751194  
    2395A      3.754026  2396A      3.757013  2397A      3.759844  
    2398A      3.763145  2399A      3.764207  2400A      3.766313  
    2401A      3.767311  2402A      3.771403  2403A      3.772829  
    2404A      3.776307  2405A      3.777263  2406A      3.779500  
    2407A      3.780020  2408A      3.782852  2409A      3.784589  
    2410A      3.789551  2411A      3.790096  2412A      3.792085  
    2413A      3.795182  2414A      3.800863  2415A      3.802170  
    2416A      3.803550  2417A      3.804396  2418A      3.805467  
    2419A      3.807825  2420A      3.808687  2421A      3.813989  
    2422A      3.818198  2423A      3.819345  2424A      3.821588  
    2425A      3.821828  2426A      3.824273  2427A      3.826238  
    2428A      3.826657  2429A      3.829612  2430A      3.833649  
    2431A      3.835452  2432A      3.838822  2433A      3.839817  
    2434A      3.841164  2435A      3.848685  2436A      3.849588  
    2437A      3.851919  2438A      3.852207  2439A      3.853007  
    2440A      3.858398  2441A      3.859492  2442A      3.864082  
    2443A      3.865516  2444A      3.865953  2445A      3.867866  
    2446A      3.870808  2447A      3.874497  2448A      3.879711  
    2449A      3.880947  2450A      3.883701  2451A      3.885553  
    2452A      3.889162  2453A      3.892164  2454A      3.894802  
    2455A      3.897154  2456A      3.898999  2457A      3.899173  
    2458A      3.900411  2459A      3.902740  2460A      3.905257  
    2461A      3.907216  2462A      3.909418  2463A      3.914973  
    2464A      3.917631  2465A      3.918957  2466A      3.921912  
    2467A      3.922386  2468A      3.923390  2469A      3.925417  
    2470A      3.925635  2471A      3.926520  2472A      3.930500  
    2473A      3.935923  2474A      3.939505  2475A      3.942297  
    2476A      3.945953  2477A      3.946951  2478A      3.947725  
    2479A      3.948803  2480A      3.950345  2481A      3.953860  
    2482A      3.955996  2483A      3.958229  2484A      3.961664  
    2485A      3.964577  2486A      3.965625  2487A      3.972052  
    2488A      3.972694  2489A      3.976020  2490A      3.977154  
    2491A      3.980656  2492A      3.983495  2493A      3.985276  
    2494A      3.987213  2495A      3.990479  2496A      3.992529  
    2497A      3.993336  2498A      3.995109  2499A      4.000564  
    2500A      4.001507  2501A      4.001879  2502A      4.006278  
    2503A      4.008058  2504A      4.008867  2505A      4.009488  
    2506A      4.013524  2507A      4.013998  2508A      4.020692  
    2509A      4.022420  2510A      4.024530  2511A      4.025492  
    2512A      4.028796  2513A      4.030549  2514A      4.032060  
    2515A      4.033431  2516A      4.037083  2517A      4.039494  
    2518A      4.043975  2519A      4.046770  2520A      4.047021  
    2521A      4.050043  2522A      4.053840  2523A      4.054706  
    2524A      4.057811  2525A      4.059921  2526A      4.062230  
    2527A      4.062825  2528A      4.065886  2529A      4.066186  
    2530A      4.068780  2531A      4.070822  2532A      4.074322  
    2533A      4.074437  2534A      4.076454  2535A      4.079779  
    2536A      4.081906  2537A      4.084195  2538A      4.088345  
    2539A      4.091337  2540A      4.092382  2541A      4.092748  
    2542A      4.098203  2543A      4.101195  2544A      4.102155  
    2545A      4.104240  2546A      4.106612  2547A      4.106879  
    2548A      4.111695  2549A      4.112111  2550A      4.114979  
    2551A      4.115577  2552A      4.117808  2553A      4.118258  
    2554A      4.126127  2555A      4.129070  2556A      4.130282  
    2557A      4.130689  2558A      4.131541  2559A      4.133377  
    2560A      4.137945  2561A      4.139239  2562A      4.140679  
    2563A      4.145866  2564A      4.146477  2565A      4.146684  
    2566A      4.148982  2567A      4.150509  2568A      4.150842  
    2569A      4.157103  2570A      4.158961  2571A      4.161154  
    2572A      4.163363  2573A      4.166201  2574A      4.168218  
    2575A      4.168738  2576A      4.171068  2577A      4.171828  
    2578A      4.175368  2579A      4.178040  2580A      4.179115  
    2581A      4.181801  2582A      4.188694  2583A      4.189414  
    2584A      4.192344  2585A      4.195291  2586A      4.198375  
    2587A      4.198594  2588A      4.200905  2589A      4.201256  
    2590A      4.202210  2591A      4.207097  2592A      4.207495  
    2593A      4.209450  2594A      4.212344  2595A      4.213533  
    2596A      4.215149  2597A      4.218342  2598A      4.220176  
    2599A      4.221152  2600A      4.222028  2601A      4.225528  
    2602A      4.230260  2603A      4.233929  2604A      4.235767  
    2605A      4.238587  2606A      4.241110  2607A      4.243781  
    2608A      4.245647  2609A      4.247217  2610A      4.251697  
    2611A      4.252248  2612A      4.254165  2613A      4.254618  
    2614A      4.257628  2615A      4.260534  2616A      4.261830  
    2617A      4.266156  2618A      4.266884  2619A      4.270799  
    2620A      4.274522  2621A      4.274822  2622A      4.276833  
    2623A      4.279403  2624A      4.279592  2625A      4.282825  
    2626A      4.284397  2627A      4.285371  2628A      4.287566  
    2629A      4.289463  2630A      4.291606  2631A      4.291731  
    2632A      4.294218  2633A      4.298168  2634A      4.299851  
    2635A      4.302128  2636A      4.303598  2637A      4.309787  
    2638A      4.312632  2639A      4.314025  2640A      4.316027  
    2641A      4.316149  2642A      4.317069  2643A      4.318100  
    2644A      4.318713  2645A      4.322532  2646A      4.323248  
    2647A      4.324216  2648A      4.327769  2649A      4.331668  
    2650A      4.332507  2651A      4.334237  2652A      4.338505  
    2653A      4.340688  2654A      4.343470  2655A      4.345949  
    2656A      4.346366  2657A      4.350725  2658A      4.353157  
    2659A      4.353862  2660A      4.355220  2661A      4.357100  
    2662A      4.359898  2663A      4.361346  2664A      4.369903  
    2665A      4.370394  2666A      4.371931  2667A      4.373702  
    2668A      4.374908  2669A      4.378079  2670A      4.379000  
    2671A      4.381253  2672A      4.381872  2673A      4.384886  
    2674A      4.386569  2675A      4.389694  2676A      4.390383  
    2677A      4.394483  2678A      4.395666  2679A      4.401278  
    2680A      4.406641  2681A      4.411445  2682A      4.413075  
    2683A      4.414921  2684A      4.416617  2685A      4.417075  
    2686A      4.425623  2687A      4.426107  2688A      4.429394  
    2689A      4.431973  2690A      4.433217  2691A      4.437382  
    2692A      4.438529  2693A      4.439505  2694A      4.440919  
    2695A      4.443294  2696A      4.450282  2697A      4.450795  
    2698A      4.453710  2699A      4.454313  2700A      4.457961  
    2701A      4.461372  2702A      4.465513  2703A      4.468191  
    2704A      4.469284  2705A      4.474729  2706A      4.477521  
    2707A      4.478982  2708A      4.480234  2709A      4.483163  
    2710A      4.486074  2711A      4.488480  2712A      4.492714  
    2713A      4.493733  2714A      4.495266  2715A      4.497125  
    2716A      4.498878  2717A      4.501154  2718A      4.502556  
    2719A      4.507680  2720A      4.509142  2721A      4.512226  
    2722A      4.512536  2723A      4.521547  2724A      4.522340  
    2725A      4.525477  2726A      4.525567  2727A      4.529461  
    2728A      4.531256  2729A      4.532140  2730A      4.535149  
    2731A      4.535709  2732A      4.537222  2733A      4.539887  
    2734A      4.548470  2735A      4.548606  2736A      4.551477  
    2737A      4.552666  2738A      4.553678  2739A      4.555146  
    2740A      4.558608  2741A      4.561013  2742A      4.561664  
    2743A      4.562665  2744A      4.567143  2745A      4.570881  
    2746A      4.572980  2747A      4.573168  2748A      4.576487  
    2749A      4.580935  2750A      4.581648  2751A      4.585477  
    2752A      4.591683  2753A      4.592088  2754A      4.594319  
    2755A      4.595857  2756A      4.599858  2757A      4.600171  
    2758A      4.603809  2759A      4.605102  2760A      4.608604  
    2761A      4.609045  2762A      4.611945  2763A      4.613727  
    2764A      4.616746  2765A      4.618831  2766A      4.620328  
    2767A      4.621223  2768A      4.626137  2769A      4.629484  
    2770A      4.631487  2771A      4.636535  2772A      4.638243  
    2773A      4.639516  2774A      4.642619  2775A      4.644296  
    2776A      4.649968  2777A      4.653783  2778A      4.655976  
    2779A      4.657506  2780A      4.664414  2781A      4.664578  
    2782A      4.669854  2783A      4.670855  2784A      4.673911  
    2785A      4.674782  2786A      4.679318  2787A      4.683197  
    2788A      4.684228  2789A      4.685054  2790A      4.690092  
    2791A      4.693669  2792A      4.694943  2793A      4.702815  
    2794A      4.703585  2795A      4.708072  2796A      4.713684  
    2797A      4.715528  2798A      4.720387  2799A      4.723612  
    2800A      4.728591  2801A      4.729409  2802A      4.735631  
    2803A      4.736441  2804A      4.737913  2805A      4.741803  
    2806A      4.742873  2807A      4.745459  2808A      4.748505  
    2809A      4.755389  2810A      4.760704  2811A      4.762120  
    2812A      4.764099  2813A      4.765809  2814A      4.771936  
    2815A      4.772918  2816A      4.783145  2817A      4.783461  
    2818A      4.786383  2819A      4.787558  2820A      4.789383  
    2821A      4.794847  2822A      4.799920  2823A      4.801312  
    2824A      4.803068  2825A      4.804043  2826A      4.809947  
    2827A      4.810419  2828A      4.815223  2829A      4.816072  
    2830A      4.820900  2831A      4.826252  2832A      4.827500  
    2833A      4.829901  2834A      4.832099  2835A      4.834119  
    2836A      4.836502  2837A      4.836630  2838A      4.841152  
    2839A      4.848796  2840A      4.849617  2841A      4.850505  
    2842A      4.854181  2843A      4.854372  2844A      4.858422  
    2845A      4.859505  2846A      4.865130  2847A      4.868151  
    2848A      4.869077  2849A      4.871968  2850A      4.874491  
    2851A      4.876860  2852A      4.879267  2853A      4.884732  
    2854A      4.885587  2855A      4.890510  2856A      4.893045  
    2857A      4.894321  2858A      4.895288  2859A      4.898725  
    2860A      4.901071  2861A      4.905926  2862A      4.907146  
    2863A      4.914888  2864A      4.916812  2865A      4.918568  
    2866A      4.920229  2867A      4.923619  2868A      4.926297  
    2869A      4.930249  2870A      4.932492  2871A      4.934411  
    2872A      4.936015  2873A      4.940054  2874A      4.940725  
    2875A      4.945749  2876A      4.949253  2877A      4.951665  
    2878A      4.954271  2879A      4.954359  2880A      4.961459  
    2881A      4.962061  2882A      4.967237  2883A      4.973069  
    2884A      4.975691  2885A      4.978620  2886A      4.981927  
    2887A      4.982871  2888A      4.987900  2889A      4.988871  
    2890A      4.992089  2891A      4.995405  2892A      4.998894  
    2893A      5.000429  2894A      5.005893  2895A      5.008520  
    2896A      5.009739  2897A      5.010432  2898A      5.013915  
    2899A      5.021349  2900A      5.022816  2901A      5.023436  
    2902A      5.024019  2903A      5.025527  2904A      5.031414  
    2905A      5.034378  2906A      5.040739  2907A      5.047386  
    2908A      5.048823  2909A      5.050252  2910A      5.053069  
    2911A      5.055692  2912A      5.059555  2913A      5.061401  
    2914A      5.062528  2915A      5.070855  2916A      5.072815  
    2917A      5.075633  2918A      5.076122  2919A      5.078471  
    2920A      5.081836  2921A      5.083148  2922A      5.090524  
    2923A      5.094209  2924A      5.098032  2925A      5.098834  
    2926A      5.100748  2927A      5.101209  2928A      5.104111  
    2929A      5.107057  2930A      5.111698  2931A      5.112382  
    2932A      5.115539  2933A      5.116782  2934A      5.117059  
    2935A      5.120386  2936A      5.120795  2937A      5.124657  
    2938A      5.125816  2939A      5.130814  2940A      5.131589  
    2941A      5.137648  2942A      5.140655  2943A      5.141294  
    2944A      5.149345  2945A      5.151542  2946A      5.152995  
    2947A      5.155442  2948A      5.157008  2949A      5.162668  
    2950A      5.162951  2951A      5.168650  2952A      5.168739  
    2953A      5.175093  2954A      5.175901  2955A      5.181782  
    2956A      5.182854  2957A      5.185718  2958A      5.191661  
    2959A      5.194115  2960A      5.200700  2961A      5.202536  
    2962A      5.205125  2963A      5.206670  2964A      5.208906  
    2965A      5.220240  2966A      5.221682  2967A      5.226824  
    2968A      5.227574  2969A      5.228256  2970A      5.233234  
    2971A      5.233601  2972A      5.243673  2973A      5.244782  
    2974A      5.245335  2975A      5.247871  2976A      5.249617  
    2977A      5.253555  2978A      5.255120  2979A      5.258876  
    2980A      5.262040  2981A      5.266060  2982A      5.267620  
    2983A      5.269167  2984A      5.271081  2985A      5.275113  
    2986A      5.277835  2987A      5.281981  2988A      5.283993  
    2989A      5.287170  2990A      5.290219  2991A      5.291800  
    2992A      5.293324  2993A      5.294400  2994A      5.301001  
    2995A      5.302850  2996A      5.307032  2997A      5.313668  
    2998A      5.316280  2999A      5.318737  3000A      5.319324  
    3001A      5.323401  3002A      5.323733  3003A      5.327765  
    3004A      5.339120  3005A      5.339895  3006A      5.340846  
    3007A      5.344413  3008A      5.347002  3009A      5.347375  
    3010A      5.349603  3011A      5.350911  3012A      5.354494  
    3013A      5.361659  3014A      5.361894  3015A      5.365855  
    3016A      5.374255  3017A      5.375178  3018A      5.376082  
    3019A      5.378355  3020A      5.382422  3021A      5.389994  
    3022A      5.391294  3023A      5.395793  3024A      5.397903  
    3025A      5.399715  3026A      5.401936  3027A      5.402912  
    3028A      5.418007  3029A      5.420176  3030A      5.422561  
    3031A      5.422705  3032A      5.429510  3033A      5.432048  
    3034A      5.432880  3035A      5.439319  3036A      5.443575  
    3037A      5.454025  3038A      5.455716  3039A      5.459799  
    3040A      5.464759  3041A      5.465712  3042A      5.475004  
    3043A      5.481937  3044A      5.485494  3045A      5.486235  
    3046A      5.494483  3047A      5.502802  3048A      5.505209  
    3049A      5.508363  3050A      5.514156  3051A      5.515774  
    3052A      5.518948  3053A      5.523600  3054A      5.528124  
    3055A      5.534160  3056A      5.535740  3057A      5.539773  
    3058A      5.545612  3059A      5.546416  3060A      5.554727  
    3061A      5.558502  3062A      5.560115  3063A      5.561534  
    3064A      5.563009  3065A      5.573419  3066A      5.575526  
    3067A      5.579137  3068A      5.588451  3069A      5.594635  
    3070A      5.601013  3071A      5.601695  3072A      5.606736  
    3073A      5.614464  3074A      5.615272  3075A      5.625324  
    3076A      5.627028  3077A      5.638144  3078A      5.647683  
    3079A      5.647865  3080A      5.650946  3081A      5.655472  
    3082A      5.659621  3083A      5.660586  3084A      5.665345  
    3085A      5.670752  3086A      5.675273  3087A      5.679466  
    3088A      5.688617  3089A      5.692575  3090A      5.696644  
    3091A      5.705931  3092A      5.710280  3093A      5.720274  
    3094A      5.723809  3095A      5.724612  3096A      5.729633  
    3097A      5.731186  3098A      5.734135  3099A      5.742764  
    3100A      5.748397  3101A      5.751764  3102A      5.755866  
    3103A      5.755964  3104A      5.764409  3105A      5.767559  
    3106A      5.770124  3107A      5.776392  3108A      5.785324  
    3109A      5.787356  3110A      5.788122  3111A      5.800334  
    3112A      5.803216  3113A      5.806529  3114A      5.807393  
    3115A      5.817300  3116A      5.817999  3117A      5.822678  
    3118A      5.826038  3119A      5.830702  3120A      5.832772  
    3121A      5.842972  3122A      5.846240  3123A      5.854450  
    3124A      5.858205  3125A      5.864320  3126A      5.869420  
    3127A      5.874055  3128A      5.880091  3129A      5.890118  
    3130A      5.896967  3131A      5.898421  3132A      5.900332  
    3133A      5.909485  3134A      5.914675  3135A      5.917393  
    3136A      5.926848  3137A      5.929242  3138A      5.942669  
    3139A      5.961148  3140A      5.963477  3141A      5.966309  
    3142A      5.971460  3143A      5.981628  3144A      5.984680  
    3145A      5.992604  3146A      6.003008  3147A      6.018028  
    3148A      6.020657  3149A      6.031436  3150A      6.034052  
    3151A      6.034385  3152A      6.041360  3153A      6.051381  
    3154A      6.063834  3155A      6.067419  3156A      6.069192  
    3157A      6.080263  3158A      6.084215  3159A      6.091144  
    3160A      6.096428  3161A      6.098792  3162A      6.111216  
    3163A      6.113736  3164A      6.126334  3165A      6.133810  
    3166A      6.141079  3167A      6.155463  3168A      6.157711  
    3169A      6.164573  3170A      6.168128  3171A      6.170496  
    3172A      6.174641  3173A      6.174775  3174A      6.180711  
    3175A      6.189179  3176A      6.192473  3177A      6.203373  
    3178A      6.212163  3179A      6.213606  3180A      6.217464  
    3181A      6.224275  3182A      6.235828  3183A      6.238492  
    3184A      6.245977  3185A      6.251788  3186A      6.253960  
    3187A      6.267735  3188A      6.268851  3189A      6.276519  
    3190A      6.279240  3191A      6.282156  3192A      6.283099  
    3193A      6.291965  3194A      6.298414  3195A      6.299034  
    3196A      6.301186  3197A      6.306211  3198A      6.315903  
    3199A      6.321095  3200A      6.326729  3201A      6.331444  
    3202A      6.343728  3203A      6.346811  3204A      6.352643  
    3205A      6.360126  3206A      6.363853  3207A      6.380801  
    3208A      6.400339  3209A      6.409136  3210A      6.417136  
    3211A      6.445984  3212A      6.473511  3213A      6.499192  
    3214A      6.507273  3215A      6.513280  3216A      6.523283  
    3217A      6.530868  3218A      6.540655  3219A      6.553067  
    3220A      6.556249  3221A      6.557859  3222A      6.565429  
    3223A      6.568617  3224A      6.579649  3225A      6.586342  
    3226A      6.600966  3227A      6.607754  3228A      6.620852  
    3229A      6.632927  3230A      6.646459  3231A      6.652693  
    3232A      6.656246  3233A      6.661380  3234A      6.667993  
    3235A      6.693458  3236A      6.694837  3237A      6.701436  
    3238A      6.705782  3239A      6.714124  3240A      6.731131  
    3241A      6.734849  3242A      6.738046  3243A      6.769634  
    3244A      6.773841  3245A      6.777948  3246A      6.803216  
    3247A      6.815678  3248A      6.821004  3249A      6.827884  
    3250A      6.840151  3251A      6.847948  3252A      6.879953  
    3253A      6.891947  3254A      6.897089  3255A      6.908411  
    3256A      6.924081  3257A      6.927006  3258A      6.950645  
    3259A      6.969848  3260A      6.974243  3261A      6.981711  
    3262A      7.001132  3263A      7.029385  3264A      7.036783  
    3265A      7.116660  3266A      7.224150  3267A      7.241598  
    3268A      7.277931  3269A      7.279136  3270A      7.287231  
    3271A      7.317213  3272A      7.331651  3273A      7.396560  
    3274A      7.428477  3275A      7.439466  3276A      7.459183  
    3277A      7.459965  3278A      7.482685  3279A      7.497189  
    3280A      7.509959  3281A      7.517102  3282A      7.525771  
    3283A      7.528381  3284A      7.552438  3285A      7.560368  
    3286A      7.576706  3287A      7.579864  3288A      7.589977  
    3289A      7.606835  3290A      7.611505  3291A      7.650884  
    3292A      7.671916  3293A      7.739451  3294A      7.779483  
    3295A      7.793772  3296A      7.858114  3297A      7.888114  
    3298A      7.899096  3299A      7.973344  3300A      7.985815  
    3301A      7.987282  3302A      8.123041  3303A      8.125319  
    3304A      8.125634  3305A      8.138339  3306A      8.153338  
    3307A      8.171640  3308A      8.177661  3309A      8.187924  
    3310A      8.271205  3311A      8.299561  3312A      8.356582  
    3313A      8.430387  3314A      8.440491  3315A      8.498283  
    3316A      8.592754  3317A      8.671029  3318A      8.671885  
    3319A      8.685131  3320A      8.742443  3321A      8.819705  
    3322A      8.915943  3323A      9.122293  3324A      9.421267  
    3325A      9.572468  3326A      9.630390  3327A      9.746820  
    3328A      9.849972  3329A      9.863219  3330A      9.937366  
    3331A     10.064517  3332A     10.116036  3333A     10.158025  
    3334A     10.187136  3335A     10.264304  3336A     10.305776  
    3337A     10.323996  3338A     10.359574  3339A     10.368892  
    3340A     10.435463  3341A     10.454096  3342A     10.476108  
    3343A     10.505404  3344A     10.689409  3345A     10.905405  
    3346A     10.948925  3347A     11.003168  3348A     11.525340  
    3349A     11.692322  3350A     11.826858  3351A     11.870491  
    3352A     11.952951  3353A     12.132195  3354A     12.312865  
    3355A     12.327212  3356A     12.631734  3357A     12.681607  
    3358A     13.634866  3359A     13.738164  3360A     13.791598  
    3361A     13.827378  3362A     15.527165  3363A     15.589925  
    3364A     15.830341  3365A     15.897095  3366A     16.071261  
    3367A     16.382780  3368A     16.433093  3369A     17.393655  
    3370A     17.453726  3371A     17.763900  3372A     17.784322  
    3373A     17.869781  3374A     17.875450  3375A     17.958732  
    3376A     17.997645  3377A     18.168426  3378A     18.229685  
    3379A     18.370414  3380A     18.404330  3381A     18.719515  
    3382A     19.134456  3383A     19.551759  3384A     19.629797  
    3385A     20.028203  3386A     20.070840  3387A     20.240719  
    3388A     20.438671  3389A     20.525152  3390A     20.710736  
    3391A     20.865497  3392A     20.922208  3393A     20.979116  
    3394A     21.055580  3395A     21.098965  3396A     21.126294  
    3397A     21.227069  3398A     21.250436  3399A     21.329914  
    3400A     21.462076  3401A     21.692786  3402A     21.792614  
    3403A     22.058668  3404A     51.914689  3405A     52.235429  
    3406A     52.391987  3407A     53.919473  3408A     55.599581  
    3409A     56.426335  3410A     57.490104  3411A     61.356978  
    3412A     61.609601  3413A     62.470229  3414A     63.702331  
    3415A     64.334527  3416A     65.486880  3417A     65.959718  
    3418A     66.229807  3419A     66.460256  

    Final Occupation by Irrep:
              A 
    DOCC [   141 ]
    NA   [   141 ]
    NB   [   141 ]

  @DF-RKS Final Energy: -1616.99965568180619

   => Energetics <=

    Nuclear Repulsion Energy =           4480.3906718979642392
    One-Electron Energy =              -11106.3941816916430980
    Two-Electron Energy =                5246.3939657128066756
    DFT Exchange-Correlation Energy =    -237.3418251801818997
    Empirical Dispersion Energy =          -0.0482864207521363
    VV10 Nonlocal Energy =                  0.0000000000000000
    Total Energy =                      -1616.9996556818061890

Computation Completed


Properties will be evaluated at   0.000000,   0.000000,   0.000000 [a0]

Properties computed using the SCF density matrix


 Multipole Moments:

 ------------------------------------------------------------------------------------
     Multipole            Electronic (a.u.)      Nuclear  (a.u.)        Total (a.u.)
 ------------------------------------------------------------------------------------

 L = 1.  Multiply by 2.5417464519 to convert [e a0] to [Debye]
 Dipole X            :         55.3493170          -55.2647875            0.0845295
 Dipole Y            :        -81.5460636           82.0981714            0.5521078
 Dipole Z            :         -1.2366826            1.2497874            0.0131048
 Magnitude           :                                                    0.5586949

 ------------------------------------------------------------------------------------

*** tstop() called on atl1-1-03-004-18-1.pace.gatech.edu at Sat Jun 13 12:57:18 2026
Module time:
	user time   =   29920.14 seconds =     498.67 minutes
	system time =    3073.19 seconds =      51.22 minutes
	total time  =       5958 seconds =      99.30 minutes
Total time:
	user time   =   29920.14 seconds =     498.67 minutes
	system time =    3073.19 seconds =      51.22 minutes
	total time  =       5958 seconds =      99.30 minutes

    Psi4 stopped on: Saturday, 13 June 2026 12:57PM
    Psi4 wall time for execution: 1:39:28.59

*** Psi4 exiting successfully. Buy a developer a beer!
