
    -----------------------------------------------------------------------
          Psi4: An Open-Source Ab Initio Electronic Structure Package
                               Psi4 1.9.1 release

                         Git: Rev {} zzzzzzz 


    D. G. A. Smith, L. A. Burns, A. C. Simmonett, R. M. Parrish,
    M. C. Schieber, R. Galvelis, P. Kraus, H. Kruse, R. Di Remigio,
    A. Alenaizan, A. M. James, S. Lehtola, J. P. Misiewicz, M. Scheurer,
    R. A. Shaw, J. B. Schriber, Y. Xie, Z. L. Glick, D. A. Sirianni,
    J. S. O'Brien, J. M. Waldrop, A. Kumar, E. G. Hohenstein,
    B. P. Pritchard, B. R. Brooks, H. F. Schaefer III, A. Yu. Sokolov,
    K. Patkowski, A. E. DePrince III, U. Bozkaya, R. A. King,
    F. A. Evangelista, J. M. Turney, T. D. Crawford, C. D. Sherrill,
    J. Chem. Phys. 152(18) 184108 (2020). https://doi.org/10.1063/5.0006002

                            Additional Code Authors
    E. T. Seidl, C. L. Janssen, E. F. Valeev, M. L. Leininger,
    J. F. Gonthier, R. M. Richard, H. R. McAlexander, M. Saitow, X. Wang,
    P. Verma, M. H. Lechner, A. Jiang, S. Behnle, A. G. Heide,
    M. F. Herbst, and D. L. Poole

             Previous Authors, Complete List of Code Contributors,
                       and Citations for Specific Modules
    https://github.com/psi4/psi4/blob/master/codemeta.json
    https://github.com/psi4/psi4/graphs/contributors
    http://psicode.org/psi4manual/master/introduction.html#citing-psifour

    -----------------------------------------------------------------------


    Psi4 started on: Saturday, 13 June 2026 11:06AM

    Process ID: 647832
    Host:       atl1-1-02-004-2-2.pace.gatech.edu
    PSIDATADIR: /storage/home/hcoda1/5/vlita3/.conda/envs/p4_qcml/share/psi4
    Memory:     250.0 GiB
    Threads:    10
    
  ==> Input QCSchema <==

--------------------------------------------------------------------------
{'driver': 'energy',
 'extras': {},
 'id': '212',
 'keywords': {},
 'model': {'basis': 'aug-cc-pvtz', 'method': 'pbe-d3'},
 'molecule': {'extras': {},
              'fix_com': True,
              'fix_orientation': True,
              'fragment_charges': [0.0, 0.0],
              'fragment_multiplicities': [1, 1],
              'fragments': [[0, 1, 2, 3, 4, 5, 6, 7, 8, 9, 10, 11, 12, 13, 14, 15, 16, 17, 18, 19, 20, 21, 22, 23, 24,
                             25, 26, 27, 28, 29, 30, 31, 32, 33, 34, 35],
                            [36, 37, 38, 39, 40, 41, 42, 43, 44, 45, 46, 47, 48, 49, 50, 51, 52, 53, 54, 55, 56, 57, 58,
                             59, 60, 61, 62, 63, 64, 65, 66, 67, 68, 69, 70, 71]],
              'geometry': [-2.81102804, -2.32727976, -3.26733672, -0.12371685, -2.32727976, -3.26733672, 1.21993874,
                           0.0, -3.26733672, -0.12371685, 2.32727976, -3.26733672, -2.81102804, 2.32727976, -3.26733672,
                           -4.15468364, 0.0, -3.26733672, 1.21375609, -4.64385085, -3.26733672, -0.17645855,
                           -6.93684965, -3.26733672, -2.75828635, -6.93684965, -3.26733672, -4.14850099, -4.64385085,
                           -3.26733672, -6.82962953, 0.0, -3.26733672, -8.12031742, -2.3504606, -3.26733672,
                           -6.82940352, -4.58638906, -3.26733672, -8.12031742, 2.3504606, -3.26733672, -6.82940352,
                           4.58638906, -3.26733672, -4.14850099, 4.64385085, -3.26733672, -2.75828635, 6.93684965,
                           -3.26733672, -0.17645855, 6.93684965, -3.26733672, 1.21375609, 4.64385085, -3.26733672,
                           3.89465863, 4.58638906, -3.26733672, 5.18557252, 2.3504606, -3.26733672, 3.89488463, 0.0,
                           -3.26733672, 5.18557252, -2.3504606, -3.26733672, 3.89465863, -4.58638906, -3.26733672,
                           0.84958395, -8.70675598, -3.26733672, -3.78432885, -8.70675598, -3.26733672, -7.84916611,
                           -6.35992109, -3.26733672, -10.16612251, -2.34683489, -3.26733672, -10.16612251, 2.34683489,
                           -3.26733672, -7.84916611, 6.35992109, -3.26733672, -3.78432885, 8.70675598, -3.26733672,
                           0.84958395, 8.70675598, -3.26733672, 4.91442121, 6.35992109, -3.26733672, 7.23137761,
                           2.34683489, -3.26733672, 7.23137761, -2.34683489, -3.26733672, 4.91442121, -6.35992109,
                           -3.26733672, 0.12371685, -2.32727976, 3.26733672, 2.81102804, -2.32727976, 3.26733672,
                           4.15468364, 0.0, 3.26733672, 2.81102804, 2.32727976, 3.26733672, 0.12371685, 2.32727976,
                           3.26733672, -1.21993874, 0.0, 3.26733672, 4.14850099, -4.64385085, 3.26733672, 2.75828635,
                           -6.93684965, 3.26733672, 0.17645855, -6.93684965, 3.26733672, -1.21375609, -4.64385085,
                           3.26733672, -3.89488463, 0.0, 3.26733672, -5.18557252, -2.3504606, 3.26733672, -3.89465863,
                           -4.58638906, 3.26733672, -5.18557252, 2.3504606, 3.26733672, -3.89465863, 4.58638906,
                           3.26733672, -1.21375609, 4.64385085, 3.26733672, 0.17645855, 6.93684965, 3.26733672,
                           2.75828635, 6.93684965, 3.26733672, 4.14850099, 4.64385085, 3.26733672, 6.82940352,
                           4.58638906, 3.26733672, 8.12031742, 2.3504606, 3.26733672, 6.82962953, 0.0, 3.26733672,
                           8.12031742, -2.3504606, 3.26733672, 6.82940352, -4.58638906, 3.26733672, 3.78432885,
                           -8.70675598, 3.26733672, -0.84958395, -8.70675598, 3.26733672, -4.91442121, -6.35992109,
                           3.26733672, -7.23137761, -2.34683489, 3.26733672, -7.23137761, 2.34683489, 3.26733672,
                           -4.91442121, 6.35992109, 3.26733672, -0.84958395, 8.70675598, 3.26733672, 3.78432885,
                           8.70675598, 3.26733672, 7.84916611, 6.35992109, 3.26733672, 10.16612251, 2.34683489,
                           3.26733672, 10.16612251, -2.34683489, 3.26733672, 7.84916611, -6.35992109, 3.26733672],
              'id': 9,
              'identifiers': {'molecular_formula': 'C48H24',
                              'molecule_hash': '5967c9235c357c1990f0309ff9af9a534593830c'},
              'masses': [12.0, 12.0, 12.0, 12.0, 12.0, 12.0, 12.0, 12.0, 12.0, 12.0, 12.0, 12.0, 12.0, 12.0, 12.0, 12.0,
                         12.0, 12.0, 12.0, 12.0, 12.0, 12.0, 12.0, 12.0, 1.00782503223, 1.00782503223, 1.00782503223,
                         1.00782503223, 1.00782503223, 1.00782503223, 1.00782503223, 1.00782503223, 1.00782503223,
                         1.00782503223, 1.00782503223, 1.00782503223, 12.0, 12.0, 12.0, 12.0, 12.0, 12.0, 12.0, 12.0,
                         12.0, 12.0, 12.0, 12.0, 12.0, 12.0, 12.0, 12.0, 12.0, 12.0, 12.0, 12.0, 12.0, 12.0, 12.0, 12.0,
                         1.00782503223, 1.00782503223, 1.00782503223, 1.00782503223, 1.00782503223, 1.00782503223,
                         1.00782503223, 1.00782503223, 1.00782503223, 1.00782503223, 1.00782503223, 1.00782503223],
              'molecular_charge': 0.0,
              'molecular_multiplicity': 1,
              'name': 'C48H24 ([0],[1])',
              'provenance': {'creator': 'QCElemental',
                             'routine': 'qcelemental.molparse.from_schema',
                             'version': '0.29.0'},
              'real': [True, True, True, True, True, True, True, True, True, True, True, True, True, True, True, True,
                       True, True, True, True, True, True, True, True, True, True, True, True, True, True, True, True,
                       True, True, True, True, False, False, False, False, False, False, False, False, False, False,
                       False, False, False, False, False, False, False, False, False, False, False, False, False, False,
                       False, False, False, False, False, False, False, False, False, False, False, False],
              'schema_name': 'qcschema_molecule',
              'schema_version': 2,
              'symbols': ['C', 'C', 'C', 'C', 'C', 'C', 'C', 'C', 'C', 'C', 'C', 'C', 'C', 'C', 'C', 'C', 'C', 'C', 'C',
                          'C', 'C', 'C', 'C', 'C', 'H', 'H', 'H', 'H', 'H', 'H', 'H', 'H', 'H', 'H', 'H', 'H', 'C', 'C',
                          'C', 'C', 'C', 'C', 'C', 'C', 'C', 'C', 'C', 'C', 'C', 'C', 'C', 'C', 'C', 'C', 'C', 'C', 'C',
                          'C', 'C', 'C', 'H', 'H', 'H', 'H', 'H', 'H', 'H', 'H', 'H', 'H', 'H', 'H'],
              'validated': True},
 'protocols': {},
 'provenance': {'creator': 'QCElemental', 'routine': 'qcelemental.models.results', 'version': '0.29.0'},
 'schema_name': 'qcschema_input',
 'schema_version': 1}
--------------------------------------------------------------------------

Scratch directory: /tmp/tmp97e1gs_k_psi_scratch/
   => Libint2 <=

    Primary   basis highest AM E, G, H:  6, 6, 3
    Auxiliary basis highest AM E, G, H:  7, 7, 4
    Onebody   basis highest AM E, G, H:  -, -, -
    Solid Harmonics ordering:            Gaussian

*** tstart() called on atl1-1-02-004-2-2.pace.gatech.edu
*** at Sat Jun 13 11:06:55 2026

   => Loading Basis Set <=

    Name: AUG-CC-PVTZ
    Role: ORBITAL
    Keyword: BASIS
    atoms 1-24, 37-60  entry C          line   239 file /storage/home/hcoda1/5/vlita3/.conda/envs/p4_qcml/share/psi4/basis/aug-cc-pvtz.gbs 
    atoms 25-36, 61-72 entry H          line    40 file /storage/home/hcoda1/5/vlita3/.conda/envs/p4_qcml/share/psi4/basis/aug-cc-pvtz.gbs 

   => PBE-D3: Empirical Dispersion <=

    Grimme's -D3 (zero-damping) Dispersion Correction
    Grimme S.; Antony J.; Ehrlich S.; Krieg H. (2010), J. Chem. Phys., 132: 154104

        s6 =       1.000000
        s8 =       0.722000
       sr6 =       1.217000
    alpha6 =      14.000000
       sr8 =       1.000000


         ---------------------------------------------------------
                                   SCF
               by Justin Turney, Rob Parrish, Andy Simmonett
                          and Daniel G. A. Smith
                              RKS Reference
                       10 Threads, 256000 MiB Core
         ---------------------------------------------------------

  ==> Geometry <==

    Molecular point group: cs
    Full point group: Cs

    Geometry (in Bohr), charge = 0, multiplicity = 1:

       Center              X                  Y                   Z               Mass       
    ------------   -----------------  -----------------  -----------------  -----------------
         C           -2.811028040000    -2.327279760000    -3.267336720000    12.000000000000
         C           -0.123716850000    -2.327279760000    -3.267336720000    12.000000000000
         C            1.219938740000     0.000000000000    -3.267336720000    12.000000000000
         C           -0.123716850000     2.327279760000    -3.267336720000    12.000000000000
         C           -2.811028040000     2.327279760000    -3.267336720000    12.000000000000
         C           -4.154683640000     0.000000000000    -3.267336720000    12.000000000000
         C            1.213756090000    -4.643850850000    -3.267336720000    12.000000000000
         C           -0.176458550000    -6.936849650000    -3.267336720000    12.000000000000
         C           -2.758286350000    -6.936849650000    -3.267336720000    12.000000000000
         C           -4.148500990000    -4.643850850000    -3.267336720000    12.000000000000
         C           -6.829629530000     0.000000000000    -3.267336720000    12.000000000000
         C           -8.120317420000    -2.350460600000    -3.267336720000    12.000000000000
         C           -6.829403520000    -4.586389060000    -3.267336720000    12.000000000000
         C           -8.120317420000     2.350460600000    -3.267336720000    12.000000000000
         C           -6.829403520000     4.586389060000    -3.267336720000    12.000000000000
         C           -4.148500990000     4.643850850000    -3.267336720000    12.000000000000
         C           -2.758286350000     6.936849650000    -3.267336720000    12.000000000000
         C           -0.176458550000     6.936849650000    -3.267336720000    12.000000000000
         C            1.213756090000     4.643850850000    -3.267336720000    12.000000000000
         C            3.894658630000     4.586389060000    -3.267336720000    12.000000000000
         C            5.185572520000     2.350460600000    -3.267336720000    12.000000000000
         C            3.894884630000     0.000000000000    -3.267336720000    12.000000000000
         C            5.185572520000    -2.350460600000    -3.267336720000    12.000000000000
         C            3.894658630000    -4.586389060000    -3.267336720000    12.000000000000
         H            0.849583950000    -8.706755980000    -3.267336720000     1.007825032230
         H           -3.784328850000    -8.706755980000    -3.267336720000     1.007825032230
         H           -7.849166110000    -6.359921090000    -3.267336720000     1.007825032230
         H          -10.166122510000    -2.346834890000    -3.267336720000     1.007825032230
         H          -10.166122510000     2.346834890000    -3.267336720000     1.007825032230
         H           -7.849166110000     6.359921090000    -3.267336720000     1.007825032230
         H           -3.784328850000     8.706755980000    -3.267336720000     1.007825032230
         H            0.849583950000     8.706755980000    -3.267336720000     1.007825032230
         H            4.914421210000     6.359921090000    -3.267336720000     1.007825032230
         H            7.231377610000     2.346834890000    -3.267336720000     1.007825032230
         H            7.231377610000    -2.346834890000    -3.267336720000     1.007825032230
         H            4.914421210000    -6.359921090000    -3.267336720000     1.007825032230
      Gh(C)           0.123716850000    -2.327279760000     3.267336720000    12.000000000000
      Gh(C)           2.811028040000    -2.327279760000     3.267336720000    12.000000000000
      Gh(C)           4.154683640000     0.000000000000     3.267336720000    12.000000000000
      Gh(C)           2.811028040000     2.327279760000     3.267336720000    12.000000000000
      Gh(C)           0.123716850000     2.327279760000     3.267336720000    12.000000000000
      Gh(C)          -1.219938740000     0.000000000000     3.267336720000    12.000000000000
      Gh(C)           4.148500990000    -4.643850850000     3.267336720000    12.000000000000
      Gh(C)           2.758286350000    -6.936849650000     3.267336720000    12.000000000000
      Gh(C)           0.176458550000    -6.936849650000     3.267336720000    12.000000000000
      Gh(C)          -1.213756090000    -4.643850850000     3.267336720000    12.000000000000
      Gh(C)          -3.894884630000     0.000000000000     3.267336720000    12.000000000000
      Gh(C)          -5.185572520000    -2.350460600000     3.267336720000    12.000000000000
      Gh(C)          -3.894658630000    -4.586389060000     3.267336720000    12.000000000000
      Gh(C)          -5.185572520000     2.350460600000     3.267336720000    12.000000000000
      Gh(C)          -3.894658630000     4.586389060000     3.267336720000    12.000000000000
      Gh(C)          -1.213756090000     4.643850850000     3.267336720000    12.000000000000
      Gh(C)           0.176458550000     6.936849650000     3.267336720000    12.000000000000
      Gh(C)           2.758286350000     6.936849650000     3.267336720000    12.000000000000
      Gh(C)           4.148500990000     4.643850850000     3.267336720000    12.000000000000
      Gh(C)           6.829403520000     4.586389060000     3.267336720000    12.000000000000
      Gh(C)           8.120317420000     2.350460600000     3.267336720000    12.000000000000
      Gh(C)           6.829629530000     0.000000000000     3.267336720000    12.000000000000
      Gh(C)           8.120317420000    -2.350460600000     3.267336720000    12.000000000000
      Gh(C)           6.829403520000    -4.586389060000     3.267336720000    12.000000000000
      Gh(H)           3.784328850000    -8.706755980000     3.267336720000     1.007825032230
      Gh(H)          -0.849583950000    -8.706755980000     3.267336720000     1.007825032230
      Gh(H)          -4.914421210000    -6.359921090000     3.267336720000     1.007825032230
      Gh(H)          -7.231377610000    -2.346834890000     3.267336720000     1.007825032230
      Gh(H)          -7.231377610000     2.346834890000     3.267336720000     1.007825032230
      Gh(H)          -4.914421210000     6.359921090000     3.267336720000     1.007825032230
      Gh(H)          -0.849583950000     8.706755980000     3.267336720000     1.007825032230
      Gh(H)           3.784328850000     8.706755980000     3.267336720000     1.007825032230
      Gh(H)           7.849166110000     6.359921090000     3.267336720000     1.007825032230
      Gh(H)          10.166122510000     2.346834890000     3.267336720000     1.007825032230
      Gh(H)          10.166122510000    -2.346834890000     3.267336720000     1.007825032230
      Gh(H)           7.849166110000    -6.359921090000     3.267336720000     1.007825032230

  Running in cs symmetry.

  Rotational constants: A =      0.00378  B =      0.00326  C =      0.00251 [cm^-1]
  Rotational constants: A =    113.23902  B =     97.86670  C =     75.24221 [MHz]
  Nuclear repulsion = 1837.330664984317991

  Charge       = 0
  Multiplicity = 1
  Electrons    = 156
  Nalpha       = 78
  Nbeta        = 78

  ==> Algorithm <==

  SCF Algorithm Type is DF.
  DIIS enabled.
  MOM disabled.
  Fractional occupation disabled.
  Guess Type is SAD.
  Energy threshold   = 1.00e-06
  Density threshold  = 1.00e-06
  Integral threshold = 1.00e-12

  ==> Primary Basis <==

  Basis Set: AUG-CC-PVTZ
    Blend: AUG-CC-PVTZ
    Number of shells: 888
    Number of basis functions: 2760
    Number of Cartesian functions: 3240
    Spherical Harmonics?: true
    Max angular momentum: 3

  ==> DFT Potential <==

   => LibXC <=

    Version 7.0.0
    S. Lehtola, C. Steigemann, M. J.T. Oliveira, and M. A.L. Marques.,  SoftwareX 7, 1–5 (2018) (10.1016/j.softx.2017.11.002)

   => Composite Functional: PBE-D3ZERO2B <= 

    PBE GGA Exchange-Correlation Functional

    J.P. Perdew et. al., Phys. Rev. Lett., 77(18), 3865-3868, 1996


    Deriv               =              1
    GGA                 =           TRUE
    Meta                =          FALSE

    Exchange Hybrid     =          FALSE
    MP2 Hybrid          =          FALSE

   => Exchange Functionals <=

    1.0000     XC_GGA_X_PBE

   => Correlation Functionals <=

    1.0000     XC_GGA_C_PBE

   => LibXC Density Thresholds  <==

    XC_GGA_C_PBE:  1.00E-12 
    XC_GGA_X_PBE:  1.00E-15 

   => Molecular Quadrature <=

    Radial Scheme          =       TREUTLER
    Pruning Scheme         =           NONE
    Nuclear Scheme         =       TREUTLER

    Blocking Scheme        =         OCTREE
    BS radius alpha        =              1
    Pruning alpha          =              1
    Radial Points          =             75
    Spherical Points       =            302
    Total Points           =        1423706
    Total Blocks           =           9482
    Max Points             =            256
    Max Functions          =           2109
    Weights Tolerance      =       1.00E-15

   => Loading Basis Set <=

    Name: (AUG-CC-PVTZ AUX)
    Role: JKFIT
    Keyword: DF_BASIS_SCF
    atoms 1-24, 37-60  entry C          line   162 file /storage/home/hcoda1/5/vlita3/.conda/envs/p4_qcml/share/psi4/basis/aug-cc-pvtz-jkfit.gbs 
    atoms 25-36, 61-72 entry H          line    70 file /storage/home/hcoda1/5/vlita3/.conda/envs/p4_qcml/share/psi4/basis/aug-cc-pvtz-jkfit.gbs 

  ==> Integral Setup <==

  ==> DiskDFJK: Density-Fitted J/K Matrices <==

    J tasked:                  Yes
    K tasked:                   No
    wK tasked:                  No
    OpenMP threads:             10
    Integrals threads:          10
    Memory [MiB]:           147036
    Algorithm:                Disk
    Integral Cache:           NONE
    Schwarz Cutoff:          1E-12
    Fitting Condition:       1E-10

   => Auxiliary Basis Set <=

  Basis Set: (AUG-CC-PVTZ AUX)
    Blend: AUG-CC-PVTZ-JKFIT
    Number of shells: 1776
    Number of basis functions: 6096
    Number of Cartesian functions: 7608
    Spherical Harmonics?: true
    Max angular momentum: 4

  Cached 50.0% of DFT collocation blocks in 28.297 [GiB].

  Minimum eigenvalue in the overlap matrix is 1.2243416004E-10.
  Reciprocal condition number of the overlap matrix is 3.5504774292E-12.
    Using canonical orthogonalization.
  Overall, 29 of 2760 possible MOs eliminated.


  ==> Pre-Iterations <==

  SCF Guess: Superposition of Atomic Densities via on-the-fly atomic UHF (no occupation information).

   -------------------------
    Irrep   Nso     Nmo    
   -------------------------
     A'      1436    1421 
     A"      1324    1310 
   -------------------------
    Total    2760    2731
   -------------------------

  ==> Iterations <==

                           Total Energy        Delta E     RMS |[F,P]|

   @DF-RKS iter SAD:  -921.32162699757976   -9.21322e+02   0.00000e+00 
   @DF-RKS iter   1:  -919.11454482635747    2.20708e+00   9.62872e-04 ADIIS/DIIS
   @DF-RKS iter   2:  -905.22446669894919    1.38901e+01   2.42712e-03 ADIIS/DIIS
   @DF-RKS iter   3:  -919.63695466697141   -1.44125e+01   8.10932e-04 ADIIS/DIIS
   @DF-RKS iter   4:  -920.67135887209338   -1.03440e+00   4.22889e-04 ADIIS/DIIS
   @DF-RKS iter   5:  -921.01746443893467   -3.46106e-01   1.36991e-04 ADIIS/DIIS
   @DF-RKS iter   6:  -921.04330087834205   -2.58364e-02   6.70556e-05 DIIS
   @DF-RKS iter   7:  -921.05081631026565   -7.51543e-03   7.75648e-06 DIIS
   @DF-RKS iter   8:  -921.05091929007290   -1.02980e-04   2.37958e-06 DIIS
   @DF-RKS iter   9:  -921.05092440439432   -5.11432e-06   1.68850e-06 DIIS
   @DF-RKS iter  10:  -921.05092990217418   -5.49778e-06   5.23129e-07 DIIS
   @DF-RKS iter  11:  -921.05093041029647   -5.08122e-07   2.08957e-07 DIIS
  Energy and wave function converged.


  ==> Post-Iterations <==

   Electrons on quadrature grid:
      Ntotal   =  156.0003208237 ; deviation = 3.208e-04 

    Orbital Energies [Eh]
    ---------------------

    Doubly Occupied:                                                      

       1Ap    -9.904171     2Ap    -9.904038     1App   -9.904035  
       3Ap    -9.903729     2App   -9.903723     4Ap    -9.903632  
       5Ap    -9.903374     3App   -9.903364     6Ap    -9.903346  
       7Ap    -9.903338     4App   -9.903333     8Ap    -9.903313  
       9Ap    -9.894373     5App   -9.894370     6App   -9.894360  
       7App   -9.894351    10Ap    -9.894343    11Ap    -9.894335  
      12Ap    -9.893819     8App   -9.893806    13Ap    -9.893803  
       9App   -9.893796    14Ap    -9.893792    10App   -9.893779  
      15Ap    -0.833050    11App   -0.798372    16Ap    -0.798371  
      17Ap    -0.753796    12App   -0.753789    18Ap    -0.737834  
      13App   -0.709028    19Ap    -0.694457    14App   -0.678116  
      20Ap    -0.678115    21Ap    -0.648289    15App   -0.648286  
      22Ap    -0.579146    16App   -0.579145    17App   -0.574035  
      23Ap    -0.574035    24Ap    -0.569308    18App   -0.507996  
      25Ap    -0.502462    19App   -0.489448    26Ap    -0.487657  
      20App   -0.487656    27Ap    -0.468498    28Ap    -0.429250  
      21App   -0.429246    22App   -0.412548    29Ap    -0.412541  
      23App   -0.408305    30Ap    -0.408303    31Ap    -0.391793  
      32Ap    -0.383489    24App   -0.377227    33Ap    -0.377224  
      25App   -0.373718    34Ap    -0.358324    26App   -0.358318  
      27App   -0.352826    35Ap    -0.352824    28App   -0.332373  
      36Ap    -0.331299    37Ap    -0.318820    29App   -0.318818  
      30App   -0.318653    38Ap    -0.303745    31App   -0.303738  
      39Ap    -0.289883    32App   -0.277672    40Ap    -0.277671  
      33App   -0.248948    41Ap    -0.248869    34App   -0.232878  
      42Ap    -0.232873    43Ap    -0.192762    35App   -0.192756  

    Virtual:                                                              

      36App   -0.085557    44Ap    -0.085555    45Ap    -0.054900  
      37App   -0.054895    46Ap    -0.037487    38App   -0.021044  
      47Ap    -0.019142    48Ap    -0.012023    39App   -0.012014  
      40App   -0.000122    49Ap    -0.000101    50Ap     0.004748  
      51Ap     0.010435    52Ap     0.012171    41App    0.014559  
      42App    0.015188    53Ap     0.015351    54Ap     0.015860  
      55Ap     0.031276    43App    0.031529    56Ap     0.032475  
      44App    0.032478    57Ap     0.034594    45App    0.034641  
      58Ap     0.035140    46App    0.038986    59Ap     0.042057  
      47App    0.048083    60Ap     0.048341    61Ap     0.048896  
      48App    0.051366    62Ap     0.051710    49App    0.057382  
      63Ap     0.057996    50App    0.058305    64Ap     0.058743  
      65Ap     0.062130    51App    0.062177    66Ap     0.062842  
      52App    0.066616    53App    0.066692    67Ap     0.067228  
      68Ap     0.068143    69Ap     0.069262    54App    0.070131  
      70Ap     0.073690    55App    0.073834    71Ap     0.074337  
      72Ap     0.078610    56App    0.079449    57App    0.081383  
      73Ap     0.082963    74Ap     0.085095    58App    0.086233  
      75Ap     0.088033    59App    0.090579    76Ap     0.091859  
      60App    0.092224    61App    0.093652    77Ap     0.094003  
      78Ap     0.095965    79Ap     0.098648    62App    0.102155  
      63App    0.104179    64App    0.104800    80Ap     0.105604  
      81Ap     0.106356    65App    0.107508    82Ap     0.108776  
      83Ap     0.109680    66App    0.110146    84Ap     0.114897  
      67App    0.116053    85Ap     0.120912    68App    0.121627  
      86Ap     0.122688    69App    0.124747    87Ap     0.125365  
      88Ap     0.127629    70App    0.128639    89Ap     0.129866  
      71App    0.130437    90Ap     0.132417    91Ap     0.133165  
      72App    0.134991    92Ap     0.137304    73App    0.137409  
      74App    0.138061    93Ap     0.139290    75App    0.140411  
      94Ap     0.142186    76App    0.144242    95Ap     0.146745  
      96Ap     0.149862    97Ap     0.154258    77App    0.154750  
      78App    0.155474    98Ap     0.155627    99Ap     0.157150  
      79App    0.158112    80App    0.158715   100Ap     0.160304  
     101Ap     0.161494    81App    0.162028   102Ap     0.163861  
     103Ap     0.167301    82App    0.167412   104Ap     0.168704  
     105Ap     0.169623    83App    0.171357    84App    0.172304  
     106Ap     0.172565   107Ap     0.174136    85App    0.174262  
     108Ap     0.175053   109Ap     0.176955    86App    0.177144  
     110Ap     0.178401    87App    0.179258   111Ap     0.180107  
      88App    0.181273   112Ap     0.182772    89App    0.183589  
     113Ap     0.185105    90App    0.186309   114Ap     0.186533  
      91App    0.189261   115Ap     0.190098   116Ap     0.191122  
      92App    0.192587   117Ap     0.193073    93App    0.194582  
     118Ap     0.194896    94App    0.196801    95App    0.197249  
     119Ap     0.198472   120Ap     0.198707    96App    0.201291  
     121Ap     0.203238    97App    0.204126    98App    0.205460  
     122Ap     0.206472   123Ap     0.207586    99App    0.209895  
     124Ap     0.209971   125Ap     0.210767   126Ap     0.212778  
     100App    0.213201   127Ap     0.214434   101App    0.215282  
     102App    0.216755   128Ap     0.217392   103App    0.219437  
     129Ap     0.220090   104App    0.221087   130Ap     0.223582  
     105App    0.224092   131Ap     0.226831   106App    0.227466  
     107App    0.228698   132Ap     0.228905   133Ap     0.231136  
     108App    0.232121   134Ap     0.232707   135Ap     0.233785  
     109App    0.234447   110App    0.235592   136Ap     0.236989  
     111App    0.238190   137Ap     0.239767   138Ap     0.241010  
     112App    0.244203   139Ap     0.244394   140Ap     0.245294  
     141Ap     0.246333   113App    0.247755   114App    0.248033  
     142Ap     0.249091   115App    0.249725   143Ap     0.253449  
     116App    0.253465   117App    0.254772   144Ap     0.254897  
     145Ap     0.257283   118App    0.257397   119App    0.259001  
     146Ap     0.259268   147Ap     0.261110   120App    0.263725  
     148Ap     0.263941   121App    0.264382   149Ap     0.265367  
     122App    0.266578   150Ap     0.268371   123App    0.269485  
     151Ap     0.270594   124App    0.271593   152Ap     0.272585  
     153Ap     0.274118   125App    0.275529   126App    0.276813  
     154Ap     0.277127   127App    0.280918   155Ap     0.281394  
     156Ap     0.283310   128App    0.283543   157Ap     0.283858  
     158Ap     0.286690   129App    0.287521   159Ap     0.288601  
     130App    0.290803   131App    0.292807   160Ap     0.293102  
     132App    0.294316   161Ap     0.295188   162Ap     0.296045  
     133App    0.296492   134App    0.300004   163Ap     0.301625  
     164Ap     0.302003   135App    0.304096   165Ap     0.305742  
     136App    0.308011   166Ap     0.308704   137App    0.310851  
     167Ap     0.312605   138App    0.313145   168Ap     0.313941  
     169Ap     0.315446   139App    0.315476   140App    0.318418  
     141App    0.319806   170Ap     0.321506   171Ap     0.324214  
     172Ap     0.326055   142App    0.326656   143App    0.328098  
     173Ap     0.330250   144App    0.331818   174Ap     0.331964  
     145App    0.334075   175Ap     0.335755   176Ap     0.337091  
     146App    0.337898   147App    0.342110   177Ap     0.343889  
     178Ap     0.345814   148App    0.346014   149App    0.347605  
     179Ap     0.349841   180Ap     0.350354   181Ap     0.352151  
     150App    0.352525   182Ap     0.352541   151App    0.355880  
     183Ap     0.356802   184Ap     0.357985   152App    0.360812  
     153App    0.364606   185Ap     0.364858   186Ap     0.366097  
     154App    0.369720   187Ap     0.369939   188Ap     0.371523  
     155App    0.372154   189Ap     0.372731   156App    0.374273  
     190Ap     0.377783   157App    0.377820   158App    0.378804  
     191Ap     0.380370   192Ap     0.381396   159App    0.383516  
     193Ap     0.385018   160App    0.385847   161App    0.386719  
     194Ap     0.387411   195Ap     0.392429   162App    0.394798  
     196Ap     0.395084   197Ap     0.397087   198Ap     0.398108  
     163App    0.398815   199Ap     0.401378   164App    0.401478  
     165App    0.404606   200Ap     0.407575   166App    0.407780  
     201Ap     0.408837   202Ap     0.411113   167App    0.413412  
     203Ap     0.413681   204Ap     0.414316   168App    0.415310  
     169App    0.416808   205Ap     0.418196   170App    0.418636  
     171App    0.420753   206Ap     0.421563   207Ap     0.422359  
     172App    0.422685   208Ap     0.426483   209Ap     0.426708  
     173App    0.427745   210Ap     0.427946   174App    0.429934  
     211Ap     0.431275   175App    0.432579   176App    0.435020  
     212Ap     0.436162   213Ap     0.437702   177App    0.437784  
     178App    0.440347   214Ap     0.441303   215Ap     0.442518  
     179App    0.444082   216Ap     0.445065   180App    0.446365  
     217Ap     0.447272   181App    0.447894   218Ap     0.449934  
     219Ap     0.452414   182App    0.452928   220Ap     0.454947  
     183App    0.456090   221Ap     0.456530   222Ap     0.458675  
     184App    0.459213   185App    0.462247   186App    0.463244  
     223Ap     0.463947   187App    0.464914   224Ap     0.465132  
     225Ap     0.467118   188App    0.468100   226Ap     0.468514  
     227Ap     0.470961   228Ap     0.471400   189App    0.472285  
     229Ap     0.472959   190App    0.474282   191App    0.476631  
     192App    0.478385   230Ap     0.478892   193App    0.482622  
     231Ap     0.484889   194App    0.485851   195App    0.488037  
     232Ap     0.488154   233Ap     0.489134   196App    0.489134  
     234Ap     0.490271   197App    0.492459   235Ap     0.494663  
     198App    0.496098   236Ap     0.497565   199App    0.498593  
     237Ap     0.499317   200App    0.501406   238Ap     0.505244  
     239Ap     0.507564   201App    0.507939   240Ap     0.508638  
     202App    0.509472   241Ap     0.513143   203App    0.515444  
     242Ap     0.515973   204App    0.516320   243Ap     0.516973  
     244Ap     0.520465   205App    0.521112   245Ap     0.522180  
     206App    0.524659   207App    0.527800   246Ap     0.529252  
     208App    0.529416   247Ap     0.531499   209App    0.533896  
     248Ap     0.533899   210App    0.536086   249Ap     0.538741  
     211App    0.539260   250Ap     0.541260   212App    0.542375  
     251Ap     0.542873   252Ap     0.545988   253Ap     0.548726  
     213App    0.552090   254Ap     0.553388   214App    0.553519  
     255Ap     0.554750   215App    0.554818   256Ap     0.557564  
     216App    0.558616   217App    0.558838   257Ap     0.561531  
     218App    0.562206   258Ap     0.563317   219App    0.566179  
     259Ap     0.566352   220App    0.570245   260Ap     0.573024  
     221App    0.573273   261Ap     0.573958   262Ap     0.576665  
     222App    0.577132   263Ap     0.578218   223App    0.581321  
     264Ap     0.582666   224App    0.585048   265Ap     0.585450  
     225App    0.587010   226App    0.588919   266Ap     0.589002  
     267Ap     0.589348   227App    0.590904   268Ap     0.592864  
     228App    0.593432   269Ap     0.596645   270Ap     0.601231  
     229App    0.602099   230App    0.604781   271Ap     0.605053  
     231App    0.605827   272Ap     0.607878   273Ap     0.611254  
     232App    0.612218   274Ap     0.615239   233App    0.615951  
     234App    0.617103   275Ap     0.617766   235App    0.618337  
     276Ap     0.620606   236App    0.622768   277Ap     0.626456  
     237App    0.627047   278Ap     0.628829   238App    0.629709  
     279Ap     0.633350   239App    0.633421   280Ap     0.635917  
     240App    0.637158   281Ap     0.639680   282Ap     0.641807  
     241App    0.642578   283Ap     0.644902   284Ap     0.646043  
     242App    0.648207   285Ap     0.649800   243App    0.651404  
     244App    0.652082   286Ap     0.652400   245App    0.655228  
     287Ap     0.655976   246App    0.656542   288Ap     0.660374  
     289Ap     0.661171   247App    0.662850   290Ap     0.663107  
     248App    0.664608   249App    0.665478   291Ap     0.666134  
     292Ap     0.670200   293Ap     0.671737   294Ap     0.674965  
     250App    0.675669   295Ap     0.678075   251App    0.678197  
     296Ap     0.682111   252App    0.682434   297Ap     0.683718  
     253App    0.684139   298Ap     0.685008   299Ap     0.688251  
     254App    0.688823   255App    0.690034   256App    0.693135  
     300Ap     0.694925   301Ap     0.696631   257App    0.699091  
     258App    0.699678   259App    0.702370   302Ap     0.703147  
     260App    0.705300   303Ap     0.705966   261App    0.707534  
     304Ap     0.708061   305Ap     0.709155   306Ap     0.712520  
     307Ap     0.714184   262App    0.715133   308Ap     0.715915  
     263App    0.716647   264App    0.718310   309Ap     0.721017  
     265App    0.722657   310Ap     0.724870   266App    0.725636  
     311Ap     0.727396   312Ap     0.727892   267App    0.730953  
     313Ap     0.734166   268App    0.734300   269App    0.734846  
     314Ap     0.736898   270App    0.737932   271App    0.740016  
     315Ap     0.740183   316Ap     0.743181   272App    0.744900  
     317Ap     0.746864   318Ap     0.747015   273App    0.748811  
     319Ap     0.749184   320Ap     0.753964   321Ap     0.755674  
     274App    0.757060   322Ap     0.757676   323Ap     0.759304  
     275App    0.761171   324Ap     0.763217   276App    0.763861  
     277App    0.765033   325Ap     0.767589   278App    0.769312  
     326Ap     0.770807   279App    0.771186   280App    0.773288  
     327Ap     0.773896   328Ap     0.774739   281App    0.777660  
     329Ap     0.777875   330Ap     0.780755   282App    0.782627  
     331Ap     0.782664   332Ap     0.785952   333Ap     0.787311  
     283App    0.788235   284App    0.790513   334Ap     0.791344  
     285App    0.792406   335Ap     0.795443   286App    0.799499  
     336Ap     0.799541   337Ap     0.801887   287App    0.805074  
     288App    0.805529   338Ap     0.809455   289App    0.809541  
     339Ap     0.809840   290App    0.811232   340Ap     0.811531  
     291App    0.812549   341Ap     0.814838   292App    0.814954  
     342Ap     0.816305   293App    0.817189   343Ap     0.821082  
     294App    0.821133   344Ap     0.823097   295App    0.823394  
     345Ap     0.826690   346Ap     0.827179   296App    0.827898  
     297App    0.831208   347Ap     0.832859   298App    0.833209  
     299App    0.833546   348Ap     0.834803   300App    0.836903  
     301App    0.838839   349Ap     0.839894   350Ap     0.841606  
     351Ap     0.842762   302App    0.843563   352Ap     0.847490  
     303App    0.848235   304App    0.850761   353Ap     0.850988  
     305App    0.852311   354Ap     0.856073   355Ap     0.858598  
     306App    0.858818   356Ap     0.861339   357Ap     0.861786  
     307App    0.862892   308App    0.867299   358Ap     0.867962  
     309App    0.870832   359Ap     0.871198   310App    0.873271  
     360Ap     0.873433   311App    0.875346   361Ap     0.875516  
     362Ap     0.879067   312App    0.879493   313App    0.881908  
     363Ap     0.882505   364Ap     0.883846   314App    0.885115  
     365Ap     0.885880   315App    0.887430   366Ap     0.890515  
     316App    0.891021   367Ap     0.894780   368Ap     0.896154  
     317App    0.898017   369Ap     0.899257   370Ap     0.902913  
     318App    0.904974   319App    0.907118   371Ap     0.907895  
     320App    0.908130   321App    0.911215   372Ap     0.914777  
     373Ap     0.918415   322App    0.919519   374Ap     0.919713  
     323App    0.920336   324App    0.921855   375Ap     0.924076  
     376Ap     0.928492   325App    0.929858   377Ap     0.930942  
     326App    0.931345   327App    0.932177   378Ap     0.932593  
     328App    0.937826   329App    0.939016   379Ap     0.940475  
     380Ap     0.944334   330App    0.945033   381Ap     0.945308  
     331App    0.948127   332App    0.949875   382Ap     0.950839  
     383Ap     0.952906   333App    0.954253   384Ap     0.956783  
     334App    0.958944   385Ap     0.959271   335App    0.959335  
     386Ap     0.962931   336App    0.964038   337App    0.967138  
     387Ap     0.967569   338App    0.967828   388Ap     0.971072  
     389Ap     0.973953   339App    0.976012   390Ap     0.978461  
     391Ap     0.979574   340App    0.979602   341App    0.980993  
     342App    0.981652   392Ap     0.983591   343App    0.987373  
     344App    0.988074   393Ap     0.989050   394Ap     0.989662  
     345App    0.992362   395Ap     0.994686   346App    0.996898  
     396Ap     0.999067   347App    1.000309   397Ap     1.001930  
     348App    1.003476   349App    1.006190   398Ap     1.006370  
     399Ap     1.009474   400Ap     1.010430   350App    1.013928  
     351App    1.014569   401Ap     1.014728   402Ap     1.015460  
     352App    1.016756   403Ap     1.017429   404Ap     1.021665  
     353App    1.023699   354App    1.025799   405Ap     1.028006  
     355App    1.029979   356App    1.030320   406Ap     1.030866  
     407Ap     1.032601   357App    1.034665   408Ap     1.038275  
     358App    1.038480   409Ap     1.041326   410Ap     1.042252  
     359App    1.042817   411Ap     1.044429   360App    1.047345  
     412Ap     1.047598   413Ap     1.048777   361App    1.053922  
     414Ap     1.054974   362App    1.057077   415Ap     1.057538  
     416Ap     1.058479   363App    1.058870   417Ap     1.064208  
     418Ap     1.065316   364App    1.066534   419Ap     1.066663  
     420Ap     1.068148   365App    1.068228   421Ap     1.072428  
     366App    1.074923   422Ap     1.075733   367App    1.076520  
     368App    1.079896   369App    1.080226   423Ap     1.081143  
     424Ap     1.082796   370App    1.086699   425Ap     1.088576  
     371App    1.090998   426Ap     1.093718   427Ap     1.096952  
     372App    1.097377   373App    1.100518   428Ap     1.100560  
     374App    1.103255   429Ap     1.103820   375App    1.109494  
     376App    1.110816   430Ap     1.111795   431Ap     1.113278  
     432Ap     1.117107   433Ap     1.119272   377App    1.119315  
     378App    1.121533   434Ap     1.121646   379App    1.125963  
     435Ap     1.126571   380App    1.128195   436Ap     1.131680  
     437Ap     1.133241   381App    1.133528   438Ap     1.136028  
     382App    1.136628   383App    1.139655   439Ap     1.140096  
     440Ap     1.141494   384App    1.142504   385App    1.146866  
     441Ap     1.148791   386App    1.148887   442Ap     1.149505  
     387App    1.153094   443Ap     1.153559   444Ap     1.158148  
     388App    1.159754   445Ap     1.160760   446Ap     1.163702  
     447Ap     1.164004   389App    1.167819   448Ap     1.172258  
     390App    1.173908   449Ap     1.176287   391App    1.177274  
     392App    1.178292   450Ap     1.180115   451Ap     1.181240  
     393App    1.181604   394App    1.184541   395App    1.185866  
     452Ap     1.187284   453Ap     1.190695   396App    1.192875  
     454Ap     1.195432   397App    1.195869   455Ap     1.197016  
     456Ap     1.200361   398App    1.201975   399App    1.203905  
     457Ap     1.204038   458Ap     1.207375   400App    1.208080  
     459Ap     1.212449   401App    1.214275   460Ap     1.214894  
     461Ap     1.219206   402App    1.221229   462Ap     1.222632  
     403App    1.222739   463Ap     1.225901   404App    1.228133  
     464Ap     1.230378   465Ap     1.232955   405App    1.233942  
     466Ap     1.234901   467Ap     1.236155   406App    1.238531  
     468Ap     1.242789   407App    1.245533   408App    1.247031  
     409App    1.247660   469Ap     1.248511   410App    1.249649  
     470Ap     1.250922   471Ap     1.252466   411App    1.252703  
     412App    1.257888   413App    1.259961   472Ap     1.260811  
     473Ap     1.262229   414App    1.263766   474Ap     1.265098  
     415App    1.265187   475Ap     1.266286   416App    1.267037  
     476Ap     1.271432   417App    1.274694   477Ap     1.275391  
     478Ap     1.277711   418App    1.278074   419App    1.280266  
     479Ap     1.281824   420App    1.281906   480Ap     1.284520  
     421App    1.286718   481Ap     1.288613   422App    1.289035  
     482Ap     1.291040   423App    1.291421   483Ap     1.293335  
     424App    1.297992   484Ap     1.299243   485Ap     1.304134  
     425App    1.304756   426App    1.306178   486Ap     1.308694  
     427App    1.310087   487Ap     1.313234   428App    1.315152  
     488Ap     1.315608   429App    1.315972   430App    1.321924  
     489Ap     1.324340   431App    1.324741   490Ap     1.324897  
     491Ap     1.326265   492Ap     1.327200   432App    1.329757  
     433App    1.332964   493Ap     1.334057   494Ap     1.335439  
     434App    1.336412   435App    1.338243   495Ap     1.339634  
     436App    1.342158   496Ap     1.344573   437App    1.345623  
     497Ap     1.347400   438App    1.347674   439App    1.351317  
     498Ap     1.352995   440App    1.355591   499Ap     1.356309  
     500Ap     1.358412   501Ap     1.359243   502Ap     1.362163  
     441App    1.365363   442App    1.368755   503Ap     1.369425  
     504Ap     1.370426   443App    1.371365   444App    1.374976  
     505Ap     1.377306   445App    1.379642   506Ap     1.380726  
     446App    1.381870   507Ap     1.383231   447App    1.384853  
     508Ap     1.385030   448App    1.388280   509Ap     1.389599  
     449App    1.392171   450App    1.392858   510Ap     1.394120  
     451App    1.398722   452App    1.400444   511Ap     1.401487  
     453App    1.401917   512Ap     1.402598   513Ap     1.403756  
     514Ap     1.408232   515Ap     1.408797   454App    1.410008  
     516Ap     1.413124   455App    1.413260   456App    1.416178  
     517Ap     1.416431   457App    1.417240   518Ap     1.419417  
     519Ap     1.421900   458App    1.425760   459App    1.428007  
     520Ap     1.428477   521Ap     1.432231   460App    1.433370  
     522Ap     1.433770   461App    1.435307   523Ap     1.436477  
     462App    1.436758   463App    1.438942   464App    1.441489  
     524Ap     1.441902   525Ap     1.443775   526Ap     1.445290  
     465App    1.446425   466App    1.448099   527Ap     1.449044  
     528Ap     1.452847   467App    1.454152   468App    1.456254  
     529Ap     1.457048   530Ap     1.462261   469App    1.462492  
     470App    1.465119   531Ap     1.465682   471App    1.467720  
     532Ap     1.467905   533Ap     1.471851   472App    1.472531  
     473App    1.474831   534Ap     1.475744   535Ap     1.481689  
     474App    1.482089   536Ap     1.484686   537Ap     1.486656  
     475App    1.487010   538Ap     1.490715   476App    1.492599  
     539Ap     1.493065   477App    1.493894   478App    1.495045  
     540Ap     1.495220   541Ap     1.499259   479App    1.499524  
     542Ap     1.500551   480App    1.503547   543Ap     1.505885  
     481App    1.506124   482App    1.509135   544Ap     1.512592  
     483App    1.513671   545Ap     1.513997   484App    1.514768  
     546Ap     1.516635   485App    1.517276   486App    1.520294  
     547Ap     1.520803   548Ap     1.524114   487App    1.526059  
     488App    1.527743   549Ap     1.527898   550Ap     1.531901  
     551Ap     1.533142   489App    1.533783   552Ap     1.540555  
     490App    1.541099   491App    1.542964   553Ap     1.543034  
     554Ap     1.544607   492App    1.549208   555Ap     1.550991  
     556Ap     1.554322   493App    1.557307   494App    1.559548  
     557Ap     1.560049   558Ap     1.563143   559Ap     1.564605  
     495App    1.564791   560Ap     1.567147   496App    1.568294  
     497App    1.571782   561Ap     1.572570   562Ap     1.575557  
     498App    1.577345   499App    1.577817   563Ap     1.578280  
     564Ap     1.578832   500App    1.580803   565Ap     1.586895  
     566Ap     1.589105   501App    1.589480   502App    1.595862  
     503App    1.595947   504App    1.597909   567Ap     1.598731  
     568Ap     1.599211   569Ap     1.601651   505App    1.603646  
     506App    1.605787   570Ap     1.605877   571Ap     1.608145  
     507App    1.608828   572Ap     1.610063   508App    1.614456  
     573Ap     1.614484   574Ap     1.616080   575Ap     1.619358  
     509App    1.619387   510App    1.622603   576Ap     1.627695  
     511App    1.628091   577Ap     1.630220   512App    1.632927  
     513App    1.634404   578Ap     1.635307   579Ap     1.640565  
     514App    1.640876   580Ap     1.641718   515App    1.644112  
     581Ap     1.644907   582Ap     1.645112   516App    1.647046  
     517App    1.648663   583Ap     1.652317   518App    1.652383  
     584Ap     1.655267   585Ap     1.656746   519App    1.657348  
     520App    1.659242   586Ap     1.660467   521App    1.662180  
     587Ap     1.666362   522App    1.668194   588Ap     1.672622  
     523App    1.674058   589Ap     1.675157   590Ap     1.678600  
     524App    1.680244   591Ap     1.680814   525App    1.681119  
     526App    1.682663   592Ap     1.684874   593Ap     1.686781  
     527App    1.687383   594Ap     1.688915   528App    1.691429  
     595Ap     1.693411   529App    1.695151   596Ap     1.695568  
     597Ap     1.696606   598Ap     1.698602   530App    1.699032  
     531App    1.703753   599Ap     1.705177   532App    1.707425  
     600Ap     1.708722   533App    1.712402   534App    1.715033  
     535App    1.717407   601Ap     1.718047   602Ap     1.720268  
     536App    1.722590   603Ap     1.723432   604Ap     1.724398  
     537App    1.728734   605Ap     1.730911   538App    1.732460  
     606Ap     1.735134   539App    1.736382   607Ap     1.742067  
     608Ap     1.745548   540App    1.746784   609Ap     1.746886  
     610Ap     1.748813   541App    1.749291   542App    1.752949  
     611Ap     1.754660   612Ap     1.758570   543App    1.759705  
     613Ap     1.760731   544App    1.762190   614Ap     1.763107  
     615Ap     1.765452   545App    1.768256   616Ap     1.768608  
     546App    1.770702   617Ap     1.776044   547App    1.779021  
     618Ap     1.780726   548App    1.781639   549App    1.783907  
     619Ap     1.783917   620Ap     1.788398   550App    1.788594  
     551App    1.789527   621Ap     1.791814   622Ap     1.796295  
     623Ap     1.798760   552App    1.800791   553App    1.803104  
     624Ap     1.804905   554App    1.805814   555App    1.807321  
     625Ap     1.808415   626Ap     1.812599   556App    1.813501  
     557App    1.816564   558App    1.819494   627Ap     1.822199  
     559App    1.823943   560App    1.824966   628Ap     1.827424  
     629Ap     1.829008   561App    1.829811   630Ap     1.831523  
     562App    1.835390   631Ap     1.835650   632Ap     1.839297  
     563App    1.840747   633Ap     1.843383   564App    1.843850  
     634Ap     1.846930   565App    1.849873   566App    1.852864  
     635Ap     1.853964   567App    1.858694   568App    1.860353  
     636Ap     1.861275   569App    1.862939   637Ap     1.864945  
     570App    1.867113   638Ap     1.870227   571App    1.875154  
     639Ap     1.876139   640Ap     1.876375   572App    1.879379  
     641Ap     1.880306   573App    1.882675   574App    1.884008  
     642Ap     1.885256   575App    1.890310   576App    1.893886  
     643Ap     1.895287   644Ap     1.897118   645Ap     1.898645  
     577App    1.899206   646Ap     1.901187   578App    1.901946  
     647Ap     1.905512   579App    1.907048   648Ap     1.907343  
     580App    1.912099   581App    1.914858   649Ap     1.915545  
     650Ap     1.917628   582App    1.919080   651Ap     1.919148  
     583App    1.924331   652Ap     1.925551   584App    1.926414  
     653Ap     1.928692   585App    1.931010   654Ap     1.931701  
     586App    1.932513   587App    1.934269   655Ap     1.934693  
     656Ap     1.936123   657Ap     1.941203   588App    1.942335  
     589App    1.942564   658Ap     1.944109   590App    1.944443  
     659Ap     1.950943   660Ap     1.954355   591App    1.956802  
     661Ap     1.958382   592App    1.960656   662Ap     1.962013  
     593App    1.964569   594App    1.966668   663Ap     1.968260  
     595App    1.971259   664Ap     1.971703   596App    1.973280  
     665Ap     1.973548   666Ap     1.978795   597App    1.979246  
     667Ap     1.980118   598App    1.980537   599App    1.987106  
     600App    1.990126   668Ap     1.990278   669Ap     1.993621  
     601App    1.997596   670Ap     1.997819   671Ap     2.000266  
     672Ap     2.001923   602App    2.005216   673Ap     2.008803  
     603App    2.010793   674Ap     2.014010   604App    2.014206  
     675Ap     2.016281   605App    2.017447   606App    2.021983  
     676Ap     2.022262   677Ap     2.026670   678Ap     2.028984  
     679Ap     2.030525   607App    2.033910   680Ap     2.033985  
     608App    2.035019   609App    2.040888   681Ap     2.042252  
     682Ap     2.045438   610App    2.048261   683Ap     2.049169  
     611App    2.053969   684Ap     2.054156   612App    2.054762  
     613App    2.057017   614App    2.060222   685Ap     2.060734  
     686Ap     2.066606   615App    2.067445   616App    2.068956  
     687Ap     2.073202   617App    2.074131   688Ap     2.078734  
     618App    2.079807   689Ap     2.080884   619App    2.083644  
     690Ap     2.086995   620App    2.091290   621App    2.096207  
     691Ap     2.096467   692Ap     2.099262   622App    2.099566  
     693Ap     2.101598   623App    2.101600   694Ap     2.106438  
     624App    2.106891   625App    2.111362   695Ap     2.113363  
     626App    2.119354   696Ap     2.119784   627App    2.123293  
     697Ap     2.123736   698Ap     2.130257   628App    2.131684  
     629App    2.131803   699Ap     2.135214   630App    2.136943  
     700Ap     2.138052   701Ap     2.145281   631App    2.146559  
     702Ap     2.150312   632App    2.151243   703Ap     2.159731  
     633App    2.162778   704Ap     2.163400   634App    2.164610  
     635App    2.165538   705Ap     2.166632   706Ap     2.173622  
     636App    2.173700   637App    2.175583   707Ap     2.177327  
     638App    2.180892   708Ap     2.183212   639App    2.187162  
     709Ap     2.187455   710Ap     2.188171   640App    2.196464  
     711Ap     2.199653   641App    2.201730   712Ap     2.202776  
     642App    2.207738   643App    2.212153   713Ap     2.213324  
     714Ap     2.218046   644App    2.224049   715Ap     2.224955  
     716Ap     2.226437   645App    2.228657   717Ap     2.232794  
     646App    2.233335   718Ap     2.234874   719Ap     2.237808  
     647App    2.239010   648App    2.241788   649App    2.245295  
     720Ap     2.247276   650App    2.254582   651App    2.257222  
     721Ap     2.258261   722Ap     2.260680   652App    2.264773  
     723Ap     2.269164   724Ap     2.273650   653App    2.277431  
     725Ap     2.278408   654App    2.283366   655App    2.284665  
     656App    2.285578   726Ap     2.286190   657App    2.289429  
     727Ap     2.289664   658App    2.292856   728Ap     2.293450  
     729Ap     2.301259   730Ap     2.303210   659App    2.305512  
     731Ap     2.307125   660App    2.309993   732Ap     2.312848  
     661App    2.314148   662App    2.317407   733Ap     2.318987  
     663App    2.322900   734Ap     2.327897   664App    2.328360  
     665App    2.329522   735Ap     2.332177   736Ap     2.336385  
     737Ap     2.339839   666App    2.341042   738Ap     2.345049  
     667App    2.348449   739Ap     2.354189   740Ap     2.355177  
     668App    2.359120   669App    2.360237   741Ap     2.367985  
     670App    2.369822   742Ap     2.371878   671App    2.372474  
     743Ap     2.377431   744Ap     2.380637   672App    2.381056  
     745Ap     2.381280   746Ap     2.386735   673App    2.389612  
     747Ap     2.389793   748Ap     2.396879   674App    2.397087  
     675App    2.399819   676App    2.401273   749Ap     2.405862  
     750Ap     2.410980   751Ap     2.411723   677App    2.412517  
     678App    2.415806   679App    2.419062   752Ap     2.421930  
     753Ap     2.424168   680App    2.426800   754Ap     2.430632  
     681App    2.431953   755Ap     2.432429   682App    2.437130  
     683App    2.443645   756Ap     2.444525   757Ap     2.447956  
     684App    2.449537   758Ap     2.454006   685App    2.457622  
     686App    2.459806   759Ap     2.461664   760Ap     2.463865  
     687App    2.465675   761Ap     2.469626   688App    2.471455  
     762Ap     2.473916   763Ap     2.475198   764Ap     2.477909  
     689App    2.479079   690App    2.482064   765Ap     2.483708  
     691App    2.486477   766Ap     2.488236   767Ap     2.493873  
     768Ap     2.496295   692App    2.499046   693App    2.502638  
     769Ap     2.504428   694App    2.506779   770Ap     2.507240  
     695App    2.513508   696App    2.514884   771Ap     2.517722  
     697App    2.521302   772Ap     2.521779   773Ap     2.524065  
     698App    2.530465   774Ap     2.531782   699App    2.534880  
     775Ap     2.537653   700App    2.538594   701App    2.544052  
     776Ap     2.544167   702App    2.548625   777Ap     2.549587  
     703App    2.553327   778Ap     2.555219   704App    2.558066  
     779Ap     2.563802   705App    2.567084   780Ap     2.568535  
     706App    2.571435   707App    2.571668   781Ap     2.572819  
     708App    2.580726   782Ap     2.582141   783Ap     2.582455  
     709App    2.585453   784Ap     2.591002   710App    2.595238  
     785Ap     2.595505   711App    2.599002   712App    2.603363  
     786Ap     2.605099   787Ap     2.607037   713App    2.610051  
     788Ap     2.613677   714App    2.618692   715App    2.619990  
     789Ap     2.623842   716App    2.624682   790Ap     2.625801  
     717App    2.634072   791Ap     2.635649   792Ap     2.641065  
     718App    2.642576   793Ap     2.643764   719App    2.644171  
     794Ap     2.647882   795Ap     2.652769   720App    2.654279  
     796Ap     2.659660   721App    2.661570   797Ap     2.661923  
     722App    2.667332   798Ap     2.670034   799Ap     2.671362  
     723App    2.672541   800Ap     2.678554   724App    2.679809  
     725App    2.683628   726App    2.685951   801Ap     2.687730  
     802Ap     2.693024   727App    2.695054   803Ap     2.699174  
     728App    2.700192   804Ap     2.705378   729App    2.708297  
     805Ap     2.712036   730App    2.714007   806Ap     2.715081  
     807Ap     2.716658   808Ap     2.719227   731App    2.722353  
     732App    2.727549   733App    2.729105   809Ap     2.731418  
     734App    2.736030   735App    2.737593   810Ap     2.737669  
     736App    2.746562   811Ap     2.750426   812Ap     2.754688  
     737App    2.755503   813Ap     2.756610   738App    2.759297  
     814Ap     2.762731   739App    2.767046   815Ap     2.769244  
     740App    2.772262   741App    2.777416   816Ap     2.779598  
     817Ap     2.786648   742App    2.787268   818Ap     2.792031  
     743App    2.794821   819Ap     2.795320   820Ap     2.800882  
     744App    2.802024   745App    2.809692   746App    2.815086  
     821Ap     2.817100   747App    2.825126   748App    2.827861  
     822Ap     2.829128   749App    2.831367   750App    2.838071  
     823Ap     2.842665   824Ap     2.844609   751App    2.848632  
     825Ap     2.853039   752App    2.857296   826Ap     2.869033  
     827Ap     2.872996   753App    2.874807   828Ap     2.880611  
     754App    2.888541   829Ap     2.888793   830Ap     2.890085  
     755App    2.898531   756App    2.901260   831Ap     2.901404  
     757App    2.906955   832Ap     2.908886   758App    2.912346  
     833Ap     2.914693   759App    2.919351   834Ap     2.921418  
     835Ap     2.931258   760App    2.931981   761App    2.932727  
     836Ap     2.933798   837Ap     2.938158   838Ap     2.945946  
     762App    2.949009   763App    2.956883   839Ap     2.957114  
     764App    2.962638   840Ap     2.964484   765App    2.965879  
     766App    2.971004   841Ap     2.976001   842Ap     2.978372  
     767App    2.979577   768App    2.984474   843Ap     2.986922  
     769App    2.994637   844Ap     2.995281   770App    2.998086  
     845Ap     3.008199   846Ap     3.013619   771App    3.016418  
     847Ap     3.016550   772App    3.021653   848Ap     3.024454  
     849Ap     3.027235   773App    3.032343   774App    3.037644  
     850Ap     3.038319   851Ap     3.042935   775App    3.044217  
     776App    3.051881   852Ap     3.054123   853Ap     3.062706  
     777App    3.064091   854Ap     3.064608   778App    3.068708  
     855Ap     3.071579   779App    3.074850   856Ap     3.082488  
     780App    3.084334   857Ap     3.089053   858Ap     3.091943  
     781App    3.092677   782App    3.101125   783App    3.104215  
     859Ap     3.108779   860Ap     3.115200   861Ap     3.118218  
     784App    3.119129   862Ap     3.124963   785App    3.126204  
     863Ap     3.129741   786App    3.136130   787App    3.144701  
     864Ap     3.149813   788App    3.152306   865Ap     3.157500  
     866Ap     3.159723   867Ap     3.163563   789App    3.166046  
     790App    3.167681   868Ap     3.168624   869Ap     3.170395  
     791App    3.172771   792App    3.177703   870Ap     3.179375  
     793App    3.182803   871Ap     3.183294   872Ap     3.191520  
     794App    3.193460   795App    3.197294   873Ap     3.198156  
     796App    3.203758   874Ap     3.205872   875Ap     3.211434  
     797App    3.218338   876Ap     3.220101   798App    3.221211  
     877Ap     3.224346   799App    3.228543   878Ap     3.229921  
     800App    3.235482   879Ap     3.241726   801App    3.242265  
     880Ap     3.246216   802App    3.250168   881Ap     3.254539  
     803App    3.255218   882Ap     3.257140   804App    3.261950  
     883Ap     3.264537   884Ap     3.270413   885Ap     3.274106  
     886Ap     3.275792   805App    3.278229   887Ap     3.285970  
     806App    3.287880   807App    3.289864   888Ap     3.291248  
     808App    3.293955   889Ap     3.298120   890Ap     3.299863  
     891Ap     3.303920   809App    3.308788   810App    3.310635  
     892Ap     3.310893   811App    3.316714   893Ap     3.319636  
     894Ap     3.323162   812App    3.324988   895Ap     3.327373  
     896Ap     3.336794   813App    3.337090   897Ap     3.340597  
     814App    3.343012   898Ap     3.345861   899Ap     3.347042  
     815App    3.350059   816App    3.351444   900Ap     3.356339  
     817App    3.359243   818App    3.362507   901Ap     3.363764  
     819App    3.366110   902Ap     3.370755   820App    3.372712  
     903Ap     3.374984   904Ap     3.379524   821App    3.383651  
     822App    3.386705   905Ap     3.391036   823App    3.391588  
     906Ap     3.391790   824App    3.392604   907Ap     3.394772  
     825App    3.403310   826App    3.411355   908Ap     3.412538  
     827App    3.414555   909Ap     3.416590   910Ap     3.424369  
     828App    3.427232   911Ap     3.429042   829App    3.429725  
     912Ap     3.430245   830App    3.433337   913Ap     3.441772  
     831App    3.443052   914Ap     3.444336   832App    3.446739  
     833App    3.452926   915Ap     3.456079   834App    3.457833  
     916Ap     3.461140   917Ap     3.463313   835App    3.465241  
     918Ap     3.471221   836App    3.473762   837App    3.475472  
     919Ap     3.477186   920Ap     3.486102   838App    3.489624  
     839App    3.493270   840App    3.495980   921Ap     3.496167  
     922Ap     3.499363   923Ap     3.505272   841App    3.506898  
     842App    3.510236   924Ap     3.511097   925Ap     3.520323  
     926Ap     3.525677   927Ap     3.527566   843App    3.530169  
     928Ap     3.534750   844App    3.534995   929Ap     3.542021  
     845App    3.544685   846App    3.545857   930Ap     3.547237  
     931Ap     3.555666   847App    3.556921   932Ap     3.560870  
     848App    3.562121   933Ap     3.565881   934Ap     3.570490  
     849App    3.573853   935Ap     3.581060   850App    3.581087  
     851App    3.582925   936Ap     3.585717   852App    3.592433  
     937Ap     3.593938   853App    3.595038   854App    3.595462  
     938Ap     3.602809   939Ap     3.606933   855App    3.607981  
     856App    3.612893   857App    3.620100   940Ap     3.620690  
     858App    3.622956   941Ap     3.626427   859App    3.629497  
     942Ap     3.634519   943Ap     3.643498   860App    3.646663  
     944Ap     3.649204   945Ap     3.657379   861App    3.661161  
     946Ap     3.661394   862App    3.669496   947Ap     3.673034  
     863App    3.681508   948Ap     3.682240   949Ap     3.685571  
     864App    3.688470   950Ap     3.691238   951Ap     3.695911  
     865App    3.697640   866App    3.698849   952Ap     3.698936  
     953Ap     3.707875   867App    3.709469   868App    3.714802  
     954Ap     3.719756   869App    3.722325   955Ap     3.722949  
     956Ap     3.724949   870App    3.728377   957Ap     3.737051  
     958Ap     3.738006   871App    3.738131   872App    3.740039  
     873App    3.750997   959Ap     3.751573   874App    3.754608  
     960Ap     3.758425   875App    3.763054   876App    3.766382  
     961Ap     3.770750   962Ap     3.776692   877App    3.778253  
     963Ap     3.781492   878App    3.785155   964Ap     3.787235  
     965Ap     3.789614   879App    3.790634   880App    3.794827  
     966Ap     3.797819   967Ap     3.799629   881App    3.804809  
     968Ap     3.805358   882App    3.806756   969Ap     3.809560  
     883App    3.811707   884App    3.816187   970Ap     3.817362  
     885App    3.819546   971Ap     3.821272   972Ap     3.827160  
     973Ap     3.834022   886App    3.835356   887App    3.837509  
     888App    3.838324   974Ap     3.839911   889App    3.848946  
     975Ap     3.851920   890App    3.857420   891App    3.864269  
     976Ap     3.867973   892App    3.871124   977Ap     3.872516  
     893App    3.883476   978Ap     3.884830   979Ap     3.893550  
     980Ap     3.897732   894App    3.899556   895App    3.907312  
     981Ap     3.908858   896App    3.913383   982Ap     3.915183  
     897App    3.920541   898App    3.924536   983Ap     3.926135  
     984Ap     3.932168   899App    3.942909   985Ap     3.945908  
     900App    3.947732   986Ap     3.948720   901App    3.956304  
     902App    3.965579   987Ap     3.967190   988Ap     3.970433  
     989Ap     3.973397   903App    3.977185   990Ap     3.984025  
     904App    3.984924   905App    3.992213   991Ap     3.995749  
     992Ap     3.998182   906App    4.003443   993Ap     4.004794  
     994Ap     4.009896   995Ap     4.013340   907App    4.017645  
     908App    4.020866   996Ap     4.021005   909App    4.023575  
     997Ap     4.023731   910App    4.030704   998Ap     4.034109  
     999Ap     4.037872   911App    4.040853   912App    4.042413  
    1000Ap     4.046682   913App    4.052354   914App    4.054805  
    1001Ap     4.054985   915App    4.061324  1002Ap     4.062865  
    1003Ap     4.069348   916App    4.071302  1004Ap     4.072316  
     917App    4.076489  1005Ap     4.077087   918App    4.078450  
     919App    4.086834   920App    4.090154  1006Ap     4.090609  
     921App    4.092472  1007Ap     4.094889   922App    4.101351  
    1008Ap     4.103385   923App    4.104918  1009Ap     4.107504  
     924App    4.110804  1010Ap     4.111631   925App    4.117237  
    1011Ap     4.121469   926App    4.123338   927App    4.128473  
    1012Ap     4.130917   928App    4.131541   929App    4.133156  
    1013Ap     4.134851   930App    4.139117  1014Ap     4.140254  
    1015Ap     4.146429   931App    4.147338  1016Ap     4.150218  
     932App    4.154468  1017Ap     4.155785   933App    4.158918  
    1018Ap     4.162642   934App    4.165766  1019Ap     4.167274  
    1020Ap     4.172412   935App    4.176709  1021Ap     4.179201  
     936App    4.182462  1022Ap     4.183377  1023Ap     4.185927  
    1024Ap     4.187302   937App    4.190270  1025Ap     4.193112  
     938App    4.194607   939App    4.197574  1026Ap     4.199153  
    1027Ap     4.201920   940App    4.207808  1028Ap     4.209023  
     941App    4.209253  1029Ap     4.214660   942App    4.216418  
    1030Ap     4.219926   943App    4.220986  1031Ap     4.222109  
     944App    4.222200  1032Ap     4.226962   945App    4.228550  
    1033Ap     4.230573   946App    4.234731  1034Ap     4.237469  
     947App    4.239235  1035Ap     4.239423   948App    4.248697  
     949App    4.251256  1036Ap     4.254423  1037Ap     4.255448  
    1038Ap     4.260436   950App    4.262253  1039Ap     4.266751  
    1040Ap     4.269213   951App    4.270493   952App    4.272940  
     953App    4.275337  1041Ap     4.276768   954App    4.284879  
    1042Ap     4.286029  1043Ap     4.287832   955App    4.288369  
    1044Ap     4.292821   956App    4.300271  1045Ap     4.301806  
     957App    4.303436   958App    4.308187  1046Ap     4.311536  
    1047Ap     4.312701   959App    4.312799   960App    4.313344  
    1048Ap     4.317767  1049Ap     4.325689   961App    4.326537  
    1050Ap     4.331244   962App    4.332302  1051Ap     4.334500  
     963App    4.335857   964App    4.342935  1052Ap     4.342975  
     965App    4.348934  1053Ap     4.350522  1054Ap     4.352480  
     966App    4.354688   967App    4.356294  1055Ap     4.356729  
     968App    4.360689  1056Ap     4.361478  1057Ap     4.365425  
     969App    4.367450   970App    4.371255  1058Ap     4.373668  
     971App    4.375962  1059Ap     4.376095  1060Ap     4.382364  
     972App    4.389364  1061Ap     4.390242   973App    4.397184  
    1062Ap     4.397719  1063Ap     4.401568   974App    4.404863  
    1064Ap     4.410052   975App    4.410397  1065Ap     4.414378  
     976App    4.416032  1066Ap     4.417879   977App    4.418279  
    1067Ap     4.419428  1068Ap     4.425662  1069Ap     4.427630  
     978App    4.431693  1070Ap     4.435436   979App    4.436904  
     980App    4.439667  1071Ap     4.444357   981App    4.445169  
    1072Ap     4.447659  1073Ap     4.451795   982App    4.451983  
     983App    4.457851  1074Ap     4.457909   984App    4.461849  
    1075Ap     4.462171  1076Ap     4.466774   985App    4.470448  
    1077Ap     4.472142   986App    4.472344  1078Ap     4.478081  
     987App    4.483661  1079Ap     4.483984   988App    4.488987  
    1080Ap     4.492809   989App    4.493935  1081Ap     4.494267  
    1082Ap     4.497638   990App    4.498701  1083Ap     4.498988  
     991App    4.499357  1084Ap     4.504273  1085Ap     4.510572  
     992App    4.515412   993App    4.516780  1086Ap     4.519960  
    1087Ap     4.523836   994App    4.524837  1088Ap     4.529965  
     995App    4.533300   996App    4.536943  1089Ap     4.539606  
     997App    4.543718  1090Ap     4.549513  1091Ap     4.551390  
     998App    4.552626  1092Ap     4.555963   999App    4.557577  
    1093Ap     4.558347  1000App    4.560540  1094Ap     4.566568  
    1001App    4.569257  1095Ap     4.571857  1096Ap     4.576334  
    1002App    4.578220  1003App    4.580818  1097Ap     4.581527  
    1004App    4.582949  1098Ap     4.586125  1005App    4.589079  
    1006App    4.596540  1099Ap     4.598575  1007App    4.599498  
    1100Ap     4.605593  1008App    4.607572  1101Ap     4.617014  
    1009App    4.618143  1102Ap     4.619951  1010App    4.623830  
    1103Ap     4.623929  1104Ap     4.627014  1011App    4.631811  
    1012App    4.634120  1105Ap     4.636169  1013App    4.639212  
    1106Ap     4.642676  1014App    4.644025  1015App    4.651571  
    1107Ap     4.652057  1016App    4.655437  1108Ap     4.656876  
    1017App    4.661889  1109Ap     4.665749  1110Ap     4.669053  
    1018App    4.671998  1111Ap     4.677121  1112Ap     4.680138  
    1019App    4.682434  1020App    4.682830  1021App    4.690294  
    1113Ap     4.690339  1114Ap     4.692993  1022App    4.694092  
    1115Ap     4.696872  1023App    4.699210  1024App    4.702553  
    1116Ap     4.708273  1025App    4.708322  1117Ap     4.711994  
    1026App    4.715220  1118Ap     4.720783  1027App    4.722811  
    1119Ap     4.724840  1028App    4.726317  1029App    4.728997  
    1120Ap     4.735938  1121Ap     4.738938  1122Ap     4.744942  
    1030App    4.746074  1123Ap     4.749090  1124Ap     4.753940  
    1031App    4.754581  1032App    4.759882  1125Ap     4.764256  
    1126Ap     4.767605  1033App    4.768802  1127Ap     4.774423  
    1034App    4.775131  1035App    4.779208  1128Ap     4.781342  
    1036App    4.783704  1129Ap     4.787655  1037App    4.788543  
    1038App    4.791846  1130Ap     4.794897  1039App    4.799075  
    1131Ap     4.802459  1132Ap     4.806789  1040App    4.810760  
    1133Ap     4.812336  1041App    4.813271  1134Ap     4.814205  
    1042App    4.814631  1043App    4.819956  1135Ap     4.824522  
    1044App    4.826169  1136Ap     4.827081  1045App    4.827365  
    1137Ap     4.831476  1138Ap     4.835676  1139Ap     4.839863  
    1046App    4.840771  1047App    4.847099  1140Ap     4.847806  
    1048App    4.850061  1141Ap     4.852564  1049App    4.856136  
    1142Ap     4.857458  1050App    4.859652  1143Ap     4.862400  
    1144Ap     4.869042  1145Ap     4.873254  1051App    4.878531  
    1146Ap     4.881564  1147Ap     4.884774  1052App    4.885006  
    1053App    4.891460  1054App    4.892743  1148Ap     4.893706  
    1149Ap     4.900443  1055App    4.906499  1056App    4.910029  
    1150Ap     4.912133  1151Ap     4.917224  1057App    4.919942  
    1152Ap     4.920898  1153Ap     4.925183  1058App    4.927955  
    1154Ap     4.928773  1059App    4.932955  1060App    4.937706  
    1155Ap     4.938795  1061App    4.942407  1156Ap     4.942411  
    1062App    4.944563  1063App    4.954576  1157Ap     4.960693  
    1064App    4.966794  1158Ap     4.968086  1065App    4.969719  
    1159Ap     4.970205  1066App    4.975235  1160Ap     4.982817  
    1067App    4.990028  1161Ap     4.990844  1068App    5.002501  
    1069App    5.005418  1162Ap     5.005420  1070App    5.009793  
    1071App    5.011659  1163Ap     5.014338  1164Ap     5.015217  
    1165Ap     5.021005  1072App    5.023194  1166Ap     5.025974  
    1073App    5.030234  1167Ap     5.034622  1074App    5.038015  
    1168Ap     5.038096  1075App    5.046164  1169Ap     5.048437  
    1076App    5.059693  1170Ap     5.059812  1171Ap     5.063610  
    1077App    5.066079  1078App    5.066664  1172Ap     5.067726  
    1173Ap     5.073354  1174Ap     5.080748  1079App    5.083659  
    1175Ap     5.087578  1080App    5.090104  1081App    5.094445  
    1176Ap     5.096835  1082App    5.100570  1177Ap     5.100961  
    1083App    5.106260  1178Ap     5.106770  1084App    5.121770  
    1179Ap     5.122670  1180Ap     5.125067  1085App    5.140856  
    1086App    5.143436  1181Ap     5.143717  1182Ap     5.148943  
    1087App    5.157889  1088App    5.163920  1089App    5.166826  
    1183Ap     5.169169  1184Ap     5.174630  1090App    5.178848  
    1091App    5.183783  1185Ap     5.189860  1092App    5.190747  
    1186Ap     5.192913  1093App    5.197701  1187Ap     5.199623  
    1188Ap     5.204065  1189Ap     5.208101  1094App    5.211264  
    1095App    5.212545  1190Ap     5.214670  1096App    5.215140  
    1097App    5.223005  1191Ap     5.225695  1192Ap     5.229033  
    1098App    5.231310  1193Ap     5.236433  1194Ap     5.239837  
    1195Ap     5.246271  1099App    5.247789  1196Ap     5.249296  
    1100App    5.253002  1197Ap     5.258187  1101App    5.261884  
    1102App    5.266537  1198Ap     5.269491  1199Ap     5.278507  
    1103App    5.280841  1200Ap     5.287942  1104App    5.290774  
    1201Ap     5.296235  1105App    5.300345  1202Ap     5.307651  
    1106App    5.309459  1203Ap     5.315549  1107App    5.327377  
    1108App    5.336793  1204Ap     5.347959  1205Ap     5.351626  
    1109App    5.351725  1206Ap     5.352858  1207Ap     5.358442  
    1110App    5.361886  1111App    5.364121  1208Ap     5.365852  
    1112App    5.370551  1209Ap     5.376259  1113App    5.380720  
    1210Ap     5.388268  1114App    5.388866  1115App    5.395443  
    1211Ap     5.400278  1116App    5.404340  1212Ap     5.408509  
    1117App    5.412490  1213Ap     5.417081  1118App    5.428739  
    1214Ap     5.433662  1215Ap     5.433929  1119App    5.435325  
    1216Ap     5.451644  1217Ap     5.455267  1120App    5.455825  
    1121App    5.457675  1122App    5.461532  1218Ap     5.469719  
    1219Ap     5.472588  1123App    5.475248  1124App    5.481244  
    1220Ap     5.486053  1125App    5.491268  1221Ap     5.496709  
    1126App    5.499353  1222Ap     5.514432  1223Ap     5.514933  
    1224Ap     5.515943  1127App    5.518029  1128App    5.523650  
    1225Ap     5.527178  1129App    5.528338  1226Ap     5.535292  
    1130App    5.541826  1227Ap     5.545020  1228Ap     5.546705  
    1131App    5.547493  1229Ap     5.553454  1230Ap     5.554860  
    1132App    5.559606  1133App    5.562506  1134App    5.565566  
    1231Ap     5.573128  1135App    5.573613  1232Ap     5.579261  
    1136App    5.587344  1137App    5.592844  1233Ap     5.599847  
    1234Ap     5.602110  1138App    5.608465  1235Ap     5.615890  
    1139App    5.617845  1236Ap     5.619710  1237Ap     5.625450  
    1140App    5.626559  1141App    5.634337  1238Ap     5.640792  
    1142App    5.649439  1239Ap     5.649989  1240Ap     5.653374  
    1143App    5.656016  1241Ap     5.663617  1242Ap     5.665771  
    1243Ap     5.668423  1144App    5.669581  1145App    5.673115  
    1146App    5.680551  1244Ap     5.684051  1245Ap     5.686057  
    1147App    5.693782  1246Ap     5.697650  1148App    5.704690  
    1247Ap     5.705722  1149App    5.720911  1150App    5.731424  
    1151App    5.736485  1248Ap     5.737451  1152App    5.744140  
    1249Ap     5.746816  1153App    5.754900  1154App    5.756863  
    1250Ap     5.758568  1155App    5.770011  1251Ap     5.770825  
    1252Ap     5.774858  1253Ap     5.776026  1254Ap     5.785369  
    1156App    5.791534  1157App    5.797144  1158App    5.799532  
    1255Ap     5.799650  1256Ap     5.823297  1159App    5.826492  
    1257Ap     5.828019  1160App    5.834177  1161App    5.839008  
    1258Ap     5.839933  1162App    5.851411  1259Ap     5.855863  
    1163App    5.860100  1260Ap     5.875878  1261Ap     5.898440  
    1164App    5.899494  1165App    5.913195  1262Ap     5.913370  
    1263Ap     5.931185  1166App    5.934519  1264Ap     5.938728  
    1265Ap     5.947602  1167App    5.948256  1168App    5.958668  
    1266Ap     5.969608  1169App    5.972090  1267Ap     5.976599  
    1170App    5.980302  1268Ap     5.985924  1269Ap     5.990949  
    1171App    5.995567  1270Ap     6.001699  1271Ap     6.017733  
    1172App    6.023196  1272Ap     6.025726  1173App    6.030528  
    1174App    6.033227  1273Ap     6.034963  1175App    6.039224  
    1274Ap     6.042513  1176App    6.049184  1177App    6.058296  
    1275Ap     6.060401  1276Ap     6.067105  1178App    6.067597  
    1179App    6.075029  1277Ap     6.077074  1180App    6.090012  
    1181App    6.093978  1278Ap     6.097471  1279Ap     6.104788  
    1182App    6.107645  1183App    6.109453  1280Ap     6.115498  
    1184App    6.122874  1281Ap     6.126384  1185App    6.128806  
    1282Ap     6.133082  1283Ap     6.137054  1186App    6.141349  
    1284Ap     6.144540  1285Ap     6.160201  1187App    6.160990  
    1188App    6.165942  1286Ap     6.175776  1189App    6.180120  
    1287Ap     6.184462  1190App    6.189537  1191App    6.195415  
    1288Ap     6.198904  1289Ap     6.203510  1192App    6.204482  
    1193App    6.207402  1290Ap     6.212210  1291Ap     6.222326  
    1194App    6.224997  1292Ap     6.232757  1195App    6.233133  
    1196App    6.253251  1293Ap     6.254975  1197App    6.258713  
    1294Ap     6.323734  1198App    6.324318  1295Ap     6.331878  
    1296Ap     6.335337  1199App    6.335780  1200App    6.338186  
    1297Ap     6.340784  1201App    6.347495  1202App    6.356595  
    1298Ap     6.360175  1299Ap     6.364698  1203App    6.370594  
    1300Ap     6.373644  1204App    6.385215  1301Ap     6.422394  
    1205App    6.426953  1302Ap     6.439223  1303Ap     6.447479  
    1304Ap     6.454198  1206App    6.454373  1305Ap     6.471368  
    1207App    6.473620  1306Ap     6.499623  1307Ap     6.505453  
    1208App    6.506187  1209App    6.508678  1308Ap     6.513901  
    1210App    6.515745  1211App    6.522447  1309Ap     6.529414  
    1212App    6.532255  1213App    6.540981  1310Ap     6.575102  
    1214App    6.590569  1311Ap     6.599222  1215App    6.614708  
    1312Ap     6.636178  1313Ap     6.644589  1314Ap     6.654290  
    1216App    6.654391  1217App    6.660106  1315Ap     6.660539  
    1218App    6.673655  1316Ap     6.688392  1219App    6.702087  
    1317Ap     6.742688  1318Ap     6.756385  1220App    6.759469  
    1319Ap     6.770606  1221App    6.771739  1222App    6.775699  
    1223App    6.794646  1320Ap     6.800573  1321Ap     6.805034  
    1224App    6.859078  1322Ap     6.859897  1225App    6.866061  
    1323Ap     6.891031  1324Ap     6.943613  1226App    6.949312  
    1325Ap     7.043058  1227App    7.045548  1326Ap     7.049244  
    1327Ap     7.078252  1228App    7.078283  1229App    7.115645  
    1230App    7.127346  1328Ap     7.177798  1231App    7.199982  
    1232App    7.201686  1329Ap     7.218047  1330Ap     7.232993  
    1233App    7.244669  1234App    7.247822  1331Ap     7.252622  
    1235App    7.268881  1332Ap     7.269062  1333Ap     7.286180  
    1236App    7.333888  1334Ap     7.424926  1335Ap     7.428074  
    1237App    7.440633  1238App    7.445440  1336Ap     7.456153  
    1239App    7.458474  1240App    7.480749  1337Ap     7.480756  
    1241App    7.486741  1338Ap     7.488576  1339Ap     7.496474  
    1340Ap     7.511941  1341Ap     7.530755  1242App    7.536630  
    1342Ap     7.554311  1243App    7.557153  1343Ap     7.563121  
    1244App    7.572865  1344Ap     7.629051  1245App    7.632487  
    1246App    7.643185  1345Ap     7.728836  1247App    7.734623  
    1248App    7.743536  1346Ap     7.754874  1249App    7.764599  
    1347Ap     7.796241  1250App    7.809999  1348Ap     7.827777  
    1251App    7.828161  1349Ap     7.848393  1252App    7.850573  
    1253App    7.877453  1350Ap     7.905955  1254App    7.915246  
    1351Ap     7.917701  1352Ap     7.988344  1353Ap     8.005289  
    1354Ap     8.010542  1255App    8.012328  1355Ap     8.028315  
    1256App    8.033554  1356Ap     8.177360  1257App    8.182522  
    1357Ap     8.228919  1358Ap     8.234261  1258App    8.236065  
    1259App    8.242060  1359Ap     8.249604  1360Ap     8.296783  
    1260App    8.307433  1361Ap     8.378976  1261App    8.391711  
    1362Ap     8.483966  1363Ap     8.493927  1262App    8.494991  
    1263App    8.498251  1364Ap     8.500430  1365Ap     8.532432  
    1264App    8.544076  1265App    8.599470  1266App    8.889264  
    1366Ap     8.889361  1267App    8.932871  1367Ap     9.071104  
    1268App    9.085086  1368Ap     9.092159  1269App    9.100962  
    1369Ap     9.188770  1370Ap     9.461169  1270App    9.478295  
    1371Ap     9.689830  1372Ap     9.693943  1271App    9.694443  
    1272App    9.711148  1373Ap     9.880084  1374Ap     9.911219  
    1273App    9.917554  1274App    9.932214  1375Ap     9.970534  
    1275App   10.007397  1376Ap    10.008564  1377Ap    10.229104  
    1276App   10.236148  1378Ap    10.300502  1277App   10.318807  
    1379Ap    10.387265  1278App   10.393940  1380Ap    10.509427  
    1279App   10.534018  1381Ap    10.983480  1280App   10.998918  
    1281App   11.127166  1382Ap    11.128846  1282App   11.341528  
    1383Ap    11.353484  1283App   11.363469  1384Ap    11.396090  
    1385Ap    11.425793  1284App   11.426420  1386Ap    11.806355  
    1285App   11.825677  1387Ap    11.929456  1286App   12.003332  
    1388Ap    12.061939  1389Ap    12.074037  1287App   12.078640  
    1288App   12.117489  1390Ap    12.342979  1391Ap    12.461667  
    1289App   12.472587  1392Ap    12.685685  1393Ap    12.715213  
    1290App   12.719680  1394Ap    14.892114  1395Ap    15.699513  
    1291App   15.704996  1396Ap    16.887255  1292App   16.954921  
    1397Ap    17.299490  1293App   17.352920  1398Ap    18.014302  
    1294App   18.022034  1399Ap    19.600402  1295App   19.609066  
    1400Ap    20.148338  1296App   20.461936  1401Ap    20.753364  
    1297App   20.844453  1402Ap    20.976790  1298App   21.076527  
    1403Ap    21.559031  1404Ap    21.666231  1405Ap    22.442147  
    1299App   22.475386  1406Ap    22.903427  1407Ap    23.074224  
    1300App   23.173034  1408Ap    49.893872  1409Ap    51.253578  
    1301App   51.261961  1410Ap    53.684286  1302App   53.825776  
    1411Ap    54.537920  1303App   54.576249  1412Ap    55.728335  
    1304App   55.737121  1413Ap    58.806588  1414Ap    58.939332  
    1305App   58.949745  1306App   59.743878  1415Ap    60.476972  
    1307App   60.614389  1416Ap    60.792372  1308App   60.998187  
    1417Ap    61.937868  1418Ap    62.568946  1419Ap    63.686490  
    1309App   63.748653  1420Ap    64.538089  1421Ap    64.870184  
    1310App   65.069282  

    Final Occupation by Irrep:
             Ap   App 
    DOCC [    43,   35 ]
    NA   [    43,   35 ]
    NB   [    43,   35 ]

  @DF-RKS Final Energy:  -921.05093041029647

   => Energetics <=

    Nuclear Repulsion Energy =           1837.3306649843179912
    One-Electron Energy =               -4896.2438259020173064
    Two-Electron Energy =                2271.7255364491734326
    DFT Exchange-Correlation Energy =    -133.8418031346584485
    Empirical Dispersion Energy =          -0.0215028071120971
    VV10 Nonlocal Energy =                  0.0000000000000000
    Total Energy =                       -921.0509304102964734

Computation Completed


Properties will be evaluated at   0.000000,   0.000000,   0.000000 [a0]

Properties computed using the SCF density matrix


 Multipole Moments:

 ------------------------------------------------------------------------------------
     Multipole            Electronic (a.u.)      Nuclear  (a.u.)        Total (a.u.)
 ------------------------------------------------------------------------------------

 L = 1.  Multiply by 2.5417464519 to convert [e a0] to [Debye]
 Dipole X            :        228.9100670         -228.9101020           -0.0000349
 Dipole Y            :          0.0000000           -0.0000000           -0.0000000
 Dipole Z            :        509.7035079         -509.7045283           -0.0010204
 Magnitude           :                                                    0.0010210

 ------------------------------------------------------------------------------------

*** tstop() called on atl1-1-02-004-2-2.pace.gatech.edu at Sat Jun 13 11:45:09 2026
Module time:
	user time   =   12209.45 seconds =     203.49 minutes
	system time =    1111.45 seconds =      18.52 minutes
	total time  =       2294 seconds =      38.23 minutes
Total time:
	user time   =   12209.45 seconds =     203.49 minutes
	system time =    1111.45 seconds =      18.52 minutes
	total time  =       2294 seconds =      38.23 minutes

    Psi4 stopped on: Saturday, 13 June 2026 11:45AM
    Psi4 wall time for execution: 0:38:21.78

*** Psi4 exiting successfully. Buy a developer a beer!
