
    -----------------------------------------------------------------------
          Psi4: An Open-Source Ab Initio Electronic Structure Package
                               Psi4 1.9.1 release

                         Git: Rev {} zzzzzzz 


    D. G. A. Smith, L. A. Burns, A. C. Simmonett, R. M. Parrish,
    M. C. Schieber, R. Galvelis, P. Kraus, H. Kruse, R. Di Remigio,
    A. Alenaizan, A. M. James, S. Lehtola, J. P. Misiewicz, M. Scheurer,
    R. A. Shaw, J. B. Schriber, Y. Xie, Z. L. Glick, D. A. Sirianni,
    J. S. O'Brien, J. M. Waldrop, A. Kumar, E. G. Hohenstein,
    B. P. Pritchard, B. R. Brooks, H. F. Schaefer III, A. Yu. Sokolov,
    K. Patkowski, A. E. DePrince III, U. Bozkaya, R. A. King,
    F. A. Evangelista, J. M. Turney, T. D. Crawford, C. D. Sherrill,
    J. Chem. Phys. 152(18) 184108 (2020). https://doi.org/10.1063/5.0006002

                            Additional Code Authors
    E. T. Seidl, C. L. Janssen, E. F. Valeev, M. L. Leininger,
    J. F. Gonthier, R. M. Richard, H. R. McAlexander, M. Saitow, X. Wang,
    P. Verma, M. H. Lechner, A. Jiang, S. Behnle, A. G. Heide,
    M. F. Herbst, and D. L. Poole

             Previous Authors, Complete List of Code Contributors,
                       and Citations for Specific Modules
    https://github.com/psi4/psi4/blob/master/codemeta.json
    https://github.com/psi4/psi4/graphs/contributors
    http://psicode.org/psi4manual/master/introduction.html#citing-psifour

    -----------------------------------------------------------------------


    Psi4 started on: Saturday, 13 June 2026 11:17AM

    Process ID: 3914760
    Host:       atl1-1-03-004-14-1.pace.gatech.edu
    PSIDATADIR: /storage/home/hcoda1/5/vlita3/.conda/envs/p4_qcml/share/psi4
    Memory:     250.0 GiB
    Threads:    10
    
  ==> Input QCSchema <==

--------------------------------------------------------------------------
{'driver': 'energy',
 'extras': {},
 'id': '217',
 'keywords': {},
 'model': {'basis': 'aug-cc-pvtz', 'method': 'pbe-d3'},
 'molecule': {'extras': {},
              'fix_com': True,
              'fix_orientation': True,
              'fragment_charges': [0.0, 0.0],
              'fragment_multiplicities': [1, 1],
              'fragments': [[0, 1, 2, 3, 4, 5, 6, 7, 8, 9, 10, 11, 12, 13, 14, 15, 16, 17, 18, 19, 20, 21, 22, 23, 24,
                             25, 26, 27, 28, 29, 30, 31, 32, 33, 34, 35, 36, 37, 38, 39, 40, 41, 42, 43, 44, 45, 46, 47,
                             48, 49, 50, 51, 52, 53, 54, 55, 56, 57, 58, 59, 60, 61, 62, 63, 64, 65, 66, 67, 68, 69, 70,
                             71],
                            [72, 73, 74, 75, 76, 77, 78, 79, 80, 81, 82, 83, 84, 85, 86, 87, 88, 89, 90, 91]],
              'geometry': [-0.27392714, 6.18819166, -1.19323544, -2.46344698, 5.77825337, -2.60449614, -4.6940608,
                           5.39705781, -1.25234985, -4.71896739, 5.33938337, 1.40379628, -2.51326016, 5.65638493,
                           2.81229042, -0.29786241, 6.1264921, 1.46128175, -7.4236946, 4.94664159, -2.11437677,
                           -8.0102089, 2.21933216, -1.3518118, -8.03725088, 2.16388759, 1.30730308, -7.46490952,
                           4.85601033, 2.19433108, -8.21278754, 0.01810099, -2.78449255, -8.41651891, -2.24308601,
                           -1.44718061, -8.44656555, -2.29788807, 1.20944929, -8.27108559, -0.09424159, 2.64331111,
                           -8.82968863, 6.36030791, 0.05739419, 2.39027678, 6.99321499, -1.97848656, 2.35234998,
                           6.89052727, 2.33048585, 4.24147139, 4.87579576, 1.47132186, 4.26509297, 4.93957402,
                           -1.18371122, 5.91295305, 3.35513315, 2.83024282, 7.66850862, 1.97164575, 1.43096487,
                           7.69269711, 2.03631218, -1.22332744, 5.96134893, 3.48626124, -2.58482409, 2.91214355,
                           8.90127146, 0.22748523, 9.87956377, 0.34201964, -2.07607202, 9.16122218, -2.35520346,
                           -1.32189933, 9.13548411, -2.42066358, 1.33912796, 9.83927481, 0.23553924, 2.23913649,
                           8.55002806, -4.47912335, -2.729596, 7.90073706, -6.7005909, -1.42801501, 7.87418641,
                           -6.76523843, 1.20657123, 8.49702124, -4.61078057, 2.62830668, 11.77284258, 0.92596769,
                           0.1150709, -8.31764844, -5.08264518, 1.9809621, -5.66577687, -5.91321761, 1.16915466,
                           -5.63425624, -5.85826437, -1.48990165, -8.26696598, -4.99384695, -2.32929532, -3.49926256,
                           -6.47956853, 2.52781105, -1.27490751, -7.03089613, 1.18478458, -1.24350593, -6.97650981,
                           -1.44679133, -3.43540871, -6.36901955, -2.81856431, -9.87669139, -6.270716, -0.2182029,
                           -2.4529401, 5.84171037, -4.65828828, -2.54030214, 5.62747212, 4.86674397, -7.86022133,
                           5.46728004, -4.05896164, -7.93792687, 5.29540945, 4.15038659, -8.11773431, 0.05695332,
                           -4.83605482, -8.21892915, -0.14041005, 4.69617729, -8.40519945, 8.38335422, 0.10379812,
                           -10.87140543, 6.03249712, 0.03110168, 2.58575005, 7.68646102, -3.90969218, 2.51428061,
                           7.49055311, 4.29570653, 5.92036077, 3.32542665, 4.88460188, 6.00539845, 3.55672913,
                           -4.63769027, 1.57808761, 10.48166831, 0.25357668, 4.86729199, 9.57563912, 0.26070473,
                           10.52462179, 0.60197793, -4.01470426, 10.44833354, 0.39868497, 4.19987852, 8.5531839,
                           -4.43267388, -4.7823677, 7.42214502, -8.39155563, -2.48982755, 7.37512864, -8.50599744,
                           2.1742055, 8.4600204, -4.66543145, 4.68064374, 12.34503276, 2.91199237, 0.16959272,
                           13.42257349, -0.321261, 0.09956022, -8.86591468, -5.52843157, 3.91606055, -8.76902842,
                           -5.35979242, -4.29349555, -3.50574432, -6.49980749, 4.58215122, 0.4449946, -7.48906022,
                           2.20842844, 0.50076797, -7.39238184, -2.44683628, -3.39254972, -6.30418305, -4.87158167,
                           -11.84561594, -5.6407569, -0.22849246, -9.76051103, -8.33473156, -0.2592572, 0.45225115,
                           -0.84580551, -2.67537976, 2.67838443, -1.53842793, -1.2866805, 2.65068104, -1.59445642,
                           1.27425178, 0.39459182, -0.96458424, 2.64450164, -1.86313012, -0.39368286, 1.25325503,
                           -1.83502422, -0.33633346, -1.30877329, 0.51180775, -0.67721548, -5.30584073, 2.77402347,
                           -1.11680357, -6.67834882, 4.65792923, -1.46517081, -7.76197447, -1.67832057, -0.01779464,
                           -6.70601441, -3.49875233, 0.52904962, -7.81566159, 0.39835616, -0.91584254, 5.28048061,
                           2.63210503, -1.41763286, 6.67793308, 4.4946569, -1.81660506, 7.78079614, -1.82246132,
                           -0.32547131, 6.66298535, -3.66775054, 0.16586372, 7.75745803, 4.38153789, -2.03474371,
                           -2.30489896, 4.33176251, -2.13518265, 2.30622176, -3.59287959, 0.00412869, 2.26776584,
                           -3.54227272, 0.1076148, -2.34208877],
              'id': 11,
              'identifiers': {'molecular_formula': 'C54H34N4',
                              'molecule_hash': '4c8c81f85cb59bc3d701ac2a728348ee32004706'},
              'masses': [12.0, 12.0, 12.0, 12.0, 12.0, 12.0, 12.0, 12.0, 12.0, 12.0, 12.0, 12.0, 12.0, 12.0, 12.0, 12.0,
                         12.0, 12.0, 12.0, 12.0, 12.0, 12.0, 12.0, 12.0, 12.0, 12.0, 12.0, 12.0, 12.0, 12.0, 12.0, 12.0,
                         12.0, 12.0, 12.0, 12.0, 12.0, 12.0, 12.0, 12.0, 12.0, 12.0, 1.00782503223, 1.00782503223,
                         1.00782503223, 1.00782503223, 1.00782503223, 1.00782503223, 1.00782503223, 1.00782503223,
                         1.00782503223, 1.00782503223, 1.00782503223, 1.00782503223, 1.00782503223, 1.00782503223,
                         1.00782503223, 1.00782503223, 1.00782503223, 1.00782503223, 1.00782503223, 1.00782503223,
                         1.00782503223, 1.00782503223, 1.00782503223, 1.00782503223, 1.00782503223, 1.00782503223,
                         1.00782503223, 1.00782503223, 1.00782503223, 1.00782503223, 12.0, 12.0, 12.0, 12.0, 12.0, 12.0,
                         12.0, 12.0, 14.00307400443, 12.0, 14.00307400443, 12.0, 12.0, 14.00307400443, 12.0,
                         14.00307400443, 1.00782503223, 1.00782503223, 1.00782503223, 1.00782503223],
              'molecular_charge': 0.0,
              'molecular_multiplicity': 1,
              'name': 'C54H34N4 ([1],[0])',
              'provenance': {'creator': 'QCElemental',
                             'routine': 'qcelemental.molparse.from_schema',
                             'version': '0.29.0'},
              'real': [False, False, False, False, False, False, False, False, False, False, False, False, False, False,
                       False, False, False, False, False, False, False, False, False, False, False, False, False, False,
                       False, False, False, False, False, False, False, False, False, False, False, False, False, False,
                       False, False, False, False, False, False, False, False, False, False, False, False, False, False,
                       False, False, False, False, False, False, False, False, False, False, False, False, False, False,
                       False, False, True, True, True, True, True, True, True, True, True, True, True, True, True, True,
                       True, True, True, True, True, True],
              'schema_name': 'qcschema_molecule',
              'schema_version': 2,
              'symbols': ['C', 'C', 'C', 'C', 'C', 'C', 'C', 'C', 'C', 'C', 'C', 'C', 'C', 'C', 'C', 'C', 'C', 'C', 'C',
                          'C', 'C', 'C', 'C', 'C', 'C', 'C', 'C', 'C', 'C', 'C', 'C', 'C', 'C', 'C', 'C', 'C', 'C', 'C',
                          'C', 'C', 'C', 'C', 'H', 'H', 'H', 'H', 'H', 'H', 'H', 'H', 'H', 'H', 'H', 'H', 'H', 'H', 'H',
                          'H', 'H', 'H', 'H', 'H', 'H', 'H', 'H', 'H', 'H', 'H', 'H', 'H', 'H', 'H', 'C', 'C', 'C', 'C',
                          'C', 'C', 'C', 'C', 'N', 'C', 'N', 'C', 'C', 'N', 'C', 'N', 'H', 'H', 'H', 'H'],
              'validated': True},
 'protocols': {},
 'provenance': {'creator': 'QCElemental', 'routine': 'qcelemental.models.results', 'version': '0.29.0'},
 'schema_name': 'qcschema_input',
 'schema_version': 1}
--------------------------------------------------------------------------

Scratch directory: /tmp/tmp_xrg0_tj_psi_scratch/
   => Libint2 <=

    Primary   basis highest AM E, G, H:  6, 6, 3
    Auxiliary basis highest AM E, G, H:  7, 7, 4
    Onebody   basis highest AM E, G, H:  -, -, -
    Solid Harmonics ordering:            Gaussian

*** tstart() called on atl1-1-03-004-14-1.pace.gatech.edu
*** at Sat Jun 13 11:18:00 2026

   => Loading Basis Set <=

    Name: AUG-CC-PVTZ
    Role: ORBITAL
    Keyword: BASIS
    atoms 1-42, 73-80, 82, 84-85, 87 entry C          line   239 file /storage/home/hcoda1/5/vlita3/.conda/envs/p4_qcml/share/psi4/basis/aug-cc-pvtz.gbs 
    atoms 43-72, 89-92               entry H          line    40 file /storage/home/hcoda1/5/vlita3/.conda/envs/p4_qcml/share/psi4/basis/aug-cc-pvtz.gbs 
    atoms 81, 83, 86, 88             entry N          line   285 file /storage/home/hcoda1/5/vlita3/.conda/envs/p4_qcml/share/psi4/basis/aug-cc-pvtz.gbs 

   => PBE-D3: Empirical Dispersion <=

    Grimme's -D3 (zero-damping) Dispersion Correction
    Grimme S.; Antony J.; Ehrlich S.; Krieg H. (2010), J. Chem. Phys., 132: 154104

        s6 =       1.000000
        s8 =       0.722000
       sr6 =       1.217000
    alpha6 =      14.000000
       sr8 =       1.000000


         ---------------------------------------------------------
                                   SCF
               by Justin Turney, Rob Parrish, Andy Simmonett
                          and Daniel G. A. Smith
                              RKS Reference
                       10 Threads, 256000 MiB Core
         ---------------------------------------------------------

  ==> Geometry <==

    Molecular point group: c1
    Full point group: C1

    Geometry (in Bohr), charge = 0, multiplicity = 1:

       Center              X                  Y                   Z               Mass       
    ------------   -----------------  -----------------  -----------------  -----------------
      Gh(C)          -0.273927140000     6.188191660000    -1.193235440000    12.000000000000
      Gh(C)          -2.463446980000     5.778253370000    -2.604496140000    12.000000000000
      Gh(C)          -4.694060800000     5.397057810000    -1.252349850000    12.000000000000
      Gh(C)          -4.718967390000     5.339383370000     1.403796280000    12.000000000000
      Gh(C)          -2.513260160000     5.656384930000     2.812290420000    12.000000000000
      Gh(C)          -0.297862410000     6.126492100000     1.461281750000    12.000000000000
      Gh(C)          -7.423694600000     4.946641590000    -2.114376770000    12.000000000000
      Gh(C)          -8.010208900000     2.219332160000    -1.351811800000    12.000000000000
      Gh(C)          -8.037250880000     2.163887590000     1.307303080000    12.000000000000
      Gh(C)          -7.464909520000     4.856010330000     2.194331080000    12.000000000000
      Gh(C)          -8.212787540000     0.018100990000    -2.784492550000    12.000000000000
      Gh(C)          -8.416518910000    -2.243086010000    -1.447180610000    12.000000000000
      Gh(C)          -8.446565550000    -2.297888070000     1.209449290000    12.000000000000
      Gh(C)          -8.271085590000    -0.094241590000     2.643311110000    12.000000000000
      Gh(C)          -8.829688630000     6.360307910000     0.057394190000    12.000000000000
      Gh(C)           2.390276780000     6.993214990000    -1.978486560000    12.000000000000
      Gh(C)           2.352349980000     6.890527270000     2.330485850000    12.000000000000
      Gh(C)           4.241471390000     4.875795760000     1.471321860000    12.000000000000
      Gh(C)           4.265092970000     4.939574020000    -1.183711220000    12.000000000000
      Gh(C)           5.912953050000     3.355133150000     2.830242820000    12.000000000000
      Gh(C)           7.668508620000     1.971645750000     1.430964870000    12.000000000000
      Gh(C)           7.692697110000     2.036312180000    -1.223327440000    12.000000000000
      Gh(C)           5.961348930000     3.486261240000    -2.584824090000    12.000000000000
      Gh(C)           2.912143550000     8.901271460000     0.227485230000    12.000000000000
      Gh(C)           9.879563770000     0.342019640000    -2.076072020000    12.000000000000
      Gh(C)           9.161222180000    -2.355203460000    -1.321899330000    12.000000000000
      Gh(C)           9.135484110000    -2.420663580000     1.339127960000    12.000000000000
      Gh(C)           9.839274810000     0.235539240000     2.239136490000    12.000000000000
      Gh(C)           8.550028060000    -4.479123350000    -2.729596000000    12.000000000000
      Gh(C)           7.900737060000    -6.700590900000    -1.428015010000    12.000000000000
      Gh(C)           7.874186410000    -6.765238430000     1.206571230000    12.000000000000
      Gh(C)           8.497021240000    -4.610780570000     2.628306680000    12.000000000000
      Gh(C)          11.772842580000     0.925967690000     0.115070900000    12.000000000000
      Gh(C)          -8.317648440000    -5.082645180000     1.980962100000    12.000000000000
      Gh(C)          -5.665776870000    -5.913217610000     1.169154660000    12.000000000000
      Gh(C)          -5.634256240000    -5.858264370000    -1.489901650000    12.000000000000
      Gh(C)          -8.266965980000    -4.993846950000    -2.329295320000    12.000000000000
      Gh(C)          -3.499262560000    -6.479568530000     2.527811050000    12.000000000000
      Gh(C)          -1.274907510000    -7.030896130000     1.184784580000    12.000000000000
      Gh(C)          -1.243505930000    -6.976509810000    -1.446791330000    12.000000000000
      Gh(C)          -3.435408710000    -6.369019550000    -2.818564310000    12.000000000000
      Gh(C)          -9.876691390000    -6.270716000000    -0.218202900000    12.000000000000
      Gh(H)          -2.452940100000     5.841710370000    -4.658288280000     1.007825032230
      Gh(H)          -2.540302140000     5.627472120000     4.866743970000     1.007825032230
      Gh(H)          -7.860221330000     5.467280040000    -4.058961640000     1.007825032230
      Gh(H)          -7.937926870000     5.295409450000     4.150386590000     1.007825032230
      Gh(H)          -8.117734310000     0.056953320000    -4.836054820000     1.007825032230
      Gh(H)          -8.218929150000    -0.140410050000     4.696177290000     1.007825032230
      Gh(H)          -8.405199450000     8.383354220000     0.103798120000     1.007825032230
      Gh(H)         -10.871405430000     6.032497120000     0.031101680000     1.007825032230
      Gh(H)           2.585750050000     7.686461020000    -3.909692180000     1.007825032230
      Gh(H)           2.514280610000     7.490553110000     4.295706530000     1.007825032230
      Gh(H)           5.920360770000     3.325426650000     4.884601880000     1.007825032230
      Gh(H)           6.005398450000     3.556729130000    -4.637690270000     1.007825032230
      Gh(H)           1.578087610000    10.481668310000     0.253576680000     1.007825032230
      Gh(H)           4.867291990000     9.575639120000     0.260704730000     1.007825032230
      Gh(H)          10.524621790000     0.601977930000    -4.014704260000     1.007825032230
      Gh(H)          10.448333540000     0.398684970000     4.199878520000     1.007825032230
      Gh(H)           8.553183900000    -4.432673880000    -4.782367700000     1.007825032230
      Gh(H)           7.422145020000    -8.391555630000    -2.489827550000     1.007825032230
      Gh(H)           7.375128640000    -8.505997440000     2.174205500000     1.007825032230
      Gh(H)           8.460020400000    -4.665431450000     4.680643740000     1.007825032230
      Gh(H)          12.345032760000     2.911992370000     0.169592720000     1.007825032230
      Gh(H)          13.422573490000    -0.321261000000     0.099560220000     1.007825032230
      Gh(H)          -8.865914680000    -5.528431570000     3.916060550000     1.007825032230
      Gh(H)          -8.769028420000    -5.359792420000    -4.293495550000     1.007825032230
      Gh(H)          -3.505744320000    -6.499807490000     4.582151220000     1.007825032230
      Gh(H)           0.444994600000    -7.489060220000     2.208428440000     1.007825032230
      Gh(H)           0.500767970000    -7.392381840000    -2.446836280000     1.007825032230
      Gh(H)          -3.392549720000    -6.304183050000    -4.871581670000     1.007825032230
      Gh(H)         -11.845615940000    -5.640756900000    -0.228492460000     1.007825032230
      Gh(H)          -9.760511030000    -8.334731560000    -0.259257200000     1.007825032230
         C            0.452251150000    -0.845805510000    -2.675379760000    12.000000000000
         C            2.678384430000    -1.538427930000    -1.286680500000    12.000000000000
         C            2.650681040000    -1.594456420000     1.274251780000    12.000000000000
         C            0.394591820000    -0.964584240000     2.644501640000    12.000000000000
         C           -1.863130120000    -0.393682860000     1.253255030000    12.000000000000
         C           -1.835024220000    -0.336333460000    -1.308773290000    12.000000000000
         C            0.511807750000    -0.677215480000    -5.305840730000    12.000000000000
         C            2.774023470000    -1.116803570000    -6.678348820000    12.000000000000
         N            4.657929230000    -1.465170810000    -7.761974470000    14.003074004430
         C           -1.678320570000    -0.017794640000    -6.706014410000    12.000000000000
         N           -3.498752330000     0.529049620000    -7.815661590000    14.003074004430
         C            0.398356160000    -0.915842540000     5.280480610000    12.000000000000
         C            2.632105030000    -1.417632860000     6.677933080000    12.000000000000
         N            4.494656900000    -1.816605060000     7.780796140000    14.003074004430
         C           -1.822461320000    -0.325471310000     6.662985350000    12.000000000000
         N           -3.667750540000     0.165863720000     7.757458030000    14.003074004430
         H            4.381537890000    -2.034743710000    -2.304898960000     1.007825032230
         H            4.331762510000    -2.135182650000     2.306221760000     1.007825032230
         H           -3.592879590000     0.004128690000     2.267765840000     1.007825032230
         H           -3.542272720000     0.107614800000    -2.342088770000     1.007825032230

  Running in c1 symmetry.

  Rotational constants: A =      0.00267  B =      0.00168  C =      0.00146 [cm^-1]
  Rotational constants: A =     80.12542  B =     50.33918  C =     43.84220 [MHz]
  Nuclear repulsion =  836.883087262661093

  Charge       = 0
  Multiplicity = 1
  Electrons    = 104
  Nalpha       = 52
  Nbeta        = 52

  ==> Algorithm <==

  SCF Algorithm Type is DF.
  DIIS enabled.
  MOM disabled.
  Fractional occupation disabled.
  Guess Type is SAD.
  Energy threshold   = 1.00e-06
  Density threshold  = 1.00e-06
  Integral threshold = 1.00e-12

  ==> Primary Basis <==

  Basis Set: AUG-CC-PVTZ
    Blend: AUG-CC-PVTZ
    Number of shells: 1118
    Number of basis functions: 3450
    Number of Cartesian functions: 4040
    Spherical Harmonics?: true
    Max angular momentum: 3

  ==> DFT Potential <==

   => LibXC <=

    Version 7.0.0
    S. Lehtola, C. Steigemann, M. J.T. Oliveira, and M. A.L. Marques.,  SoftwareX 7, 1–5 (2018) (10.1016/j.softx.2017.11.002)

   => Composite Functional: PBE-D3ZERO2B <= 

    PBE GGA Exchange-Correlation Functional

    J.P. Perdew et. al., Phys. Rev. Lett., 77(18), 3865-3868, 1996


    Deriv               =              1
    GGA                 =           TRUE
    Meta                =          FALSE

    Exchange Hybrid     =          FALSE
    MP2 Hybrid          =          FALSE

   => Exchange Functionals <=

    1.0000     XC_GGA_X_PBE

   => Correlation Functionals <=

    1.0000     XC_GGA_C_PBE

   => LibXC Density Thresholds  <==

    XC_GGA_C_PBE:  1.00E-12 
    XC_GGA_X_PBE:  1.00E-15 

   => Molecular Quadrature <=

    Radial Scheme          =       TREUTLER
    Pruning Scheme         =           NONE
    Nuclear Scheme         =       TREUTLER

    Blocking Scheme        =         OCTREE
    BS radius alpha        =              1
    Pruning alpha          =              1
    Radial Points          =             75
    Spherical Points       =            302
    Total Points           =        1810751
    Total Blocks           =          12182
    Max Points             =            256
    Max Functions          =           2258
    Weights Tolerance      =       1.00E-15

   => Loading Basis Set <=

    Name: (AUG-CC-PVTZ AUX)
    Role: JKFIT
    Keyword: DF_BASIS_SCF
    atoms 1-42, 73-80, 82, 84-85, 87 entry C          line   162 file /storage/home/hcoda1/5/vlita3/.conda/envs/p4_qcml/share/psi4/basis/aug-cc-pvtz-jkfit.gbs 
    atoms 43-72, 89-92               entry H          line    70 file /storage/home/hcoda1/5/vlita3/.conda/envs/p4_qcml/share/psi4/basis/aug-cc-pvtz-jkfit.gbs 
    atoms 81, 83, 86, 88             entry N          line   224 file /storage/home/hcoda1/5/vlita3/.conda/envs/p4_qcml/share/psi4/basis/aug-cc-pvtz-jkfit.gbs 

  ==> Integral Setup <==

  ==> DiskDFJK: Density-Fitted J/K Matrices <==

    J tasked:                  Yes
    K tasked:                   No
    wK tasked:                  No
    OpenMP threads:             10
    Integrals threads:          10
    Memory [MiB]:           172800
    Algorithm:                Disk
    Integral Cache:           NONE
    Schwarz Cutoff:          1E-12
    Fitting Condition:       1E-10

   => Auxiliary Basis Set <=

  Basis Set: (AUG-CC-PVTZ AUX)
    Blend: AUG-CC-PVTZ-JKFIT
    Number of shells: 2216
    Number of basis functions: 7596
    Number of Cartesian functions: 9468
    Spherical Harmonics?: true
    Max angular momentum: 4

  Minimum eigenvalue in the overlap matrix is 3.2999283483E-10.
  Reciprocal condition number of the overlap matrix is 8.9829939844E-12.
    Using canonical orthogonalization.
  Overall, 31 of 3450 possible MOs eliminated.


  ==> Pre-Iterations <==

  SCF Guess: Superposition of Atomic Densities via on-the-fly atomic UHF (no occupation information).

   -------------------------
    Irrep   Nso     Nmo    
   -------------------------
     A       3450    3419 
   -------------------------
    Total    3450    3419
   -------------------------

  ==> Iterations <==

                           Total Energy        Delta E     RMS |[F,P]|

   @DF-RKS iter SAD:  -676.74613812994107   -6.76746e+02   0.00000e+00 
   @DF-RKS iter   1:  -676.95016564170703   -2.04028e-01   4.31753e-04 DIIS/ADIIS
   @DF-RKS iter   2:  -676.12504401750823    8.25122e-01   5.55080e-04 DIIS/ADIIS
   @DF-RKS iter   3:  -677.61031446689799   -1.48527e+00   2.54554e-04 DIIS/ADIIS
   @DF-RKS iter   4:  -677.99397938358413   -3.83665e-01   6.14430e-05 DIIS
   @DF-RKS iter   5:  -677.98066424371643    1.33151e-02   7.83395e-05 DIIS
   @DF-RKS iter   6:  -678.01456317017698   -3.38989e-02   1.52141e-05 DIIS
   @DF-RKS iter   7:  -678.01583415541927   -1.27099e-03   3.23960e-06 DIIS
   @DF-RKS iter   8:  -678.01586205162459   -2.78962e-05   1.83454e-06 DIIS
   @DF-RKS iter   9:  -678.01585590592845    6.14570e-06   1.97153e-06 DIIS
   @DF-RKS iter  10:  -678.01589365666769   -3.77507e-05   1.79357e-07 DIIS
   @DF-RKS iter  11:  -678.01589378353503   -1.26867e-07   1.27697e-07 DIIS
  Energy and wave function converged.


  ==> Post-Iterations <==

   Electrons on quadrature grid:
      Ntotal   =  103.9998430639 ; deviation = -1.569e-04 

    Orbital Energies [Eh]
    ---------------------

    Doubly Occupied:                                                      

       1A    -14.032042     2A    -14.032025     3A    -14.032017  
       4A    -14.032002     5A    -10.013431     6A    -10.013414  
       7A     -9.990521     8A     -9.990483     9A     -9.970706  
      10A     -9.970701    11A     -9.970614    12A     -9.970604  
      13A     -9.962246    14A     -9.962156    15A     -9.961633  
      16A     -9.961537    17A     -0.887240    18A     -0.881768  
      19A     -0.866068    20A     -0.866032    21A     -0.858235  
      22A     -0.819020    23A     -0.774801    24A     -0.755642  
      25A     -0.704784    26A     -0.638098    27A     -0.625105  
      28A     -0.588984    29A     -0.552245    30A     -0.550728  
      31A     -0.519989    32A     -0.461529    33A     -0.456021  
      34A     -0.447558    35A     -0.436580    36A     -0.418018  
      37A     -0.407337    38A     -0.378570    39A     -0.369282  
      40A     -0.361739    41A     -0.360358    42A     -0.355315  
      43A     -0.354566    44A     -0.350129    45A     -0.349827  
      46A     -0.349583    47A     -0.346139    48A     -0.337896  
      49A     -0.336397    50A     -0.322424    51A     -0.306787  
      52A     -0.257533  

    Virtual:                                                              

      53A     -0.204265    54A     -0.108133    55A     -0.103811  
      56A     -0.080205    57A     -0.075132    58A     -0.042875  
      59A     -0.039529    60A     -0.038343    61A     -0.032967  
      62A     -0.032701    63A     -0.021291    64A     -0.014494  
      65A     -0.008550    66A     -0.007590    67A     -0.004131  
      68A      0.002336    69A      0.010912    70A      0.012603  
      71A      0.015749    72A      0.016284    73A      0.021256  
      74A      0.025510    75A      0.026886    76A      0.027260  
      77A      0.030145    78A      0.031215    79A      0.032706  
      80A      0.033759    81A      0.034152    82A      0.035485  
      83A      0.035532    84A      0.038725    85A      0.043522  
      86A      0.044559    87A      0.049987    88A      0.050842  
      89A      0.051156    90A      0.052112    91A      0.052792  
      92A      0.055004    93A      0.055488    94A      0.056727  
      95A      0.057180    96A      0.057521    97A      0.059045  
      98A      0.059834    99A      0.061213   100A      0.062128  
     101A      0.065208   102A      0.067132   103A      0.068029  
     104A      0.069882   105A      0.071603   106A      0.073276  
     107A      0.075104   108A      0.076347   109A      0.076443  
     110A      0.077873   111A      0.078160   112A      0.080419  
     113A      0.083511   114A      0.084609   115A      0.085310  
     116A      0.085422   117A      0.089187   118A      0.091181  
     119A      0.091667   120A      0.092272   121A      0.093655  
     122A      0.094678   123A      0.095520   124A      0.096956  
     125A      0.097809   126A      0.099544   127A      0.101881  
     128A      0.102957   129A      0.103114   130A      0.104437  
     131A      0.104576   132A      0.104911   133A      0.107355  
     134A      0.108968   135A      0.110804   136A      0.113275  
     137A      0.113666   138A      0.116225   139A      0.117117  
     140A      0.118204   141A      0.119006   142A      0.119251  
     143A      0.121167   144A      0.122554   145A      0.123312  
     146A      0.125339   147A      0.127769   148A      0.128863  
     149A      0.130835   150A      0.131031   151A      0.132801  
     152A      0.133121   153A      0.134095   154A      0.136214  
     155A      0.136622   156A      0.137483   157A      0.139823  
     158A      0.141016   159A      0.141448   160A      0.141853  
     161A      0.143511   162A      0.143845   163A      0.144266  
     164A      0.144678   165A      0.147021   166A      0.147311  
     167A      0.149349   168A      0.151833   169A      0.152610  
     170A      0.155408   171A      0.155750   172A      0.156927  
     173A      0.157119   174A      0.158056   175A      0.159633  
     176A      0.160235   177A      0.160785   178A      0.162914  
     179A      0.163089   180A      0.164035   181A      0.165616  
     182A      0.167653   183A      0.169351   184A      0.169926  
     185A      0.170412   186A      0.170897   187A      0.172642  
     188A      0.173739   189A      0.174024   190A      0.176076  
     191A      0.177165   192A      0.178344   193A      0.178481  
     194A      0.179239   195A      0.181229   196A      0.182144  
     197A      0.183155   198A      0.183458   199A      0.184585  
     200A      0.184894   201A      0.186299   202A      0.186652  
     203A      0.189356   204A      0.189584   205A      0.191144  
     206A      0.191930   207A      0.195131   208A      0.195522  
     209A      0.196634   210A      0.197756   211A      0.199530  
     212A      0.201148   213A      0.202014   214A      0.202352  
     215A      0.203270   216A      0.205440   217A      0.205654  
     218A      0.208665   219A      0.208752   220A      0.210994  
     221A      0.211747   222A      0.212198   223A      0.213145  
     224A      0.215581   225A      0.215900   226A      0.216106  
     227A      0.217016   228A      0.217128   229A      0.219495  
     230A      0.219892   231A      0.220361   232A      0.224034  
     233A      0.225418   234A      0.225615   235A      0.226699  
     236A      0.227165   237A      0.227943   238A      0.229458  
     239A      0.231293   240A      0.231371   241A      0.232709  
     242A      0.232779   243A      0.235146   244A      0.235769  
     245A      0.238143   246A      0.238921   247A      0.240269  
     248A      0.241010   249A      0.241581   250A      0.242609  
     251A      0.243099   252A      0.245020   253A      0.246898  
     254A      0.247125   255A      0.248395   256A      0.248996  
     257A      0.250588   258A      0.250815   259A      0.252400  
     260A      0.252563   261A      0.254312   262A      0.255613  
     263A      0.256224   264A      0.257210   265A      0.257803  
     266A      0.258947   267A      0.259628   268A      0.261783  
     269A      0.262042   270A      0.263013   271A      0.264199  
     272A      0.265149   273A      0.265589   274A      0.267356  
     275A      0.268567   276A      0.269298   277A      0.269430  
     278A      0.271970   279A      0.272070   280A      0.272238  
     281A      0.274407   282A      0.275087   283A      0.275771  
     284A      0.277520   285A      0.277953   286A      0.279811  
     287A      0.281857   288A      0.282154   289A      0.283881  
     290A      0.284497   291A      0.284934   292A      0.286679  
     293A      0.287907   294A      0.288133   295A      0.289611  
     296A      0.290876   297A      0.292788   298A      0.293095  
     299A      0.294212   300A      0.296502   301A      0.296667  
     302A      0.298460   303A      0.299314   304A      0.301212  
     305A      0.303003   306A      0.303852   307A      0.304452  
     308A      0.305156   309A      0.306204   310A      0.307720  
     311A      0.307983   312A      0.309204   313A      0.310123  
     314A      0.312715   315A      0.313250   316A      0.314628  
     317A      0.316367   318A      0.317370   319A      0.317741  
     320A      0.319336   321A      0.319612   322A      0.320589  
     323A      0.321090   324A      0.324220   325A      0.324272  
     326A      0.325348   327A      0.325479   328A      0.328194  
     329A      0.328369   330A      0.330203   331A      0.331716  
     332A      0.334217   333A      0.334869   334A      0.336638  
     335A      0.337947   336A      0.338886   337A      0.339662  
     338A      0.340034   339A      0.344790   340A      0.345256  
     341A      0.345598   342A      0.346388   343A      0.346813  
     344A      0.347959   345A      0.352013   346A      0.354054  
     347A      0.355692   348A      0.355961   349A      0.357187  
     350A      0.358788   351A      0.359148   352A      0.360402  
     353A      0.364112   354A      0.364189   355A      0.364983  
     356A      0.365111   357A      0.368681   358A      0.368791  
     359A      0.369035   360A      0.371639   361A      0.373324  
     362A      0.374460   363A      0.376315   364A      0.376452  
     365A      0.377518   366A      0.380635   367A      0.382620  
     368A      0.382933   369A      0.385015   370A      0.385900  
     371A      0.388601   372A      0.388725   373A      0.389802  
     374A      0.392796   375A      0.394025   376A      0.395414  
     377A      0.399123   378A      0.399696   379A      0.399993  
     380A      0.401684   381A      0.402585   382A      0.403309  
     383A      0.405017   384A      0.407123   385A      0.407252  
     386A      0.408473   387A      0.409844   388A      0.410207  
     389A      0.412691   390A      0.413888   391A      0.414590  
     392A      0.416815   393A      0.418846   394A      0.419751  
     395A      0.420641   396A      0.420855   397A      0.422589  
     398A      0.423260   399A      0.425101   400A      0.426414  
     401A      0.427451   402A      0.427874   403A      0.428883  
     404A      0.432405   405A      0.432854   406A      0.433735  
     407A      0.435923   408A      0.436914   409A      0.439398  
     410A      0.441095   411A      0.442940   412A      0.444034  
     413A      0.444691   414A      0.447615   415A      0.448108  
     416A      0.448886   417A      0.449002   418A      0.451571  
     419A      0.452346   420A      0.453093   421A      0.454710  
     422A      0.455013   423A      0.457046   424A      0.457374  
     425A      0.457468   426A      0.460164   427A      0.460693  
     428A      0.462713   429A      0.463913   430A      0.465292  
     431A      0.466947   432A      0.468863   433A      0.469448  
     434A      0.470234   435A      0.471559   436A      0.472240  
     437A      0.473377   438A      0.474813   439A      0.475107  
     440A      0.477684   441A      0.478408   442A      0.478651  
     443A      0.480267   444A      0.481128   445A      0.481495  
     446A      0.484460   447A      0.485180   448A      0.486986  
     449A      0.490994   450A      0.491141   451A      0.491806  
     452A      0.493703   453A      0.494318   454A      0.495096  
     455A      0.496929   456A      0.497744   457A      0.498850  
     458A      0.499080   459A      0.500198   460A      0.502112  
     461A      0.502790   462A      0.503093   463A      0.504555  
     464A      0.505585   465A      0.507945   466A      0.508234  
     467A      0.509851   468A      0.511524   469A      0.511921  
     470A      0.514619   471A      0.515234   472A      0.516311  
     473A      0.516546   474A      0.517489   475A      0.517525  
     476A      0.518832   477A      0.520185   478A      0.523067  
     479A      0.523646   480A      0.524476   481A      0.525380  
     482A      0.526711   483A      0.528748   484A      0.530746  
     485A      0.531017   486A      0.532024   487A      0.532356  
     488A      0.534209   489A      0.535352   490A      0.536032  
     491A      0.539226   492A      0.539496   493A      0.541893  
     494A      0.543496   495A      0.544728   496A      0.545728  
     497A      0.548642   498A      0.548967   499A      0.549538  
     500A      0.549932   501A      0.551732   502A      0.552210  
     503A      0.553964   504A      0.554083   505A      0.555066  
     506A      0.556666   507A      0.558474   508A      0.561002  
     509A      0.561958   510A      0.562034   511A      0.564565  
     512A      0.566717   513A      0.566869   514A      0.568613  
     515A      0.568731   516A      0.570642   517A      0.571499  
     518A      0.572196   519A      0.573331   520A      0.574237  
     521A      0.576613   522A      0.577099   523A      0.577859  
     524A      0.579770   525A      0.582395   526A      0.583128  
     527A      0.583588   528A      0.586292   529A      0.588035  
     530A      0.588159   531A      0.589424   532A      0.590806  
     533A      0.591490   534A      0.595514   535A      0.596413  
     536A      0.596919   537A      0.597221   538A      0.598338  
     539A      0.599953   540A      0.600275   541A      0.603289  
     542A      0.603682   543A      0.604217   544A      0.606790  
     545A      0.606977   546A      0.609272   547A      0.613135  
     548A      0.613318   549A      0.614479   550A      0.615120  
     551A      0.616355   552A      0.616574   553A      0.617735  
     554A      0.617944   555A      0.621945   556A      0.624042  
     557A      0.624706   558A      0.625873   559A      0.627340  
     560A      0.627467   561A      0.629232   562A      0.629532  
     563A      0.631090   564A      0.633908   565A      0.634403  
     566A      0.636153   567A      0.637553   568A      0.638861  
     569A      0.639736   570A      0.640403   571A      0.644026  
     572A      0.644267   573A      0.645397   574A      0.646473  
     575A      0.647382   576A      0.648719   577A      0.649791  
     578A      0.650452   579A      0.651412   580A      0.652529  
     581A      0.655811   582A      0.656293   583A      0.656852  
     584A      0.657192   585A      0.659377   586A      0.660557  
     587A      0.661457   588A      0.662695   589A      0.663997  
     590A      0.664494   591A      0.666540   592A      0.668912  
     593A      0.669297   594A      0.670731   595A      0.672129  
     596A      0.673015   597A      0.675633   598A      0.676575  
     599A      0.677145   600A      0.679062   601A      0.680443  
     602A      0.682673   603A      0.683408   604A      0.685037  
     605A      0.685449   606A      0.686650   607A      0.688393  
     608A      0.691031   609A      0.691990   610A      0.692736  
     611A      0.693786   612A      0.695508   613A      0.696248  
     614A      0.697209   615A      0.698371   616A      0.699892  
     617A      0.702199   618A      0.702453   619A      0.703621  
     620A      0.704412   621A      0.705733   622A      0.707323  
     623A      0.708814   624A      0.710033   625A      0.712502  
     626A      0.713455   627A      0.714562   628A      0.714663  
     629A      0.714836   630A      0.716759   631A      0.717406  
     632A      0.719550   633A      0.720629   634A      0.721255  
     635A      0.721938   636A      0.722955   637A      0.724911  
     638A      0.730012   639A      0.730342   640A      0.730678  
     641A      0.731928   642A      0.733442   643A      0.734666  
     644A      0.735698   645A      0.737699   646A      0.738344  
     647A      0.739521   648A      0.739792   649A      0.741305  
     650A      0.742609   651A      0.743848   652A      0.745157  
     653A      0.747636   654A      0.750584   655A      0.751879  
     656A      0.752296   657A      0.753273   658A      0.755043  
     659A      0.756455   660A      0.757111   661A      0.758343  
     662A      0.758928   663A      0.763014   664A      0.765262  
     665A      0.765530   666A      0.767654   667A      0.768947  
     668A      0.769205   669A      0.769832   670A      0.770450  
     671A      0.772503   672A      0.772904   673A      0.775376  
     674A      0.776855   675A      0.778158   676A      0.778724  
     677A      0.781308   678A      0.781605   679A      0.782411  
     680A      0.784434   681A      0.786454   682A      0.787566  
     683A      0.788504   684A      0.790497   685A      0.790855  
     686A      0.792573   687A      0.793305   688A      0.793995  
     689A      0.796462   690A      0.798911   691A      0.801282  
     692A      0.802501   693A      0.803296   694A      0.805277  
     695A      0.806429   696A      0.808621   697A      0.808993  
     698A      0.810450   699A      0.811354   700A      0.813687  
     701A      0.814511   702A      0.816698   703A      0.818464  
     704A      0.818948   705A      0.820955   706A      0.821598  
     707A      0.822279   708A      0.822534   709A      0.825533  
     710A      0.827290   711A      0.828107   712A      0.829478  
     713A      0.831069   714A      0.832130   715A      0.832985  
     716A      0.835477   717A      0.835878   718A      0.837165  
     719A      0.839681   720A      0.840729   721A      0.842764  
     722A      0.843167   723A      0.843932   724A      0.845653  
     725A      0.846254   726A      0.846715   727A      0.848370  
     728A      0.850147   729A      0.851723   730A      0.853366  
     731A      0.853586   732A      0.855570   733A      0.856748  
     734A      0.858977   735A      0.859240   736A      0.860058  
     737A      0.862843   738A      0.863936   739A      0.865908  
     740A      0.867280   741A      0.867693   742A      0.870716  
     743A      0.870922   744A      0.873430   745A      0.874444  
     746A      0.875074   747A      0.878391   748A      0.880183  
     749A      0.880916   750A      0.881983   751A      0.883431  
     752A      0.883832   753A      0.885265   754A      0.887269  
     755A      0.890300   756A      0.890829   757A      0.892515  
     758A      0.892843   759A      0.894112   760A      0.896068  
     761A      0.897866   762A      0.899078   763A      0.899392  
     764A      0.902076   765A      0.902510   766A      0.904999  
     767A      0.906588   768A      0.907519   769A      0.908862  
     770A      0.909648   771A      0.909916   772A      0.911949  
     773A      0.912000   774A      0.912583   775A      0.916470  
     776A      0.917299   777A      0.919284   778A      0.920614  
     779A      0.922328   780A      0.922431   781A      0.923720  
     782A      0.925880   783A      0.926434   784A      0.927322  
     785A      0.927539   786A      0.929489   787A      0.930172  
     788A      0.932206   789A      0.934617   790A      0.934906  
     791A      0.937625   792A      0.939347   793A      0.940436  
     794A      0.940559   795A      0.941943   796A      0.943514  
     797A      0.944465   798A      0.945821   799A      0.948326  
     800A      0.949332   801A      0.950018   802A      0.950123  
     803A      0.951752   804A      0.955550   805A      0.956730  
     806A      0.959336   807A      0.961579   808A      0.962731  
     809A      0.963940   810A      0.966102   811A      0.966619  
     812A      0.968258   813A      0.969045   814A      0.970068  
     815A      0.971862   816A      0.972778   817A      0.974191  
     818A      0.975074   819A      0.979000   820A      0.979133  
     821A      0.981946   822A      0.983446   823A      0.985292  
     824A      0.985519   825A      0.986782   826A      0.987148  
     827A      0.990317   828A      0.991993   829A      0.993636  
     830A      0.994406   831A      0.995915   832A      0.998711  
     833A      0.999886   834A      1.001527   835A      1.001657  
     836A      1.003035   837A      1.003491   838A      1.005418  
     839A      1.007809   840A      1.008100   841A      1.010983  
     842A      1.011281   843A      1.012428   844A      1.015393  
     845A      1.015967   846A      1.016629   847A      1.019095  
     848A      1.019922   849A      1.022458   850A      1.025947  
     851A      1.026098   852A      1.027203   853A      1.029706  
     854A      1.030877   855A      1.031864   856A      1.033408  
     857A      1.034814   858A      1.037102   859A      1.037328  
     860A      1.038146   861A      1.038964   862A      1.039804  
     863A      1.042272   864A      1.044060   865A      1.044758  
     866A      1.045479   867A      1.047993   868A      1.049976  
     869A      1.050879   870A      1.050951   871A      1.054259  
     872A      1.056127   873A      1.057525   874A      1.057833  
     875A      1.059815   876A      1.060887   877A      1.062920  
     878A      1.064144   879A      1.064855   880A      1.065918  
     881A      1.066351   882A      1.068434   883A      1.071612  
     884A      1.073396   885A      1.074687   886A      1.075830  
     887A      1.078712   888A      1.079924   889A      1.081599  
     890A      1.082725   891A      1.084805   892A      1.086077  
     893A      1.086424   894A      1.088526   895A      1.089708  
     896A      1.091879   897A      1.093459   898A      1.096185  
     899A      1.096772   900A      1.099340   901A      1.100598  
     902A      1.101904   903A      1.104372   904A      1.104560  
     905A      1.104721   906A      1.106764   907A      1.107409  
     908A      1.110834   909A      1.113076   910A      1.114046  
     911A      1.114327   912A      1.117146   913A      1.117368  
     914A      1.118694   915A      1.120011   916A      1.122476  
     917A      1.123181   918A      1.123421   919A      1.125010  
     920A      1.127575   921A      1.128896   922A      1.130992  
     923A      1.132065   924A      1.134014   925A      1.134517  
     926A      1.137817   927A      1.138234   928A      1.139150  
     929A      1.139995   930A      1.145092   931A      1.145925  
     932A      1.146504   933A      1.147676   934A      1.149999  
     935A      1.151344   936A      1.153249   937A      1.154281  
     938A      1.158120   939A      1.158928   940A      1.160947  
     941A      1.162192   942A      1.162870   943A      1.168120  
     944A      1.168761   945A      1.170244   946A      1.170447  
     947A      1.171849   948A      1.172489   949A      1.172742  
     950A      1.173617   951A      1.174994   952A      1.176036  
     953A      1.179472   954A      1.181091   955A      1.182970  
     956A      1.185817   957A      1.186502   958A      1.187826  
     959A      1.189254   960A      1.189989   961A      1.191398  
     962A      1.193538   963A      1.195350   964A      1.195750  
     965A      1.197329   966A      1.198439   967A      1.200194  
     968A      1.202117   969A      1.203587   970A      1.205109  
     971A      1.206874   972A      1.209135   973A      1.209776  
     974A      1.211236   975A      1.214504   976A      1.214649  
     977A      1.217759   978A      1.220079   979A      1.221794  
     980A      1.221949   981A      1.223987   982A      1.225266  
     983A      1.225701   984A      1.227950   985A      1.229973  
     986A      1.232227   987A      1.232622   988A      1.235524  
     989A      1.236226   990A      1.238584   991A      1.239199  
     992A      1.242804   993A      1.243340   994A      1.244432  
     995A      1.247008   996A      1.248928   997A      1.249729  
     998A      1.250742   999A      1.253819  1000A      1.254561  
    1001A      1.255324  1002A      1.256533  1003A      1.259728  
    1004A      1.260128  1005A      1.260481  1006A      1.262222  
    1007A      1.264002  1008A      1.264328  1009A      1.265316  
    1010A      1.266233  1011A      1.268661  1012A      1.269381  
    1013A      1.270967  1014A      1.275933  1015A      1.277510  
    1016A      1.277773  1017A      1.280110  1018A      1.281698  
    1019A      1.282752  1020A      1.283640  1021A      1.286077  
    1022A      1.286680  1023A      1.287203  1024A      1.288633  
    1025A      1.289371  1026A      1.291085  1027A      1.293541  
    1028A      1.298120  1029A      1.298575  1030A      1.299810  
    1031A      1.303207  1032A      1.303929  1033A      1.305627  
    1034A      1.305902  1035A      1.308171  1036A      1.308695  
    1037A      1.310877  1038A      1.311137  1039A      1.313373  
    1040A      1.314068  1041A      1.318035  1042A      1.319421  
    1043A      1.322151  1044A      1.322675  1045A      1.323991  
    1046A      1.326332  1047A      1.327928  1048A      1.328203  
    1049A      1.330158  1050A      1.330453  1051A      1.331981  
    1052A      1.336916  1053A      1.337705  1054A      1.338599  
    1055A      1.340052  1056A      1.341421  1057A      1.341999  
    1058A      1.345609  1059A      1.347243  1060A      1.348665  
    1061A      1.352337  1062A      1.352810  1063A      1.353455  
    1064A      1.354075  1065A      1.355759  1066A      1.356560  
    1067A      1.357280  1068A      1.358251  1069A      1.361735  
    1070A      1.363241  1071A      1.365183  1072A      1.366113  
    1073A      1.369419  1074A      1.371836  1075A      1.372740  
    1076A      1.374378  1077A      1.376517  1078A      1.377445  
    1079A      1.377952  1080A      1.380300  1081A      1.380862  
    1082A      1.382699  1083A      1.382897  1084A      1.387258  
    1085A      1.389073  1086A      1.391419  1087A      1.392493  
    1088A      1.393993  1089A      1.394762  1090A      1.395647  
    1091A      1.398005  1092A      1.400188  1093A      1.401930  
    1094A      1.402459  1095A      1.404197  1096A      1.405924  
    1097A      1.406528  1098A      1.408094  1099A      1.409513  
    1100A      1.409796  1101A      1.410913  1102A      1.412846  
    1103A      1.413233  1104A      1.414125  1105A      1.415222  
    1106A      1.417946  1107A      1.420070  1108A      1.422567  
    1109A      1.424059  1110A      1.426370  1111A      1.427911  
    1112A      1.429682  1113A      1.430778  1114A      1.434374  
    1115A      1.435902  1116A      1.436825  1117A      1.437741  
    1118A      1.439289  1119A      1.441820  1120A      1.442492  
    1121A      1.443517  1122A      1.445030  1123A      1.445363  
    1124A      1.448604  1125A      1.449937  1126A      1.450270  
    1127A      1.452739  1128A      1.453373  1129A      1.455132  
    1130A      1.458313  1131A      1.459646  1132A      1.461696  
    1133A      1.463099  1134A      1.464314  1135A      1.464517  
    1136A      1.465338  1137A      1.468225  1138A      1.468522  
    1139A      1.470637  1140A      1.471398  1141A      1.473324  
    1142A      1.474578  1143A      1.476695  1144A      1.477748  
    1145A      1.479572  1146A      1.480518  1147A      1.482027  
    1148A      1.482523  1149A      1.485853  1150A      1.486577  
    1151A      1.487758  1152A      1.489516  1153A      1.491929  
    1154A      1.492494  1155A      1.493969  1156A      1.495348  
    1157A      1.496250  1158A      1.496638  1159A      1.500582  
    1160A      1.501396  1161A      1.502544  1162A      1.504775  
    1163A      1.505124  1164A      1.505865  1165A      1.506309  
    1166A      1.507432  1167A      1.509469  1168A      1.510846  
    1169A      1.515228  1170A      1.515328  1171A      1.516596  
    1172A      1.517777  1173A      1.518094  1174A      1.518940  
    1175A      1.521064  1176A      1.521589  1177A      1.523121  
    1178A      1.526313  1179A      1.527104  1180A      1.527214  
    1181A      1.529214  1182A      1.530424  1183A      1.531366  
    1184A      1.532991  1185A      1.534296  1186A      1.535859  
    1187A      1.538204  1188A      1.538909  1189A      1.539326  
    1190A      1.540053  1191A      1.543402  1192A      1.543717  
    1193A      1.544674  1194A      1.548622  1195A      1.549005  
    1196A      1.549479  1197A      1.552055  1198A      1.553108  
    1199A      1.555277  1200A      1.556348  1201A      1.557340  
    1202A      1.557644  1203A      1.559150  1204A      1.559782  
    1205A      1.561045  1206A      1.564842  1207A      1.566556  
    1208A      1.567837  1209A      1.568774  1210A      1.571102  
    1211A      1.572255  1212A      1.574352  1213A      1.574961  
    1214A      1.575533  1215A      1.577448  1216A      1.578598  
    1217A      1.578757  1218A      1.580726  1219A      1.581996  
    1220A      1.585096  1221A      1.586517  1222A      1.588900  
    1223A      1.591653  1224A      1.592290  1225A      1.593277  
    1226A      1.595920  1227A      1.596792  1228A      1.597360  
    1229A      1.598495  1230A      1.599537  1231A      1.601533  
    1232A      1.602299  1233A      1.603970  1234A      1.607325  
    1235A      1.608103  1236A      1.608263  1237A      1.610623  
    1238A      1.611620  1239A      1.612147  1240A      1.613037  
    1241A      1.613440  1242A      1.615663  1243A      1.616163  
    1244A      1.619840  1245A      1.621912  1246A      1.623249  
    1247A      1.624684  1248A      1.625728  1249A      1.626611  
    1250A      1.628759  1251A      1.630399  1252A      1.630890  
    1253A      1.630985  1254A      1.634854  1255A      1.635912  
    1256A      1.636417  1257A      1.638011  1258A      1.639869  
    1259A      1.641385  1260A      1.641678  1261A      1.642020  
    1262A      1.643529  1263A      1.646051  1264A      1.646578  
    1265A      1.650056  1266A      1.650465  1267A      1.652076  
    1268A      1.654038  1269A      1.655128  1270A      1.656739  
    1271A      1.657348  1272A      1.659226  1273A      1.659662  
    1274A      1.660946  1275A      1.665384  1276A      1.665526  
    1277A      1.666425  1278A      1.666665  1279A      1.669728  
    1280A      1.671864  1281A      1.672564  1282A      1.673444  
    1283A      1.676275  1284A      1.677356  1285A      1.677789  
    1286A      1.679903  1287A      1.683665  1288A      1.685160  
    1289A      1.686146  1290A      1.686752  1291A      1.688556  
    1292A      1.689251  1293A      1.693460  1294A      1.694773  
    1295A      1.696352  1296A      1.696880  1297A      1.700243  
    1298A      1.700677  1299A      1.701312  1300A      1.701654  
    1301A      1.704653  1302A      1.704923  1303A      1.706144  
    1304A      1.707818  1305A      1.708921  1306A      1.713146  
    1307A      1.714314  1308A      1.714636  1309A      1.715715  
    1310A      1.718075  1311A      1.719214  1312A      1.721054  
    1313A      1.721427  1314A      1.724222  1315A      1.725550  
    1316A      1.726186  1317A      1.728926  1318A      1.729385  
    1319A      1.731910  1320A      1.733153  1321A      1.734303  
    1322A      1.735788  1323A      1.736447  1324A      1.736890  
    1325A      1.739305  1326A      1.741574  1327A      1.741719  
    1328A      1.742610  1329A      1.745614  1330A      1.747183  
    1331A      1.747458  1332A      1.750193  1333A      1.751046  
    1334A      1.751281  1335A      1.753614  1336A      1.754931  
    1337A      1.755527  1338A      1.757910  1339A      1.759546  
    1340A      1.762280  1341A      1.764207  1342A      1.764490  
    1343A      1.765419  1344A      1.767318  1345A      1.768493  
    1346A      1.770484  1347A      1.773396  1348A      1.774914  
    1349A      1.775105  1350A      1.775757  1351A      1.777057  
    1352A      1.778818  1353A      1.780245  1354A      1.780586  
    1355A      1.783861  1356A      1.786218  1357A      1.787251  
    1358A      1.788411  1359A      1.788994  1360A      1.790178  
    1361A      1.792005  1362A      1.793276  1363A      1.796522  
    1364A      1.798925  1365A      1.799840  1366A      1.801231  
    1367A      1.802797  1368A      1.805375  1369A      1.806502  
    1370A      1.807089  1371A      1.809428  1372A      1.813046  
    1373A      1.813525  1374A      1.814023  1375A      1.815474  
    1376A      1.817191  1377A      1.819035  1378A      1.820236  
    1379A      1.820821  1380A      1.822362  1381A      1.823848  
    1382A      1.826661  1383A      1.828010  1384A      1.831268  
    1385A      1.831823  1386A      1.833583  1387A      1.834232  
    1388A      1.837077  1389A      1.838867  1390A      1.841168  
    1391A      1.841374  1392A      1.844316  1393A      1.845791  
    1394A      1.847811  1395A      1.848230  1396A      1.850385  
    1397A      1.851307  1398A      1.852555  1399A      1.854892  
    1400A      1.857246  1401A      1.859014  1402A      1.860358  
    1403A      1.861207  1404A      1.862583  1405A      1.863443  
    1406A      1.867039  1407A      1.869055  1408A      1.869751  
    1409A      1.872298  1410A      1.873984  1411A      1.875232  
    1412A      1.877622  1413A      1.878039  1414A      1.880617  
    1415A      1.882477  1416A      1.885149  1417A      1.886132  
    1418A      1.886763  1419A      1.888384  1420A      1.889367  
    1421A      1.890166  1422A      1.891155  1423A      1.893487  
    1424A      1.895878  1425A      1.896527  1426A      1.899645  
    1427A      1.900641  1428A      1.900814  1429A      1.903336  
    1430A      1.906531  1431A      1.907766  1432A      1.907933  
    1433A      1.910965  1434A      1.912713  1435A      1.915359  
    1436A      1.917353  1437A      1.918148  1438A      1.919714  
    1439A      1.921145  1440A      1.924815  1441A      1.925205  
    1442A      1.926370  1443A      1.926808  1444A      1.928464  
    1445A      1.928574  1446A      1.931386  1447A      1.931722  
    1448A      1.934723  1449A      1.935983  1450A      1.937547  
    1451A      1.939846  1452A      1.941128  1453A      1.942167  
    1454A      1.943418  1455A      1.943876  1456A      1.946191  
    1457A      1.947889  1458A      1.948608  1459A      1.949703  
    1460A      1.951268  1461A      1.955417  1462A      1.955789  
    1463A      1.957300  1464A      1.958090  1465A      1.960474  
    1466A      1.961100  1467A      1.964943  1468A      1.966293  
    1469A      1.969240  1470A      1.970072  1471A      1.971376  
    1472A      1.972157  1473A      1.973135  1474A      1.976709  
    1475A      1.979248  1476A      1.980670  1477A      1.982451  
    1478A      1.983583  1479A      1.987419  1480A      1.988477  
    1481A      1.989655  1482A      1.990208  1483A      1.992160  
    1484A      1.994149  1485A      1.994370  1486A      1.996752  
    1487A      1.997724  1488A      2.000734  1489A      2.003377  
    1490A      2.005062  1491A      2.006911  1492A      2.007598  
    1493A      2.009578  1494A      2.009889  1495A      2.013910  
    1496A      2.017355  1497A      2.019303  1498A      2.019888  
    1499A      2.020985  1500A      2.022243  1501A      2.024971  
    1502A      2.025577  1503A      2.026692  1504A      2.029012  
    1505A      2.029748  1506A      2.033021  1507A      2.033509  
    1508A      2.034465  1509A      2.035316  1510A      2.035845  
    1511A      2.040475  1512A      2.041012  1513A      2.041414  
    1514A      2.043455  1515A      2.046204  1516A      2.052927  
    1517A      2.053535  1518A      2.055637  1519A      2.056567  
    1520A      2.059746  1521A      2.060375  1522A      2.062229  
    1523A      2.063514  1524A      2.068988  1525A      2.069778  
    1526A      2.070008  1527A      2.071779  1528A      2.072475  
    1529A      2.073655  1530A      2.078046  1531A      2.079870  
    1532A      2.081447  1533A      2.082237  1534A      2.084350  
    1535A      2.086677  1536A      2.088414  1537A      2.088898  
    1538A      2.092938  1539A      2.093594  1540A      2.094580  
    1541A      2.095227  1542A      2.098972  1543A      2.101620  
    1544A      2.103608  1545A      2.104702  1546A      2.106144  
    1547A      2.107528  1548A      2.109116  1549A      2.109805  
    1550A      2.114076  1551A      2.114355  1552A      2.114823  
    1553A      2.118584  1554A      2.118675  1555A      2.122150  
    1556A      2.122966  1557A      2.123398  1558A      2.125470  
    1559A      2.129865  1560A      2.129943  1561A      2.132835  
    1562A      2.136160  1563A      2.137972  1564A      2.138704  
    1565A      2.142138  1566A      2.143398  1567A      2.145127  
    1568A      2.149599  1569A      2.150060  1570A      2.153500  
    1571A      2.154630  1572A      2.156896  1573A      2.158026  
    1574A      2.160609  1575A      2.161197  1576A      2.163327  
    1577A      2.166537  1578A      2.169677  1579A      2.169879  
    1580A      2.172158  1581A      2.175937  1582A      2.177716  
    1583A      2.177885  1584A      2.179236  1585A      2.179423  
    1586A      2.183449  1587A      2.184361  1588A      2.186573  
    1589A      2.188672  1590A      2.190661  1591A      2.192653  
    1592A      2.193187  1593A      2.197655  1594A      2.199442  
    1595A      2.200832  1596A      2.203179  1597A      2.206409  
    1598A      2.206815  1599A      2.208882  1600A      2.210190  
    1601A      2.212001  1602A      2.212572  1603A      2.217221  
    1604A      2.219972  1605A      2.220019  1606A      2.222537  
    1607A      2.227603  1608A      2.227717  1609A      2.229141  
    1610A      2.230540  1611A      2.232369  1612A      2.235586  
    1613A      2.236087  1614A      2.238157  1615A      2.243427  
    1616A      2.246292  1617A      2.249644  1618A      2.249746  
    1619A      2.252671  1620A      2.253700  1621A      2.254917  
    1622A      2.255236  1623A      2.261136  1624A      2.262346  
    1625A      2.263323  1626A      2.266075  1627A      2.267501  
    1628A      2.269729  1629A      2.270113  1630A      2.273582  
    1631A      2.276062  1632A      2.276928  1633A      2.278768  
    1634A      2.280483  1635A      2.282839  1636A      2.285484  
    1637A      2.289417  1638A      2.290125  1639A      2.292944  
    1640A      2.293860  1641A      2.295647  1642A      2.297367  
    1643A      2.299706  1644A      2.300442  1645A      2.301482  
    1646A      2.304995  1647A      2.306013  1648A      2.306824  
    1649A      2.311890  1650A      2.313579  1651A      2.315325  
    1652A      2.318498  1653A      2.319888  1654A      2.323238  
    1655A      2.325383  1656A      2.326121  1657A      2.328783  
    1658A      2.329616  1659A      2.332595  1660A      2.334538  
    1661A      2.335033  1662A      2.337949  1663A      2.339118  
    1664A      2.339874  1665A      2.343233  1666A      2.345242  
    1667A      2.345804  1668A      2.347060  1669A      2.351901  
    1670A      2.355395  1671A      2.355496  1672A      2.359692  
    1673A      2.360311  1674A      2.361945  1675A      2.364211  
    1676A      2.365058  1677A      2.365325  1678A      2.368384  
    1679A      2.369527  1680A      2.372072  1681A      2.375747  
    1682A      2.379097  1683A      2.382284  1684A      2.383342  
    1685A      2.384797  1686A      2.387667  1687A      2.389233  
    1688A      2.390949  1689A      2.394191  1690A      2.394785  
    1691A      2.396575  1692A      2.399634  1693A      2.402857  
    1694A      2.403432  1695A      2.405616  1696A      2.406689  
    1697A      2.407338  1698A      2.411018  1699A      2.412572  
    1700A      2.415354  1701A      2.415727  1702A      2.419361  
    1703A      2.420106  1704A      2.424818  1705A      2.427902  
    1706A      2.429151  1707A      2.430825  1708A      2.431570  
    1709A      2.432402  1710A      2.435485  1711A      2.436046  
    1712A      2.440961  1713A      2.441676  1714A      2.442007  
    1715A      2.443490  1716A      2.444231  1717A      2.447639  
    1718A      2.450248  1719A      2.452677  1720A      2.453155  
    1721A      2.456044  1722A      2.459671  1723A      2.462960  
    1724A      2.463647  1725A      2.465808  1726A      2.466847  
    1727A      2.471273  1728A      2.472307  1729A      2.476386  
    1730A      2.477949  1731A      2.480572  1732A      2.483131  
    1733A      2.485488  1734A      2.487924  1735A      2.488198  
    1736A      2.489577  1737A      2.490715  1738A      2.492741  
    1739A      2.493504  1740A      2.494816  1741A      2.496689  
    1742A      2.499127  1743A      2.501955  1744A      2.502507  
    1745A      2.502776  1746A      2.506264  1747A      2.512421  
    1748A      2.515701  1749A      2.516465  1750A      2.517691  
    1751A      2.520703  1752A      2.522139  1753A      2.523707  
    1754A      2.524709  1755A      2.527026  1756A      2.531053  
    1757A      2.532239  1758A      2.532623  1759A      2.535303  
    1760A      2.536018  1761A      2.542214  1762A      2.542622  
    1763A      2.544426  1764A      2.547052  1765A      2.548382  
    1766A      2.550587  1767A      2.551225  1768A      2.554089  
    1769A      2.555054  1770A      2.556116  1771A      2.560668  
    1772A      2.561736  1773A      2.562634  1774A      2.563169  
    1775A      2.566750  1776A      2.567615  1777A      2.568725  
    1778A      2.573022  1779A      2.574546  1780A      2.575472  
    1781A      2.578657  1782A      2.579002  1783A      2.580324  
    1784A      2.580852  1785A      2.582410  1786A      2.583379  
    1787A      2.588654  1788A      2.589613  1789A      2.590005  
    1790A      2.591046  1791A      2.591939  1792A      2.596310  
    1793A      2.601937  1794A      2.602691  1795A      2.604765  
    1796A      2.607955  1797A      2.608270  1798A      2.610255  
    1799A      2.611543  1800A      2.613929  1801A      2.616237  
    1802A      2.616853  1803A      2.620589  1804A      2.622699  
    1805A      2.623918  1806A      2.625514  1807A      2.626843  
    1808A      2.628755  1809A      2.629117  1810A      2.633468  
    1811A      2.634571  1812A      2.638894  1813A      2.641643  
    1814A      2.641702  1815A      2.644621  1816A      2.645839  
    1817A      2.649339  1818A      2.650459  1819A      2.657105  
    1820A      2.658638  1821A      2.659830  1822A      2.661149  
    1823A      2.662214  1824A      2.667440  1825A      2.668589  
    1826A      2.670170  1827A      2.672813  1828A      2.673450  
    1829A      2.675721  1830A      2.676205  1831A      2.682893  
    1832A      2.684128  1833A      2.684944  1834A      2.686910  
    1835A      2.690339  1836A      2.695921  1837A      2.697219  
    1838A      2.697879  1839A      2.700590  1840A      2.700761  
    1841A      2.704084  1842A      2.704702  1843A      2.707775  
    1844A      2.710146  1845A      2.712902  1846A      2.714280  
    1847A      2.718426  1848A      2.722640  1849A      2.723128  
    1850A      2.724435  1851A      2.724580  1852A      2.727728  
    1853A      2.731231  1854A      2.734248  1855A      2.734982  
    1856A      2.739251  1857A      2.740468  1858A      2.743161  
    1859A      2.743483  1860A      2.744367  1861A      2.745713  
    1862A      2.748873  1863A      2.751638  1864A      2.753768  
    1865A      2.757828  1866A      2.759270  1867A      2.761057  
    1868A      2.765641  1869A      2.766392  1870A      2.769347  
    1871A      2.770603  1872A      2.773964  1873A      2.775260  
    1874A      2.778207  1875A      2.783138  1876A      2.784267  
    1877A      2.784699  1878A      2.791311  1879A      2.793171  
    1880A      2.795576  1881A      2.796863  1882A      2.800518  
    1883A      2.800796  1884A      2.805080  1885A      2.805883  
    1886A      2.809554  1887A      2.812574  1888A      2.815084  
    1889A      2.816951  1890A      2.817254  1891A      2.817791  
    1892A      2.819296  1893A      2.823077  1894A      2.825440  
    1895A      2.827464  1896A      2.829178  1897A      2.832456  
    1898A      2.834697  1899A      2.836315  1900A      2.838678  
    1901A      2.839688  1902A      2.842818  1903A      2.843784  
    1904A      2.850412  1905A      2.854417  1906A      2.855626  
    1907A      2.858228  1908A      2.861929  1909A      2.863095  
    1910A      2.864451  1911A      2.868286  1912A      2.871576  
    1913A      2.872444  1914A      2.875248  1915A      2.877302  
    1916A      2.877538  1917A      2.882826  1918A      2.886984  
    1919A      2.888263  1920A      2.889323  1921A      2.892764  
    1922A      2.893380  1923A      2.896146  1924A      2.898043  
    1925A      2.899793  1926A      2.905413  1927A      2.910334  
    1928A      2.911490  1929A      2.912023  1930A      2.914408  
    1931A      2.918191  1932A      2.924594  1933A      2.926377  
    1934A      2.928912  1935A      2.931096  1936A      2.934333  
    1937A      2.934965  1938A      2.936091  1939A      2.937607  
    1940A      2.938650  1941A      2.942244  1942A      2.948413  
    1943A      2.951765  1944A      2.952853  1945A      2.955148  
    1946A      2.958721  1947A      2.960976  1948A      2.961799  
    1949A      2.963709  1950A      2.967070  1951A      2.968308  
    1952A      2.970187  1953A      2.970917  1954A      2.973253  
    1955A      2.975924  1956A      2.977711  1957A      2.983048  
    1958A      2.986323  1959A      2.987495  1960A      2.991268  
    1961A      2.997902  1962A      2.999716  1963A      3.001118  
    1964A      3.003377  1965A      3.006469  1966A      3.011032  
    1967A      3.013831  1968A      3.022972  1969A      3.023887  
    1970A      3.025980  1971A      3.026754  1972A      3.031910  
    1973A      3.032618  1974A      3.036191  1975A      3.040540  
    1976A      3.048107  1977A      3.050671  1978A      3.053228  
    1979A      3.053623  1980A      3.061494  1981A      3.062984  
    1982A      3.064203  1983A      3.065329  1984A      3.069567  
    1985A      3.069725  1986A      3.076980  1987A      3.077950  
    1988A      3.082170  1989A      3.085610  1990A      3.089252  
    1991A      3.090731  1992A      3.094800  1993A      3.095593  
    1994A      3.097478  1995A      3.103330  1996A      3.105610  
    1997A      3.107610  1998A      3.111316  1999A      3.115886  
    2000A      3.119606  2001A      3.124905  2002A      3.126471  
    2003A      3.127040  2004A      3.127327  2005A      3.134596  
    2006A      3.135928  2007A      3.137115  2008A      3.142696  
    2009A      3.148467  2010A      3.150963  2011A      3.151701  
    2012A      3.152252  2013A      3.154248  2014A      3.156994  
    2015A      3.158663  2016A      3.160888  2017A      3.164188  
    2018A      3.167499  2019A      3.171520  2020A      3.172563  
    2021A      3.178620  2022A      3.183717  2023A      3.185015  
    2024A      3.189252  2025A      3.189912  2026A      3.194942  
    2027A      3.195577  2028A      3.197586  2029A      3.200413  
    2030A      3.200993  2031A      3.205680  2032A      3.206409  
    2033A      3.209112  2034A      3.214047  2035A      3.217801  
    2036A      3.219120  2037A      3.223985  2038A      3.229799  
    2039A      3.232129  2040A      3.239977  2041A      3.243537  
    2042A      3.246302  2043A      3.247286  2044A      3.255404  
    2045A      3.256384  2046A      3.262502  2047A      3.264583  
    2048A      3.266782  2049A      3.270497  2050A      3.279333  
    2051A      3.282724  2052A      3.285490  2053A      3.291783  
    2054A      3.294114  2055A      3.294901  2056A      3.299064  
    2057A      3.300300  2058A      3.302746  2059A      3.305268  
    2060A      3.310214  2061A      3.310341  2062A      3.315182  
    2063A      3.320310  2064A      3.321718  2065A      3.325790  
    2066A      3.332037  2067A      3.333142  2068A      3.335869  
    2069A      3.339186  2070A      3.345772  2071A      3.347015  
    2072A      3.352262  2073A      3.353990  2074A      3.358158  
    2075A      3.359281  2076A      3.363192  2077A      3.365138  
    2078A      3.365883  2079A      3.367638  2080A      3.372015  
    2081A      3.374257  2082A      3.378510  2083A      3.388342  
    2084A      3.389439  2085A      3.392008  2086A      3.393215  
    2087A      3.395915  2088A      3.399912  2089A      3.403368  
    2090A      3.406918  2091A      3.410531  2092A      3.417800  
    2093A      3.419744  2094A      3.420431  2095A      3.423175  
    2096A      3.424038  2097A      3.428631  2098A      3.430090  
    2099A      3.435439  2100A      3.435924  2101A      3.438811  
    2102A      3.445176  2103A      3.447708  2104A      3.448972  
    2105A      3.450869  2106A      3.451544  2107A      3.455308  
    2108A      3.455908  2109A      3.461969  2110A      3.464826  
    2111A      3.467954  2112A      3.470584  2113A      3.473026  
    2114A      3.477352  2115A      3.479726  2116A      3.482118  
    2117A      3.486652  2118A      3.487791  2119A      3.488474  
    2120A      3.489663  2121A      3.496734  2122A      3.503673  
    2123A      3.511179  2124A      3.511756  2125A      3.518715  
    2126A      3.519486  2127A      3.522632  2128A      3.527261  
    2129A      3.528310  2130A      3.530903  2131A      3.533179  
    2132A      3.537710  2133A      3.540381  2134A      3.542435  
    2135A      3.551128  2136A      3.555981  2137A      3.557086  
    2138A      3.563927  2139A      3.567620  2140A      3.568940  
    2141A      3.569487  2142A      3.574893  2143A      3.578658  
    2144A      3.583490  2145A      3.588321  2146A      3.592474  
    2147A      3.595834  2148A      3.597980  2149A      3.599925  
    2150A      3.602979  2151A      3.606654  2152A      3.612020  
    2153A      3.614595  2154A      3.619246  2155A      3.624262  
    2156A      3.625329  2157A      3.625928  2158A      3.633160  
    2159A      3.634459  2160A      3.639159  2161A      3.639418  
    2162A      3.644481  2163A      3.646119  2164A      3.655560  
    2165A      3.656110  2166A      3.668061  2167A      3.669636  
    2168A      3.676512  2169A      3.678728  2170A      3.683999  
    2171A      3.689668  2172A      3.690512  2173A      3.693644  
    2174A      3.694337  2175A      3.706482  2176A      3.707752  
    2177A      3.713567  2178A      3.714383  2179A      3.714891  
    2180A      3.717637  2181A      3.724292  2182A      3.732097  
    2183A      3.734976  2184A      3.737871  2185A      3.741809  
    2186A      3.745433  2187A      3.746979  2188A      3.752181  
    2189A      3.757379  2190A      3.768122  2191A      3.768917  
    2192A      3.775426  2193A      3.782638  2194A      3.784377  
    2195A      3.787809  2196A      3.793960  2197A      3.795161  
    2198A      3.798971  2199A      3.802586  2200A      3.810416  
    2201A      3.817744  2202A      3.820856  2203A      3.834125  
    2204A      3.834505  2205A      3.838386  2206A      3.839084  
    2207A      3.844775  2208A      3.850295  2209A      3.855550  
    2210A      3.855997  2211A      3.861318  2212A      3.862500  
    2213A      3.870051  2214A      3.875211  2215A      3.880191  
    2216A      3.882813  2217A      3.888534  2218A      3.895335  
    2219A      3.900845  2220A      3.907021  2221A      3.908497  
    2222A      3.915541  2223A      3.916386  2224A      3.918857  
    2225A      3.919271  2226A      3.926157  2227A      3.937335  
    2228A      3.942991  2229A      3.948628  2230A      3.951730  
    2231A      3.953342  2232A      3.960181  2233A      3.966136  
    2234A      3.968898  2235A      3.974893  2236A      3.976854  
    2237A      3.979832  2238A      3.982315  2239A      3.982904  
    2240A      3.991459  2241A      3.998920  2242A      4.001947  
    2243A      4.002320  2244A      4.007183  2245A      4.011599  
    2246A      4.018074  2247A      4.025618  2248A      4.027323  
    2249A      4.029014  2250A      4.030614  2251A      4.050739  
    2252A      4.055235  2253A      4.057099  2254A      4.058876  
    2255A      4.065277  2256A      4.076373  2257A      4.078391  
    2258A      4.085233  2259A      4.086227  2260A      4.097843  
    2261A      4.099845  2262A      4.105051  2263A      4.107313  
    2264A      4.112999  2265A      4.116497  2266A      4.120507  
    2267A      4.120731  2268A      4.128405  2269A      4.129883  
    2270A      4.132855  2271A      4.134597  2272A      4.141437  
    2273A      4.148667  2274A      4.151058  2275A      4.160541  
    2276A      4.163786  2277A      4.170531  2278A      4.171211  
    2279A      4.177228  2280A      4.178631  2281A      4.180583  
    2282A      4.184501  2283A      4.187288  2284A      4.189778  
    2285A      4.192908  2286A      4.193731  2287A      4.199529  
    2288A      4.201512  2289A      4.204838  2290A      4.206508  
    2291A      4.211602  2292A      4.215111  2293A      4.222244  
    2294A      4.224946  2295A      4.225715  2296A      4.229963  
    2297A      4.231713  2298A      4.236723  2299A      4.238763  
    2300A      4.245352  2301A      4.246496  2302A      4.250583  
    2303A      4.254817  2304A      4.254952  2305A      4.256118  
    2306A      4.257086  2307A      4.262963  2308A      4.264980  
    2309A      4.266378  2310A      4.271226  2311A      4.271801  
    2312A      4.277385  2313A      4.278945  2314A      4.280375  
    2315A      4.284631  2316A      4.286364  2317A      4.288268  
    2318A      4.292773  2319A      4.294539  2320A      4.297122  
    2321A      4.300109  2322A      4.305629  2323A      4.306832  
    2324A      4.307936  2325A      4.310213  2326A      4.315079  
    2327A      4.317523  2328A      4.318083  2329A      4.322799  
    2330A      4.324086  2331A      4.330789  2332A      4.332653  
    2333A      4.339772  2334A      4.343242  2335A      4.343323  
    2336A      4.345182  2337A      4.348272  2338A      4.352083  
    2339A      4.356131  2340A      4.360009  2341A      4.361504  
    2342A      4.364799  2343A      4.369534  2344A      4.370689  
    2345A      4.372799  2346A      4.377786  2347A      4.378758  
    2348A      4.381267  2349A      4.381422  2350A      4.384270  
    2351A      4.385843  2352A      4.387562  2353A      4.388581  
    2354A      4.391767  2355A      4.399562  2356A      4.405369  
    2357A      4.406563  2358A      4.407311  2359A      4.412956  
    2360A      4.415885  2361A      4.416995  2362A      4.417481  
    2363A      4.422953  2364A      4.429898  2365A      4.430021  
    2366A      4.430638  2367A      4.434921  2368A      4.438565  
    2369A      4.440355  2370A      4.441394  2371A      4.444091  
    2372A      4.447253  2373A      4.448339  2374A      4.448632  
    2375A      4.449951  2376A      4.453613  2377A      4.454397  
    2378A      4.456405  2379A      4.460066  2380A      4.462471  
    2381A      4.464534  2382A      4.467405  2383A      4.468354  
    2384A      4.473586  2385A      4.475526  2386A      4.478473  
    2387A      4.479819  2388A      4.481470  2389A      4.485106  
    2390A      4.485942  2391A      4.489537  2392A      4.490616  
    2393A      4.491320  2394A      4.493984  2395A      4.494464  
    2396A      4.499037  2397A      4.501686  2398A      4.505531  
    2399A      4.506912  2400A      4.511206  2401A      4.517613  
    2402A      4.517916  2403A      4.521464  2404A      4.523053  
    2405A      4.523543  2406A      4.528768  2407A      4.529891  
    2408A      4.533168  2409A      4.533888  2410A      4.537822  
    2411A      4.542714  2412A      4.545270  2413A      4.549940  
    2414A      4.551587  2415A      4.554235  2416A      4.555425  
    2417A      4.556879  2418A      4.559960  2419A      4.563694  
    2420A      4.565919  2421A      4.568992  2422A      4.570043  
    2423A      4.571704  2424A      4.572346  2425A      4.575475  
    2426A      4.576065  2427A      4.580446  2428A      4.581257  
    2429A      4.586735  2430A      4.587412  2431A      4.589507  
    2432A      4.594634  2433A      4.596598  2434A      4.597353  
    2435A      4.607357  2436A      4.608558  2437A      4.610930  
    2438A      4.611521  2439A      4.611986  2440A      4.614146  
    2441A      4.614983  2442A      4.618236  2443A      4.622487  
    2444A      4.623106  2445A      4.625023  2446A      4.627098  
    2447A      4.628008  2448A      4.630637  2449A      4.633529  
    2450A      4.633788  2451A      4.640715  2452A      4.641986  
    2453A      4.643687  2454A      4.644696  2455A      4.646451  
    2456A      4.650052  2457A      4.651472  2458A      4.652190  
    2459A      4.655905  2460A      4.658066  2461A      4.659712  
    2462A      4.664398  2463A      4.665790  2464A      4.667772  
    2465A      4.669951  2466A      4.670576  2467A      4.672684  
    2468A      4.674039  2469A      4.677083  2470A      4.680810  
    2471A      4.682276  2472A      4.686019  2473A      4.686210  
    2474A      4.687028  2475A      4.688844  2476A      4.694242  
    2477A      4.695740  2478A      4.697759  2479A      4.700198  
    2480A      4.705227  2481A      4.707701  2482A      4.708355  
    2483A      4.711421  2484A      4.711837  2485A      4.714531  
    2486A      4.716666  2487A      4.718965  2488A      4.721617  
    2489A      4.725305  2490A      4.729875  2491A      4.731013  
    2492A      4.731395  2493A      4.736261  2494A      4.737511  
    2495A      4.739220  2496A      4.742958  2497A      4.745261  
    2498A      4.747321  2499A      4.748959  2500A      4.750894  
    2501A      4.752842  2502A      4.755979  2503A      4.757419  
    2504A      4.761694  2505A      4.762675  2506A      4.766465  
    2507A      4.767722  2508A      4.770844  2509A      4.773309  
    2510A      4.774973  2511A      4.778056  2512A      4.778545  
    2513A      4.780886  2514A      4.781954  2515A      4.783342  
    2516A      4.786227  2517A      4.791402  2518A      4.793684  
    2519A      4.793841  2520A      4.797619  2521A      4.799442  
    2522A      4.802395  2523A      4.802782  2524A      4.808954  
    2525A      4.809804  2526A      4.813743  2527A      4.816669  
    2528A      4.818461  2529A      4.819495  2530A      4.821387  
    2531A      4.825132  2532A      4.828129  2533A      4.829383  
    2534A      4.832057  2535A      4.832825  2536A      4.836324  
    2537A      4.838348  2538A      4.841920  2539A      4.843345  
    2540A      4.846391  2541A      4.846744  2542A      4.851926  
    2543A      4.853407  2544A      4.858748  2545A      4.861835  
    2546A      4.863800  2547A      4.865155  2548A      4.868099  
    2549A      4.868805  2550A      4.869808  2551A      4.878916  
    2552A      4.882460  2553A      4.882705  2554A      4.885042  
    2555A      4.886128  2556A      4.887625  2557A      4.895903  
    2558A      4.900069  2559A      4.903181  2560A      4.904786  
    2561A      4.909804  2562A      4.910226  2563A      4.914105  
    2564A      4.916572  2565A      4.919221  2566A      4.921014  
    2567A      4.921251  2568A      4.925304  2569A      4.928874  
    2570A      4.930250  2571A      4.935641  2572A      4.936053  
    2573A      4.936539  2574A      4.939206  2575A      4.944093  
    2576A      4.944896  2577A      4.946893  2578A      4.947877  
    2579A      4.951013  2580A      4.952595  2581A      4.955473  
    2582A      4.959673  2583A      4.965791  2584A      4.967420  
    2585A      4.969252  2586A      4.970454  2587A      4.973106  
    2588A      4.975421  2589A      4.977829  2590A      4.978318  
    2591A      4.979480  2592A      4.983639  2593A      4.986237  
    2594A      4.986881  2595A      4.990067  2596A      4.992575  
    2597A      4.997301  2598A      4.999462  2599A      5.003261  
    2600A      5.004519  2601A      5.005833  2602A      5.010265  
    2603A      5.012463  2604A      5.016068  2605A      5.018260  
    2606A      5.019380  2607A      5.021832  2608A      5.022857  
    2609A      5.025658  2610A      5.026982  2611A      5.031189  
    2612A      5.036415  2613A      5.036867  2614A      5.039464  
    2615A      5.041561  2616A      5.047070  2617A      5.048604  
    2618A      5.055058  2619A      5.056293  2620A      5.060865  
    2621A      5.062585  2622A      5.063841  2623A      5.065539  
    2624A      5.067689  2625A      5.069342  2626A      5.076889  
    2627A      5.078730  2628A      5.080857  2629A      5.083598  
    2630A      5.084835  2631A      5.089468  2632A      5.089770  
    2633A      5.091611  2634A      5.094229  2635A      5.096308  
    2636A      5.099586  2637A      5.104871  2638A      5.105005  
    2639A      5.108656  2640A      5.110487  2641A      5.112065  
    2642A      5.113103  2643A      5.115620  2644A      5.119037  
    2645A      5.119580  2646A      5.124502  2647A      5.128071  
    2648A      5.133182  2649A      5.134806  2650A      5.138300  
    2651A      5.139428  2652A      5.141487  2653A      5.143083  
    2654A      5.143743  2655A      5.144734  2656A      5.149808  
    2657A      5.150184  2658A      5.155202  2659A      5.156204  
    2660A      5.158646  2661A      5.161469  2662A      5.166036  
    2663A      5.168595  2664A      5.169133  2665A      5.173183  
    2666A      5.174056  2667A      5.175917  2668A      5.177845  
    2669A      5.180116  2670A      5.183356  2671A      5.188492  
    2672A      5.189485  2673A      5.191645  2674A      5.192149  
    2675A      5.195020  2676A      5.198243  2677A      5.199146  
    2678A      5.201448  2679A      5.207796  2680A      5.208454  
    2681A      5.213080  2682A      5.213474  2683A      5.215330  
    2684A      5.218702  2685A      5.220867  2686A      5.222204  
    2687A      5.222426  2688A      5.223660  2689A      5.224588  
    2690A      5.228155  2691A      5.233270  2692A      5.234775  
    2693A      5.236961  2694A      5.239107  2695A      5.243560  
    2696A      5.249514  2697A      5.251921  2698A      5.253587  
    2699A      5.256462  2700A      5.257648  2701A      5.263248  
    2702A      5.263594  2703A      5.264253  2704A      5.266666  
    2705A      5.267777  2706A      5.269918  2707A      5.271052  
    2708A      5.280575  2709A      5.281824  2710A      5.285158  
    2711A      5.287235  2712A      5.294057  2713A      5.295763  
    2714A      5.299359  2715A      5.299913  2716A      5.301688  
    2717A      5.306112  2718A      5.307226  2719A      5.308936  
    2720A      5.310716  2721A      5.314625  2722A      5.319959  
    2723A      5.323294  2724A      5.326020  2725A      5.329977  
    2726A      5.332243  2727A      5.339359  2728A      5.344097  
    2729A      5.344915  2730A      5.347928  2731A      5.353133  
    2732A      5.354218  2733A      5.360497  2734A      5.362836  
    2735A      5.367306  2736A      5.367716  2737A      5.369839  
    2738A      5.373592  2739A      5.382476  2740A      5.385255  
    2741A      5.388596  2742A      5.390456  2743A      5.392061  
    2744A      5.400344  2745A      5.401520  2746A      5.403525  
    2747A      5.408994  2748A      5.409231  2749A      5.409835  
    2750A      5.415673  2751A      5.416714  2752A      5.417604  
    2753A      5.420787  2754A      5.422950  2755A      5.428503  
    2756A      5.428941  2757A      5.433215  2758A      5.437280  
    2759A      5.437808  2760A      5.438905  2761A      5.439291  
    2762A      5.448467  2763A      5.449249  2764A      5.453835  
    2765A      5.454775  2766A      5.458131  2767A      5.458479  
    2768A      5.463942  2769A      5.466284  2770A      5.466621  
    2771A      5.468364  2772A      5.470502  2773A      5.474923  
    2774A      5.478087  2775A      5.479548  2776A      5.483709  
    2777A      5.487915  2778A      5.489907  2779A      5.492663  
    2780A      5.494514  2781A      5.495693  2782A      5.496834  
    2783A      5.504892  2784A      5.505892  2785A      5.506584  
    2786A      5.509185  2787A      5.509608  2788A      5.517349  
    2789A      5.520270  2790A      5.521929  2791A      5.525460  
    2792A      5.527460  2793A      5.531275  2794A      5.531869  
    2795A      5.533424  2796A      5.535822  2797A      5.537159  
    2798A      5.538929  2799A      5.543494  2800A      5.543865  
    2801A      5.545255  2802A      5.548039  2803A      5.553741  
    2804A      5.562615  2805A      5.562937  2806A      5.566139  
    2807A      5.566703  2808A      5.570562  2809A      5.575507  
    2810A      5.581412  2811A      5.582536  2812A      5.585315  
    2813A      5.593070  2814A      5.594433  2815A      5.597356  
    2816A      5.600428  2817A      5.601845  2818A      5.604025  
    2819A      5.607937  2820A      5.609927  2821A      5.610605  
    2822A      5.619107  2823A      5.620516  2824A      5.622072  
    2825A      5.625339  2826A      5.627114  2827A      5.630153  
    2828A      5.631231  2829A      5.638428  2830A      5.639318  
    2831A      5.640972  2832A      5.644298  2833A      5.648276  
    2834A      5.648968  2835A      5.650835  2836A      5.656652  
    2837A      5.662452  2838A      5.663734  2839A      5.665540  
    2840A      5.666155  2841A      5.670343  2842A      5.670748  
    2843A      5.674387  2844A      5.675404  2845A      5.679316  
    2846A      5.680124  2847A      5.687474  2848A      5.688896  
    2849A      5.692180  2850A      5.695069  2851A      5.696318  
    2852A      5.701393  2853A      5.703929  2854A      5.710997  
    2855A      5.712958  2856A      5.721828  2857A      5.722894  
    2858A      5.723446  2859A      5.726408  2860A      5.736958  
    2861A      5.741595  2862A      5.742201  2863A      5.748937  
    2864A      5.750726  2865A      5.751224  2866A      5.759282  
    2867A      5.761956  2868A      5.763453  2869A      5.767145  
    2870A      5.768871  2871A      5.772126  2872A      5.772403  
    2873A      5.775612  2874A      5.777937  2875A      5.784883  
    2876A      5.790782  2877A      5.790974  2878A      5.798928  
    2879A      5.801008  2880A      5.802986  2881A      5.805370  
    2882A      5.807729  2883A      5.809411  2884A      5.815212  
    2885A      5.817499  2886A      5.821363  2887A      5.824062  
    2888A      5.826504  2889A      5.827267  2890A      5.837183  
    2891A      5.837539  2892A      5.843352  2893A      5.844417  
    2894A      5.845974  2895A      5.850222  2896A      5.855443  
    2897A      5.856487  2898A      5.864336  2899A      5.865151  
    2900A      5.869136  2901A      5.871470  2902A      5.874142  
    2903A      5.875812  2904A      5.878364  2905A      5.883942  
    2906A      5.885650  2907A      5.890362  2908A      5.891234  
    2909A      5.896631  2910A      5.901299  2911A      5.901551  
    2912A      5.904301  2913A      5.907820  2914A      5.910245  
    2915A      5.912757  2916A      5.914306  2917A      5.920779  
    2918A      5.922172  2919A      5.929133  2920A      5.932679  
    2921A      5.933429  2922A      5.937039  2923A      5.940110  
    2924A      5.944423  2925A      5.949163  2926A      5.954122  
    2927A      5.962830  2928A      5.963040  2929A      5.965045  
    2930A      5.968426  2931A      5.969920  2932A      5.978234  
    2933A      5.980250  2934A      5.982907  2935A      5.988532  
    2936A      5.993774  2937A      6.000535  2938A      6.001791  
    2939A      6.007677  2940A      6.008045  2941A      6.010348  
    2942A      6.011362  2943A      6.020049  2944A      6.020824  
    2945A      6.029246  2946A      6.029516  2947A      6.030103  
    2948A      6.035682  2949A      6.036159  2950A      6.040906  
    2951A      6.043257  2952A      6.044543  2953A      6.046423  
    2954A      6.049392  2955A      6.054988  2956A      6.055590  
    2957A      6.056397  2958A      6.060185  2959A      6.066917  
    2960A      6.068779  2961A      6.074533  2962A      6.080080  
    2963A      6.081168  2964A      6.084431  2965A      6.086087  
    2966A      6.088078  2967A      6.094950  2968A      6.096200  
    2969A      6.102343  2970A      6.106916  2971A      6.108639  
    2972A      6.109334  2973A      6.110507  2974A      6.110681  
    2975A      6.112604  2976A      6.121115  2977A      6.125011  
    2978A      6.129792  2979A      6.130152  2980A      6.130666  
    2981A      6.134535  2982A      6.136928  2983A      6.141022  
    2984A      6.146174  2985A      6.147697  2986A      6.149914  
    2987A      6.150609  2988A      6.153694  2989A      6.157351  
    2990A      6.158811  2991A      6.161695  2992A      6.167483  
    2993A      6.171881  2994A      6.174989  2995A      6.182378  
    2996A      6.186740  2997A      6.187577  2998A      6.188132  
    2999A      6.194914  3000A      6.200799  3001A      6.201669  
    3002A      6.206790  3003A      6.209310  3004A      6.211822  
    3005A      6.213085  3006A      6.217994  3007A      6.218116  
    3008A      6.225396  3009A      6.226927  3010A      6.232796  
    3011A      6.234185  3012A      6.235546  3013A      6.240591  
    3014A      6.246474  3015A      6.250101  3016A      6.256954  
    3017A      6.257991  3018A      6.262274  3019A      6.265408  
    3020A      6.270639  3021A      6.271448  3022A      6.276507  
    3023A      6.283364  3024A      6.284256  3025A      6.292508  
    3026A      6.292879  3027A      6.297930  3028A      6.308645  
    3029A      6.311117  3030A      6.321187  3031A      6.324128  
    3032A      6.326120  3033A      6.326884  3034A      6.327269  
    3035A      6.341573  3036A      6.343751  3037A      6.344567  
    3038A      6.347111  3039A      6.356884  3040A      6.357564  
    3041A      6.368264  3042A      6.368839  3043A      6.373096  
    3044A      6.379186  3045A      6.381649  3046A      6.385725  
    3047A      6.401371  3048A      6.402839  3049A      6.404111  
    3050A      6.410620  3051A      6.413026  3052A      6.418736  
    3053A      6.425751  3054A      6.427061  3055A      6.427478  
    3056A      6.429846  3057A      6.439881  3058A      6.442916  
    3059A      6.445707  3060A      6.446954  3061A      6.453614  
    3062A      6.464858  3063A      6.467830  3064A      6.473262  
    3065A      6.483625  3066A      6.484694  3067A      6.494463  
    3068A      6.501463  3069A      6.505866  3070A      6.516479  
    3071A      6.528000  3072A      6.534176  3073A      6.540696  
    3074A      6.543877  3075A      6.551690  3076A      6.605081  
    3077A      6.613908  3078A      6.617660  3079A      6.632763  
    3080A      6.650137  3081A      6.652285  3082A      6.662553  
    3083A      6.670980  3084A      6.676098  3085A      6.690867  
    3086A      6.692001  3087A      6.701282  3088A      6.708214  
    3089A      6.715876  3090A      6.716535  3091A      6.725619  
    3092A      6.730855  3093A      6.733329  3094A      6.738196  
    3095A      6.745462  3096A      6.755571  3097A      6.756610  
    3098A      6.771090  3099A      6.778358  3100A      6.783430  
    3101A      6.787573  3102A      6.797222  3103A      6.812064  
    3104A      6.822714  3105A      6.823244  3106A      6.828480  
    3107A      6.835767  3108A      6.848717  3109A      6.866877  
    3110A      6.880949  3111A      6.896415  3112A      6.914214  
    3113A      6.916774  3114A      6.920925  3115A      6.929215  
    3116A      6.933327  3117A      6.947658  3118A      6.954709  
    3119A      6.955085  3120A      6.963016  3121A      6.988741  
    3122A      7.000527  3123A      7.011787  3124A      7.014566  
    3125A      7.025979  3126A      7.027262  3127A      7.049008  
    3128A      7.061349  3129A      7.069069  3130A      7.089929  
    3131A      7.097361  3132A      7.128706  3133A      7.151615  
    3134A      7.156085  3135A      7.172986  3136A      7.174737  
    3137A      7.182565  3138A      7.190164  3139A      7.205333  
    3140A      7.212115  3141A      7.218153  3142A      7.237353  
    3143A      7.238546  3144A      7.247326  3145A      7.254073  
    3146A      7.265135  3147A      7.283292  3148A      7.291782  
    3149A      7.305368  3150A      7.333791  3151A      7.351057  
    3152A      7.358145  3153A      7.361982  3154A      7.367120  
    3155A      7.369626  3156A      7.390296  3157A      7.391214  
    3158A      7.400329  3159A      7.409520  3160A      7.409815  
    3161A      7.432350  3162A      7.448801  3163A      7.455546  
    3164A      7.464295  3165A      7.488720  3166A      7.520507  
    3167A      7.529339  3168A      7.537903  3169A      7.542968  
    3170A      7.548757  3171A      7.560938  3172A      7.564767  
    3173A      7.579006  3174A      7.584299  3175A      7.586223  
    3176A      7.595645  3177A      7.611593  3178A      7.612613  
    3179A      7.632714  3180A      7.645956  3181A      7.649755  
    3182A      7.660728  3183A      7.667923  3184A      7.686635  
    3185A      7.687390  3186A      7.703943  3187A      7.706147  
    3188A      7.717416  3189A      7.718973  3190A      7.729552  
    3191A      7.739198  3192A      7.743828  3193A      7.752285  
    3194A      7.761874  3195A      7.771916  3196A      7.784701  
    3197A      7.787181  3198A      7.801450  3199A      7.817405  
    3200A      7.833850  3201A      7.843699  3202A      7.845319  
    3203A      7.862418  3204A      7.862884  3205A      7.876768  
    3206A      7.895673  3207A      7.898863  3208A      7.911307  
    3209A      7.917494  3210A      7.928883  3211A      7.934850  
    3212A      7.943296  3213A      7.943487  3214A      7.951530  
    3215A      7.955366  3216A      7.962760  3217A      7.981011  
    3218A      7.986342  3219A      7.994619  3220A      7.998077  
    3221A      8.015554  3222A      8.023257  3223A      8.037032  
    3224A      8.054426  3225A      8.061039  3226A      8.078796  
    3227A      8.087045  3228A      8.103640  3229A      8.119712  
    3230A      8.129169  3231A      8.162347  3232A      8.167665  
    3233A      8.173401  3234A      8.184832  3235A      8.203241  
    3236A      8.204331  3237A      8.233142  3238A      8.264250  
    3239A      8.280292  3240A      8.301732  3241A      8.306527  
    3242A      8.327970  3243A      8.337715  3244A      8.354447  
    3245A      8.371457  3246A      8.373155  3247A      8.401237  
    3248A      8.409723  3249A      8.424855  3250A      8.432394  
    3251A      8.446339  3252A      8.476957  3253A      8.491085  
    3254A      8.508021  3255A      8.523983  3256A      8.544559  
    3257A      8.564277  3258A      8.718970  3259A      8.740941  
    3260A      8.748355  3261A      8.776680  3262A      8.785210  
    3263A      8.790928  3264A      8.798108  3265A      8.814259  
    3266A      8.832749  3267A      8.839248  3268A      8.849526  
    3269A      8.869197  3270A      8.899691  3271A      8.919471  
    3272A      8.943750  3273A      9.044654  3274A      9.059789  
    3275A      9.076581  3276A      9.125705  3277A      9.127231  
    3278A      9.178422  3279A      9.234418  3280A      9.264747  
    3281A      9.272621  3282A      9.295115  3283A      9.296461  
    3284A      9.342678  3285A      9.381480  3286A      9.415393  
    3287A      9.419413  3288A      9.425991  3289A      9.434386  
    3290A      9.449815  3291A      9.463796  3292A      9.542817  
    3293A      9.591826  3294A      9.674951  3295A      9.788185  
    3296A      9.836386  3297A      9.862546  3298A      9.881685  
    3299A      9.911712  3300A      9.917629  3301A      9.975618  
    3302A     10.002070  3303A     10.033471  3304A     10.046279  
    3305A     10.063883  3306A     10.094594  3307A     10.123810  
    3308A     10.156764  3309A     10.163972  3310A     10.167868  
    3311A     10.176684  3312A     10.214042  3313A     10.249181  
    3314A     10.252698  3315A     10.322755  3316A     10.325554  
    3317A     10.361594  3318A     10.435489  3319A     10.444043  
    3320A     10.453054  3321A     10.465667  3322A     10.769757  
    3323A     10.819079  3324A     10.821209  3325A     10.829387  
    3326A     10.844812  3327A     10.857095  3328A     10.876057  
    3329A     10.918305  3330A     10.992034  3331A     11.115992  
    3332A     11.131767  3333A     11.195344  3334A     11.212491  
    3335A     11.215116  3336A     11.279955  3337A     11.303427  
    3338A     11.316456  3339A     11.348016  3340A     11.404994  
    3341A     11.473302  3342A     11.495222  3343A     11.681053  
    3344A     11.684663  3345A     11.718855  3346A     11.742801  
    3347A     11.765121  3348A     11.812806  3349A     11.914792  
    3350A     11.935944  3351A     11.962070  3352A     12.001515  
    3353A     12.031227  3354A     12.045449  3355A     12.062616  
    3356A     12.096973  3357A     12.113353  3358A     12.187127  
    3359A     12.212299  3360A     12.269971  3361A     12.357741  
    3362A     15.729956  3363A     16.171241  3364A     16.382744  
    3365A     16.805724  3366A     17.808624  3367A     18.009230  
    3368A     18.166455  3369A     19.710037  3370A     19.889634  
    3371A     19.996955  3372A     20.281934  3373A     21.261677  
    3374A     21.643346  3375A     21.676728  3376A     22.528764  
    3377A     22.685058  3378A     50.748980  3379A     50.856215  
    3380A     51.448351  3381A     51.595959  3382A     51.900154  
    3383A     52.391733  3384A     52.517405  3385A     54.245897  
    3386A     54.527608  3387A     54.808922  3388A     54.982036  
    3389A     55.298067  3390A     55.365797  3391A     55.507857  
    3392A     55.634184  3393A     55.846891  3394A     56.112666  
    3395A     56.162559  3396A     56.657916  3397A     57.239861  
    3398A     58.014731  3399A     58.092545  3400A     58.780573  
    3401A     58.982410  3402A     59.615908  3403A     60.001085  
    3404A     60.369728  3405A     60.512282  3406A     60.655040  
    3407A     60.730117  3408A     60.854364  3409A     60.882670  
    3410A     61.065048  3411A     61.113471  3412A     61.251118  
    3413A     61.296906  3414A     61.436579  3415A     61.584402  
    3416A     61.721261  3417A     62.460805  3418A     62.630970  
    3419A     63.062037  

    Final Occupation by Irrep:
              A 
    DOCC [    52 ]
    NA   [    52 ]
    NB   [    52 ]

  @DF-RKS Final Energy:  -678.01589378353503

   => Energetics <=

    Nuclear Repulsion Energy =            836.8830872626610926
    One-Electron Energy =               -2574.0943048279609684
    Two-Electron Energy =                1152.3423753365905213
    DFT Exchange-Correlation Energy =     -93.1368989441007500
    Empirical Dispersion Energy =          -0.0101526107249762
    VV10 Nonlocal Energy =                  0.0000000000000000
    Total Energy =                       -678.0158937835350343

Computation Completed


Properties will be evaluated at   0.000000,   0.000000,   0.000000 [a0]

Properties computed using the SCF density matrix


 Multipole Moments:

 ------------------------------------------------------------------------------------
     Multipole            Electronic (a.u.)      Nuclear  (a.u.)        Total (a.u.)
 ------------------------------------------------------------------------------------

 L = 1.  Multiply by 2.5417464519 to convert [e a0] to [Debye]
 Dipole X            :        -47.2907388           47.2403186           -0.0504202
 Dipole Y            :         82.8458640          -83.0305255           -0.1846615
 Dipole Z            :          1.3512247           -1.3544535           -0.0032288
 Magnitude           :                                                    0.1914484

 ------------------------------------------------------------------------------------

*** tstop() called on atl1-1-03-004-14-1.pace.gatech.edu at Sat Jun 13 12:37:23 2026
Module time:
	user time   =   24514.66 seconds =     408.58 minutes
	system time =    2439.99 seconds =      40.67 minutes
	total time  =       4763 seconds =      79.38 minutes
Total time:
	user time   =   24514.66 seconds =     408.58 minutes
	system time =    2439.99 seconds =      40.67 minutes
	total time  =       4763 seconds =      79.38 minutes

    Psi4 stopped on: Saturday, 13 June 2026 12:37PM
    Psi4 wall time for execution: 1:19:33.71

*** Psi4 exiting successfully. Buy a developer a beer!
