
    -----------------------------------------------------------------------
          Psi4: An Open-Source Ab Initio Electronic Structure Package
                               Psi4 1.9.1 release

                         Git: Rev {} zzzzzzz 


    D. G. A. Smith, L. A. Burns, A. C. Simmonett, R. M. Parrish,
    M. C. Schieber, R. Galvelis, P. Kraus, H. Kruse, R. Di Remigio,
    A. Alenaizan, A. M. James, S. Lehtola, J. P. Misiewicz, M. Scheurer,
    R. A. Shaw, J. B. Schriber, Y. Xie, Z. L. Glick, D. A. Sirianni,
    J. S. O'Brien, J. M. Waldrop, A. Kumar, E. G. Hohenstein,
    B. P. Pritchard, B. R. Brooks, H. F. Schaefer III, A. Yu. Sokolov,
    K. Patkowski, A. E. DePrince III, U. Bozkaya, R. A. King,
    F. A. Evangelista, J. M. Turney, T. D. Crawford, C. D. Sherrill,
    J. Chem. Phys. 152(18) 184108 (2020). https://doi.org/10.1063/5.0006002

                            Additional Code Authors
    E. T. Seidl, C. L. Janssen, E. F. Valeev, M. L. Leininger,
    J. F. Gonthier, R. M. Richard, H. R. McAlexander, M. Saitow, X. Wang,
    P. Verma, M. H. Lechner, A. Jiang, S. Behnle, A. G. Heide,
    M. F. Herbst, and D. L. Poole

             Previous Authors, Complete List of Code Contributors,
                       and Citations for Specific Modules
    https://github.com/psi4/psi4/blob/master/codemeta.json
    https://github.com/psi4/psi4/graphs/contributors
    http://psicode.org/psi4manual/master/introduction.html#citing-psifour

    -----------------------------------------------------------------------


    Psi4 started on: Monday, 15 June 2026 10:17AM

    Process ID: 2759310
    Host:       atl1-1-02-003-29-1.pace.gatech.edu
    PSIDATADIR: /storage/home/hcoda1/5/vlita3/.conda/envs/p4_qcml/share/psi4
    Memory:     250.0 GiB
    Threads:    10
    
  ==> Input QCSchema <==

--------------------------------------------------------------------------
{'driver': 'energy',
 'extras': {},
 'id': '330',
 'keywords': {},
 'model': {'basis': 'aug-cc-pvtz', 'method': 'pbe-d3'},
 'molecule': {'extras': {},
              'fix_com': True,
              'fix_orientation': True,
              'fragment_charges': [0.0, 0.0],
              'fragment_multiplicities': [1, 1],
              'fragments': [[0, 1, 2, 3, 4, 5, 6, 7, 8, 9, 10, 11, 12, 13, 14, 15, 16, 17, 18, 19, 20, 21, 22, 23, 24,
                             25, 26, 27, 28, 29, 30, 31, 32, 33, 34, 35, 36, 37, 38, 39, 40, 41, 42, 43, 44, 45, 46, 47,
                             48, 49, 50, 51, 52, 53, 54, 55, 56, 57, 58, 59, 60, 61, 62, 63, 64, 65, 66, 67],
                            [68, 69, 70, 71, 72, 73, 74, 75, 76, 77, 78, 79, 80, 81, 82, 83]],
              'geometry': [-5.34620642, -4.85206741, -0.42040662, -6.29696543, -3.97249137, -2.73196591, -7.16652857,
                           -1.39360971, -2.91024059, -7.07225732, 0.1478346, -0.75712917, -6.06055521, -0.70522859,
                           1.52779916, -5.14660825, -3.28275871, 1.6937689, -8.00940954, -0.47795161, -5.29622845,
                           -8.00389532, -2.01265111, -7.39175445, -7.1739962, -4.55869367, -7.20967896, -6.3482405,
                           -5.51081404, -4.93971915, -5.79174545, 0.94432733, 3.66064233, -4.5983628, 0.0799819,
                           5.76970066, -3.62293398, -2.4551662, 5.90550866, -3.92400421, -4.11631993, 3.96419018,
                           -2.16569152, -2.61945029, 8.3885177, 0.07636213, -0.84617571, 7.95116799, -0.9078112,
                           1.61784783, 7.8674416, -3.76570071, 1.39135281, 8.20497635, -3.85671125, -0.88804523,
                           10.06281411, 2.58001171, -1.3655127, 7.31184057, 4.1057488, 0.7110172, 6.7716308, 3.12911434,
                           3.1826792, 6.68292857, 0.58226752, 3.66820181, 7.1546987, 5.22477035, 4.85680231, 5.5947568,
                           5.45773257, 3.95265056, 2.86034162, 6.48712479, 1.44012834, 2.99187034, 6.82098554,
                           0.8515344, 5.79382301, 7.56885523, 3.52377684, 6.77238443, 6.80325367, 0.01007923,
                           0.87853632, 6.01230407, 0.99764822, -1.51581981, 4.9476594, 3.51769873, -1.64633715,
                           4.72513697, 4.9862546, 0.62058001, 6.12205861, -0.46131862, -3.71310038, 5.15756848,
                           0.40687221, -6.02295948, 4.08395781, 2.91056166, -6.14884699, 4.05329983, 4.41018879,
                           -3.96462935, 5.13306837, -1.12454068, -8.23614739, 4.07851898, -0.25961114, -10.44460058,
                           2.99478619, 2.19392857, -10.56107574, 3.00851807, 3.73807424, -8.47334713, 3.50361025,
                           -3.823107, 7.21233591, -0.52564981, 6.01194181, 6.93361699, 5.05829719, 6.89567715,
                           5.87089814, 8.0356414, -0.74107273, 6.26352729, 7.58901842, 3.63875572, 8.83518962,
                           9.35421802, 4.19783591, 5.97522954, -5.76611566, -1.64188193, 10.31542343, -2.98864212,
                           -0.45542891, 11.88758146, -4.77253092, 3.11242428, 8.71181923, -1.70891184, -4.50721847,
                           9.0671295, 7.55489696, -1.89976737, 0.96862939, 3.89947197, 6.86430373, 0.5027639,
                           -6.46680418, 2.87873678, 3.51311765, -3.18323648, -6.03153223, 4.04964208, 3.22722344,
                           6.29110633, -4.05969977, 6.91726822, -2.35617478, -3.61337858, 2.17488807, 5.6139636,
                           -8.5558299, 2.15939666, 2.84829877, -12.31851423, 4.06363758, -1.45295543, -12.11512622,
                           5.94772646, -3.00842661, -8.1365677, -4.65219392, -6.78410677, -0.29846731, -7.72607119,
                           2.09308409, -0.89347536, -5.69192784, -7.45269585, -4.79824367, -8.63836085, 1.47325902,
                           -5.4323305, -8.64382367, -1.28398557, -9.20131008, -7.19028923, -5.75067773, -8.88116704,
                           0.69471926, 7.16657411, 6.19908801, 3.21943853, -4.43255237, 5.4924338, -1.01804176,
                           -2.06721752, -6.41424693, -0.04006805, -3.69463605, -4.59993014, 0.29508244, -2.88730801,
                           -2.09508758, -0.32679714, -0.42272984, -1.41690966, -1.32071561, 1.15392876, -3.24915277,
                           -1.68814035, 0.37514049, -5.74325186, 0.62349756, -6.02367305, -5.33266218, 1.25684872,
                           -4.55988854, -0.10878832, -2.01790096, 3.74535177, -2.52671085, -2.46962752, 1.68011751,
                           -7.10722613, -0.06092458, 0.2181685, 0.50639917, -1.23619836, -2.74752497, -8.33105453,
                           2.06085935, -3.52195874, 1.83306118, 1.18336559, -6.86024705, -0.44470452, -2.90698951,
                           5.11929396, -4.19647021, -1.67462389, 4.39177019, -0.3135118],
              'id': 17,
              'identifiers': {'molecular_formula': 'C46FH29N2O6',
                              'molecule_hash': '59738d88b4c3ae26f379ce911c1eb398fc0895bc'},
              'masses': [12.0, 12.0, 12.0, 12.0, 12.0, 12.0, 12.0, 12.0, 12.0, 12.0, 12.0, 12.0, 12.0, 12.0, 12.0, 12.0,
                         12.0, 12.0, 12.0, 12.0, 12.0, 12.0, 12.0, 12.0, 12.0, 12.0, 12.0, 12.0, 12.0, 12.0, 12.0, 12.0,
                         12.0, 12.0, 12.0, 12.0, 12.0, 12.0, 12.0, 12.0, 15.99491461957, 15.99491461957, 1.00782503223,
                         1.00782503223, 1.00782503223, 1.00782503223, 1.00782503223, 1.00782503223, 1.00782503223,
                         1.00782503223, 1.00782503223, 1.00782503223, 1.00782503223, 1.00782503223, 1.00782503223,
                         1.00782503223, 1.00782503223, 1.00782503223, 1.00782503223, 1.00782503223, 1.00782503223,
                         1.00782503223, 1.00782503223, 1.00782503223, 1.00782503223, 1.00782503223, 1.00782503223,
                         1.00782503223, 12.0, 12.0, 12.0, 12.0, 12.0, 12.0, 18.99840316273, 14.00307400443,
                         14.00307400443, 1.00782503223, 1.00782503223, 1.00782503223, 15.99491461957, 15.99491461957,
                         15.99491461957, 15.99491461957],
              'molecular_charge': 0.0,
              'molecular_multiplicity': 1,
              'name': 'C46FH29N2O6 ([1],[0])',
              'provenance': {'creator': 'QCElemental',
                             'routine': 'qcelemental.molparse.from_schema',
                             'version': '0.29.0'},
              'real': [False, False, False, False, False, False, False, False, False, False, False, False, False, False,
                       False, False, False, False, False, False, False, False, False, False, False, False, False, False,
                       False, False, False, False, False, False, False, False, False, False, False, False, False, False,
                       False, False, False, False, False, False, False, False, False, False, False, False, False, False,
                       False, False, False, False, False, False, False, False, False, False, False, False, True, True,
                       True, True, True, True, True, True, True, True, True, True, True, True, True, True],
              'schema_name': 'qcschema_molecule',
              'schema_version': 2,
              'symbols': ['C', 'C', 'C', 'C', 'C', 'C', 'C', 'C', 'C', 'C', 'C', 'C', 'C', 'C', 'C', 'C', 'C', 'C', 'C',
                          'C', 'C', 'C', 'C', 'C', 'C', 'C', 'C', 'C', 'C', 'C', 'C', 'C', 'C', 'C', 'C', 'C', 'C', 'C',
                          'C', 'C', 'O', 'O', 'H', 'H', 'H', 'H', 'H', 'H', 'H', 'H', 'H', 'H', 'H', 'H', 'H', 'H', 'H',
                          'H', 'H', 'H', 'H', 'H', 'H', 'H', 'H', 'H', 'H', 'H', 'C', 'C', 'C', 'C', 'C', 'C', 'F', 'N',
                          'N', 'H', 'H', 'H', 'O', 'O', 'O', 'O'],
              'validated': True},
 'protocols': {},
 'provenance': {'creator': 'QCElemental', 'routine': 'qcelemental.models.results', 'version': '0.29.0'},
 'schema_name': 'qcschema_input',
 'schema_version': 1}
--------------------------------------------------------------------------

Scratch directory: /tmp/tmp9bt1qdce_psi_scratch/
   => Libint2 <=

    Primary   basis highest AM E, G, H:  6, 6, 3
    Auxiliary basis highest AM E, G, H:  7, 7, 4
    Onebody   basis highest AM E, G, H:  -, -, -
    Solid Harmonics ordering:            Gaussian

*** tstart() called on atl1-1-02-003-29-1.pace.gatech.edu
*** at Mon Jun 15 10:17:56 2026

   => Loading Basis Set <=

    Name: AUG-CC-PVTZ
    Role: ORBITAL
    Keyword: BASIS
    atoms 1-40, 69-74  entry C          line   239 file /storage/home/hcoda1/5/vlita3/.conda/envs/p4_qcml/share/psi4/basis/aug-cc-pvtz.gbs 
    atoms 41-42, 81-84 entry O          line   331 file /storage/home/hcoda1/5/vlita3/.conda/envs/p4_qcml/share/psi4/basis/aug-cc-pvtz.gbs 
    atoms 43-68, 78-80 entry H          line    40 file /storage/home/hcoda1/5/vlita3/.conda/envs/p4_qcml/share/psi4/basis/aug-cc-pvtz.gbs 
    atoms 75           entry F          line   377 file /storage/home/hcoda1/5/vlita3/.conda/envs/p4_qcml/share/psi4/basis/aug-cc-pvtz.gbs 
    atoms 76-77        entry N          line   285 file /storage/home/hcoda1/5/vlita3/.conda/envs/p4_qcml/share/psi4/basis/aug-cc-pvtz.gbs 

   => PBE-D3: Empirical Dispersion <=

    Grimme's -D3 (zero-damping) Dispersion Correction
    Grimme S.; Antony J.; Ehrlich S.; Krieg H. (2010), J. Chem. Phys., 132: 154104

        s6 =       1.000000
        s8 =       0.722000
       sr6 =       1.217000
    alpha6 =      14.000000
       sr8 =       1.000000


         ---------------------------------------------------------
                                   SCF
               by Justin Turney, Rob Parrish, Andy Simmonett
                          and Daniel G. A. Smith
                              RKS Reference
                       10 Threads, 256000 MiB Core
         ---------------------------------------------------------

  ==> Geometry <==

    Molecular point group: c1
    Full point group: C1

    Geometry (in Bohr), charge = 0, multiplicity = 1:

       Center              X                  Y                   Z               Mass       
    ------------   -----------------  -----------------  -----------------  -----------------
      Gh(C)          -5.346206420000    -4.852067410000    -0.420406620000    12.000000000000
      Gh(C)          -6.296965430000    -3.972491370000    -2.731965910000    12.000000000000
      Gh(C)          -7.166528570000    -1.393609710000    -2.910240590000    12.000000000000
      Gh(C)          -7.072257320000     0.147834600000    -0.757129170000    12.000000000000
      Gh(C)          -6.060555210000    -0.705228590000     1.527799160000    12.000000000000
      Gh(C)          -5.146608250000    -3.282758710000     1.693768900000    12.000000000000
      Gh(C)          -8.009409540000    -0.477951610000    -5.296228450000    12.000000000000
      Gh(C)          -8.003895320000    -2.012651110000    -7.391754450000    12.000000000000
      Gh(C)          -7.173996200000    -4.558693670000    -7.209678960000    12.000000000000
      Gh(C)          -6.348240500000    -5.510814040000    -4.939719150000    12.000000000000
      Gh(C)          -5.791745450000     0.944327330000     3.660642330000    12.000000000000
      Gh(C)          -4.598362800000     0.079981900000     5.769700660000    12.000000000000
      Gh(C)          -3.622933980000    -2.455166200000     5.905508660000    12.000000000000
      Gh(C)          -3.924004210000    -4.116319930000     3.964190180000    12.000000000000
      Gh(C)          -2.165691520000    -2.619450290000     8.388517700000    12.000000000000
      Gh(C)           0.076362130000    -0.846175710000     7.951167990000    12.000000000000
      Gh(C)          -0.907811200000     1.617847830000     7.867441600000    12.000000000000
      Gh(C)          -3.765700710000     1.391352810000     8.204976350000    12.000000000000
      Gh(C)          -3.856711250000    -0.888045230000    10.062814110000    12.000000000000
      Gh(C)           2.580011710000    -1.365512700000     7.311840570000    12.000000000000
      Gh(C)           4.105748800000     0.711017200000     6.771630800000    12.000000000000
      Gh(C)           3.129114340000     3.182679200000     6.682928570000    12.000000000000
      Gh(C)           0.582267520000     3.668201810000     7.154698700000    12.000000000000
      Gh(C)           5.224770350000     4.856802310000     5.594756800000    12.000000000000
      Gh(C)           5.457732570000     3.952650560000     2.860341620000    12.000000000000
      Gh(C)           6.487124790000     1.440128340000     2.991870340000    12.000000000000
      Gh(C)           6.820985540000     0.851534400000     5.793823010000    12.000000000000
      Gh(C)           7.568855230000     3.523776840000     6.772384430000    12.000000000000
      Gh(C)           6.803253670000     0.010079230000     0.878536320000    12.000000000000
      Gh(C)           6.012304070000     0.997648220000    -1.515819810000    12.000000000000
      Gh(C)           4.947659400000     3.517698730000    -1.646337150000    12.000000000000
      Gh(C)           4.725136970000     4.986254600000     0.620580010000    12.000000000000
      Gh(C)           6.122058610000    -0.461318620000    -3.713100380000    12.000000000000
      Gh(C)           5.157568480000     0.406872210000    -6.022959480000    12.000000000000
      Gh(C)           4.083957810000     2.910561660000    -6.148846990000    12.000000000000
      Gh(C)           4.053299830000     4.410188790000    -3.964629350000    12.000000000000
      Gh(C)           5.133068370000    -1.124540680000    -8.236147390000    12.000000000000
      Gh(C)           4.078518980000    -0.259611140000   -10.444600580000    12.000000000000
      Gh(C)           2.994786190000     2.193928570000   -10.561075740000    12.000000000000
      Gh(C)           3.008518070000     3.738074240000    -8.473347130000    12.000000000000
      Gh(O)           3.503610250000    -3.823107000000     7.212335910000    15.994914619570
      Gh(O)          -0.525649810000     6.011941810000     6.933616990000    15.994914619570
      Gh(H)           5.058297190000     6.895677150000     5.870898140000     1.007825032230
      Gh(H)           8.035641400000    -0.741072730000     6.263527290000     1.007825032230
      Gh(H)           7.589018420000     3.638755720000     8.835189620000     1.007825032230
      Gh(H)           9.354218020000     4.197835910000     5.975229540000     1.007825032230
      Gh(H)          -5.766115660000    -1.641881930000    10.315423430000     1.007825032230
      Gh(H)          -2.988642120000    -0.455428910000    11.887581460000     1.007825032230
      Gh(H)          -4.772530920000     3.112424280000     8.711819230000     1.007825032230
      Gh(H)          -1.708911840000    -4.507218470000     9.067129500000     1.007825032230
      Gh(H)           7.554896960000    -1.899767370000     0.968629390000     1.007825032230
      Gh(H)           3.899471970000     6.864303730000     0.502763900000     1.007825032230
      Gh(H)          -6.466804180000     2.878736780000     3.513117650000     1.007825032230
      Gh(H)          -3.183236480000    -6.031532230000     4.049642080000     1.007825032230
      Gh(H)           3.227223440000     6.291106330000    -4.059699770000     1.007825032230
      Gh(H)           6.917268220000    -2.356174780000    -3.613378580000     1.007825032230
      Gh(H)           2.174888070000     5.613963600000    -8.555829900000     1.007825032230
      Gh(H)           2.159396660000     2.848298770000   -12.318514230000     1.007825032230
      Gh(H)           4.063637580000    -1.452955430000   -12.115126220000     1.007825032230
      Gh(H)           5.947726460000    -3.008426610000    -8.136567700000     1.007825032230
      Gh(H)          -4.652193920000    -6.784106770000    -0.298467310000     1.007825032230
      Gh(H)          -7.726071190000     2.093084090000    -0.893475360000     1.007825032230
      Gh(H)          -5.691927840000    -7.452695850000    -4.798243670000     1.007825032230
      Gh(H)          -8.638360850000     1.473259020000    -5.432330500000     1.007825032230
      Gh(H)          -8.643823670000    -1.283985570000    -9.201310080000     1.007825032230
      Gh(H)          -7.190289230000    -5.750677730000    -8.881167040000     1.007825032230
      Gh(H)           0.694719260000     7.166574110000     6.199088010000     1.007825032230
      Gh(H)           3.219438530000    -4.432552370000     5.492433800000     1.007825032230
         C           -1.018041760000    -2.067217520000    -6.414246930000    12.000000000000
         C           -0.040068050000    -3.694636050000    -4.599930140000    12.000000000000
         C            0.295082440000    -2.887308010000    -2.095087580000    12.000000000000
         C           -0.326797140000    -0.422729840000    -1.416909660000    12.000000000000
         C           -1.320715610000     1.153928760000    -3.249152770000    12.000000000000
         C           -1.688140350000     0.375140490000    -5.743251860000    12.000000000000
         F            0.623497560000    -6.023673050000    -5.332662180000    18.998403162730
         N            1.256848720000    -4.559888540000    -0.108788320000    14.003074004430
         N           -2.017900960000     3.745351770000    -2.526710850000    14.003074004430
         H           -2.469627520000     1.680117510000    -7.107226130000     1.007825032230
         H           -0.060924580000     0.218168500000     0.506399170000     1.007825032230
         H           -1.236198360000    -2.747524970000    -8.331054530000     1.007825032230
         O            2.060859350000    -3.521958740000     1.833061180000    15.994914619570
         O            1.183365590000    -6.860247050000    -0.444704520000    15.994914619570
         O           -2.906989510000     5.119293960000    -4.196470210000    15.994914619570
         O           -1.674623890000     4.391770190000    -0.313511800000    15.994914619570

  Running in c1 symmetry.

  Rotational constants: A =      0.00269  B =      0.00202  C =      0.00154 [cm^-1]
  Rotational constants: A =     80.53073  B =     60.67005  C =     46.28054 [MHz]
  Nuclear repulsion =  775.513772342646689

  Charge       = 0
  Multiplicity = 1
  Electrons    = 94
  Nalpha       = 47
  Nbeta        = 47

  ==> Algorithm <==

  SCF Algorithm Type is DF.
  DIIS enabled.
  MOM disabled.
  Fractional occupation disabled.
  Guess Type is SAD.
  Energy threshold   = 1.00e-06
  Density threshold  = 1.00e-06
  Integral threshold = 1.00e-12

  ==> Primary Basis <==

  Basis Set: AUG-CC-PVTZ
    Blend: AUG-CC-PVTZ
    Number of shells: 1031
    Number of basis functions: 3197
    Number of Cartesian functions: 3750
    Spherical Harmonics?: true
    Max angular momentum: 3

  ==> DFT Potential <==

   => LibXC <=

    Version 7.0.0
    S. Lehtola, C. Steigemann, M. J.T. Oliveira, and M. A.L. Marques.,  SoftwareX 7, 1–5 (2018) (10.1016/j.softx.2017.11.002)

   => Composite Functional: PBE-D3ZERO2B <= 

    PBE GGA Exchange-Correlation Functional

    J.P. Perdew et. al., Phys. Rev. Lett., 77(18), 3865-3868, 1996


    Deriv               =              1
    GGA                 =           TRUE
    Meta                =          FALSE

    Exchange Hybrid     =          FALSE
    MP2 Hybrid          =          FALSE

   => Exchange Functionals <=

    1.0000     XC_GGA_X_PBE

   => Correlation Functionals <=

    1.0000     XC_GGA_C_PBE

   => LibXC Density Thresholds  <==

    XC_GGA_C_PBE:  1.00E-12 
    XC_GGA_X_PBE:  1.00E-15 

   => Molecular Quadrature <=

    Radial Scheme          =       TREUTLER
    Pruning Scheme         =           NONE
    Nuclear Scheme         =       TREUTLER

    Blocking Scheme        =         OCTREE
    BS radius alpha        =              1
    Pruning alpha          =              1
    Radial Points          =             75
    Spherical Points       =            302
    Total Points           =        1660585
    Total Blocks           =          11397
    Max Points             =            256
    Max Functions          =           2139
    Weights Tolerance      =       1.00E-15

   => Loading Basis Set <=

    Name: (AUG-CC-PVTZ AUX)
    Role: JKFIT
    Keyword: DF_BASIS_SCF
    atoms 1-40, 69-74  entry C          line   162 file /storage/home/hcoda1/5/vlita3/.conda/envs/p4_qcml/share/psi4/basis/aug-cc-pvtz-jkfit.gbs 
    atoms 41-42, 81-84 entry O          line   286 file /storage/home/hcoda1/5/vlita3/.conda/envs/p4_qcml/share/psi4/basis/aug-cc-pvtz-jkfit.gbs 
    atoms 43-68, 78-80 entry H          line    70 file /storage/home/hcoda1/5/vlita3/.conda/envs/p4_qcml/share/psi4/basis/aug-cc-pvtz-jkfit.gbs 
    atoms 75           entry F          line   348 file /storage/home/hcoda1/5/vlita3/.conda/envs/p4_qcml/share/psi4/basis/aug-cc-pvtz-jkfit.gbs 
    atoms 76-77        entry N          line   224 file /storage/home/hcoda1/5/vlita3/.conda/envs/p4_qcml/share/psi4/basis/aug-cc-pvtz-jkfit.gbs 

  ==> Integral Setup <==

  ==> DiskDFJK: Density-Fitted J/K Matrices <==

    J tasked:                  Yes
    K tasked:                   No
    wK tasked:                  No
    OpenMP threads:             10
    Integrals threads:          10
    Memory [MiB]:           172800
    Algorithm:                Disk
    Integral Cache:           NONE
    Schwarz Cutoff:          1E-12
    Fitting Condition:       1E-10

   => Auxiliary Basis Set <=

  Basis Set: (AUG-CC-PVTZ AUX)
    Blend: AUG-CC-PVTZ-JKFIT
    Number of shells: 2056
    Number of basis functions: 7054
    Number of Cartesian functions: 8800
    Spherical Harmonics?: true
    Max angular momentum: 4

  Minimum eigenvalue in the overlap matrix is 8.4696743678E-09.
  Reciprocal condition number of the overlap matrix is 2.5542464085E-10.
    Using canonical orthogonalization.
  Overall, 16 of 3197 possible MOs eliminated.


  ==> Pre-Iterations <==

  SCF Guess: Superposition of Atomic Densities via on-the-fly atomic UHF (no occupation information).

   -------------------------
    Irrep   Nso     Nmo    
   -------------------------
     A       3197    3181 
   -------------------------
    Total    3197    3181
   -------------------------

  ==> Iterations <==

                           Total Energy        Delta E     RMS |[F,P]|

   @DF-RKS iter SAD:  -739.83418027707535   -7.39834e+02   0.00000e+00 
   @DF-RKS iter   1:  -739.23245946470161    6.01721e-01   4.16690e-04 ADIIS/DIIS
   @DF-RKS iter   2:  -736.92637023380507    2.30609e+00   7.52305e-04 ADIIS/DIIS
   @DF-RKS iter   3:  -738.16263894928238   -1.23627e+00   5.12530e-04 ADIIS/DIIS
   @DF-RKS iter   4:  -739.90323096562838   -1.74059e+00   1.66500e-04 ADIIS/DIIS
   @DF-RKS iter   5:  -739.93633577053049   -3.31048e-02   1.43422e-04 ADIIS/DIIS
   @DF-RKS iter   6:  -739.95341750841737   -1.70817e-02   1.23917e-04 ADIIS/DIIS
   @DF-RKS iter   7:  -740.01486399742328   -6.14465e-02   2.39656e-05 DIIS
   @DF-RKS iter   8:  -740.01648516996806   -1.62117e-03   1.27463e-05 DIIS
   @DF-RKS iter   9:  -740.01660577131952   -1.20601e-04   1.15383e-05 DIIS
   @DF-RKS iter  10:  -740.01711846812918   -5.12697e-04   2.24597e-06 DIIS
   @DF-RKS iter  11:  -740.01713585996583   -1.73918e-05   1.11182e-06 DIIS
   @DF-RKS iter  12:  -740.01714188221138   -6.02225e-06   2.03064e-07 DIIS
   @DF-RKS iter  13:  -740.01714201681568   -1.34604e-07   1.34707e-07 DIIS
  Energy and wave function converged.


  ==> Post-Iterations <==

   Electrons on quadrature grid:
      Ntotal   =   93.9997471837 ; deviation = -2.528e-04 

    Orbital Energies [Eh]
    ---------------------

    Doubly Occupied:                                                      

       1A    -24.326636     2A    -18.812173     3A    -18.811184  
       4A    -18.810555     5A    -18.809561     6A    -14.240585  
       7A    -14.237372     8A    -10.042804     9A     -9.997983  
      10A     -9.989489    11A     -9.962795    12A     -9.962144  
      13A     -9.955621    14A     -1.182504    15A     -1.155550  
      16A     -1.154878    17A     -0.991857    18A     -0.991625  
      19A     -0.866075    20A     -0.791022    21A     -0.766829  
      22A     -0.685545    23A     -0.673787    24A     -0.614323  
      25A     -0.567866    26A     -0.547401    27A     -0.525015  
      28A     -0.518586    29A     -0.510087    30A     -0.506136  
      31A     -0.503027    32A     -0.480229    33A     -0.470235  
      34A     -0.462874    35A     -0.450902    36A     -0.429193  
      37A     -0.406062    38A     -0.384162    39A     -0.369488  
      40A     -0.309078    41A     -0.303204    42A     -0.299355  
      43A     -0.292972    44A     -0.287667    45A     -0.286976  
      46A     -0.269869    47A     -0.267079  

    Virtual:                                                              

      48A     -0.156147    49A     -0.151092    50A     -0.092046  
      51A     -0.064642    52A     -0.032255    53A     -0.026654  
      54A     -0.009780    55A     -0.001835    56A      0.000989  
      57A      0.015486    58A      0.017391    59A      0.017668  
      60A      0.020422    61A      0.020593    62A      0.023288  
      63A      0.028433    64A      0.029261    65A      0.033894  
      66A      0.035539    67A      0.037298    68A      0.038375  
      69A      0.039163    70A      0.041168    71A      0.043573  
      72A      0.045811    73A      0.048642    74A      0.049117  
      75A      0.050197    76A      0.051060    77A      0.051378  
      78A      0.053400    79A      0.055778    80A      0.056584  
      81A      0.058610    82A      0.060566    83A      0.063405  
      84A      0.065312    85A      0.066882    86A      0.068403  
      87A      0.068960    88A      0.069645    89A      0.073195  
      90A      0.073341    91A      0.074955    92A      0.075608  
      93A      0.079818    94A      0.080461    95A      0.081691  
      96A      0.083327    97A      0.084580    98A      0.085971  
      99A      0.086404   100A      0.089155   101A      0.091291  
     102A      0.092344   103A      0.093463   104A      0.095231  
     105A      0.096966   106A      0.097428   107A      0.099448  
     108A      0.100197   109A      0.101429   110A      0.101924  
     111A      0.106145   112A      0.108753   113A      0.109176  
     114A      0.110655   115A      0.112302   116A      0.112991  
     117A      0.115068   118A      0.117010   119A      0.117780  
     120A      0.118673   121A      0.119296   122A      0.120322  
     123A      0.122557   124A      0.123317   125A      0.124073  
     126A      0.124337   127A      0.126087   128A      0.129425  
     129A      0.130604   130A      0.131404   131A      0.132536  
     132A      0.134509   133A      0.135679   134A      0.136053  
     135A      0.137601   136A      0.139913   137A      0.142590  
     138A      0.143097   139A      0.144902   140A      0.145727  
     141A      0.146069   142A      0.147274   143A      0.148453  
     144A      0.149232   145A      0.149755   146A      0.150463  
     147A      0.150830   148A      0.152214   149A      0.153275  
     150A      0.154455   151A      0.155418   152A      0.160745  
     153A      0.162345   154A      0.163449   155A      0.163861  
     156A      0.164904   157A      0.164957   158A      0.166493  
     159A      0.167382   160A      0.168708   161A      0.169971  
     162A      0.173908   163A      0.174333   164A      0.175016  
     165A      0.176094   166A      0.177055   167A      0.178326  
     168A      0.179826   169A      0.181268   170A      0.181918  
     171A      0.182327   172A      0.183184   173A      0.184194  
     174A      0.186326   175A      0.187593   176A      0.189323  
     177A      0.189808   178A      0.191046   179A      0.192663  
     180A      0.192699   181A      0.194172   182A      0.194882  
     183A      0.196510   184A      0.197824   185A      0.199172  
     186A      0.200000   187A      0.200525   188A      0.202136  
     189A      0.202960   190A      0.204489   191A      0.205987  
     192A      0.206912   193A      0.207527   194A      0.207938  
     195A      0.208945   196A      0.209312   197A      0.210979  
     198A      0.213211   199A      0.214273   200A      0.215136  
     201A      0.216065   202A      0.217688   203A      0.218486  
     204A      0.220473   205A      0.221794   206A      0.222011  
     207A      0.224452   208A      0.224888   209A      0.227356  
     210A      0.228131   211A      0.228880   212A      0.230760  
     213A      0.231994   214A      0.232923   215A      0.234094  
     216A      0.235305   217A      0.236472   218A      0.238483  
     219A      0.240675   220A      0.240795   221A      0.242455  
     222A      0.244071   223A      0.245229   224A      0.246097  
     225A      0.247341   226A      0.247921   227A      0.249674  
     228A      0.251840   229A      0.252757   230A      0.253329  
     231A      0.254273   232A      0.255594   233A      0.255791  
     234A      0.259295   235A      0.259796   236A      0.260397  
     237A      0.261393   238A      0.263047   239A      0.263392  
     240A      0.265071   241A      0.266689   242A      0.267589  
     243A      0.268135   244A      0.269996   245A      0.271056  
     246A      0.272385   247A      0.273183   248A      0.273602  
     249A      0.274155   250A      0.277957   251A      0.278757  
     252A      0.281117   253A      0.282981   254A      0.283382  
     255A      0.283803   256A      0.285324   257A      0.286254  
     258A      0.286937   259A      0.289776   260A      0.290000  
     261A      0.291116   262A      0.292156   263A      0.292874  
     264A      0.295120   265A      0.296884   266A      0.297740  
     267A      0.298897   268A      0.299776   269A      0.302525  
     270A      0.303057   271A      0.305906   272A      0.306729  
     273A      0.307610   274A      0.309054   275A      0.310307  
     276A      0.312164   277A      0.313239   278A      0.313736  
     279A      0.315197   280A      0.316450   281A      0.317556  
     282A      0.318743   283A      0.319833   284A      0.320029  
     285A      0.321707   286A      0.323055   287A      0.324273  
     288A      0.325066   289A      0.326718   290A      0.328487  
     291A      0.329279   292A      0.330492   293A      0.332557  
     294A      0.333064   295A      0.335733   296A      0.337248  
     297A      0.337961   298A      0.339365   299A      0.340148  
     300A      0.342514   301A      0.343913   302A      0.345804  
     303A      0.346045   304A      0.347701   305A      0.348081  
     306A      0.349804   307A      0.352527   308A      0.354509  
     309A      0.355125   310A      0.356594   311A      0.358190  
     312A      0.359598   313A      0.360520   314A      0.362065  
     315A      0.363815   316A      0.365088   317A      0.365706  
     318A      0.367726   319A      0.370047   320A      0.370860  
     321A      0.374794   322A      0.376251   323A      0.379573  
     324A      0.379685   325A      0.380347   326A      0.381353  
     327A      0.381937   328A      0.383169   329A      0.383934  
     330A      0.386246   331A      0.388279   332A      0.388878  
     333A      0.391654   334A      0.392504   335A      0.393827  
     336A      0.397384   337A      0.397744   338A      0.398456  
     339A      0.398825   340A      0.401402   341A      0.402356  
     342A      0.404663   343A      0.405369   344A      0.406790  
     345A      0.408054   346A      0.408735   347A      0.410896  
     348A      0.411559   349A      0.412606   350A      0.413256  
     351A      0.415161   352A      0.416972   353A      0.419185  
     354A      0.419528   355A      0.421399   356A      0.422279  
     357A      0.422712   358A      0.424342   359A      0.426254  
     360A      0.427321   361A      0.428313   362A      0.429443  
     363A      0.430427   364A      0.433115   365A      0.434412  
     366A      0.434870   367A      0.437146   368A      0.438902  
     369A      0.439950   370A      0.440569   371A      0.442993  
     372A      0.445350   373A      0.445870   374A      0.449105  
     375A      0.449965   376A      0.450517   377A      0.451349  
     378A      0.453652   379A      0.456067   380A      0.457616  
     381A      0.457892   382A      0.458670   383A      0.460814  
     384A      0.461479   385A      0.462490   386A      0.464177  
     387A      0.465835   388A      0.466507   389A      0.468252  
     390A      0.470214   391A      0.472138   392A      0.472654  
     393A      0.473630   394A      0.474801   395A      0.476159  
     396A      0.478212   397A      0.478390   398A      0.479175  
     399A      0.480402   400A      0.481191   401A      0.482912  
     402A      0.483549   403A      0.486196   404A      0.486252  
     405A      0.487023   406A      0.487750   407A      0.489694  
     408A      0.492373   409A      0.493565   410A      0.494810  
     411A      0.495972   412A      0.496718   413A      0.497351  
     414A      0.499739   415A      0.501418   416A      0.503051  
     417A      0.503929   418A      0.504365   419A      0.506116  
     420A      0.507164   421A      0.509174   422A      0.509726  
     423A      0.511922   424A      0.513393   425A      0.515207  
     426A      0.515901   427A      0.518435   428A      0.519259  
     429A      0.519618   430A      0.520723   431A      0.521647  
     432A      0.523510   433A      0.526184   434A      0.526647  
     435A      0.527596   436A      0.528837   437A      0.530749  
     438A      0.532853   439A      0.532915   440A      0.536760  
     441A      0.538267   442A      0.540253   443A      0.541610  
     444A      0.543474   445A      0.544128   446A      0.544899  
     447A      0.547182   448A      0.548046   449A      0.550166  
     450A      0.551221   451A      0.552001   452A      0.553549  
     453A      0.554393   454A      0.556697   455A      0.557071  
     456A      0.558355   457A      0.561593   458A      0.562220  
     459A      0.562370   460A      0.565331   461A      0.565632  
     462A      0.566333   463A      0.567993   464A      0.568501  
     465A      0.570335   466A      0.572047   467A      0.574441  
     468A      0.575834   469A      0.576814   470A      0.577764  
     471A      0.578272   472A      0.581237   473A      0.584035  
     474A      0.584902   475A      0.585662   476A      0.588422  
     477A      0.589969   478A      0.590611   479A      0.592809  
     480A      0.593106   481A      0.594271   482A      0.595103  
     483A      0.596707   484A      0.598465   485A      0.599698  
     486A      0.600972   487A      0.601351   488A      0.603130  
     489A      0.603468   490A      0.607129   491A      0.608656  
     492A      0.609558   493A      0.610885   494A      0.612700  
     495A      0.612874   496A      0.614741   497A      0.614904  
     498A      0.616011   499A      0.616955   500A      0.618327  
     501A      0.619244   502A      0.620316   503A      0.622406  
     504A      0.625147   505A      0.626924   506A      0.627542  
     507A      0.631001   508A      0.631394   509A      0.633161  
     510A      0.634395   511A      0.635958   512A      0.637599  
     513A      0.637835   514A      0.638738   515A      0.642852  
     516A      0.643822   517A      0.646737   518A      0.647213  
     519A      0.647701   520A      0.648248   521A      0.650415  
     522A      0.652017   523A      0.652613   524A      0.654466  
     525A      0.655024   526A      0.655685   527A      0.657691  
     528A      0.658233   529A      0.660179   530A      0.660751  
     531A      0.662033   532A      0.665232   533A      0.666004  
     534A      0.667850   535A      0.668940   536A      0.670649  
     537A      0.671666   538A      0.673238   539A      0.674026  
     540A      0.675799   541A      0.677471   542A      0.679679  
     543A      0.682065   544A      0.684333   545A      0.684785  
     546A      0.685466   547A      0.685591   548A      0.687511  
     549A      0.688531   550A      0.690252   551A      0.692010  
     552A      0.693600   553A      0.693876   554A      0.695469  
     555A      0.697271   556A      0.699685   557A      0.700261  
     558A      0.700565   559A      0.702520   560A      0.702964  
     561A      0.705390   562A      0.705582   563A      0.708259  
     564A      0.710241   565A      0.711146   566A      0.712577  
     567A      0.714695   568A      0.715443   569A      0.717772  
     570A      0.718269   571A      0.719751   572A      0.721563  
     573A      0.721774   574A      0.725764   575A      0.726127  
     576A      0.727529   577A      0.729486   578A      0.729761  
     579A      0.730481   580A      0.733105   581A      0.734265  
     582A      0.735620   583A      0.737119   584A      0.738483  
     585A      0.741518   586A      0.742057   587A      0.744538  
     588A      0.745587   589A      0.746778   590A      0.748020  
     591A      0.748723   592A      0.752619   593A      0.753858  
     594A      0.754044   595A      0.755824   596A      0.756326  
     597A      0.759346   598A      0.759956   599A      0.761656  
     600A      0.763033   601A      0.763712   602A      0.765923  
     603A      0.766382   604A      0.768534   605A      0.770619  
     606A      0.771953   607A      0.774131   608A      0.775264  
     609A      0.777081   610A      0.777882   611A      0.780315  
     612A      0.782779   613A      0.783138   614A      0.786168  
     615A      0.786810   616A      0.788490   617A      0.790385  
     618A      0.793078   619A      0.795485   620A      0.796217  
     621A      0.797476   622A      0.799215   623A      0.799620  
     624A      0.801015   625A      0.802525   626A      0.805356  
     627A      0.805833   628A      0.808647   629A      0.809420  
     630A      0.810556   631A      0.811625   632A      0.813164  
     633A      0.814035   634A      0.815460   635A      0.816800  
     636A      0.818835   637A      0.820219   638A      0.821172  
     639A      0.822110   640A      0.824203   641A      0.825535  
     642A      0.826908   643A      0.828323   644A      0.829686  
     645A      0.831167   646A      0.833504   647A      0.836248  
     648A      0.837166   649A      0.838972   650A      0.840553  
     651A      0.841608   652A      0.842030   653A      0.844088  
     654A      0.846499   655A      0.847152   656A      0.849605  
     657A      0.851624   658A      0.853764   659A      0.854087  
     660A      0.855658   661A      0.857067   662A      0.859367  
     663A      0.860538   664A      0.862116   665A      0.863439  
     666A      0.865193   667A      0.867141   668A      0.868539  
     669A      0.870103   670A      0.872170   671A      0.872289  
     672A      0.873827   673A      0.874694   674A      0.876514  
     675A      0.878148   676A      0.882039   677A      0.882178  
     678A      0.883349   679A      0.886555   680A      0.887016  
     681A      0.888763   682A      0.890439   683A      0.893309  
     684A      0.894132   685A      0.896132   686A      0.896913  
     687A      0.899498   688A      0.900289   689A      0.902667  
     690A      0.903045   691A      0.904638   692A      0.907744  
     693A      0.908846   694A      0.910674   695A      0.911840  
     696A      0.912347   697A      0.914989   698A      0.916030  
     699A      0.917295   700A      0.918913   701A      0.921936  
     702A      0.922648   703A      0.924572   704A      0.926317  
     705A      0.927071   706A      0.929034   707A      0.930642  
     708A      0.932221   709A      0.934304   710A      0.935421  
     711A      0.936872   712A      0.937768   713A      0.939835  
     714A      0.941504   715A      0.943149   716A      0.944699  
     717A      0.946498   718A      0.949986   719A      0.950866  
     720A      0.951657   721A      0.953134   722A      0.956067  
     723A      0.956298   724A      0.958937   725A      0.961254  
     726A      0.962247   727A      0.963720   728A      0.964799  
     729A      0.966091   730A      0.968088   731A      0.970208  
     732A      0.971690   733A      0.973717   734A      0.975351  
     735A      0.975863   736A      0.977041   737A      0.978340  
     738A      0.979316   739A      0.980345   740A      0.982958  
     741A      0.983532   742A      0.985008   743A      0.986591  
     744A      0.987350   745A      0.988602   746A      0.991461  
     747A      0.992202   748A      0.995345   749A      0.995812  
     750A      0.997749   751A      0.998219   752A      0.999320  
     753A      0.999837   754A      1.002214   755A      1.002655  
     756A      1.004545   757A      1.006467   758A      1.007285  
     759A      1.011178   760A      1.012115   761A      1.013924  
     762A      1.014182   763A      1.018837   764A      1.020286  
     765A      1.021959   766A      1.023623   767A      1.025460  
     768A      1.027074   769A      1.027718   770A      1.029054  
     771A      1.031995   772A      1.034325   773A      1.035301  
     774A      1.037018   775A      1.038447   776A      1.039464  
     777A      1.042260   778A      1.045452   779A      1.046526  
     780A      1.047698   781A      1.049278   782A      1.050883  
     783A      1.051959   784A      1.053700   785A      1.054426  
     786A      1.055944   787A      1.058291   788A      1.059439  
     789A      1.061021   790A      1.063161   791A      1.065486  
     792A      1.066338   793A      1.068939   794A      1.070665  
     795A      1.072107   796A      1.074403   797A      1.077531  
     798A      1.079003   799A      1.079734   800A      1.080161  
     801A      1.082299   802A      1.084289   803A      1.085061  
     804A      1.086153   805A      1.087251   806A      1.089074  
     807A      1.091443   808A      1.094371   809A      1.095822  
     810A      1.096826   811A      1.097803   812A      1.098620  
     813A      1.101828   814A      1.103121   815A      1.105795  
     816A      1.107497   817A      1.108230   818A      1.111187  
     819A      1.112270   820A      1.114758   821A      1.115355  
     822A      1.120069   823A      1.122819   824A      1.123155  
     825A      1.124265   826A      1.126517   827A      1.126978  
     828A      1.129803   829A      1.131235   830A      1.131546  
     831A      1.132278   832A      1.135583   833A      1.137103  
     834A      1.139902   835A      1.140566   836A      1.141229  
     837A      1.142940   838A      1.145510   839A      1.147844  
     840A      1.149105   841A      1.150517   842A      1.152643  
     843A      1.155102   844A      1.155423   845A      1.156591  
     846A      1.159540   847A      1.162394   848A      1.164208  
     849A      1.164527   850A      1.165512   851A      1.167598  
     852A      1.169200   853A      1.169493   854A      1.171149  
     855A      1.173999   856A      1.174795   857A      1.177432  
     858A      1.178488   859A      1.181577   860A      1.183344  
     861A      1.185214   862A      1.187751   863A      1.188686  
     864A      1.190702   865A      1.192286   866A      1.193652  
     867A      1.195022   868A      1.196249   869A      1.197115  
     870A      1.197926   871A      1.201519   872A      1.201601  
     873A      1.203968   874A      1.205131   875A      1.206018  
     876A      1.208560   877A      1.210034   878A      1.211331  
     879A      1.214568   880A      1.216291   881A      1.216754  
     882A      1.218163   883A      1.220597   884A      1.221066  
     885A      1.224075   886A      1.224394   887A      1.224893  
     888A      1.228807   889A      1.229498   890A      1.232110  
     891A      1.234718   892A      1.235920   893A      1.239240  
     894A      1.239507   895A      1.242322   896A      1.244009  
     897A      1.246096   898A      1.248237   899A      1.248858  
     900A      1.250354   901A      1.251535   902A      1.252731  
     903A      1.253636   904A      1.253865   905A      1.257954  
     906A      1.259161   907A      1.260074   908A      1.263441  
     909A      1.264353   910A      1.266293   911A      1.268000  
     912A      1.268347   913A      1.272111   914A      1.272815  
     915A      1.275002   916A      1.277718   917A      1.279334  
     918A      1.280855   919A      1.282123   920A      1.283094  
     921A      1.286383   922A      1.287955   923A      1.288479  
     924A      1.289523   925A      1.292821   926A      1.293713  
     927A      1.295647   928A      1.298075   929A      1.299605  
     930A      1.301043   931A      1.302642   932A      1.304541  
     933A      1.305890   934A      1.307474   935A      1.309634  
     936A      1.311514   937A      1.312881   938A      1.314301  
     939A      1.314851   940A      1.317392   941A      1.317957  
     942A      1.321112   943A      1.322862   944A      1.324676  
     945A      1.326390   946A      1.328060   947A      1.328847  
     948A      1.331468   949A      1.331887   950A      1.333891  
     951A      1.336058   952A      1.337918   953A      1.340176  
     954A      1.340483   955A      1.342009   956A      1.344002  
     957A      1.344682   958A      1.347159   959A      1.349185  
     960A      1.350390   961A      1.352313   962A      1.355108  
     963A      1.355988   964A      1.357666   965A      1.359028  
     966A      1.359788   967A      1.362565   968A      1.364421  
     969A      1.365398   970A      1.366326   971A      1.368625  
     972A      1.369501   973A      1.372871   974A      1.374215  
     975A      1.375265   976A      1.377337   977A      1.379321  
     978A      1.380994   979A      1.384012   980A      1.385061  
     981A      1.385474   982A      1.387701   983A      1.389635  
     984A      1.391838   985A      1.394865   986A      1.396462  
     987A      1.397729   988A      1.398434   989A      1.400259  
     990A      1.400819   991A      1.402454   992A      1.403299  
     993A      1.405736   994A      1.406140   995A      1.407697  
     996A      1.409008   997A      1.411320   998A      1.413962  
     999A      1.415389  1000A      1.416081  1001A      1.417804  
    1002A      1.420137  1003A      1.421959  1004A      1.423755  
    1005A      1.424639  1006A      1.426932  1007A      1.427032  
    1008A      1.430330  1009A      1.430886  1010A      1.431832  
    1011A      1.433881  1012A      1.435707  1013A      1.437949  
    1014A      1.438457  1015A      1.442254  1016A      1.443386  
    1017A      1.445534  1018A      1.447464  1019A      1.447878  
    1020A      1.450343  1021A      1.451111  1022A      1.452092  
    1023A      1.453237  1024A      1.454932  1025A      1.458332  
    1026A      1.460884  1027A      1.463640  1028A      1.464566  
    1029A      1.464989  1030A      1.466269  1031A      1.469342  
    1032A      1.470930  1033A      1.472708  1034A      1.474175  
    1035A      1.475284  1036A      1.478000  1037A      1.478645  
    1038A      1.480506  1039A      1.481599  1040A      1.483129  
    1041A      1.485650  1042A      1.487332  1043A      1.488507  
    1044A      1.489091  1045A      1.490453  1046A      1.492014  
    1047A      1.493695  1048A      1.494299  1049A      1.495864  
    1050A      1.498115  1051A      1.501901  1052A      1.502253  
    1053A      1.502905  1054A      1.503851  1055A      1.505709  
    1056A      1.507436  1057A      1.509392  1058A      1.510133  
    1059A      1.513752  1060A      1.515260  1061A      1.517851  
    1062A      1.519033  1063A      1.521067  1064A      1.521301  
    1065A      1.523212  1066A      1.524698  1067A      1.526063  
    1068A      1.526973  1069A      1.531337  1070A      1.532733  
    1071A      1.533971  1072A      1.537185  1073A      1.538306  
    1074A      1.538934  1075A      1.539678  1076A      1.540504  
    1077A      1.544114  1078A      1.545795  1079A      1.546812  
    1080A      1.548641  1081A      1.549259  1082A      1.549979  
    1083A      1.551770  1084A      1.553040  1085A      1.554769  
    1086A      1.558031  1087A      1.558096  1088A      1.559097  
    1089A      1.561018  1090A      1.562677  1091A      1.564623  
    1092A      1.566431  1093A      1.567116  1094A      1.568655  
    1095A      1.570280  1096A      1.571764  1097A      1.575148  
    1098A      1.576221  1099A      1.577928  1100A      1.578670  
    1101A      1.580713  1102A      1.581460  1103A      1.585672  
    1104A      1.586880  1105A      1.588092  1106A      1.589065  
    1107A      1.589934  1108A      1.591859  1109A      1.594268  
    1110A      1.596278  1111A      1.596454  1112A      1.598662  
    1113A      1.599801  1114A      1.600680  1115A      1.602287  
    1116A      1.604889  1117A      1.606813  1118A      1.608855  
    1119A      1.610521  1120A      1.612660  1121A      1.614044  
    1122A      1.614407  1123A      1.616252  1124A      1.616951  
    1125A      1.618347  1126A      1.620258  1127A      1.621084  
    1128A      1.622151  1129A      1.623252  1130A      1.627272  
    1131A      1.628441  1132A      1.629233  1133A      1.630426  
    1134A      1.632060  1135A      1.635043  1136A      1.635472  
    1137A      1.636594  1138A      1.638707  1139A      1.640253  
    1140A      1.641648  1141A      1.643617  1142A      1.645240  
    1143A      1.647292  1144A      1.647848  1145A      1.651670  
    1146A      1.652040  1147A      1.653802  1148A      1.655676  
    1149A      1.656825  1150A      1.656940  1151A      1.657365  
    1152A      1.661621  1153A      1.663819  1154A      1.666357  
    1155A      1.668133  1156A      1.668737  1157A      1.670678  
    1158A      1.671534  1159A      1.673928  1160A      1.675206  
    1161A      1.677924  1162A      1.679400  1163A      1.681572  
    1164A      1.682083  1165A      1.683286  1166A      1.683959  
    1167A      1.685948  1168A      1.687199  1169A      1.689667  
    1170A      1.690690  1171A      1.692297  1172A      1.694486  
    1173A      1.696965  1174A      1.697610  1175A      1.698810  
    1176A      1.700794  1177A      1.701628  1178A      1.703680  
    1179A      1.706780  1180A      1.707436  1181A      1.708364  
    1182A      1.709953  1183A      1.711567  1184A      1.713797  
    1185A      1.715023  1186A      1.716326  1187A      1.719158  
    1188A      1.719680  1189A      1.721139  1190A      1.722670  
    1191A      1.724595  1192A      1.727998  1193A      1.729440  
    1194A      1.731090  1195A      1.733249  1196A      1.734240  
    1197A      1.735294  1198A      1.736337  1199A      1.737074  
    1200A      1.739285  1201A      1.741831  1202A      1.743772  
    1203A      1.745087  1204A      1.748181  1205A      1.749053  
    1206A      1.749260  1207A      1.752672  1208A      1.753706  
    1209A      1.756695  1210A      1.757070  1211A      1.758078  
    1212A      1.762232  1213A      1.762948  1214A      1.763963  
    1215A      1.765251  1216A      1.766951  1217A      1.769059  
    1218A      1.770832  1219A      1.772716  1220A      1.774819  
    1221A      1.776943  1222A      1.777773  1223A      1.779266  
    1224A      1.782392  1225A      1.784701  1226A      1.785665  
    1227A      1.786419  1228A      1.788195  1229A      1.788808  
    1230A      1.792188  1231A      1.793248  1232A      1.793607  
    1233A      1.797068  1234A      1.799217  1235A      1.801060  
    1236A      1.803410  1237A      1.803767  1238A      1.805404  
    1239A      1.807900  1240A      1.810043  1241A      1.812474  
    1242A      1.813333  1243A      1.815657  1244A      1.818578  
    1245A      1.819069  1246A      1.820206  1247A      1.820852  
    1248A      1.825274  1249A      1.827286  1250A      1.828507  
    1251A      1.830426  1252A      1.831523  1253A      1.833610  
    1254A      1.835347  1255A      1.838466  1256A      1.839802  
    1257A      1.841307  1258A      1.841628  1259A      1.842219  
    1260A      1.844578  1261A      1.848345  1262A      1.849829  
    1263A      1.851007  1264A      1.851321  1265A      1.852346  
    1266A      1.855443  1267A      1.857847  1268A      1.858849  
    1269A      1.862587  1270A      1.864280  1271A      1.864931  
    1272A      1.866566  1273A      1.869046  1274A      1.870727  
    1275A      1.871712  1276A      1.874171  1277A      1.878424  
    1278A      1.879201  1279A      1.881310  1280A      1.881684  
    1281A      1.883615  1282A      1.885925  1283A      1.887867  
    1284A      1.889037  1285A      1.890290  1286A      1.890725  
    1287A      1.893238  1288A      1.894914  1289A      1.895613  
    1290A      1.897015  1291A      1.899640  1292A      1.900901  
    1293A      1.901934  1294A      1.906270  1295A      1.907441  
    1296A      1.908796  1297A      1.912561  1298A      1.913705  
    1299A      1.917104  1300A      1.917826  1301A      1.920227  
    1302A      1.923191  1303A      1.923929  1304A      1.926076  
    1305A      1.928488  1306A      1.929509  1307A      1.931338  
    1308A      1.932975  1309A      1.934183  1310A      1.935120  
    1311A      1.939057  1312A      1.941288  1313A      1.943302  
    1314A      1.943543  1315A      1.945658  1316A      1.946795  
    1317A      1.948655  1318A      1.951956  1319A      1.953704  
    1320A      1.955112  1321A      1.956107  1322A      1.957492  
    1323A      1.959398  1324A      1.961468  1325A      1.963406  
    1326A      1.965886  1327A      1.968674  1328A      1.970306  
    1329A      1.971931  1330A      1.974571  1331A      1.976464  
    1332A      1.978161  1333A      1.980996  1334A      1.982734  
    1335A      1.984499  1336A      1.987741  1337A      1.988950  
    1338A      1.991399  1339A      1.992867  1340A      1.995065  
    1341A      1.997130  1342A      1.998229  1343A      2.001286  
    1344A      2.001880  1345A      2.003279  1346A      2.004549  
    1347A      2.006254  1348A      2.010101  1349A      2.011327  
    1350A      2.011612  1351A      2.016333  1352A      2.017391  
    1353A      2.021046  1354A      2.021093  1355A      2.024671  
    1356A      2.025500  1357A      2.027477  1358A      2.029573  
    1359A      2.031219  1360A      2.034710  1361A      2.037809  
    1362A      2.040424  1363A      2.041106  1364A      2.045700  
    1365A      2.046764  1366A      2.047963  1367A      2.051174  
    1368A      2.052123  1369A      2.054131  1370A      2.056266  
    1371A      2.057588  1372A      2.060815  1373A      2.061570  
    1374A      2.063070  1375A      2.064216  1376A      2.066152  
    1377A      2.067353  1378A      2.068254  1379A      2.070987  
    1380A      2.075494  1381A      2.077205  1382A      2.080890  
    1383A      2.084738  1384A      2.085859  1385A      2.087556  
    1386A      2.090517  1387A      2.094176  1388A      2.094978  
    1389A      2.099304  1390A      2.099751  1391A      2.100990  
    1392A      2.102937  1393A      2.105130  1394A      2.106918  
    1395A      2.110514  1396A      2.114898  1397A      2.115508  
    1398A      2.118095  1399A      2.118965  1400A      2.121473  
    1401A      2.124662  1402A      2.126633  1403A      2.128288  
    1404A      2.129910  1405A      2.131852  1406A      2.134167  
    1407A      2.134661  1408A      2.136409  1409A      2.137117  
    1410A      2.143274  1411A      2.143875  1412A      2.145493  
    1413A      2.147468  1414A      2.150852  1415A      2.152747  
    1416A      2.153470  1417A      2.155575  1418A      2.158647  
    1419A      2.162021  1420A      2.164743  1421A      2.166595  
    1422A      2.167971  1423A      2.169051  1424A      2.170008  
    1425A      2.175408  1426A      2.178030  1427A      2.181790  
    1428A      2.182009  1429A      2.183117  1430A      2.185226  
    1431A      2.187214  1432A      2.189583  1433A      2.190477  
    1434A      2.191763  1435A      2.194260  1436A      2.195024  
    1437A      2.197944  1438A      2.201116  1439A      2.204908  
    1440A      2.205739  1441A      2.207383  1442A      2.210913  
    1443A      2.213264  1444A      2.216968  1445A      2.219145  
    1446A      2.219759  1447A      2.220646  1448A      2.224850  
    1449A      2.226236  1450A      2.229743  1451A      2.230462  
    1452A      2.232138  1453A      2.237260  1454A      2.239322  
    1455A      2.240552  1456A      2.243462  1457A      2.245043  
    1458A      2.248529  1459A      2.249680  1460A      2.252950  
    1461A      2.255823  1462A      2.257601  1463A      2.258377  
    1464A      2.262961  1465A      2.264442  1466A      2.267852  
    1467A      2.269245  1468A      2.270151  1469A      2.274222  
    1470A      2.276289  1471A      2.280543  1472A      2.281475  
    1473A      2.282912  1474A      2.285596  1475A      2.286894  
    1476A      2.288141  1477A      2.290522  1478A      2.292361  
    1479A      2.295333  1480A      2.296993  1481A      2.299025  
    1482A      2.301215  1483A      2.304915  1484A      2.307053  
    1485A      2.308628  1486A      2.310966  1487A      2.312766  
    1488A      2.314902  1489A      2.316521  1490A      2.317613  
    1491A      2.322615  1492A      2.324654  1493A      2.326434  
    1494A      2.328096  1495A      2.329400  1496A      2.332036  
    1497A      2.335764  1498A      2.337478  1499A      2.337997  
    1500A      2.340577  1501A      2.342641  1502A      2.344751  
    1503A      2.347425  1504A      2.349144  1505A      2.349670  
    1506A      2.352586  1507A      2.354567  1508A      2.359502  
    1509A      2.359797  1510A      2.361828  1511A      2.363485  
    1512A      2.367084  1513A      2.368582  1514A      2.369067  
    1515A      2.373372  1516A      2.376459  1517A      2.377259  
    1518A      2.378925  1519A      2.381592  1520A      2.382805  
    1521A      2.386126  1522A      2.387350  1523A      2.388232  
    1524A      2.390227  1525A      2.390733  1526A      2.395794  
    1527A      2.396790  1528A      2.399824  1529A      2.400439  
    1530A      2.403784  1531A      2.407252  1532A      2.409431  
    1533A      2.411399  1534A      2.411742  1535A      2.416121  
    1536A      2.417655  1537A      2.420632  1538A      2.420755  
    1539A      2.422203  1540A      2.424547  1541A      2.429387  
    1542A      2.429781  1543A      2.432417  1544A      2.433681  
    1545A      2.435772  1546A      2.438044  1547A      2.440097  
    1548A      2.443961  1549A      2.445492  1550A      2.447828  
    1551A      2.449397  1552A      2.452687  1553A      2.453000  
    1554A      2.454669  1555A      2.458812  1556A      2.461991  
    1557A      2.463584  1558A      2.468276  1559A      2.469976  
    1560A      2.471122  1561A      2.476544  1562A      2.478745  
    1563A      2.480375  1564A      2.482451  1565A      2.485981  
    1566A      2.486850  1567A      2.489208  1568A      2.491706  
    1569A      2.493486  1570A      2.496059  1571A      2.498858  
    1572A      2.499712  1573A      2.501513  1574A      2.504562  
    1575A      2.505578  1576A      2.506636  1577A      2.511060  
    1578A      2.511898  1579A      2.513227  1580A      2.515082  
    1581A      2.517844  1582A      2.519190  1583A      2.519909  
    1584A      2.521882  1585A      2.526089  1586A      2.527084  
    1587A      2.527731  1588A      2.530324  1589A      2.534768  
    1590A      2.536560  1591A      2.539722  1592A      2.542001  
    1593A      2.542918  1594A      2.546019  1595A      2.546750  
    1596A      2.549338  1597A      2.551392  1598A      2.555678  
    1599A      2.558158  1600A      2.558731  1601A      2.560091  
    1602A      2.562576  1603A      2.563540  1604A      2.564374  
    1605A      2.567269  1606A      2.569123  1607A      2.570944  
    1608A      2.575074  1609A      2.576908  1610A      2.578625  
    1611A      2.582101  1612A      2.585009  1613A      2.587249  
    1614A      2.587541  1615A      2.588841  1616A      2.592946  
    1617A      2.592974  1618A      2.595343  1619A      2.595791  
    1620A      2.598821  1621A      2.600539  1622A      2.603483  
    1623A      2.604446  1624A      2.609079  1625A      2.611520  
    1626A      2.612964  1627A      2.614868  1628A      2.617467  
    1629A      2.618652  1630A      2.621801  1631A      2.622942  
    1632A      2.626588  1633A      2.627680  1634A      2.629334  
    1635A      2.630693  1636A      2.635132  1637A      2.636807  
    1638A      2.639839  1639A      2.641332  1640A      2.642844  
    1641A      2.645398  1642A      2.645918  1643A      2.648839  
    1644A      2.650883  1645A      2.652797  1646A      2.654806  
    1647A      2.656343  1648A      2.658657  1649A      2.661390  
    1650A      2.661668  1651A      2.666730  1652A      2.669527  
    1653A      2.674641  1654A      2.676135  1655A      2.679748  
    1656A      2.681177  1657A      2.683883  1658A      2.686122  
    1659A      2.688344  1660A      2.691530  1661A      2.691692  
    1662A      2.695358  1663A      2.696538  1664A      2.697396  
    1665A      2.701148  1666A      2.702631  1667A      2.703196  
    1668A      2.704437  1669A      2.706155  1670A      2.708359  
    1671A      2.710273  1672A      2.715184  1673A      2.715684  
    1674A      2.718211  1675A      2.721896  1676A      2.723115  
    1677A      2.726939  1678A      2.728891  1679A      2.732188  
    1680A      2.737317  1681A      2.737475  1682A      2.739522  
    1683A      2.741349  1684A      2.744142  1685A      2.747456  
    1686A      2.752155  1687A      2.754843  1688A      2.756382  
    1689A      2.757664  1690A      2.759963  1691A      2.762088  
    1692A      2.765867  1693A      2.768375  1694A      2.769071  
    1695A      2.770803  1696A      2.774382  1697A      2.776561  
    1698A      2.780050  1699A      2.782195  1700A      2.785216  
    1701A      2.787574  1702A      2.788229  1703A      2.788956  
    1704A      2.791723  1705A      2.795254  1706A      2.798470  
    1707A      2.799423  1708A      2.803560  1709A      2.806103  
    1710A      2.806516  1711A      2.808429  1712A      2.810577  
    1713A      2.813905  1714A      2.817729  1715A      2.819937  
    1716A      2.822255  1717A      2.824196  1718A      2.825634  
    1719A      2.827579  1720A      2.828933  1721A      2.832005  
    1722A      2.835249  1723A      2.836626  1724A      2.841211  
    1725A      2.846205  1726A      2.848772  1727A      2.851904  
    1728A      2.853709  1729A      2.854808  1730A      2.857981  
    1731A      2.859641  1732A      2.862939  1733A      2.865656  
    1734A      2.867315  1735A      2.869889  1736A      2.872254  
    1737A      2.875252  1738A      2.878468  1739A      2.878742  
    1740A      2.883129  1741A      2.885770  1742A      2.888726  
    1743A      2.893436  1744A      2.895792  1745A      2.898255  
    1746A      2.899981  1747A      2.901366  1748A      2.907206  
    1749A      2.910544  1750A      2.914926  1751A      2.916103  
    1752A      2.919198  1753A      2.923508  1754A      2.927795  
    1755A      2.929868  1756A      2.930324  1757A      2.934817  
    1758A      2.935487  1759A      2.939739  1760A      2.941507  
    1761A      2.942591  1762A      2.945623  1763A      2.947607  
    1764A      2.952398  1765A      2.954212  1766A      2.956661  
    1767A      2.960080  1768A      2.963948  1769A      2.965899  
    1770A      2.969595  1771A      2.973173  1772A      2.975217  
    1773A      2.979075  1774A      2.980639  1775A      2.983571  
    1776A      2.989070  1777A      2.990990  1778A      2.992978  
    1779A      2.994235  1780A      2.997392  1781A      3.000170  
    1782A      3.003514  1783A      3.006686  1784A      3.009293  
    1785A      3.013808  1786A      3.014634  1787A      3.016163  
    1788A      3.020697  1789A      3.021893  1790A      3.024553  
    1791A      3.030372  1792A      3.033791  1793A      3.035087  
    1794A      3.038800  1795A      3.041912  1796A      3.043951  
    1797A      3.045781  1798A      3.048754  1799A      3.054904  
    1800A      3.055735  1801A      3.058871  1802A      3.061202  
    1803A      3.062000  1804A      3.065567  1805A      3.068871  
    1806A      3.073393  1807A      3.077535  1808A      3.080831  
    1809A      3.081243  1810A      3.082746  1811A      3.084430  
    1812A      3.089578  1813A      3.096028  1814A      3.098948  
    1815A      3.101343  1816A      3.103925  1817A      3.105971  
    1818A      3.108067  1819A      3.111328  1820A      3.114170  
    1821A      3.119040  1822A      3.120118  1823A      3.125967  
    1824A      3.129477  1825A      3.134549  1826A      3.139062  
    1827A      3.144547  1828A      3.145004  1829A      3.150059  
    1830A      3.151668  1831A      3.152002  1832A      3.159141  
    1833A      3.162627  1834A      3.167419  1835A      3.168453  
    1836A      3.176552  1837A      3.177753  1838A      3.184283  
    1839A      3.189124  1840A      3.190822  1841A      3.192175  
    1842A      3.196177  1843A      3.197997  1844A      3.203211  
    1845A      3.209689  1846A      3.211237  1847A      3.213132  
    1848A      3.220375  1849A      3.220900  1850A      3.228309  
    1851A      3.232186  1852A      3.234137  1853A      3.235613  
    1854A      3.240924  1855A      3.246094  1856A      3.248049  
    1857A      3.249176  1858A      3.257269  1859A      3.260031  
    1860A      3.264824  1861A      3.267909  1862A      3.269961  
    1863A      3.272326  1864A      3.274320  1865A      3.276933  
    1866A      3.280404  1867A      3.288219  1868A      3.291173  
    1869A      3.294761  1870A      3.302094  1871A      3.303089  
    1872A      3.306226  1873A      3.311811  1874A      3.316871  
    1875A      3.318018  1876A      3.320825  1877A      3.325570  
    1878A      3.330792  1879A      3.331527  1880A      3.337876  
    1881A      3.342095  1882A      3.345377  1883A      3.345969  
    1884A      3.354936  1885A      3.356329  1886A      3.360293  
    1887A      3.364270  1888A      3.366835  1889A      3.370665  
    1890A      3.376187  1891A      3.376872  1892A      3.382335  
    1893A      3.385568  1894A      3.390432  1895A      3.392403  
    1896A      3.400114  1897A      3.402447  1898A      3.402810  
    1899A      3.406838  1900A      3.408469  1901A      3.411631  
    1902A      3.416345  1903A      3.419919  1904A      3.423762  
    1905A      3.425284  1906A      3.432202  1907A      3.435902  
    1908A      3.438045  1909A      3.446473  1910A      3.448740  
    1911A      3.450308  1912A      3.455760  1913A      3.460657  
    1914A      3.464246  1915A      3.467763  1916A      3.474224  
    1917A      3.480421  1918A      3.483893  1919A      3.485002  
    1920A      3.485828  1921A      3.491432  1922A      3.495731  
    1923A      3.496685  1924A      3.504823  1925A      3.509853  
    1926A      3.511322  1927A      3.520481  1928A      3.526046  
    1929A      3.532947  1930A      3.537029  1931A      3.539029  
    1932A      3.544370  1933A      3.548403  1934A      3.553946  
    1935A      3.559493  1936A      3.562064  1937A      3.563739  
    1938A      3.568538  1939A      3.573377  1940A      3.576810  
    1941A      3.579847  1942A      3.580713  1943A      3.581979  
    1944A      3.588370  1945A      3.589847  1946A      3.598196  
    1947A      3.602811  1948A      3.606543  1949A      3.612433  
    1950A      3.617607  1951A      3.620847  1952A      3.629186  
    1953A      3.632425  1954A      3.633396  1955A      3.637841  
    1956A      3.645912  1957A      3.653080  1958A      3.655874  
    1959A      3.667780  1960A      3.671956  1961A      3.677177  
    1962A      3.678846  1963A      3.682992  1964A      3.695114  
    1965A      3.700005  1966A      3.705235  1967A      3.710291  
    1968A      3.715636  1969A      3.718799  1970A      3.723521  
    1971A      3.725876  1972A      3.731229  1973A      3.736090  
    1974A      3.741401  1975A      3.743184  1976A      3.752543  
    1977A      3.755861  1978A      3.762683  1979A      3.770318  
    1980A      3.773554  1981A      3.775766  1982A      3.780883  
    1983A      3.783770  1984A      3.789214  1985A      3.791665  
    1986A      3.801244  1987A      3.808863  1988A      3.816695  
    1989A      3.817571  1990A      3.822140  1991A      3.829766  
    1992A      3.833897  1993A      3.838873  1994A      3.842285  
    1995A      3.844805  1996A      3.850808  1997A      3.855430  
    1998A      3.861942  1999A      3.865842  2000A      3.873923  
    2001A      3.879725  2002A      3.884128  2003A      3.892113  
    2004A      3.893905  2005A      3.900207  2006A      3.905506  
    2007A      3.912047  2008A      3.925257  2009A      3.928468  
    2010A      3.931965  2011A      3.935578  2012A      3.947426  
    2013A      3.952500  2014A      3.959000  2015A      3.961470  
    2016A      3.964488  2017A      3.970601  2018A      3.974077  
    2019A      3.978604  2020A      3.983507  2021A      3.992138  
    2022A      3.995616  2023A      4.005236  2024A      4.009333  
    2025A      4.011889  2026A      4.017277  2027A      4.018138  
    2028A      4.022671  2029A      4.027931  2030A      4.031131  
    2031A      4.038519  2032A      4.040459  2033A      4.046532  
    2034A      4.048519  2035A      4.054230  2036A      4.059543  
    2037A      4.061404  2038A      4.064698  2039A      4.073448  
    2040A      4.075490  2041A      4.080087  2042A      4.083588  
    2043A      4.087021  2044A      4.091336  2045A      4.096827  
    2046A      4.103046  2047A      4.107154  2048A      4.116514  
    2049A      4.117790  2050A      4.122648  2051A      4.128194  
    2052A      4.133229  2053A      4.137613  2054A      4.139768  
    2055A      4.143971  2056A      4.145629  2057A      4.148292  
    2058A      4.151214  2059A      4.158562  2060A      4.163028  
    2061A      4.167268  2062A      4.167878  2063A      4.173078  
    2064A      4.175050  2065A      4.178755  2066A      4.184650  
    2067A      4.185975  2068A      4.188429  2069A      4.189273  
    2070A      4.192616  2071A      4.199446  2072A      4.203248  
    2073A      4.204040  2074A      4.206413  2075A      4.210476  
    2076A      4.213218  2077A      4.214376  2078A      4.216586  
    2079A      4.219947  2080A      4.221340  2081A      4.222770  
    2082A      4.229776  2083A      4.230961  2084A      4.235753  
    2085A      4.237818  2086A      4.242524  2087A      4.243558  
    2088A      4.246209  2089A      4.252725  2090A      4.254075  
    2091A      4.257299  2092A      4.261069  2093A      4.265981  
    2094A      4.269348  2095A      4.271119  2096A      4.272977  
    2097A      4.273725  2098A      4.277557  2099A      4.281063  
    2100A      4.282481  2101A      4.285056  2102A      4.289059  
    2103A      4.290232  2104A      4.294470  2105A      4.298087  
    2106A      4.304571  2107A      4.304836  2108A      4.308073  
    2109A      4.311733  2110A      4.312329  2111A      4.315706  
    2112A      4.316686  2113A      4.317737  2114A      4.321960  
    2115A      4.323689  2116A      4.328255  2117A      4.330232  
    2118A      4.332989  2119A      4.334982  2120A      4.341637  
    2121A      4.345422  2122A      4.346858  2123A      4.349536  
    2124A      4.352936  2125A      4.356944  2126A      4.357185  
    2127A      4.363427  2128A      4.364732  2129A      4.366589  
    2130A      4.368942  2131A      4.372012  2132A      4.373826  
    2133A      4.374630  2134A      4.377687  2135A      4.383624  
    2136A      4.384622  2137A      4.391117  2138A      4.391525  
    2139A      4.396643  2140A      4.399538  2141A      4.401222  
    2142A      4.403444  2143A      4.408994  2144A      4.411117  
    2145A      4.415390  2146A      4.418767  2147A      4.420430  
    2148A      4.425300  2149A      4.426589  2150A      4.427977  
    2151A      4.431249  2152A      4.431563  2153A      4.438694  
    2154A      4.443561  2155A      4.444849  2156A      4.446208  
    2157A      4.450287  2158A      4.453114  2159A      4.455539  
    2160A      4.456239  2161A      4.460131  2162A      4.463642  
    2163A      4.466320  2164A      4.468730  2165A      4.474446  
    2166A      4.475335  2167A      4.479210  2168A      4.479868  
    2169A      4.483920  2170A      4.486144  2171A      4.490046  
    2172A      4.492416  2173A      4.495688  2174A      4.497296  
    2175A      4.498333  2176A      4.503843  2177A      4.505054  
    2178A      4.508438  2179A      4.509228  2180A      4.512729  
    2181A      4.513137  2182A      4.518977  2183A      4.520653  
    2184A      4.522087  2185A      4.523721  2186A      4.526266  
    2187A      4.527274  2188A      4.532122  2189A      4.535145  
    2190A      4.537277  2191A      4.538601  2192A      4.541076  
    2193A      4.544326  2194A      4.544646  2195A      4.551845  
    2196A      4.554772  2197A      4.556179  2198A      4.561256  
    2199A      4.563315  2200A      4.565338  2201A      4.566679  
    2202A      4.571956  2203A      4.573102  2204A      4.574566  
    2205A      4.577285  2206A      4.582460  2207A      4.585319  
    2208A      4.585795  2209A      4.591142  2210A      4.596160  
    2211A      4.598234  2212A      4.599455  2213A      4.601618  
    2214A      4.603181  2215A      4.607676  2216A      4.611645  
    2217A      4.612287  2218A      4.614505  2219A      4.615079  
    2220A      4.618253  2221A      4.620159  2222A      4.624120  
    2223A      4.624801  2224A      4.625737  2225A      4.632926  
    2226A      4.633193  2227A      4.637561  2228A      4.643043  
    2229A      4.643832  2230A      4.648696  2231A      4.650112  
    2232A      4.651690  2233A      4.655543  2234A      4.657893  
    2235A      4.662286  2236A      4.664187  2237A      4.671110  
    2238A      4.672336  2239A      4.677245  2240A      4.678560  
    2241A      4.680657  2242A      4.683355  2243A      4.684432  
    2244A      4.687040  2245A      4.691261  2246A      4.693647  
    2247A      4.695580  2248A      4.698100  2249A      4.699915  
    2250A      4.705462  2251A      4.708208  2252A      4.712045  
    2253A      4.712432  2254A      4.714311  2255A      4.718750  
    2256A      4.720563  2257A      4.724315  2258A      4.725209  
    2259A      4.728155  2260A      4.733004  2261A      4.733730  
    2262A      4.738098  2263A      4.738329  2264A      4.741807  
    2265A      4.746690  2266A      4.748022  2267A      4.748633  
    2268A      4.752629  2269A      4.753684  2270A      4.756049  
    2271A      4.759692  2272A      4.761289  2273A      4.764925  
    2274A      4.765913  2275A      4.770501  2276A      4.770887  
    2277A      4.773552  2278A      4.775088  2279A      4.779459  
    2280A      4.783206  2281A      4.784211  2282A      4.786856  
    2283A      4.790552  2284A      4.792778  2285A      4.795836  
    2286A      4.796602  2287A      4.798630  2288A      4.802801  
    2289A      4.804324  2290A      4.808532  2291A      4.809432  
    2292A      4.811708  2293A      4.813848  2294A      4.816574  
    2295A      4.819707  2296A      4.822613  2297A      4.826428  
    2298A      4.827496  2299A      4.828942  2300A      4.832192  
    2301A      4.836841  2302A      4.841380  2303A      4.842753  
    2304A      4.843667  2305A      4.846952  2306A      4.848777  
    2307A      4.853506  2308A      4.854387  2309A      4.856228  
    2310A      4.858453  2311A      4.861281  2312A      4.864183  
    2313A      4.866585  2314A      4.872432  2315A      4.874891  
    2316A      4.879433  2317A      4.879883  2318A      4.882812  
    2319A      4.886812  2320A      4.888211  2321A      4.891560  
    2322A      4.897764  2323A      4.902613  2324A      4.906389  
    2325A      4.907611  2326A      4.909784  2327A      4.912572  
    2328A      4.916802  2329A      4.919000  2330A      4.920913  
    2331A      4.927361  2332A      4.930408  2333A      4.931125  
    2334A      4.932394  2335A      4.936876  2336A      4.938874  
    2337A      4.942013  2338A      4.944603  2339A      4.946843  
    2340A      4.949890  2341A      4.952057  2342A      4.958816  
    2343A      4.961293  2344A      4.964089  2345A      4.965045  
    2346A      4.967562  2347A      4.972485  2348A      4.979005  
    2349A      4.980792  2350A      4.981625  2351A      4.985957  
    2352A      4.990208  2353A      4.990493  2354A      4.995912  
    2355A      5.000200  2356A      5.001947  2357A      5.004533  
    2358A      5.007152  2359A      5.010628  2360A      5.014994  
    2361A      5.016693  2362A      5.020416  2363A      5.024038  
    2364A      5.026871  2365A      5.032373  2366A      5.033054  
    2367A      5.039366  2368A      5.042461  2369A      5.044044  
    2370A      5.045725  2371A      5.048918  2372A      5.054101  
    2373A      5.059448  2374A      5.062874  2375A      5.064886  
    2376A      5.070847  2377A      5.071183  2378A      5.079375  
    2379A      5.084531  2380A      5.084717  2381A      5.085908  
    2382A      5.088763  2383A      5.089570  2384A      5.094154  
    2385A      5.097662  2386A      5.098947  2387A      5.102932  
    2388A      5.103641  2389A      5.109996  2390A      5.111904  
    2391A      5.115965  2392A      5.116799  2393A      5.120130  
    2394A      5.122130  2395A      5.125331  2396A      5.128136  
    2397A      5.128567  2398A      5.135564  2399A      5.136281  
    2400A      5.138067  2401A      5.141022  2402A      5.143489  
    2403A      5.144947  2404A      5.146798  2405A      5.149297  
    2406A      5.152007  2407A      5.154501  2408A      5.157665  
    2409A      5.161312  2410A      5.161917  2411A      5.166590  
    2412A      5.168297  2413A      5.173612  2414A      5.174638  
    2415A      5.177948  2416A      5.180342  2417A      5.182580  
    2418A      5.183989  2419A      5.186217  2420A      5.190969  
    2421A      5.192550  2422A      5.194111  2423A      5.196419  
    2424A      5.202842  2425A      5.205978  2426A      5.208835  
    2427A      5.209628  2428A      5.212535  2429A      5.215738  
    2430A      5.218240  2431A      5.222836  2432A      5.225544  
    2433A      5.227640  2434A      5.228305  2435A      5.234445  
    2436A      5.237206  2437A      5.239517  2438A      5.241777  
    2439A      5.244360  2440A      5.251262  2441A      5.253014  
    2442A      5.253783  2443A      5.256493  2444A      5.260818  
    2445A      5.264225  2446A      5.264542  2447A      5.271919  
    2448A      5.274472  2449A      5.275603  2450A      5.276838  
    2451A      5.281489  2452A      5.284084  2453A      5.287259  
    2454A      5.288862  2455A      5.295676  2456A      5.297996  
    2457A      5.301962  2458A      5.307483  2459A      5.310474  
    2460A      5.311730  2461A      5.318500  2462A      5.319775  
    2463A      5.323123  2464A      5.329451  2465A      5.332782  
    2466A      5.336383  2467A      5.339855  2468A      5.340092  
    2469A      5.344995  2470A      5.351934  2471A      5.352691  
    2472A      5.355987  2473A      5.364321  2474A      5.364635  
    2475A      5.371547  2476A      5.372877  2477A      5.374150  
    2478A      5.380644  2479A      5.381406  2480A      5.384582  
    2481A      5.389229  2482A      5.390821  2483A      5.394381  
    2484A      5.398749  2485A      5.405200  2486A      5.406811  
    2487A      5.411551  2488A      5.413814  2489A      5.417050  
    2490A      5.420543  2491A      5.424809  2492A      5.429151  
    2493A      5.430800  2494A      5.433186  2495A      5.434821  
    2496A      5.439126  2497A      5.440094  2498A      5.440681  
    2499A      5.443652  2500A      5.449890  2501A      5.451312  
    2502A      5.453328  2503A      5.458677  2504A      5.461938  
    2505A      5.465345  2506A      5.465670  2507A      5.468457  
    2508A      5.473804  2509A      5.475798  2510A      5.477719  
    2511A      5.484200  2512A      5.485826  2513A      5.487983  
    2514A      5.491093  2515A      5.493713  2516A      5.495575  
    2517A      5.496930  2518A      5.499965  2519A      5.503789  
    2520A      5.506214  2521A      5.509536  2522A      5.512259  
    2523A      5.515368  2524A      5.518348  2525A      5.522142  
    2526A      5.523191  2527A      5.529840  2528A      5.531293  
    2529A      5.535943  2530A      5.537192  2531A      5.540737  
    2532A      5.544247  2533A      5.546692  2534A      5.547999  
    2535A      5.552320  2536A      5.556380  2537A      5.557570  
    2538A      5.560303  2539A      5.561158  2540A      5.564490  
    2541A      5.568189  2542A      5.571247  2543A      5.574769  
    2544A      5.579436  2545A      5.579814  2546A      5.582928  
    2547A      5.584005  2548A      5.590225  2549A      5.594076  
    2550A      5.596407  2551A      5.597682  2552A      5.600529  
    2553A      5.609045  2554A      5.613593  2555A      5.617758  
    2556A      5.621230  2557A      5.622523  2558A      5.625467  
    2559A      5.628162  2560A      5.630652  2561A      5.633828  
    2562A      5.635274  2563A      5.638625  2564A      5.640386  
    2565A      5.645553  2566A      5.649134  2567A      5.650801  
    2568A      5.652590  2569A      5.657878  2570A      5.663464  
    2571A      5.664421  2572A      5.667802  2573A      5.669514  
    2574A      5.673982  2575A      5.677184  2576A      5.679272  
    2577A      5.680107  2578A      5.682987  2579A      5.685355  
    2580A      5.687237  2581A      5.689367  2582A      5.695948  
    2583A      5.698429  2584A      5.702593  2585A      5.704695  
    2586A      5.706704  2587A      5.711745  2588A      5.715748  
    2589A      5.717357  2590A      5.720745  2591A      5.723778  
    2592A      5.725664  2593A      5.732026  2594A      5.734631  
    2595A      5.735903  2596A      5.737864  2597A      5.742469  
    2598A      5.745725  2599A      5.757092  2600A      5.758530  
    2601A      5.760398  2602A      5.762191  2603A      5.766264  
    2604A      5.771532  2605A      5.774082  2606A      5.778071  
    2607A      5.780576  2608A      5.781640  2609A      5.784964  
    2610A      5.789490  2611A      5.794533  2612A      5.796103  
    2613A      5.800516  2614A      5.803459  2615A      5.808098  
    2616A      5.811657  2617A      5.814744  2618A      5.816025  
    2619A      5.820657  2620A      5.826000  2621A      5.831330  
    2622A      5.835355  2623A      5.840605  2624A      5.842362  
    2625A      5.846280  2626A      5.848662  2627A      5.852179  
    2628A      5.857749  2629A      5.861498  2630A      5.862339  
    2631A      5.866247  2632A      5.868339  2633A      5.872064  
    2634A      5.876464  2635A      5.879049  2636A      5.879920  
    2637A      5.889125  2638A      5.896251  2639A      5.899183  
    2640A      5.901811  2641A      5.906590  2642A      5.908917  
    2643A      5.915108  2644A      5.921582  2645A      5.923309  
    2646A      5.929849  2647A      5.935601  2648A      5.938309  
    2649A      5.939798  2650A      5.942735  2651A      5.945980  
    2652A      5.949129  2653A      5.949780  2654A      5.951801  
    2655A      5.956990  2656A      5.961724  2657A      5.965402  
    2658A      5.967500  2659A      5.975218  2660A      5.976489  
    2661A      5.980701  2662A      5.983033  2663A      5.985832  
    2664A      5.989112  2665A      5.990056  2666A      5.995524  
    2667A      5.997608  2668A      5.999094  2669A      6.007162  
    2670A      6.011346  2671A      6.015615  2672A      6.024305  
    2673A      6.027296  2674A      6.031322  2675A      6.035711  
    2676A      6.039339  2677A      6.042983  2678A      6.048981  
    2679A      6.052015  2680A      6.057771  2681A      6.058234  
    2682A      6.059368  2683A      6.066379  2684A      6.074725  
    2685A      6.079538  2686A      6.085056  2687A      6.088078  
    2688A      6.090958  2689A      6.092147  2690A      6.093631  
    2691A      6.096652  2692A      6.100884  2693A      6.107821  
    2694A      6.110666  2695A      6.111737  2696A      6.114977  
    2697A      6.120053  2698A      6.121854  2699A      6.126520  
    2700A      6.127813  2701A      6.132121  2702A      6.133937  
    2703A      6.141028  2704A      6.147065  2705A      6.150990  
    2706A      6.157471  2707A      6.160381  2708A      6.165187  
    2709A      6.169858  2710A      6.179593  2711A      6.183831  
    2712A      6.187161  2713A      6.191186  2714A      6.191753  
    2715A      6.196101  2716A      6.201836  2717A      6.206164  
    2718A      6.209675  2719A      6.214352  2720A      6.221557  
    2721A      6.233096  2722A      6.237439  2723A      6.239927  
    2724A      6.245951  2725A      6.247809  2726A      6.251471  
    2727A      6.257578  2728A      6.261831  2729A      6.267217  
    2730A      6.276441  2731A      6.279827  2732A      6.286459  
    2733A      6.293439  2734A      6.296910  2735A      6.300892  
    2736A      6.302065  2737A      6.306697  2738A      6.310670  
    2739A      6.316927  2740A      6.319640  2741A      6.326859  
    2742A      6.332026  2743A      6.335679  2744A      6.344039  
    2745A      6.345774  2746A      6.347501  2747A      6.350884  
    2748A      6.356151  2749A      6.357440  2750A      6.362256  
    2751A      6.370199  2752A      6.379943  2753A      6.381220  
    2754A      6.383140  2755A      6.387900  2756A      6.391700  
    2757A      6.398200  2758A      6.399809  2759A      6.404654  
    2760A      6.412258  2761A      6.414766  2762A      6.416203  
    2763A      6.424965  2764A      6.428952  2765A      6.430060  
    2766A      6.434992  2767A      6.442646  2768A      6.444437  
    2769A      6.450778  2770A      6.460100  2771A      6.465503  
    2772A      6.467576  2773A      6.476073  2774A      6.478261  
    2775A      6.487847  2776A      6.495622  2777A      6.504884  
    2778A      6.518455  2779A      6.521428  2780A      6.532524  
    2781A      6.539065  2782A      6.541290  2783A      6.556598  
    2784A      6.564378  2785A      6.565305  2786A      6.571145  
    2787A      6.578848  2788A      6.580252  2789A      6.589472  
    2790A      6.593111  2791A      6.603933  2792A      6.616893  
    2793A      6.634964  2794A      6.641951  2795A      6.664535  
    2796A      6.670282  2797A      6.672315  2798A      6.680377  
    2799A      6.696807  2800A      6.702247  2801A      6.711788  
    2802A      6.713836  2803A      6.720920  2804A      6.730854  
    2805A      6.737648  2806A      6.741566  2807A      6.756343  
    2808A      6.771506  2809A      6.782366  2810A      6.785729  
    2811A      6.793843  2812A      6.803050  2813A      6.806186  
    2814A      6.806690  2815A      6.813043  2816A      6.827253  
    2817A      6.831338  2818A      6.835807  2819A      6.842130  
    2820A      6.851077  2821A      6.858457  2822A      6.860368  
    2823A      6.866404  2824A      6.871496  2825A      6.878713  
    2826A      6.879640  2827A      6.887594  2828A      6.895023  
    2829A      6.901877  2830A      6.906294  2831A      6.920329  
    2832A      6.922543  2833A      6.927204  2834A      6.936432  
    2835A      6.950282  2836A      6.968866  2837A      6.971165  
    2838A      6.987212  2839A      7.009899  2840A      7.014739  
    2841A      7.018810  2842A      7.024220  2843A      7.041253  
    2844A      7.044091  2845A      7.053386  2846A      7.078447  
    2847A      7.083779  2848A      7.085964  2849A      7.093242  
    2850A      7.102275  2851A      7.109796  2852A      7.131219  
    2853A      7.138409  2854A      7.143937  2855A      7.149374  
    2856A      7.161527  2857A      7.168550  2858A      7.175005  
    2859A      7.182946  2860A      7.187837  2861A      7.191576  
    2862A      7.202188  2863A      7.217085  2864A      7.227182  
    2865A      7.230817  2866A      7.249383  2867A      7.256312  
    2868A      7.258622  2869A      7.267106  2870A      7.275782  
    2871A      7.283854  2872A      7.285234  2873A      7.297504  
    2874A      7.307739  2875A      7.315726  2876A      7.325582  
    2877A      7.331363  2878A      7.333997  2879A      7.339370  
    2880A      7.355595  2881A      7.360464  2882A      7.365946  
    2883A      7.371079  2884A      7.381224  2885A      7.390612  
    2886A      7.396913  2887A      7.400577  2888A      7.420781  
    2889A      7.426512  2890A      7.438717  2891A      7.444511  
    2892A      7.458180  2893A      7.460576  2894A      7.467271  
    2895A      7.472702  2896A      7.484351  2897A      7.496023  
    2898A      7.497882  2899A      7.508586  2900A      7.512953  
    2901A      7.517574  2902A      7.528939  2903A      7.536192  
    2904A      7.555883  2905A      7.567592  2906A      7.575438  
    2907A      7.580833  2908A      7.588124  2909A      7.597855  
    2910A      7.606561  2911A      7.609446  2912A      7.619576  
    2913A      7.629389  2914A      7.637982  2915A      7.641584  
    2916A      7.645713  2917A      7.650240  2918A      7.656856  
    2919A      7.661884  2920A      7.664463  2921A      7.676335  
    2922A      7.678949  2923A      7.692622  2924A      7.698105  
    2925A      7.701904  2926A      7.706269  2927A      7.713900  
    2928A      7.721530  2929A      7.727222  2930A      7.757794  
    2931A      7.772859  2932A      7.790625  2933A      7.792068  
    2934A      7.811354  2935A      7.818994  2936A      7.830793  
    2937A      7.842856  2938A      7.843932  2939A      7.876572  
    2940A      7.882126  2941A      7.885209  2942A      7.919666  
    2943A      7.925542  2944A      7.931398  2945A      7.938560  
    2946A      7.947613  2947A      7.950326  2948A      7.954016  
    2949A      7.966550  2950A      7.975762  2951A      7.983906  
    2952A      7.989169  2953A      8.001543  2954A      8.014030  
    2955A      8.027079  2956A      8.035643  2957A      8.046013  
    2958A      8.067819  2959A      8.073637  2960A      8.081314  
    2961A      8.089255  2962A      8.091107  2963A      8.103776  
    2964A      8.131237  2965A      8.135603  2966A      8.143678  
    2967A      8.161601  2968A      8.176657  2969A      8.189382  
    2970A      8.192746  2971A      8.204278  2972A      8.215782  
    2973A      8.228635  2974A      8.233015  2975A      8.246436  
    2976A      8.262174  2977A      8.285242  2978A      8.297654  
    2979A      8.299147  2980A      8.315599  2981A      8.329671  
    2982A      8.338757  2983A      8.342539  2984A      8.351421  
    2985A      8.373260  2986A      8.384508  2987A      8.403122  
    2988A      8.406696  2989A      8.411481  2990A      8.419503  
    2991A      8.429869  2992A      8.450257  2993A      8.455507  
    2994A      8.456984  2995A      8.464348  2996A      8.475835  
    2997A      8.517552  2998A      8.530217  2999A      8.557316  
    3000A      8.575329  3001A      8.606188  3002A      8.632492  
    3003A      8.658530  3004A      8.673678  3005A      8.691667  
    3006A      8.713858  3007A      8.720044  3008A      8.749199  
    3009A      8.777951  3010A      8.808128  3011A      8.813888  
    3012A      8.826002  3013A      8.844660  3014A      8.871015  
    3015A      8.902030  3016A      8.909741  3017A      8.930676  
    3018A      8.949947  3019A      8.953772  3020A      8.959791  
    3021A      8.979858  3022A      8.994489  3023A      9.017466  
    3024A      9.044838  3025A      9.070098  3026A      9.190425  
    3027A      9.215889  3028A      9.247811  3029A      9.275610  
    3030A      9.293737  3031A      9.312310  3032A      9.316353  
    3033A      9.363744  3034A      9.379264  3035A      9.383449  
    3036A      9.392010  3037A      9.414654  3038A      9.441056  
    3039A      9.449378  3040A      9.461674  3041A      9.487472  
    3042A      9.527322  3043A      9.663611  3044A      9.733538  
    3045A      9.832242  3046A      9.832972  3047A      9.855217  
    3048A      9.859506  3049A      9.875812  3050A      9.883398  
    3051A      9.896219  3052A      9.945640  3053A      9.959145  
    3054A      9.984981  3055A     10.017117  3056A     10.038907  
    3057A     10.084722  3058A     10.112846  3059A     10.121035  
    3060A     10.127092  3061A     10.139550  3062A     10.156997  
    3063A     10.172841  3064A     10.184944  3065A     10.201927  
    3066A     10.221676  3067A     10.237329  3068A     10.286443  
    3069A     10.318814  3070A     10.343196  3071A     10.438372  
    3072A     10.510230  3073A     10.520085  3074A     10.522256  
    3075A     10.524531  3076A     10.610045  3077A     10.685768  
    3078A     10.788184  3079A     10.807366  3080A     10.818626  
    3081A     10.834433  3082A     10.849621  3083A     10.872862  
    3084A     10.881349  3085A     10.932010  3086A     11.011613  
    3087A     11.074835  3088A     11.112840  3089A     11.125587  
    3090A     11.216557  3091A     11.231980  3092A     11.244509  
    3093A     11.259699  3094A     11.267223  3095A     11.340175  
    3096A     11.398450  3097A     11.546371  3098A     11.583895  
    3099A     11.599041  3100A     11.608866  3101A     11.647509  
    3102A     11.741183  3103A     11.850423  3104A     11.884486  
    3105A     11.904324  3106A     11.927643  3107A     11.939142  
    3108A     11.978695  3109A     12.039842  3110A     12.082865  
    3111A     12.129114  3112A     12.145094  3113A     12.150775  
    3114A     12.198597  3115A     12.200676  3116A     12.346474  
    3117A     12.350797  3118A     12.397163  3119A     12.400582  
    3120A     12.685523  3121A     13.355545  3122A     13.473872  
    3123A     13.672216  3124A     13.690043  3125A     14.498665  
    3126A     14.587238  3127A     15.584242  3128A     16.026701  
    3129A     16.303741  3130A     16.549147  3131A     16.774907  
    3132A     16.898595  3133A     17.592637  3134A     19.357209  
    3135A     20.599990  3136A     20.867618  3137A     21.596948  
    3138A     21.773664  3139A     22.117089  3140A     50.116342  
    3141A     50.219343  3142A     51.608663  3143A     51.734851  
    3144A     51.859850  3145A     52.033719  3146A     52.096546  
    3147A     54.195043  3148A     54.441493  3149A     54.455428  
    3150A     54.601468  3151A     54.969127  3152A     55.141059  
    3153A     55.275759  3154A     55.488141  3155A     55.782124  
    3156A     56.862189  3157A     56.923628  3158A     57.356023  
    3159A     57.438970  3160A     58.248103  3161A     59.572307  
    3162A     59.659951  3163A     59.725571  3164A     60.269299  
    3165A     60.430665  3166A     60.443243  3167A     60.647990  
    3168A     60.728803  3169A     60.805276  3170A     61.182833  
    3171A     61.322899  3172A     61.475821  3173A     61.626207  
    3174A     61.735677  3175A     62.001219  3176A     62.568274  
    3177A     62.798096  3178A     63.418367  3179A     63.435763  
    3180A     71.116697  3181A     73.320053  

    Final Occupation by Irrep:
              A 
    DOCC [    47 ]
    NA   [    47 ]
    NB   [    47 ]

  @DF-RKS Final Energy:  -740.01714201681568

   => Energetics <=

    Nuclear Repulsion Energy =            775.5137723426466891
    One-Electron Energy =               -2551.2476799777259657
    Two-Electron Energy =                1127.0498778290075279
    DFT Exchange-Correlation Energy =     -91.3255533998620734
    Empirical Dispersion Energy =          -0.0075588108818472
    VV10 Nonlocal Energy =                  0.0000000000000000
    Total Energy =                       -740.0171420168156828

Computation Completed


Properties will be evaluated at   0.000000,   0.000000,   0.000000 [a0]

Properties computed using the SCF density matrix


 Multipole Moments:

 ------------------------------------------------------------------------------------
     Multipole            Electronic (a.u.)      Nuclear  (a.u.)        Total (a.u.)
 ------------------------------------------------------------------------------------

 L = 1.  Multiply by 2.5417464519 to convert [e a0] to [Debye]
 Dipole X            :         38.5004509          -38.7738286           -0.2733777
 Dipole Y            :        112.7933339         -112.9901199           -0.1967861
 Dipole Z            :        245.9559880         -247.4588117           -1.5028238
 Magnitude           :                                                    1.5401102

 ------------------------------------------------------------------------------------

*** tstop() called on atl1-1-02-003-29-1.pace.gatech.edu at Mon Jun 15 11:26:08 2026
Module time:
	user time   =   20521.39 seconds =     342.02 minutes
	system time =    2088.34 seconds =      34.81 minutes
	total time  =       4092 seconds =      68.20 minutes
Total time:
	user time   =   20521.39 seconds =     342.02 minutes
	system time =    2088.34 seconds =      34.81 minutes
	total time  =       4092 seconds =      68.20 minutes

    Psi4 stopped on: Monday, 15 June 2026 11:26AM
    Psi4 wall time for execution: 1:08:19.50

*** Psi4 exiting successfully. Buy a developer a beer!
