
    -----------------------------------------------------------------------
          Psi4: An Open-Source Ab Initio Electronic Structure Package
                               Psi4 1.9.1 release

                         Git: Rev {} zzzzzzz 


    D. G. A. Smith, L. A. Burns, A. C. Simmonett, R. M. Parrish,
    M. C. Schieber, R. Galvelis, P. Kraus, H. Kruse, R. Di Remigio,
    A. Alenaizan, A. M. James, S. Lehtola, J. P. Misiewicz, M. Scheurer,
    R. A. Shaw, J. B. Schriber, Y. Xie, Z. L. Glick, D. A. Sirianni,
    J. S. O'Brien, J. M. Waldrop, A. Kumar, E. G. Hohenstein,
    B. P. Pritchard, B. R. Brooks, H. F. Schaefer III, A. Yu. Sokolov,
    K. Patkowski, A. E. DePrince III, U. Bozkaya, R. A. King,
    F. A. Evangelista, J. M. Turney, T. D. Crawford, C. D. Sherrill,
    J. Chem. Phys. 152(18) 184108 (2020). https://doi.org/10.1063/5.0006002

                            Additional Code Authors
    E. T. Seidl, C. L. Janssen, E. F. Valeev, M. L. Leininger,
    J. F. Gonthier, R. M. Richard, H. R. McAlexander, M. Saitow, X. Wang,
    P. Verma, M. H. Lechner, A. Jiang, S. Behnle, A. G. Heide,
    M. F. Herbst, and D. L. Poole

             Previous Authors, Complete List of Code Contributors,
                       and Citations for Specific Modules
    https://github.com/psi4/psi4/blob/master/codemeta.json
    https://github.com/psi4/psi4/graphs/contributors
    http://psicode.org/psi4manual/master/introduction.html#citing-psifour

    -----------------------------------------------------------------------


    Psi4 started on: Saturday, 13 June 2026 11:45AM

    Process ID: 754342
    Host:       atl1-1-02-004-2-2.pace.gatech.edu
    PSIDATADIR: /storage/home/hcoda1/5/vlita3/.conda/envs/p4_qcml/share/psi4
    Memory:     250.0 GiB
    Threads:    10
    
  ==> Input QCSchema <==

--------------------------------------------------------------------------
{'driver': 'energy',
 'extras': {},
 'id': '223',
 'keywords': {},
 'model': {'basis': 'aug-cc-pvtz', 'method': 'pbe-d3'},
 'molecule': {'extras': {},
              'fix_com': True,
              'fix_orientation': True,
              'fragment_charges': [0.0, 0.0],
              'fragment_multiplicities': [1, 1],
              'fragments': [[0, 1, 2, 3, 4, 5, 6, 7, 8, 9, 10, 11, 12, 13, 14, 15, 16, 17, 18, 19, 20, 21, 22, 23, 24,
                             25, 26, 27, 28, 29, 30, 31, 32, 33, 34, 35, 36, 37, 38, 39, 40, 41, 42, 43],
                            [44, 45, 46, 47, 48, 49, 50, 51, 52, 53, 54, 55, 56, 57, 58, 59, 60, 61, 62, 63, 64, 65, 66,
                             67, 68, 69, 70, 71, 72, 73, 74, 75, 76, 77, 78, 79, 80, 81, 82, 83, 84, 85, 86, 87]],
              'geometry': [25.47963781, 23.08351049, 43.1296896, 24.89690954, 20.52012331, 43.887087, 25.07057198,
                           18.48699404, 42.07353641, 25.8424877, 19.04880944, 39.52013663, 26.46903607, 21.61452675,
                           38.85199593, 26.30318821, 23.59330066, 40.54460103, 24.46577176, 15.9279092, 42.77036087,
                           23.76811717, 15.37695629, 45.40838081, 23.59859476, 17.38880058, 47.22265844, 24.1081018,
                           20.02007671, 46.44346413, 22.96694077, 16.77267612, 49.77192758, 22.51062738, 14.29130626,
                           50.58597185, 22.67427055, 12.32177999, 48.76231557, 23.27971306, 12.86309326, 46.25226043,
                           25.97467497, 17.0727052, 37.71068154, 25.34789586, 14.59123463, 38.39437083, 24.59969708,
                           14.0277518, 40.88784347, 25.20039992, 25.0588727, 44.92111126, 24.35321071, 24.59525103,
                           47.39946073, 23.84084877, 22.08099208, 48.12795237, 21.86046838, 13.69556932, 53.32235171,
                           24.04555383, 26.76370654, 49.27889773, 26.50915633, 27.41178979, 50.73375129, 26.93108599,
                           26.27094839, 39.72356046, 27.10311578, 21.98163565, 36.89906984, 22.32265299, 10.34583799,
                           49.33666834, 23.39372081, 11.28300305, 44.90489504, 26.57612038, 17.51973959, 35.76596134,
                           25.43664936, 13.06203906, 36.97800898, 24.12002947, 12.05854919, 41.3527408, 25.62817825,
                           27.01761767, 44.36171793, 23.18724332, 21.75219607, 50.07608394, 23.27013145, 12.38510294,
                           54.17857328, 21.79629273, 15.42803966, 54.50687769, 19.98705402, 12.74487252, 53.47527914,
                           22.53167906, 26.28198386, 50.6619148, 23.38069793, 28.48102898, 48.25612267, 27.19569266,
                           25.7565067, 51.83310019, 28.04156267, 27.96965392, 49.40821263, 28.39145441, 27.1428651,
                           40.95513515, 25.23456206, 27.51897461, 39.79892028, 27.66207922, 26.29954115, 37.75755015,
                           26.2022166, 29.00071195, 52.0780899, 22.83611537, 18.29134925, 51.1881473, 30.81342193,
                           18.71017989, 45.99359029, 31.5788239, 19.74555973, 43.58027113, 32.18922921, 22.39746574,
                           43.36009841, 32.04731473, 23.98056161, 45.57578145, 31.25562095, 22.88485355, 47.94186375,
                           30.64065655, 20.36296812, 48.19759324, 32.96098858, 23.46875558, 40.98068543, 32.9776879,
                           21.8498177, 38.71563215, 32.39688051, 19.20754673, 38.92783428, 31.75108262, 18.1119644,
                           41.41040042, 32.38510148, 17.70859001, 36.6883681, 32.89884869, 18.70388423, 34.28627015,
                           33.46045747, 21.32787429, 34.10603582, 33.50020544, 22.84413785, 36.26471359, 32.71084168,
                           26.57519902, 45.39430813, 33.51746054, 27.59229626, 43.0833912, 33.64071365, 26.05933156,
                           40.9078722, 30.26834315, 16.09166271, 46.16720061, 30.49746548, 14.47431826, 44.06910385,
                           31.23964841, 15.50757785, 41.72580743, 32.85245858, 17.05660123, 31.93007182, 30.0352396,
                           11.64386798, 44.33912194, 32.45644731, 10.16276856, 45.08627623, 29.83741229, 19.30937345,
                           50.74453249, 31.15944353, 24.13692378, 49.60598037, 33.86115259, 22.17547238, 32.24063318,
                           33.92403613, 24.86828461, 36.03931452, 32.60693264, 27.77144276, 47.1004289, 34.05705016,
                           29.60331272, 42.95688301, 34.27807476, 26.92308174, 39.12655219, 29.64722791, 15.28713696,
                           47.98302787, 31.38145507, 14.21615321, 40.10268471, 34.735737, 17.01308892, 30.98680081,
                           32.31443775, 15.0754773, 32.37170495, 31.48589123, 17.79122297, 30.50534659, 29.28049933,
                           10.88478084, 42.52649407, 28.54357618, 11.31799443, 45.78690148, 33.97269455, 10.41059171,
                           43.64975571, 33.2192207, 10.84125701, 46.92494523, 31.18221652, 17.84465276, 51.44063809,
                           27.94896357, 18.39273342, 50.64394079, 29.74125873, 20.82714016, 52.19033882, 32.06613232,
                           8.10297733, 45.26704002, 31.91846208, 15.68652669, 36.81860417],
              'id': 15,
              'identifiers': {'molecular_formula': 'C48H40',
                              'molecule_hash': '5e3296bad3c72e10e864464b8bcfe4a1199407a4'},
              'masses': [12.0, 12.0, 12.0, 12.0, 12.0, 12.0, 12.0, 12.0, 12.0, 12.0, 12.0, 12.0, 12.0, 12.0, 12.0, 12.0,
                         12.0, 12.0, 12.0, 12.0, 12.0, 12.0, 12.0, 12.0, 1.00782503223, 1.00782503223, 1.00782503223,
                         1.00782503223, 1.00782503223, 1.00782503223, 1.00782503223, 1.00782503223, 1.00782503223,
                         1.00782503223, 1.00782503223, 1.00782503223, 1.00782503223, 1.00782503223, 1.00782503223,
                         1.00782503223, 1.00782503223, 1.00782503223, 1.00782503223, 1.00782503223, 12.0, 12.0, 12.0,
                         12.0, 12.0, 12.0, 12.0, 12.0, 12.0, 12.0, 12.0, 12.0, 12.0, 12.0, 12.0, 12.0, 12.0, 12.0, 12.0,
                         12.0, 12.0, 12.0, 12.0, 12.0, 1.00782503223, 1.00782503223, 1.00782503223, 1.00782503223,
                         1.00782503223, 1.00782503223, 1.00782503223, 1.00782503223, 1.00782503223, 1.00782503223,
                         1.00782503223, 1.00782503223, 1.00782503223, 1.00782503223, 1.00782503223, 1.00782503223,
                         1.00782503223, 1.00782503223, 1.00782503223, 1.00782503223],
              'molecular_charge': 0.0,
              'molecular_multiplicity': 1,
              'name': 'C48H40 ([1],[0])',
              'provenance': {'creator': 'QCElemental',
                             'routine': 'qcelemental.molparse.from_schema',
                             'version': '0.29.0'},
              'real': [False, False, False, False, False, False, False, False, False, False, False, False, False, False,
                       False, False, False, False, False, False, False, False, False, False, False, False, False, False,
                       False, False, False, False, False, False, False, False, False, False, False, False, False, False,
                       False, False, True, True, True, True, True, True, True, True, True, True, True, True, True, True,
                       True, True, True, True, True, True, True, True, True, True, True, True, True, True, True, True,
                       True, True, True, True, True, True, True, True, True, True, True, True, True, True],
              'schema_name': 'qcschema_molecule',
              'schema_version': 2,
              'symbols': ['C', 'C', 'C', 'C', 'C', 'C', 'C', 'C', 'C', 'C', 'C', 'C', 'C', 'C', 'C', 'C', 'C', 'C', 'C',
                          'C', 'C', 'C', 'C', 'C', 'H', 'H', 'H', 'H', 'H', 'H', 'H', 'H', 'H', 'H', 'H', 'H', 'H', 'H',
                          'H', 'H', 'H', 'H', 'H', 'H', 'C', 'C', 'C', 'C', 'C', 'C', 'C', 'C', 'C', 'C', 'C', 'C', 'C',
                          'C', 'C', 'C', 'C', 'C', 'C', 'C', 'C', 'C', 'C', 'C', 'H', 'H', 'H', 'H', 'H', 'H', 'H', 'H',
                          'H', 'H', 'H', 'H', 'H', 'H', 'H', 'H', 'H', 'H', 'H', 'H'],
              'validated': True},
 'protocols': {},
 'provenance': {'creator': 'QCElemental', 'routine': 'qcelemental.models.results', 'version': '0.29.0'},
 'schema_name': 'qcschema_input',
 'schema_version': 1}
--------------------------------------------------------------------------

Scratch directory: /tmp/tmpppgs48qw_psi_scratch/
   => Libint2 <=

    Primary   basis highest AM E, G, H:  6, 6, 3
    Auxiliary basis highest AM E, G, H:  7, 7, 4
    Onebody   basis highest AM E, G, H:  -, -, -
    Solid Harmonics ordering:            Gaussian

*** tstart() called on atl1-1-02-004-2-2.pace.gatech.edu
*** at Sat Jun 13 11:45:24 2026

   => Loading Basis Set <=

    Name: AUG-CC-PVTZ
    Role: ORBITAL
    Keyword: BASIS
    atoms 1-24, 45-68  entry C          line   239 file /storage/home/hcoda1/5/vlita3/.conda/envs/p4_qcml/share/psi4/basis/aug-cc-pvtz.gbs 
    atoms 25-44, 69-88 entry H          line    40 file /storage/home/hcoda1/5/vlita3/.conda/envs/p4_qcml/share/psi4/basis/aug-cc-pvtz.gbs 

   => PBE-D3: Empirical Dispersion <=

    Grimme's -D3 (zero-damping) Dispersion Correction
    Grimme S.; Antony J.; Ehrlich S.; Krieg H. (2010), J. Chem. Phys., 132: 154104

        s6 =       1.000000
        s8 =       0.722000
       sr6 =       1.217000
    alpha6 =      14.000000
       sr8 =       1.000000


         ---------------------------------------------------------
                                   SCF
               by Justin Turney, Rob Parrish, Andy Simmonett
                          and Daniel G. A. Smith
                              RKS Reference
                       10 Threads, 256000 MiB Core
         ---------------------------------------------------------

  ==> Geometry <==

    Molecular point group: c1
    Full point group: C1

    Geometry (in Bohr), charge = 0, multiplicity = 1:

       Center              X                  Y                   Z               Mass       
    ------------   -----------------  -----------------  -----------------  -----------------
      Gh(C)          25.479637810000    23.083510490000    43.129689600000    12.000000000000
      Gh(C)          24.896909540000    20.520123310000    43.887087000000    12.000000000000
      Gh(C)          25.070571980000    18.486994040000    42.073536410000    12.000000000000
      Gh(C)          25.842487700000    19.048809440000    39.520136630000    12.000000000000
      Gh(C)          26.469036070000    21.614526750000    38.851995930000    12.000000000000
      Gh(C)          26.303188210000    23.593300660000    40.544601030000    12.000000000000
      Gh(C)          24.465771760000    15.927909200000    42.770360870000    12.000000000000
      Gh(C)          23.768117170000    15.376956290000    45.408380810000    12.000000000000
      Gh(C)          23.598594760000    17.388800580000    47.222658440000    12.000000000000
      Gh(C)          24.108101800000    20.020076710000    46.443464130000    12.000000000000
      Gh(C)          22.966940770000    16.772676120000    49.771927580000    12.000000000000
      Gh(C)          22.510627380000    14.291306260000    50.585971850000    12.000000000000
      Gh(C)          22.674270550000    12.321779990000    48.762315570000    12.000000000000
      Gh(C)          23.279713060000    12.863093260000    46.252260430000    12.000000000000
      Gh(C)          25.974674970000    17.072705200000    37.710681540000    12.000000000000
      Gh(C)          25.347895860000    14.591234630000    38.394370830000    12.000000000000
      Gh(C)          24.599697080000    14.027751800000    40.887843470000    12.000000000000
      Gh(C)          25.200399920000    25.058872700000    44.921111260000    12.000000000000
      Gh(C)          24.353210710000    24.595251030000    47.399460730000    12.000000000000
      Gh(C)          23.840848770000    22.080992080000    48.127952370000    12.000000000000
      Gh(C)          21.860468380000    13.695569320000    53.322351710000    12.000000000000
      Gh(C)          24.045553830000    26.763706540000    49.278897730000    12.000000000000
      Gh(C)          26.509156330000    27.411789790000    50.733751290000    12.000000000000
      Gh(C)          26.931085990000    26.270948390000    39.723560460000    12.000000000000
      Gh(H)          27.103115780000    21.981635650000    36.899069840000     1.007825032230
      Gh(H)          22.322652990000    10.345837990000    49.336668340000     1.007825032230
      Gh(H)          23.393720810000    11.283003050000    44.904895040000     1.007825032230
      Gh(H)          26.576120380000    17.519739590000    35.765961340000     1.007825032230
      Gh(H)          25.436649360000    13.062039060000    36.978008980000     1.007825032230
      Gh(H)          24.120029470000    12.058549190000    41.352740800000     1.007825032230
      Gh(H)          25.628178250000    27.017617670000    44.361717930000     1.007825032230
      Gh(H)          23.187243320000    21.752196070000    50.076083940000     1.007825032230
      Gh(H)          23.270131450000    12.385102940000    54.178573280000     1.007825032230
      Gh(H)          21.796292730000    15.428039660000    54.506877690000     1.007825032230
      Gh(H)          19.987054020000    12.744872520000    53.475279140000     1.007825032230
      Gh(H)          22.531679060000    26.281983860000    50.661914800000     1.007825032230
      Gh(H)          23.380697930000    28.481028980000    48.256122670000     1.007825032230
      Gh(H)          27.195692660000    25.756506700000    51.833100190000     1.007825032230
      Gh(H)          28.041562670000    27.969653920000    49.408212630000     1.007825032230
      Gh(H)          28.391454410000    27.142865100000    40.955135150000     1.007825032230
      Gh(H)          25.234562060000    27.518974610000    39.798920280000     1.007825032230
      Gh(H)          27.662079220000    26.299541150000    37.757550150000     1.007825032230
      Gh(H)          26.202216600000    29.000711950000    52.078089900000     1.007825032230
      Gh(H)          22.836115370000    18.291349250000    51.188147300000     1.007825032230
         C           30.813421930000    18.710179890000    45.993590290000    12.000000000000
         C           31.578823900000    19.745559730000    43.580271130000    12.000000000000
         C           32.189229210000    22.397465740000    43.360098410000    12.000000000000
         C           32.047314730000    23.980561610000    45.575781450000    12.000000000000
         C           31.255620950000    22.884853550000    47.941863750000    12.000000000000
         C           30.640656550000    20.362968120000    48.197593240000    12.000000000000
         C           32.960988580000    23.468755580000    40.980685430000    12.000000000000
         C           32.977687900000    21.849817700000    38.715632150000    12.000000000000
         C           32.396880510000    19.207546730000    38.927834280000    12.000000000000
         C           31.751082620000    18.111964400000    41.410400420000    12.000000000000
         C           32.385101480000    17.708590010000    36.688368100000    12.000000000000
         C           32.898848690000    18.703884230000    34.286270150000    12.000000000000
         C           33.460457470000    21.327874290000    34.106035820000    12.000000000000
         C           33.500205440000    22.844137850000    36.264713590000    12.000000000000
         C           32.710841680000    26.575199020000    45.394308130000    12.000000000000
         C           33.517460540000    27.592296260000    43.083391200000    12.000000000000
         C           33.640713650000    26.059331560000    40.907872200000    12.000000000000
         C           30.268343150000    16.091662710000    46.167200610000    12.000000000000
         C           30.497465480000    14.474318260000    44.069103850000    12.000000000000
         C           31.239648410000    15.507577850000    41.725807430000    12.000000000000
         C           32.852458580000    17.056601230000    31.930071820000    12.000000000000
         C           30.035239600000    11.643867980000    44.339121940000    12.000000000000
         C           32.456447310000    10.162768560000    45.086276230000    12.000000000000
         C           29.837412290000    19.309373450000    50.744532490000    12.000000000000
         H           31.159443530000    24.136923780000    49.605980370000     1.007825032230
         H           33.861152590000    22.175472380000    32.240633180000     1.007825032230
         H           33.924036130000    24.868284610000    36.039314520000     1.007825032230
         H           32.606932640000    27.771442760000    47.100428900000     1.007825032230
         H           34.057050160000    29.603312720000    42.956883010000     1.007825032230
         H           34.278074760000    26.923081740000    39.126552190000     1.007825032230
         H           29.647227910000    15.287136960000    47.983027870000     1.007825032230
         H           31.381455070000    14.216153210000    40.102684710000     1.007825032230
         H           34.735737000000    17.013088920000    30.986800810000     1.007825032230
         H           32.314437750000    15.075477300000    32.371704950000     1.007825032230
         H           31.485891230000    17.791222970000    30.505346590000     1.007825032230
         H           29.280499330000    10.884780840000    42.526494070000     1.007825032230
         H           28.543576180000    11.317994430000    45.786901480000     1.007825032230
         H           33.972694550000    10.410591710000    43.649755710000     1.007825032230
         H           33.219220700000    10.841257010000    46.924945230000     1.007825032230
         H           31.182216520000    17.844652760000    51.440638090000     1.007825032230
         H           27.948963570000    18.392733420000    50.643940790000     1.007825032230
         H           29.741258730000    20.827140160000    52.190338820000     1.007825032230
         H           32.066132320000     8.102977330000    45.267040020000     1.007825032230
         H           31.918462080000    15.686526690000    36.818604170000     1.007825032230

  Running in c1 symmetry.

  Rotational constants: A =      0.00210  B =      0.00003  C =      0.00003 [cm^-1]
  Rotational constants: A =     62.96897  B =      0.94325  C =      0.93874 [MHz]
  Nuclear repulsion = 1864.841208739238255

  Charge       = 0
  Multiplicity = 1
  Electrons    = 164
  Nalpha       = 82
  Nbeta        = 82

  ==> Algorithm <==

  SCF Algorithm Type is DF.
  DIIS enabled.
  MOM disabled.
  Fractional occupation disabled.
  Guess Type is SAD.
  Energy threshold   = 1.00e-06
  Density threshold  = 1.00e-06
  Integral threshold = 1.00e-12

  ==> Primary Basis <==

  Basis Set: AUG-CC-PVTZ
    Blend: AUG-CC-PVTZ
    Number of shells: 1032
    Number of basis functions: 3128
    Number of Cartesian functions: 3640
    Spherical Harmonics?: true
    Max angular momentum: 3

  ==> DFT Potential <==

   => LibXC <=

    Version 7.0.0
    S. Lehtola, C. Steigemann, M. J.T. Oliveira, and M. A.L. Marques.,  SoftwareX 7, 1–5 (2018) (10.1016/j.softx.2017.11.002)

   => Composite Functional: PBE-D3ZERO2B <= 

    PBE GGA Exchange-Correlation Functional

    J.P. Perdew et. al., Phys. Rev. Lett., 77(18), 3865-3868, 1996


    Deriv               =              1
    GGA                 =           TRUE
    Meta                =          FALSE

    Exchange Hybrid     =          FALSE
    MP2 Hybrid          =          FALSE

   => Exchange Functionals <=

    1.0000     XC_GGA_X_PBE

   => Correlation Functionals <=

    1.0000     XC_GGA_C_PBE

   => LibXC Density Thresholds  <==

    XC_GGA_C_PBE:  1.00E-12 
    XC_GGA_X_PBE:  1.00E-15 

   => Molecular Quadrature <=

    Radial Scheme          =       TREUTLER
    Pruning Scheme         =           NONE
    Nuclear Scheme         =       TREUTLER

    Blocking Scheme        =         OCTREE
    BS radius alpha        =              1
    Pruning alpha          =              1
    Radial Points          =             75
    Spherical Points       =            302
    Total Points           =        1755895
    Total Blocks           =          12038
    Max Points             =            256
    Max Functions          =           2202
    Weights Tolerance      =       1.00E-15

   => Loading Basis Set <=

    Name: (AUG-CC-PVTZ AUX)
    Role: JKFIT
    Keyword: DF_BASIS_SCF
    atoms 1-24, 45-68  entry C          line   162 file /storage/home/hcoda1/5/vlita3/.conda/envs/p4_qcml/share/psi4/basis/aug-cc-pvtz-jkfit.gbs 
    atoms 25-44, 69-88 entry H          line    70 file /storage/home/hcoda1/5/vlita3/.conda/envs/p4_qcml/share/psi4/basis/aug-cc-pvtz-jkfit.gbs 

  ==> Integral Setup <==

  ==> DiskDFJK: Density-Fitted J/K Matrices <==

    J tasked:                  Yes
    K tasked:                   No
    wK tasked:                  No
    OpenMP threads:             10
    Integrals threads:          10
    Memory [MiB]:           172800
    Algorithm:                Disk
    Integral Cache:           NONE
    Schwarz Cutoff:          1E-12
    Fitting Condition:       1E-10

   => Auxiliary Basis Set <=

  Basis Set: (AUG-CC-PVTZ AUX)
    Blend: AUG-CC-PVTZ-JKFIT
    Number of shells: 2000
    Number of basis functions: 6832
    Number of Cartesian functions: 8488
    Spherical Harmonics?: true
    Max angular momentum: 4

  Minimum eigenvalue in the overlap matrix is 6.3711160731E-10.
  Reciprocal condition number of the overlap matrix is 1.7895063395E-11.
    Using canonical orthogonalization.
  Overall, 29 of 3128 possible MOs eliminated.


  ==> Pre-Iterations <==

  SCF Guess: Superposition of Atomic Densities via on-the-fly atomic UHF (no occupation information).

   -------------------------
    Irrep   Nso     Nmo    
   -------------------------
     A       3128    3099 
   -------------------------
    Total    3128    3099
   -------------------------

  ==> Iterations <==

                           Total Energy        Delta E     RMS |[F,P]|

   @DF-RKS iter SAD:  -924.72890508965816   -9.24729e+02   0.00000e+00 
   @DF-RKS iter   1:  -923.39174685428554    1.33716e+00   6.75250e-04 ADIIS/DIIS
   @DF-RKS iter   2:  -909.92780542017158    1.34639e+01   1.47692e-03 ADIIS/DIIS
   @DF-RKS iter   3:  -924.27090580417041   -1.43431e+01   5.08276e-04 ADIIS/DIIS
   @DF-RKS iter   4:  -925.34317280393770   -1.07227e+00   2.84482e-04 ADIIS/DIIS
   @DF-RKS iter   5:  -925.69846966634702   -3.55297e-01   1.37392e-04 ADIIS/DIIS
   @DF-RKS iter   6:  -925.77877998037854   -8.03103e-02   5.75696e-05 DIIS
   @DF-RKS iter   7:  -925.78875071411608   -9.97073e-03   3.58202e-05 DIIS
   @DF-RKS iter   8:  -925.79582095801356   -7.07024e-03   7.98201e-06 DIIS
   @DF-RKS iter   9:  -925.79609059105883   -2.69633e-04   4.35845e-06 DIIS
   @DF-RKS iter  10:  -925.79618759540074   -9.70043e-05   1.01655e-06 DIIS
   @DF-RKS iter  11:  -925.79619065853194   -3.06313e-06   6.39719e-07 DIIS
   @DF-RKS iter  12:  -925.79619273925175   -2.08072e-06   2.65980e-07 DIIS
   @DF-RKS iter  13:  -925.79619316675337   -4.27502e-07   5.33737e-08 DIIS
  Energy and wave function converged.


  ==> Post-Iterations <==

   Electrons on quadrature grid:
      Ntotal   =  163.9997358539 ; deviation = -2.641e-04 

    Orbital Energies [Eh]
    ---------------------

    Doubly Occupied:                                                      

       1A     -9.909541     2A     -9.909194     3A     -9.908560  
       4A     -9.907934     5A     -9.907401     6A     -9.907232  
       7A     -9.906782     8A     -9.906256     9A     -9.905531  
      10A     -9.904702    11A     -9.903491    12A     -9.898295  
      13A     -9.896602    14A     -9.895892    15A     -9.894958  
      16A     -9.894831    17A     -9.894809    18A     -9.893816  
      19A     -9.893256    20A     -9.892965    21A     -9.892752  
      22A     -9.892469    23A     -9.891839    24A     -9.886431  
      25A     -0.809988    26A     -0.779729    27A     -0.772342  
      28A     -0.743752    29A     -0.727968    30A     -0.707390  
      31A     -0.691336    32A     -0.687413    33A     -0.672567  
      34A     -0.649567    35A     -0.643875    36A     -0.618679  
      37A     -0.616888    38A     -0.577179    39A     -0.567946  
      40A     -0.551277    41A     -0.549018    42A     -0.537482  
      43A     -0.517772    44A     -0.484793    45A     -0.476996  
      46A     -0.465473    47A     -0.449157    48A     -0.438483  
      49A     -0.418146    50A     -0.415003    51A     -0.407683  
      52A     -0.397878    53A     -0.395606    54A     -0.385148  
      55A     -0.380519    56A     -0.374657    57A     -0.374532  
      58A     -0.369113    59A     -0.367662    60A     -0.360851  
      61A     -0.358679    62A     -0.354489    63A     -0.340807  
      64A     -0.340465    65A     -0.335980    66A     -0.331155  
      67A     -0.323720    68A     -0.321562    69A     -0.318197  
      70A     -0.315069    71A     -0.307009    72A     -0.302732  
      73A     -0.298318    74A     -0.276439    75A     -0.275608  
      76A     -0.274695    77A     -0.258138    78A     -0.257478  
      79A     -0.220882    80A     -0.220485    81A     -0.198771  
      82A     -0.184134  

    Virtual:                                                              

      83A     -0.086448    84A     -0.071208    85A     -0.056463  
      86A     -0.048411    87A     -0.023881    88A     -0.017205  
      89A     -0.015056    90A     -0.009607    91A     -0.006838  
      92A     -0.003147    93A     -0.002824    94A      0.000872  
      95A      0.006186    96A      0.009194    97A      0.009849  
      98A      0.013652    99A      0.015362   100A      0.019460  
     101A      0.021199   102A      0.023425   103A      0.026052  
     104A      0.028334   105A      0.029265   106A      0.030370  
     107A      0.032341   108A      0.034177   109A      0.038279  
     110A      0.038736   111A      0.040819   112A      0.041603  
     113A      0.043012   114A      0.044926   115A      0.047578  
     116A      0.048132   117A      0.049285   118A      0.051660  
     119A      0.053836   120A      0.054838   121A      0.056170  
     122A      0.056718   123A      0.057756   124A      0.059367  
     125A      0.060752   126A      0.062136   127A      0.064151  
     128A      0.065752   129A      0.066948   130A      0.068552  
     131A      0.070468   132A      0.072691   133A      0.073550  
     134A      0.074718   135A      0.075654   136A      0.077229  
     137A      0.078392   138A      0.079118   139A      0.079822  
     140A      0.080788   141A      0.081574   142A      0.082924  
     143A      0.084427   144A      0.085194   145A      0.087879  
     146A      0.088693   147A      0.090739   148A      0.090961  
     149A      0.092496   150A      0.092994   151A      0.095645  
     152A      0.096491   153A      0.097691   154A      0.098611  
     155A      0.100546   156A      0.101042   157A      0.103508  
     158A      0.104349   159A      0.105504   160A      0.106339  
     161A      0.106398   162A      0.107149   163A      0.107811  
     164A      0.109111   165A      0.111169   166A      0.111801  
     167A      0.113014   168A      0.114792   169A      0.115609  
     170A      0.118341   171A      0.119478   172A      0.119862  
     173A      0.121775   174A      0.122254   175A      0.123851  
     176A      0.125567   177A      0.125860   178A      0.126912  
     179A      0.127829   180A      0.130135   181A      0.131022  
     182A      0.132821   183A      0.134551   184A      0.135350  
     185A      0.136704   186A      0.137833   187A      0.139277  
     188A      0.141732   189A      0.143550   190A      0.144296  
     191A      0.145553   192A      0.146068   193A      0.148149  
     194A      0.149556   195A      0.150106   196A      0.151528  
     197A      0.152871   198A      0.154992   199A      0.155942  
     200A      0.156329   201A      0.157155   202A      0.157648  
     203A      0.158512   204A      0.161409   205A      0.161730  
     206A      0.163055   207A      0.164091   208A      0.165563  
     209A      0.166621   210A      0.167680   211A      0.169164  
     212A      0.171435   213A      0.171618   214A      0.173664  
     215A      0.175605   216A      0.176386   217A      0.177662  
     218A      0.178602   219A      0.179668   220A      0.180285  
     221A      0.181614   222A      0.182109   223A      0.182830  
     224A      0.184477   225A      0.184686   226A      0.185772  
     227A      0.187864   228A      0.188221   229A      0.189898  
     230A      0.191463   231A      0.192366   232A      0.193799  
     233A      0.194486   234A      0.195614   235A      0.196456  
     236A      0.198082   237A      0.198394   238A      0.199279  
     239A      0.200920   240A      0.201112   241A      0.202958  
     242A      0.203495   243A      0.204274   244A      0.204938  
     245A      0.205664   246A      0.206503   247A      0.208493  
     248A      0.209799   249A      0.210924   250A      0.211597  
     251A      0.212589   252A      0.213578   253A      0.214565  
     254A      0.215844   255A      0.216021   256A      0.218178  
     257A      0.219801   258A      0.220554   259A      0.221528  
     260A      0.222347   261A      0.223685   262A      0.224554  
     263A      0.224730   264A      0.226587   265A      0.228912  
     266A      0.229384   267A      0.229869   268A      0.230976  
     269A      0.232221   270A      0.233036   271A      0.234063  
     272A      0.235897   273A      0.236061   274A      0.238327  
     275A      0.239328   276A      0.241090   277A      0.242292  
     278A      0.242728   279A      0.243520   280A      0.246712  
     281A      0.247385   282A      0.248849   283A      0.250571  
     284A      0.251687   285A      0.252225   286A      0.253567  
     287A      0.254113   288A      0.255024   289A      0.256902  
     290A      0.257794   291A      0.258745   292A      0.259985  
     293A      0.260355   294A      0.260965   295A      0.262206  
     296A      0.263112   297A      0.265897   298A      0.266511  
     299A      0.267531   300A      0.267725   301A      0.270104  
     302A      0.270888   303A      0.272711   304A      0.273152  
     305A      0.274983   306A      0.275978   307A      0.276612  
     308A      0.278561   309A      0.280027   310A      0.282302  
     311A      0.283297   312A      0.283648   313A      0.284867  
     314A      0.286145   315A      0.288078   316A      0.289556  
     317A      0.289960   318A      0.291341   319A      0.293369  
     320A      0.293729   321A      0.294399   322A      0.296365  
     323A      0.296944   324A      0.297664   325A      0.298698  
     326A      0.300199   327A      0.301781   328A      0.302311  
     329A      0.304812   330A      0.306584   331A      0.307540  
     332A      0.308507   333A      0.309577   334A      0.311241  
     335A      0.312889   336A      0.314008   337A      0.314284  
     338A      0.316532   339A      0.316841   340A      0.317293  
     341A      0.318237   342A      0.321141   343A      0.322688  
     344A      0.323171   345A      0.324765   346A      0.326552  
     347A      0.327435   348A      0.329917   349A      0.331751  
     350A      0.332308   351A      0.332684   352A      0.334199  
     353A      0.335861   354A      0.337497   355A      0.340794  
     356A      0.341559   357A      0.343424   358A      0.343638  
     359A      0.344999   360A      0.346447   361A      0.347768  
     362A      0.349332   363A      0.350499   364A      0.351575  
     365A      0.351953   366A      0.353856   367A      0.354798  
     368A      0.355607   369A      0.358808   370A      0.359210  
     371A      0.359616   372A      0.361320   373A      0.361621  
     374A      0.362572   375A      0.365061   376A      0.365591  
     377A      0.366965   378A      0.367889   379A      0.370438  
     380A      0.371345   381A      0.373035   382A      0.373794  
     383A      0.376143   384A      0.376711   385A      0.378257  
     386A      0.379126   387A      0.381843   388A      0.383184  
     389A      0.384563   390A      0.385308   391A      0.386935  
     392A      0.388228   393A      0.389796   394A      0.390178  
     395A      0.393160   396A      0.394003   397A      0.394694  
     398A      0.395629   399A      0.396935   400A      0.398786  
     401A      0.399867   402A      0.400806   403A      0.401594  
     404A      0.403836   405A      0.404499   406A      0.405104  
     407A      0.405664   408A      0.408707   409A      0.409797  
     410A      0.410445   411A      0.411123   412A      0.411240  
     413A      0.413516   414A      0.415507   415A      0.416405  
     416A      0.416660   417A      0.418717   418A      0.421169  
     419A      0.421754   420A      0.423325   421A      0.424680  
     422A      0.426384   423A      0.428187   424A      0.428325  
     425A      0.428513   426A      0.430619   427A      0.430984  
     428A      0.432571   429A      0.433510   430A      0.434967  
     431A      0.435840   432A      0.437173   433A      0.437926  
     434A      0.439838   435A      0.440376   436A      0.442429  
     437A      0.442588   438A      0.443141   439A      0.444484  
     440A      0.446047   441A      0.447300   442A      0.448409  
     443A      0.449502   444A      0.451299   445A      0.452075  
     446A      0.453344   447A      0.453866   448A      0.454478  
     449A      0.456012   450A      0.457111   451A      0.458117  
     452A      0.458988   453A      0.460042   454A      0.460896  
     455A      0.462031   456A      0.463705   457A      0.464379  
     458A      0.465702   459A      0.466165   460A      0.468190  
     461A      0.469735   462A      0.471161   463A      0.472902  
     464A      0.473002   465A      0.474968   466A      0.475605  
     467A      0.476865   468A      0.478203   469A      0.479259  
     470A      0.480066   471A      0.480667   472A      0.481690  
     473A      0.483739   474A      0.484799   475A      0.486614  
     476A      0.487996   477A      0.489131   478A      0.490376  
     479A      0.491284   480A      0.492507   481A      0.493783  
     482A      0.494498   483A      0.496694   484A      0.498312  
     485A      0.499401   486A      0.500285   487A      0.501865  
     488A      0.503125   489A      0.503695   490A      0.505131  
     491A      0.506467   492A      0.507210   493A      0.508912  
     494A      0.510149   495A      0.511280   496A      0.512967  
     497A      0.513728   498A      0.516427   499A      0.516835  
     500A      0.517023   501A      0.519115   502A      0.520471  
     503A      0.521546   504A      0.523036   505A      0.524245  
     506A      0.525690   507A      0.527351   508A      0.527571  
     509A      0.529033   510A      0.530839   511A      0.532851  
     512A      0.533403   513A      0.536140   514A      0.537679  
     515A      0.538355   516A      0.539396   517A      0.539725  
     518A      0.541693   519A      0.543459   520A      0.544397  
     521A      0.545428   522A      0.547094   523A      0.548343  
     524A      0.550252   525A      0.550892   526A      0.552846  
     527A      0.553289   528A      0.556315   529A      0.557353  
     530A      0.557902   531A      0.559166   532A      0.561914  
     533A      0.562290   534A      0.563548   535A      0.566295  
     536A      0.566946   537A      0.567681   538A      0.570002  
     539A      0.572045   540A      0.574103   541A      0.574454  
     542A      0.575216   543A      0.576243   544A      0.577863  
     545A      0.578375   546A      0.582658   547A      0.585698  
     548A      0.586089   549A      0.586718   550A      0.587540  
     551A      0.588397   552A      0.590800   553A      0.592599  
     554A      0.593092   555A      0.594200   556A      0.596468  
     557A      0.596640   558A      0.597920   559A      0.599779  
     560A      0.600586   561A      0.603430   562A      0.603508  
     563A      0.604997   564A      0.606429   565A      0.607460  
     566A      0.608665   567A      0.610233   568A      0.611769  
     569A      0.613401   570A      0.614735   571A      0.616137  
     572A      0.617634   573A      0.619635   574A      0.619768  
     575A      0.622055   576A      0.623925   577A      0.625821  
     578A      0.628726   579A      0.629131   580A      0.629777  
     581A      0.631326   582A      0.633384   583A      0.634558  
     584A      0.635655   585A      0.639036   586A      0.640887  
     587A      0.642457   588A      0.643016   589A      0.645013  
     590A      0.645922   591A      0.648147   592A      0.649715  
     593A      0.650915   594A      0.651559   595A      0.654351  
     596A      0.655491   597A      0.656324   598A      0.657681  
     599A      0.658754   600A      0.660141   601A      0.660422  
     602A      0.662189   603A      0.663238   604A      0.664310  
     605A      0.666336   606A      0.667706   607A      0.668334  
     608A      0.671404   609A      0.672453   610A      0.673234  
     611A      0.674847   612A      0.676382   613A      0.677892  
     614A      0.679197   615A      0.681019   616A      0.682239  
     617A      0.683440   618A      0.684189   619A      0.687867  
     620A      0.688136   621A      0.689854   622A      0.690653  
     623A      0.691544   624A      0.693183   625A      0.695244  
     626A      0.695839   627A      0.698083   628A      0.699235  
     629A      0.700486   630A      0.702117   631A      0.703700  
     632A      0.704501   633A      0.707005   634A      0.707395  
     635A      0.708996   636A      0.710601   637A      0.711725  
     638A      0.712321   639A      0.715746   640A      0.716249  
     641A      0.717851   642A      0.718185   643A      0.720253  
     644A      0.721925   645A      0.722257   646A      0.724773  
     647A      0.725157   648A      0.726730   649A      0.727769  
     650A      0.729950   651A      0.730377   652A      0.731324  
     653A      0.734367   654A      0.735228   655A      0.735631  
     656A      0.737236   657A      0.738106   658A      0.740069  
     659A      0.741034   660A      0.742944   661A      0.743922  
     662A      0.744525   663A      0.747329   664A      0.748592  
     665A      0.749589   666A      0.750919   667A      0.754181  
     668A      0.754957   669A      0.756860   670A      0.758272  
     671A      0.759349   672A      0.760876   673A      0.761701  
     674A      0.763679   675A      0.765173   676A      0.765632  
     677A      0.767500   678A      0.768529   679A      0.769550  
     680A      0.769795   681A      0.771467   682A      0.773232  
     683A      0.775175   684A      0.776640   685A      0.778683  
     686A      0.779810   687A      0.780855   688A      0.782035  
     689A      0.785405   690A      0.786871   691A      0.787642  
     692A      0.788700   693A      0.790662   694A      0.792665  
     695A      0.793372   696A      0.794669   697A      0.796033  
     698A      0.799203   699A      0.799524   700A      0.801324  
     701A      0.802187   702A      0.803669   703A      0.804334  
     704A      0.804912   705A      0.808024   706A      0.808189  
     707A      0.809905   708A      0.811574   709A      0.813198  
     710A      0.813952   711A      0.816082   712A      0.816693  
     713A      0.818449   714A      0.820272   715A      0.822006  
     716A      0.823688   717A      0.825405   718A      0.825967  
     719A      0.826600   720A      0.827293   721A      0.829094  
     722A      0.830272   723A      0.831373   724A      0.832556  
     725A      0.834625   726A      0.835057   727A      0.837794  
     728A      0.838447   729A      0.839718   730A      0.842528  
     731A      0.843794   732A      0.844953   733A      0.845201  
     734A      0.846962   735A      0.847757   736A      0.848927  
     737A      0.851506   738A      0.852495   739A      0.852725  
     740A      0.853852   741A      0.856500   742A      0.858198  
     743A      0.859552   744A      0.860668   745A      0.862433  
     746A      0.862997   747A      0.865031   748A      0.865661  
     749A      0.867614   750A      0.868688   751A      0.869694  
     752A      0.871064   753A      0.873542   754A      0.874672  
     755A      0.875475   756A      0.877046   757A      0.878486  
     758A      0.880294   759A      0.881606   760A      0.882664  
     761A      0.883440   762A      0.886159   763A      0.887801  
     764A      0.889887   765A      0.890218   766A      0.892196  
     767A      0.894778   768A      0.895510   769A      0.896688  
     770A      0.897907   771A      0.899214   772A      0.901600  
     773A      0.903396   774A      0.905118   775A      0.906034  
     776A      0.907836   777A      0.909152   778A      0.910521  
     779A      0.911988   780A      0.913561   781A      0.914532  
     782A      0.917416   783A      0.917707   784A      0.918321  
     785A      0.920298   786A      0.921436   787A      0.923026  
     788A      0.924391   789A      0.927396   790A      0.928220  
     791A      0.929894   792A      0.931739   793A      0.933448  
     794A      0.935424   795A      0.936595   796A      0.938204  
     797A      0.939764   798A      0.940019   799A      0.942906  
     800A      0.943293   801A      0.943904   802A      0.945285  
     803A      0.949043   804A      0.950068   805A      0.950714  
     806A      0.952402   807A      0.953362   808A      0.955145  
     809A      0.956653   810A      0.959618   811A      0.960559  
     812A      0.961621   813A      0.962307   814A      0.963663  
     815A      0.966198   816A      0.967721   817A      0.968319  
     818A      0.970029   819A      0.972572   820A      0.974305  
     821A      0.975784   822A      0.978524   823A      0.979427  
     824A      0.979941   825A      0.980305   826A      0.982273  
     827A      0.983853   828A      0.984789   829A      0.987334  
     830A      0.987768   831A      0.990989   832A      0.992271  
     833A      0.993384   834A      0.994684   835A      0.995793  
     836A      0.997918   837A      0.998628   838A      1.002218  
     839A      1.003233   840A      1.004369   841A      1.005643  
     842A      1.008049   843A      1.010364   844A      1.011018  
     845A      1.011490   846A      1.013241   847A      1.015320  
     848A      1.017357   849A      1.018364   850A      1.019638  
     851A      1.020848   852A      1.022734   853A      1.024478  
     854A      1.025231   855A      1.025543   856A      1.027352  
     857A      1.029288   858A      1.031625   859A      1.032800  
     860A      1.035123   861A      1.035795   862A      1.037342  
     863A      1.039127   864A      1.040579   865A      1.043083  
     866A      1.046321   867A      1.046671   868A      1.047527  
     869A      1.048275   870A      1.050157   871A      1.050996  
     872A      1.054667   873A      1.055200   874A      1.055820  
     875A      1.058220   876A      1.059694   877A      1.061220  
     878A      1.063118   879A      1.065333   880A      1.066582  
     881A      1.067189   882A      1.067969   883A      1.069356  
     884A      1.070943   885A      1.073162   886A      1.073966  
     887A      1.074446   888A      1.077064   889A      1.078142  
     890A      1.080225   891A      1.081348   892A      1.083096  
     893A      1.085202   894A      1.086267   895A      1.087025  
     896A      1.088995   897A      1.090885   898A      1.092257  
     899A      1.094700   900A      1.096951   901A      1.098169  
     902A      1.098584   903A      1.099993   904A      1.101601  
     905A      1.104143   906A      1.106366   907A      1.107135  
     908A      1.109407   909A      1.110166   910A      1.111775  
     911A      1.113320   912A      1.113901   913A      1.114757  
     914A      1.116999   915A      1.118240   916A      1.120566  
     917A      1.122957   918A      1.124887   919A      1.125603  
     920A      1.129745   921A      1.130939   922A      1.132561  
     923A      1.133852   924A      1.135075   925A      1.135716  
     926A      1.138249   927A      1.139008   928A      1.140272  
     929A      1.142557   930A      1.144759   931A      1.146695  
     932A      1.147379   933A      1.148920   934A      1.150121  
     935A      1.152039   936A      1.154728   937A      1.156371  
     938A      1.157093   939A      1.159345   940A      1.160075  
     941A      1.162327   942A      1.163963   943A      1.166634  
     944A      1.169060   945A      1.169858   946A      1.170445  
     947A      1.171258   948A      1.174824   949A      1.176785  
     950A      1.178346   951A      1.178473   952A      1.179734  
     953A      1.181228   954A      1.181800   955A      1.182408  
     956A      1.186483   957A      1.187854   958A      1.188451  
     959A      1.190625   960A      1.192794   961A      1.194272  
     962A      1.194870   963A      1.197420   964A      1.198791  
     965A      1.199479   966A      1.201226   967A      1.203552  
     968A      1.205551   969A      1.206444   970A      1.206660  
     971A      1.207105   972A      1.209812   973A      1.212216  
     974A      1.213788   975A      1.216053   976A      1.218338  
     977A      1.220458   978A      1.221827   979A      1.222191  
     980A      1.225273   981A      1.226713   982A      1.227873  
     983A      1.231096   984A      1.231807   985A      1.233597  
     986A      1.233911   987A      1.235789   988A      1.237550  
     989A      1.238530   990A      1.242467   991A      1.242709  
     992A      1.244143   993A      1.246758   994A      1.247178  
     995A      1.249273   996A      1.249935   997A      1.251579  
     998A      1.252333   999A      1.253406  1000A      1.253800  
    1001A      1.255550  1002A      1.257605  1003A      1.258928  
    1004A      1.259426  1005A      1.262021  1006A      1.263061  
    1007A      1.265731  1008A      1.267051  1009A      1.267902  
    1010A      1.271013  1011A      1.272519  1012A      1.273612  
    1013A      1.274778  1014A      1.277251  1015A      1.277700  
    1016A      1.279347  1017A      1.281997  1018A      1.283032  
    1019A      1.283399  1020A      1.286781  1021A      1.289038  
    1022A      1.290314  1023A      1.290877  1024A      1.292901  
    1025A      1.293454  1026A      1.297589  1027A      1.298020  
    1028A      1.299879  1029A      1.301471  1030A      1.302835  
    1031A      1.303006  1032A      1.305646  1033A      1.307925  
    1034A      1.308786  1035A      1.311075  1036A      1.312078  
    1037A      1.313590  1038A      1.314992  1039A      1.317014  
    1040A      1.319251  1041A      1.321174  1042A      1.322667  
    1043A      1.323957  1044A      1.324247  1045A      1.327685  
    1046A      1.327907  1047A      1.328535  1048A      1.331110  
    1049A      1.331901  1050A      1.333497  1051A      1.335227  
    1052A      1.336415  1053A      1.337787  1054A      1.338988  
    1055A      1.339565  1056A      1.342266  1057A      1.343285  
    1058A      1.344217  1059A      1.346352  1060A      1.347218  
    1061A      1.351035  1062A      1.351611  1063A      1.353475  
    1064A      1.354038  1065A      1.357274  1066A      1.358854  
    1067A      1.359853  1068A      1.360586  1069A      1.360977  
    1070A      1.362458  1071A      1.364654  1072A      1.365460  
    1073A      1.366411  1074A      1.367641  1075A      1.370182  
    1076A      1.372054  1077A      1.374517  1078A      1.375284  
    1079A      1.376233  1080A      1.378521  1081A      1.380318  
    1082A      1.382070  1083A      1.383749  1084A      1.386520  
    1085A      1.388259  1086A      1.390920  1087A      1.391289  
    1088A      1.392760  1089A      1.394917  1090A      1.396118  
    1091A      1.397356  1092A      1.398958  1093A      1.399762  
    1094A      1.400716  1095A      1.403001  1096A      1.403066  
    1097A      1.404690  1098A      1.406239  1099A      1.406416  
    1100A      1.409926  1101A      1.411262  1102A      1.412918  
    1103A      1.414378  1104A      1.415409  1105A      1.417701  
    1106A      1.418511  1107A      1.418649  1108A      1.419689  
    1109A      1.422605  1110A      1.423518  1111A      1.426312  
    1112A      1.427933  1113A      1.428988  1114A      1.430456  
    1115A      1.431562  1116A      1.432892  1117A      1.433631  
    1118A      1.436470  1119A      1.438638  1120A      1.440318  
    1121A      1.442932  1122A      1.443664  1123A      1.444274  
    1124A      1.445844  1125A      1.447402  1126A      1.449006  
    1127A      1.450038  1128A      1.451029  1129A      1.451592  
    1130A      1.454140  1131A      1.454777  1132A      1.456941  
    1133A      1.459824  1134A      1.460682  1135A      1.462380  
    1136A      1.463304  1137A      1.464226  1138A      1.466759  
    1139A      1.467803  1140A      1.469342  1141A      1.471424  
    1142A      1.472771  1143A      1.475267  1144A      1.475575  
    1145A      1.479132  1146A      1.480125  1147A      1.482834  
    1148A      1.483564  1149A      1.484527  1150A      1.485124  
    1151A      1.486453  1152A      1.488038  1153A      1.488926  
    1154A      1.490750  1155A      1.491403  1156A      1.492395  
    1157A      1.494828  1158A      1.496821  1159A      1.498367  
    1160A      1.500497  1161A      1.501045  1162A      1.503419  
    1163A      1.504237  1164A      1.504927  1165A      1.506575  
    1166A      1.511014  1167A      1.512053  1168A      1.513489  
    1169A      1.514333  1170A      1.516895  1171A      1.517850  
    1172A      1.518128  1173A      1.518851  1174A      1.519986  
    1175A      1.522443  1176A      1.523898  1177A      1.524941  
    1178A      1.526330  1179A      1.527432  1180A      1.529048  
    1181A      1.530727  1182A      1.534305  1183A      1.535906  
    1184A      1.536585  1185A      1.539441  1186A      1.540387  
    1187A      1.543193  1188A      1.544324  1189A      1.545039  
    1190A      1.546335  1191A      1.546755  1192A      1.549754  
    1193A      1.551828  1194A      1.553693  1195A      1.553961  
    1196A      1.555221  1197A      1.556071  1198A      1.557637  
    1199A      1.559100  1200A      1.560150  1201A      1.561659  
    1202A      1.563085  1203A      1.565165  1204A      1.566381  
    1205A      1.567334  1206A      1.568499  1207A      1.572243  
    1208A      1.573038  1209A      1.575328  1210A      1.576978  
    1211A      1.578138  1212A      1.580101  1213A      1.582477  
    1214A      1.582831  1215A      1.584436  1216A      1.587321  
    1217A      1.589206  1218A      1.589621  1219A      1.590729  
    1220A      1.593666  1221A      1.594328  1222A      1.598114  
    1223A      1.599857  1224A      1.600818  1225A      1.603467  
    1226A      1.604135  1227A      1.606395  1228A      1.607102  
    1229A      1.608268  1230A      1.609714  1231A      1.610920  
    1232A      1.612491  1233A      1.614574  1234A      1.617286  
    1235A      1.618563  1236A      1.620458  1237A      1.621997  
    1238A      1.623251  1239A      1.626001  1240A      1.626979  
    1241A      1.629020  1242A      1.629938  1243A      1.630567  
    1244A      1.631755  1245A      1.633890  1246A      1.634689  
    1247A      1.636989  1248A      1.638182  1249A      1.640408  
    1250A      1.642479  1251A      1.643484  1252A      1.643669  
    1253A      1.646663  1254A      1.647660  1255A      1.649679  
    1256A      1.652234  1257A      1.654112  1258A      1.655675  
    1259A      1.656315  1260A      1.660093  1261A      1.661658  
    1262A      1.662139  1263A      1.663946  1264A      1.665279  
    1265A      1.667164  1266A      1.667510  1267A      1.669048  
    1268A      1.669888  1269A      1.670945  1270A      1.672317  
    1271A      1.676639  1272A      1.678464  1273A      1.679558  
    1274A      1.683752  1275A      1.684172  1276A      1.686131  
    1277A      1.687921  1278A      1.689125  1279A      1.690975  
    1280A      1.692045  1281A      1.692778  1282A      1.695288  
    1283A      1.695895  1284A      1.696881  1285A      1.698033  
    1286A      1.701520  1287A      1.703740  1288A      1.705046  
    1289A      1.707195  1290A      1.707687  1291A      1.711048  
    1292A      1.713216  1293A      1.715710  1294A      1.716568  
    1295A      1.718215  1296A      1.719345  1297A      1.722253  
    1298A      1.723021  1299A      1.723520  1300A      1.724714  
    1301A      1.727386  1302A      1.729579  1303A      1.732212  
    1304A      1.733309  1305A      1.734195  1306A      1.737490  
    1307A      1.738694  1308A      1.741282  1309A      1.743730  
    1310A      1.745742  1311A      1.746191  1312A      1.748281  
    1313A      1.749101  1314A      1.750340  1315A      1.752524  
    1316A      1.754904  1317A      1.757502  1318A      1.758469  
    1319A      1.761096  1320A      1.761506  1321A      1.762840  
    1322A      1.765849  1323A      1.768299  1324A      1.770621  
    1325A      1.772214  1326A      1.773619  1327A      1.775162  
    1328A      1.776447  1329A      1.777559  1330A      1.779639  
    1331A      1.780582  1332A      1.783972  1333A      1.785608  
    1334A      1.786276  1335A      1.790419  1336A      1.792545  
    1337A      1.792599  1338A      1.795900  1339A      1.798255  
    1340A      1.799257  1341A      1.801564  1342A      1.803478  
    1343A      1.804827  1344A      1.807605  1345A      1.808179  
    1346A      1.809040  1347A      1.811754  1348A      1.812721  
    1349A      1.814649  1350A      1.817028  1351A      1.818636  
    1352A      1.819385  1353A      1.819490  1354A      1.822918  
    1355A      1.824107  1356A      1.828161  1357A      1.828484  
    1358A      1.829989  1359A      1.831201  1360A      1.832847  
    1361A      1.833918  1362A      1.835268  1363A      1.837278  
    1364A      1.838542  1365A      1.841243  1366A      1.843781  
    1367A      1.846919  1368A      1.847541  1369A      1.848557  
    1370A      1.851098  1371A      1.851953  1372A      1.854846  
    1373A      1.858156  1374A      1.859823  1375A      1.862468  
    1376A      1.863569  1377A      1.864004  1378A      1.866157  
    1379A      1.867158  1380A      1.868488  1381A      1.870124  
    1382A      1.871238  1383A      1.872792  1384A      1.874372  
    1385A      1.875525  1386A      1.879082  1387A      1.881064  
    1388A      1.882289  1389A      1.883390  1390A      1.885410  
    1391A      1.886418  1392A      1.888600  1393A      1.891903  
    1394A      1.891966  1395A      1.894707  1396A      1.896293  
    1397A      1.899039  1398A      1.900735  1399A      1.901650  
    1400A      1.903296  1401A      1.905110  1402A      1.905951  
    1403A      1.907007  1404A      1.910482  1405A      1.912979  
    1406A      1.914294  1407A      1.917262  1408A      1.919540  
    1409A      1.920482  1410A      1.921362  1411A      1.923507  
    1412A      1.925502  1413A      1.926696  1414A      1.929051  
    1415A      1.929082  1416A      1.930662  1417A      1.933806  
    1418A      1.934944  1419A      1.938034  1420A      1.939312  
    1421A      1.941942  1422A      1.943348  1423A      1.944482  
    1424A      1.948357  1425A      1.949199  1426A      1.951214  
    1427A      1.954125  1428A      1.955319  1429A      1.957470  
    1430A      1.958809  1431A      1.960983  1432A      1.962388  
    1433A      1.963928  1434A      1.966072  1435A      1.967629  
    1436A      1.969561  1437A      1.972802  1438A      1.974666  
    1439A      1.975283  1440A      1.977819  1441A      1.979067  
    1442A      1.982899  1443A      1.984052  1444A      1.984563  
    1445A      1.987615  1446A      1.989080  1447A      1.991913  
    1448A      1.992866  1449A      1.993685  1450A      1.997327  
    1451A      1.998629  1452A      1.999793  1453A      2.001568  
    1454A      2.002975  1455A      2.006227  1456A      2.006840  
    1457A      2.009044  1458A      2.010916  1459A      2.010992  
    1460A      2.013612  1461A      2.015834  1462A      2.017923  
    1463A      2.018351  1464A      2.022381  1465A      2.024002  
    1466A      2.025124  1467A      2.026782  1468A      2.029182  
    1469A      2.029997  1470A      2.032620  1471A      2.033915  
    1472A      2.036156  1473A      2.037514  1474A      2.039941  
    1475A      2.042351  1476A      2.042757  1477A      2.045200  
    1478A      2.045379  1479A      2.047685  1480A      2.051709  
    1481A      2.052782  1482A      2.055182  1483A      2.056989  
    1484A      2.058785  1485A      2.060246  1486A      2.063246  
    1487A      2.065282  1488A      2.067199  1489A      2.068699  
    1490A      2.070474  1491A      2.071404  1492A      2.075105  
    1493A      2.077410  1494A      2.080420  1495A      2.083271  
    1496A      2.083422  1497A      2.086099  1498A      2.087541  
    1499A      2.090042  1500A      2.093457  1501A      2.095052  
    1502A      2.097879  1503A      2.098913  1504A      2.100347  
    1505A      2.103955  1506A      2.105011  1507A      2.106224  
    1508A      2.107845  1509A      2.110628  1510A      2.113965  
    1511A      2.114676  1512A      2.117611  1513A      2.118919  
    1514A      2.119552  1515A      2.121863  1516A      2.124330  
    1517A      2.125690  1518A      2.126812  1519A      2.130088  
    1520A      2.132333  1521A      2.133627  1522A      2.136670  
    1523A      2.139874  1524A      2.143251  1525A      2.143607  
    1526A      2.145849  1527A      2.146109  1528A      2.148713  
    1529A      2.151973  1530A      2.153778  1531A      2.157329  
    1532A      2.158028  1533A      2.160598  1534A      2.162947  
    1535A      2.165632  1536A      2.170052  1537A      2.170439  
    1538A      2.173031  1539A      2.174773  1540A      2.177626  
    1541A      2.178926  1542A      2.180101  1543A      2.183756  
    1544A      2.185168  1545A      2.186685  1546A      2.188247  
    1547A      2.189553  1548A      2.193651  1549A      2.195295  
    1550A      2.199561  1551A      2.201960  1552A      2.204830  
    1553A      2.206262  1554A      2.208167  1555A      2.208349  
    1556A      2.210072  1557A      2.213064  1558A      2.215129  
    1559A      2.217971  1560A      2.221051  1561A      2.222931  
    1562A      2.225217  1563A      2.228370  1564A      2.229813  
    1565A      2.231265  1566A      2.232623  1567A      2.236472  
    1568A      2.237492  1569A      2.240977  1570A      2.242773  
    1571A      2.245499  1572A      2.247749  1573A      2.249017  
    1574A      2.251786  1575A      2.253067  1576A      2.253749  
    1577A      2.257119  1578A      2.258216  1579A      2.259441  
    1580A      2.262568  1581A      2.265231  1582A      2.269198  
    1583A      2.270552  1584A      2.276029  1585A      2.276424  
    1586A      2.277828  1587A      2.280072  1588A      2.283159  
    1589A      2.284865  1590A      2.285762  1591A      2.289590  
    1592A      2.290726  1593A      2.291584  1594A      2.294557  
    1595A      2.295973  1596A      2.299825  1597A      2.301365  
    1598A      2.303157  1599A      2.305318  1600A      2.309945  
    1601A      2.312398  1602A      2.315260  1603A      2.316954  
    1604A      2.322677  1605A      2.323417  1606A      2.327282  
    1607A      2.329928  1608A      2.332748  1609A      2.333811  
    1610A      2.335445  1611A      2.336406  1612A      2.340835  
    1613A      2.341862  1614A      2.344940  1615A      2.348367  
    1616A      2.349204  1617A      2.350121  1618A      2.354882  
    1619A      2.355367  1620A      2.359635  1621A      2.361273  
    1622A      2.367438  1623A      2.368027  1624A      2.370903  
    1625A      2.372173  1626A      2.377627  1627A      2.378626  
    1628A      2.382115  1629A      2.383227  1630A      2.386598  
    1631A      2.388512  1632A      2.390660  1633A      2.392255  
    1634A      2.395766  1635A      2.397283  1636A      2.398907  
    1637A      2.399679  1638A      2.403735  1639A      2.408330  
    1640A      2.409485  1641A      2.411353  1642A      2.411768  
    1643A      2.414190  1644A      2.420522  1645A      2.422040  
    1646A      2.423621  1647A      2.426825  1648A      2.427957  
    1649A      2.429892  1650A      2.432384  1651A      2.436723  
    1652A      2.439702  1653A      2.440951  1654A      2.446539  
    1655A      2.448011  1656A      2.450084  1657A      2.451959  
    1658A      2.455198  1659A      2.457717  1660A      2.460396  
    1661A      2.464215  1662A      2.467591  1663A      2.468635  
    1664A      2.470620  1665A      2.474204  1666A      2.476642  
    1667A      2.478748  1668A      2.481192  1669A      2.483788  
    1670A      2.484752  1671A      2.488972  1672A      2.491887  
    1673A      2.492594  1674A      2.495075  1675A      2.501798  
    1676A      2.502551  1677A      2.507235  1678A      2.509731  
    1679A      2.510904  1680A      2.511760  1681A      2.514751  
    1682A      2.515459  1683A      2.517219  1684A      2.520027  
    1685A      2.524947  1686A      2.525885  1687A      2.530114  
    1688A      2.532159  1689A      2.534160  1690A      2.539267  
    1691A      2.541266  1692A      2.542863  1693A      2.544408  
    1694A      2.549586  1695A      2.554487  1696A      2.555858  
    1697A      2.558646  1698A      2.563150  1699A      2.563833  
    1700A      2.565290  1701A      2.569161  1702A      2.571407  
    1703A      2.573749  1704A      2.579032  1705A      2.581241  
    1706A      2.584255  1707A      2.586402  1708A      2.589501  
    1709A      2.590394  1710A      2.593207  1711A      2.597513  
    1712A      2.602282  1713A      2.603584  1714A      2.605090  
    1715A      2.607491  1716A      2.609807  1717A      2.611439  
    1718A      2.613953  1719A      2.617993  1720A      2.619972  
    1721A      2.621206  1722A      2.623740  1723A      2.626982  
    1724A      2.629060  1725A      2.632191  1726A      2.636303  
    1727A      2.636727  1728A      2.639759  1729A      2.642645  
    1730A      2.643382  1731A      2.651075  1732A      2.653158  
    1733A      2.654383  1734A      2.656360  1735A      2.659776  
    1736A      2.660970  1737A      2.662322  1738A      2.664054  
    1739A      2.669217  1740A      2.671247  1741A      2.674827  
    1742A      2.675271  1743A      2.677977  1744A      2.684315  
    1745A      2.687938  1746A      2.688495  1747A      2.691495  
    1748A      2.692208  1749A      2.697801  1750A      2.701221  
    1751A      2.705720  1752A      2.707018  1753A      2.711497  
    1754A      2.714816  1755A      2.716299  1756A      2.719480  
    1757A      2.721556  1758A      2.725932  1759A      2.727593  
    1760A      2.731581  1761A      2.732779  1762A      2.736953  
    1763A      2.739175  1764A      2.742159  1765A      2.746286  
    1766A      2.747691  1767A      2.749150  1768A      2.751639  
    1769A      2.754524  1770A      2.756028  1771A      2.756726  
    1772A      2.760238  1773A      2.766265  1774A      2.769294  
    1775A      2.770296  1776A      2.776880  1777A      2.777710  
    1778A      2.782046  1779A      2.784796  1780A      2.788838  
    1781A      2.790427  1782A      2.794856  1783A      2.797610  
    1784A      2.801124  1785A      2.804601  1786A      2.806506  
    1787A      2.807942  1788A      2.812157  1789A      2.814218  
    1790A      2.816443  1791A      2.819325  1792A      2.824682  
    1793A      2.829875  1794A      2.830587  1795A      2.836009  
    1796A      2.838087  1797A      2.841376  1798A      2.846150  
    1799A      2.848011  1800A      2.849532  1801A      2.854456  
    1802A      2.856070  1803A      2.860159  1804A      2.861594  
    1805A      2.864885  1806A      2.867442  1807A      2.872629  
    1808A      2.876747  1809A      2.880464  1810A      2.884419  
    1811A      2.888427  1812A      2.889754  1813A      2.892949  
    1814A      2.895305  1815A      2.899120  1816A      2.901356  
    1817A      2.903351  1818A      2.909042  1819A      2.917596  
    1820A      2.918941  1821A      2.924749  1822A      2.929024  
    1823A      2.932122  1824A      2.936006  1825A      2.937598  
    1826A      2.944561  1827A      2.946738  1828A      2.952142  
    1829A      2.953468  1830A      2.957123  1831A      2.960124  
    1832A      2.963760  1833A      2.968694  1834A      2.976039  
    1835A      2.978921  1836A      2.983459  1837A      2.985036  
    1838A      2.988158  1839A      2.989940  1840A      2.994144  
    1841A      3.000414  1842A      3.001528  1843A      3.005365  
    1844A      3.011319  1845A      3.016678  1846A      3.020543  
    1847A      3.023558  1848A      3.028609  1849A      3.030176  
    1850A      3.036759  1851A      3.038929  1852A      3.043286  
    1853A      3.049427  1854A      3.053824  1855A      3.057066  
    1856A      3.063372  1857A      3.064151  1858A      3.068299  
    1859A      3.075130  1860A      3.076467  1861A      3.080358  
    1862A      3.080865  1863A      3.085978  1864A      3.090163  
    1865A      3.091062  1866A      3.096866  1867A      3.098763  
    1868A      3.101191  1869A      3.107735  1870A      3.110749  
    1871A      3.112636  1872A      3.116771  1873A      3.123047  
    1874A      3.127642  1875A      3.129098  1876A      3.132239  
    1877A      3.135781  1878A      3.138412  1879A      3.142119  
    1880A      3.144702  1881A      3.148552  1882A      3.154453  
    1883A      3.159734  1884A      3.162977  1885A      3.164547  
    1886A      3.170512  1887A      3.171365  1888A      3.175976  
    1889A      3.178963  1890A      3.185206  1891A      3.187730  
    1892A      3.191402  1893A      3.194741  1894A      3.200052  
    1895A      3.202918  1896A      3.203345  1897A      3.207996  
    1898A      3.208223  1899A      3.214947  1900A      3.215762  
    1901A      3.218256  1902A      3.223220  1903A      3.223726  
    1904A      3.229045  1905A      3.229538  1906A      3.233970  
    1907A      3.237781  1908A      3.241557  1909A      3.242867  
    1910A      3.250334  1911A      3.251997  1912A      3.253805  
    1913A      3.256629  1914A      3.261698  1915A      3.262905  
    1916A      3.267445  1917A      3.272670  1918A      3.275098  
    1919A      3.280165  1920A      3.283190  1921A      3.286186  
    1922A      3.288338  1923A      3.290690  1924A      3.294300  
    1925A      3.296235  1926A      3.298497  1927A      3.303254  
    1928A      3.304601  1929A      3.305615  1930A      3.308497  
    1931A      3.313261  1932A      3.315700  1933A      3.319995  
    1934A      3.321463  1935A      3.323768  1936A      3.324949  
    1937A      3.328228  1938A      3.333763  1939A      3.334956  
    1940A      3.337059  1941A      3.339783  1942A      3.341992  
    1943A      3.344117  1944A      3.348333  1945A      3.350878  
    1946A      3.355493  1947A      3.356953  1948A      3.361163  
    1949A      3.367017  1950A      3.367692  1951A      3.369991  
    1952A      3.372229  1953A      3.374974  1954A      3.375554  
    1955A      3.376517  1956A      3.381252  1957A      3.383841  
    1958A      3.387919  1959A      3.391782  1960A      3.393195  
    1961A      3.395894  1962A      3.401181  1963A      3.406181  
    1964A      3.407289  1965A      3.411373  1966A      3.416838  
    1967A      3.417736  1968A      3.419964  1969A      3.422584  
    1970A      3.422987  1971A      3.429077  1972A      3.431097  
    1973A      3.435682  1974A      3.438086  1975A      3.439966  
    1976A      3.440911  1977A      3.446134  1978A      3.447122  
    1979A      3.451430  1980A      3.452218  1981A      3.457585  
    1982A      3.458897  1983A      3.464682  1984A      3.468421  
    1985A      3.469723  1986A      3.470134  1987A      3.471812  
    1988A      3.479277  1989A      3.479990  1990A      3.482553  
    1991A      3.485082  1992A      3.488139  1993A      3.493829  
    1994A      3.498988  1995A      3.499639  1996A      3.501086  
    1997A      3.503390  1998A      3.508114  1999A      3.509907  
    2000A      3.513515  2001A      3.517159  2002A      3.519106  
    2003A      3.521466  2004A      3.525014  2005A      3.526282  
    2006A      3.531324  2007A      3.534059  2008A      3.538900  
    2009A      3.539651  2010A      3.541478  2011A      3.543705  
    2012A      3.546024  2013A      3.550090  2014A      3.551789  
    2015A      3.555101  2016A      3.555257  2017A      3.560804  
    2018A      3.564051  2019A      3.567302  2020A      3.569473  
    2021A      3.572332  2022A      3.574398  2023A      3.578389  
    2024A      3.583881  2025A      3.586407  2026A      3.589819  
    2027A      3.590896  2028A      3.596519  2029A      3.599848  
    2030A      3.603002  2031A      3.604979  2032A      3.609059  
    2033A      3.612666  2034A      3.615835  2035A      3.617733  
    2036A      3.620193  2037A      3.627053  2038A      3.629030  
    2039A      3.630296  2040A      3.634802  2041A      3.637043  
    2042A      3.641292  2043A      3.645122  2044A      3.646635  
    2045A      3.648085  2046A      3.652835  2047A      3.655389  
    2048A      3.660175  2049A      3.661126  2050A      3.664756  
    2051A      3.666974  2052A      3.671348  2053A      3.672245  
    2054A      3.675006  2055A      3.678348  2056A      3.682952  
    2057A      3.686251  2058A      3.688771  2059A      3.691567  
    2060A      3.691821  2061A      3.695863  2062A      3.698905  
    2063A      3.701792  2064A      3.704565  2065A      3.709380  
    2066A      3.710947  2067A      3.716989  2068A      3.719298  
    2069A      3.721452  2070A      3.723555  2071A      3.729095  
    2072A      3.730481  2073A      3.735579  2074A      3.737050  
    2075A      3.739742  2076A      3.743729  2077A      3.748274  
    2078A      3.751226  2079A      3.752701  2080A      3.759056  
    2081A      3.759514  2082A      3.763692  2083A      3.765831  
    2084A      3.768997  2085A      3.771315  2086A      3.772939  
    2087A      3.779302  2088A      3.781845  2089A      3.784507  
    2090A      3.785123  2091A      3.791461  2092A      3.794099  
    2093A      3.795956  2094A      3.798833  2095A      3.801332  
    2096A      3.802097  2097A      3.807339  2098A      3.809641  
    2099A      3.817159  2100A      3.818345  2101A      3.824168  
    2102A      3.825366  2103A      3.829263  2104A      3.830559  
    2105A      3.834906  2106A      3.837285  2107A      3.841886  
    2108A      3.845232  2109A      3.849646  2110A      3.851839  
    2111A      3.853214  2112A      3.855877  2113A      3.860032  
    2114A      3.860939  2115A      3.866398  2116A      3.867214  
    2117A      3.874345  2118A      3.879347  2119A      3.884062  
    2120A      3.887114  2121A      3.888914  2122A      3.891189  
    2123A      3.895029  2124A      3.899512  2125A      3.902892  
    2126A      3.907655  2127A      3.908070  2128A      3.911930  
    2129A      3.916265  2130A      3.923830  2131A      3.926387  
    2132A      3.927736  2133A      3.929955  2134A      3.933309  
    2135A      3.939001  2136A      3.944453  2137A      3.946229  
    2138A      3.950007  2139A      3.952235  2140A      3.954798  
    2141A      3.957994  2142A      3.958870  2143A      3.960896  
    2144A      3.968223  2145A      3.971844  2146A      3.972641  
    2147A      3.974716  2148A      3.976176  2149A      3.980330  
    2150A      3.985706  2151A      3.988120  2152A      3.994826  
    2153A      3.996457  2154A      3.996814  2155A      4.006874  
    2156A      4.008655  2157A      4.012548  2158A      4.015221  
    2159A      4.016612  2160A      4.022303  2161A      4.026962  
    2162A      4.030309  2163A      4.032223  2164A      4.035042  
    2165A      4.036748  2166A      4.039374  2167A      4.043047  
    2168A      4.048100  2169A      4.049179  2170A      4.051191  
    2171A      4.054390  2172A      4.057959  2173A      4.062249  
    2174A      4.065431  2175A      4.069903  2176A      4.070997  
    2177A      4.072983  2178A      4.074068  2179A      4.075554  
    2180A      4.080624  2181A      4.084555  2182A      4.087617  
    2183A      4.090772  2184A      4.091959  2185A      4.094313  
    2186A      4.096821  2187A      4.098940  2188A      4.107656  
    2189A      4.110486  2190A      4.112824  2191A      4.119828  
    2192A      4.120305  2193A      4.122514  2194A      4.124804  
    2195A      4.127881  2196A      4.131836  2197A      4.135184  
    2198A      4.137562  2199A      4.138613  2200A      4.143592  
    2201A      4.146904  2202A      4.151242  2203A      4.151835  
    2204A      4.153858  2205A      4.155512  2206A      4.159046  
    2207A      4.162648  2208A      4.166727  2209A      4.170101  
    2210A      4.172131  2211A      4.175973  2212A      4.177510  
    2213A      4.181508  2214A      4.182470  2215A      4.184983  
    2216A      4.188059  2217A      4.192064  2218A      4.193412  
    2219A      4.196826  2220A      4.197803  2221A      4.200273  
    2222A      4.202555  2223A      4.204402  2224A      4.206327  
    2225A      4.209974  2226A      4.214762  2227A      4.217296  
    2228A      4.218728  2229A      4.220181  2230A      4.225695  
    2231A      4.226710  2232A      4.229137  2233A      4.233244  
    2234A      4.235541  2235A      4.238328  2236A      4.241545  
    2237A      4.245270  2238A      4.245874  2239A      4.247140  
    2240A      4.249951  2241A      4.253842  2242A      4.257058  
    2243A      4.258201  2244A      4.260633  2245A      4.265369  
    2246A      4.266837  2247A      4.269659  2248A      4.270225  
    2249A      4.273911  2250A      4.278149  2251A      4.279021  
    2252A      4.281315  2253A      4.284218  2254A      4.286242  
    2255A      4.287653  2256A      4.290310  2257A      4.292152  
    2258A      4.295437  2259A      4.296807  2260A      4.301659  
    2261A      4.302483  2262A      4.304283  2263A      4.305621  
    2264A      4.307599  2265A      4.312409  2266A      4.313706  
    2267A      4.317503  2268A      4.319523  2269A      4.320967  
    2270A      4.323836  2271A      4.325344  2272A      4.328143  
    2273A      4.330870  2274A      4.332850  2275A      4.334497  
    2276A      4.337220  2277A      4.339580  2278A      4.342115  
    2279A      4.345016  2280A      4.346235  2281A      4.348407  
    2282A      4.349824  2283A      4.352272  2284A      4.355588  
    2285A      4.358756  2286A      4.359550  2287A      4.361016  
    2288A      4.365703  2289A      4.367307  2290A      4.369392  
    2291A      4.372128  2292A      4.374062  2293A      4.376504  
    2294A      4.378430  2295A      4.381724  2296A      4.385290  
    2297A      4.386287  2298A      4.388107  2299A      4.390466  
    2300A      4.394492  2301A      4.395689  2302A      4.398520  
    2303A      4.399710  2304A      4.403642  2305A      4.406189  
    2306A      4.407464  2307A      4.412389  2308A      4.413604  
    2309A      4.416073  2310A      4.419805  2311A      4.420382  
    2312A      4.421518  2313A      4.423195  2314A      4.427301  
    2315A      4.430382  2316A      4.431730  2317A      4.432166  
    2318A      4.434903  2319A      4.438274  2320A      4.440333  
    2321A      4.446168  2322A      4.448303  2323A      4.449709  
    2324A      4.452242  2325A      4.453869  2326A      4.456727  
    2327A      4.457848  2328A      4.459992  2329A      4.461645  
    2330A      4.463516  2331A      4.467802  2332A      4.468566  
    2333A      4.469538  2334A      4.473112  2335A      4.474572  
    2336A      4.477642  2337A      4.481502  2338A      4.482813  
    2339A      4.484829  2340A      4.486009  2341A      4.486986  
    2342A      4.490527  2343A      4.493884  2344A      4.499456  
    2345A      4.500468  2346A      4.501733  2347A      4.506892  
    2348A      4.508214  2349A      4.509416  2350A      4.511171  
    2351A      4.512507  2352A      4.516769  2353A      4.520100  
    2354A      4.522591  2355A      4.527543  2356A      4.528458  
    2357A      4.529634  2358A      4.534312  2359A      4.535334  
    2360A      4.537726  2361A      4.541408  2362A      4.544003  
    2363A      4.545914  2364A      4.549817  2365A      4.552435  
    2366A      4.555632  2367A      4.557405  2368A      4.560507  
    2369A      4.562746  2370A      4.564534  2371A      4.567062  
    2372A      4.572905  2373A      4.575564  2374A      4.579329  
    2375A      4.582285  2376A      4.583152  2377A      4.586493  
    2378A      4.587195  2379A      4.589560  2380A      4.590826  
    2381A      4.595167  2382A      4.599851  2383A      4.602998  
    2384A      4.606434  2385A      4.608502  2386A      4.610859  
    2387A      4.613390  2388A      4.616893  2389A      4.618581  
    2390A      4.620915  2391A      4.624379  2392A      4.626798  
    2393A      4.628021  2394A      4.632528  2395A      4.633205  
    2396A      4.637816  2397A      4.638064  2398A      4.643253  
    2399A      4.643415  2400A      4.646078  2401A      4.649652  
    2402A      4.652503  2403A      4.656037  2404A      4.659234  
    2405A      4.661667  2406A      4.663029  2407A      4.667654  
    2408A      4.669048  2409A      4.674326  2410A      4.677253  
    2411A      4.678263  2412A      4.682259  2413A      4.683867  
    2414A      4.685550  2415A      4.687097  2416A      4.689984  
    2417A      4.693367  2418A      4.694578  2419A      4.699139  
    2420A      4.702704  2421A      4.706312  2422A      4.707476  
    2423A      4.710401  2424A      4.712379  2425A      4.717329  
    2426A      4.718874  2427A      4.720941  2428A      4.724440  
    2429A      4.725885  2430A      4.729417  2431A      4.730657  
    2432A      4.734355  2433A      4.736636  2434A      4.737180  
    2435A      4.740023  2436A      4.748737  2437A      4.749607  
    2438A      4.753537  2439A      4.754831  2440A      4.758645  
    2441A      4.760835  2442A      4.763292  2443A      4.765060  
    2444A      4.767958  2445A      4.772752  2446A      4.774008  
    2447A      4.775413  2448A      4.776592  2449A      4.779698  
    2450A      4.783726  2451A      4.786791  2452A      4.788405  
    2453A      4.789502  2454A      4.795861  2455A      4.798433  
    2456A      4.799414  2457A      4.802763  2458A      4.804457  
    2459A      4.809344  2460A      4.810473  2461A      4.815494  
    2462A      4.816564  2463A      4.821277  2464A      4.824496  
    2465A      4.827400  2466A      4.828835  2467A      4.831059  
    2468A      4.833089  2469A      4.836381  2470A      4.838242  
    2471A      4.839922  2472A      4.843180  2473A      4.844246  
    2474A      4.846742  2475A      4.853950  2476A      4.855696  
    2477A      4.857387  2478A      4.860203  2479A      4.865243  
    2480A      4.867468  2481A      4.872845  2482A      4.874611  
    2483A      4.875803  2484A      4.879772  2485A      4.882667  
    2486A      4.887014  2487A      4.887794  2488A      4.891853  
    2489A      4.897660  2490A      4.899463  2491A      4.901441  
    2492A      4.902903  2493A      4.904330  2494A      4.906561  
    2495A      4.908586  2496A      4.910786  2497A      4.914698  
    2498A      4.918501  2499A      4.921016  2500A      4.926358  
    2501A      4.930202  2502A      4.931760  2503A      4.936382  
    2504A      4.936978  2505A      4.942711  2506A      4.945550  
    2507A      4.945902  2508A      4.949390  2509A      4.952067  
    2510A      4.954464  2511A      4.957933  2512A      4.959870  
    2513A      4.963260  2514A      4.969780  2515A      4.971693  
    2516A      4.974749  2517A      4.979272  2518A      4.980449  
    2519A      4.985337  2520A      4.985848  2521A      4.989822  
    2522A      4.994103  2523A      4.997653  2524A      4.999811  
    2525A      5.002691  2526A      5.004256  2527A      5.008352  
    2528A      5.010366  2529A      5.012677  2530A      5.015663  
    2531A      5.017493  2532A      5.020141  2533A      5.023151  
    2534A      5.028674  2535A      5.030712  2536A      5.034804  
    2537A      5.035378  2538A      5.040198  2539A      5.042643  
    2540A      5.045362  2541A      5.046314  2542A      5.047034  
    2543A      5.050983  2544A      5.055763  2545A      5.056687  
    2546A      5.061223  2547A      5.061973  2548A      5.066545  
    2549A      5.070558  2550A      5.076057  2551A      5.077160  
    2552A      5.078415  2553A      5.085521  2554A      5.087378  
    2555A      5.088921  2556A      5.092654  2557A      5.097371  
    2558A      5.100645  2559A      5.101498  2560A      5.106465  
    2561A      5.108887  2562A      5.112261  2563A      5.114641  
    2564A      5.117385  2565A      5.119892  2566A      5.125713  
    2567A      5.126897  2568A      5.128435  2569A      5.130911  
    2570A      5.135972  2571A      5.140315  2572A      5.141747  
    2573A      5.146670  2574A      5.148408  2575A      5.151648  
    2576A      5.153288  2577A      5.157371  2578A      5.160434  
    2579A      5.168142  2580A      5.170775  2581A      5.175166  
    2582A      5.177541  2583A      5.179832  2584A      5.181403  
    2585A      5.185342  2586A      5.187953  2587A      5.192079  
    2588A      5.193876  2589A      5.199192  2590A      5.202864  
    2591A      5.206027  2592A      5.210138  2593A      5.214320  
    2594A      5.217638  2595A      5.218917  2596A      5.221265  
    2597A      5.229103  2598A      5.234313  2599A      5.235330  
    2600A      5.237838  2601A      5.238819  2602A      5.240041  
    2603A      5.243874  2604A      5.246666  2605A      5.250757  
    2606A      5.253355  2607A      5.256544  2608A      5.260163  
    2609A      5.262292  2610A      5.265555  2611A      5.267369  
    2612A      5.272115  2613A      5.275980  2614A      5.278831  
    2615A      5.280582  2616A      5.284533  2617A      5.287724  
    2618A      5.289275  2619A      5.294263  2620A      5.296631  
    2621A      5.302759  2622A      5.303050  2623A      5.307271  
    2624A      5.310646  2625A      5.317691  2626A      5.322624  
    2627A      5.323502  2628A      5.324671  2629A      5.330529  
    2630A      5.333049  2631A      5.335929  2632A      5.340676  
    2633A      5.341826  2634A      5.346602  2635A      5.350608  
    2636A      5.352947  2637A      5.358106  2638A      5.359959  
    2639A      5.362422  2640A      5.368099  2641A      5.376913  
    2642A      5.378580  2643A      5.382508  2644A      5.385323  
    2645A      5.387412  2646A      5.388694  2647A      5.395247  
    2648A      5.396866  2649A      5.407790  2650A      5.408772  
    2651A      5.413491  2652A      5.416984  2653A      5.421151  
    2654A      5.424862  2655A      5.426629  2656A      5.430559  
    2657A      5.432132  2658A      5.442417  2659A      5.447029  
    2660A      5.450349  2661A      5.452886  2662A      5.457007  
    2663A      5.462382  2664A      5.464335  2665A      5.467011  
    2666A      5.469467  2667A      5.470822  2668A      5.475762  
    2669A      5.482524  2670A      5.489000  2671A      5.490250  
    2672A      5.494033  2673A      5.498824  2674A      5.502817  
    2675A      5.504760  2676A      5.509080  2677A      5.512565  
    2678A      5.517849  2679A      5.519785  2680A      5.524134  
    2681A      5.528319  2682A      5.533853  2683A      5.539069  
    2684A      5.539510  2685A      5.541707  2686A      5.548839  
    2687A      5.551422  2688A      5.556688  2689A      5.560510  
    2690A      5.562128  2691A      5.567447  2692A      5.571276  
    2693A      5.575402  2694A      5.576250  2695A      5.579421  
    2696A      5.583404  2697A      5.587216  2698A      5.588361  
    2699A      5.592159  2700A      5.595844  2701A      5.596831  
    2702A      5.602365  2703A      5.608657  2704A      5.611718  
    2705A      5.615966  2706A      5.620150  2707A      5.622412  
    2708A      5.631785  2709A      5.634976  2710A      5.635566  
    2711A      5.639746  2712A      5.647053  2713A      5.649099  
    2714A      5.650917  2715A      5.653548  2716A      5.659180  
    2717A      5.668700  2718A      5.669438  2719A      5.673939  
    2720A      5.676972  2721A      5.678628  2722A      5.683093  
    2723A      5.686798  2724A      5.694599  2725A      5.696151  
    2726A      5.700567  2727A      5.703356  2728A      5.705604  
    2729A      5.712107  2730A      5.713850  2731A      5.716949  
    2732A      5.720861  2733A      5.724526  2734A      5.728056  
    2735A      5.729110  2736A      5.736866  2737A      5.742574  
    2738A      5.746349  2739A      5.748915  2740A      5.750226  
    2741A      5.757353  2742A      5.765954  2743A      5.766827  
    2744A      5.768413  2745A      5.774268  2746A      5.778088  
    2747A      5.785807  2748A      5.786882  2749A      5.794172  
    2750A      5.797473  2751A      5.798902  2752A      5.805571  
    2753A      5.806992  2754A      5.812418  2755A      5.815046  
    2756A      5.820166  2757A      5.823011  2758A      5.835986  
    2759A      5.841604  2760A      5.845455  2761A      5.845854  
    2762A      5.854446  2763A      5.854711  2764A      5.860222  
    2765A      5.866484  2766A      5.874236  2767A      5.877601  
    2768A      5.881458  2769A      5.886440  2770A      5.889559  
    2771A      5.892749  2772A      5.898079  2773A      5.905135  
    2774A      5.908462  2775A      5.910659  2776A      5.916981  
    2777A      5.919421  2778A      5.927664  2779A      5.930539  
    2780A      5.931707  2781A      5.938837  2782A      5.944533  
    2783A      5.949037  2784A      5.952276  2785A      5.961593  
    2786A      5.964816  2787A      5.969669  2788A      5.971327  
    2789A      5.979432  2790A      5.983744  2791A      5.989429  
    2792A      5.995922  2793A      6.002476  2794A      6.004125  
    2795A      6.008998  2796A      6.011751  2797A      6.016455  
    2798A      6.021310  2799A      6.027132  2800A      6.029872  
    2801A      6.037703  2802A      6.040997  2803A      6.048919  
    2804A      6.052831  2805A      6.057616  2806A      6.060305  
    2807A      6.070013  2808A      6.071571  2809A      6.077192  
    2810A      6.082026  2811A      6.086718  2812A      6.091867  
    2813A      6.094532  2814A      6.099491  2815A      6.107004  
    2816A      6.111227  2817A      6.113956  2818A      6.119725  
    2819A      6.123270  2820A      6.136313  2821A      6.139557  
    2822A      6.144002  2823A      6.147387  2824A      6.153034  
    2825A      6.163633  2826A      6.164744  2827A      6.175220  
    2828A      6.184843  2829A      6.186884  2830A      6.189740  
    2831A      6.197156  2832A      6.208226  2833A      6.213272  
    2834A      6.216972  2835A      6.225042  2836A      6.228161  
    2837A      6.232132  2838A      6.238043  2839A      6.242077  
    2840A      6.247565  2841A      6.252315  2842A      6.252643  
    2843A      6.261549  2844A      6.269692  2845A      6.272902  
    2846A      6.278463  2847A      6.282972  2848A      6.295172  
    2849A      6.314938  2850A      6.323177  2851A      6.323958  
    2852A      6.331365  2853A      6.341681  2854A      6.345773  
    2855A      6.362309  2856A      6.367118  2857A      6.369950  
    2858A      6.384152  2859A      6.388224  2860A      6.389624  
    2861A      6.398511  2862A      6.403319  2863A      6.414251  
    2864A      6.420867  2865A      6.430659  2866A      6.434349  
    2867A      6.439615  2868A      6.450566  2869A      6.460898  
    2870A      6.461159  2871A      6.480263  2872A      6.488838  
    2873A      6.502984  2874A      6.508097  2875A      6.522417  
    2876A      6.531963  2877A      6.545898  2878A      6.553194  
    2879A      6.563862  2880A      6.566763  2881A      6.576160  
    2882A      6.586400  2883A      6.595531  2884A      6.610479  
    2885A      6.612087  2886A      6.624291  2887A      6.630812  
    2888A      6.648759  2889A      6.663125  2890A      6.679598  
    2891A      6.696843  2892A      6.706504  2893A      6.712041  
    2894A      6.729517  2895A      6.750505  2896A      6.766068  
    2897A      6.774851  2898A      6.775543  2899A      6.797078  
    2900A      6.816044  2901A      6.826665  2902A      6.832547  
    2903A      6.839669  2904A      6.844805  2905A      6.869218  
    2906A      6.883494  2907A      6.914254  2908A      6.919754  
    2909A      6.925978  2910A      6.950672  2911A      6.980355  
    2912A      6.994185  2913A      7.004271  2914A      7.026281  
    2915A      7.041431  2916A      7.050213  2917A      7.076700  
    2918A      7.087061  2919A      7.104698  2920A      7.127828  
    2921A      7.139176  2922A      7.153111  2923A      7.170548  
    2924A      7.177093  2925A      7.207486  2926A      7.210168  
    2927A      7.227102  2928A      7.248687  2929A      7.257335  
    2930A      7.284369  2931A      7.303759  2932A      7.326949  
    2933A      7.338119  2934A      7.350166  2935A      7.375104  
    2936A      7.376427  2937A      7.393686  2938A      7.411867  
    2939A      7.429743  2940A      7.442907  2941A      7.450047  
    2942A      7.468167  2943A      7.479192  2944A      7.485930  
    2945A      7.512091  2946A      7.526069  2947A      7.535178  
    2948A      7.565375  2949A      7.579853  2950A      7.599759  
    2951A      7.613368  2952A      7.635494  2953A      7.653535  
    2954A      7.667492  2955A      7.675443  2956A      7.698985  
    2957A      7.709829  2958A      7.712730  2959A      7.742314  
    2960A      7.750526  2961A      7.758911  2962A      7.765969  
    2963A      7.777292  2964A      7.787146  2965A      7.796116  
    2966A      7.816515  2967A      7.825832  2968A      7.839325  
    2969A      7.859123  2970A      7.866559  2971A      7.884122  
    2972A      7.906357  2973A      7.919673  2974A      7.952300  
    2975A      7.966053  2976A      7.982172  2977A      8.052864  
    2978A      8.072322  2979A      8.119552  2980A      8.142665  
    2981A      8.153670  2982A      8.187423  2983A      8.198074  
    2984A      8.215267  2985A      8.249547  2986A      8.278245  
    2987A      8.293397  2988A      8.302116  2989A      8.355308  
    2990A      8.369023  2991A      8.387811  2992A      8.406208  
    2993A      8.432765  2994A      8.467943  2995A      8.564759  
    2996A      8.581843  2997A      8.602638  2998A      8.621337  
    2999A      8.665353  3000A      8.697692  3001A      8.763923  
    3002A      8.828359  3003A      8.859741  3004A      8.977189  
    3005A      8.982260  3006A      9.033461  3007A      9.167099  
    3008A      9.269174  3009A      9.342792  3010A      9.405617  
    3011A      9.546347  3012A      9.581252  3013A      9.633497  
    3014A      9.709242  3015A      9.712292  3016A      9.782677  
    3017A      9.897554  3018A      9.929110  3019A      9.962752  
    3020A     10.004031  3021A     10.013984  3022A     10.075348  
    3023A     10.100864  3024A     10.192198  3025A     10.276181  
    3026A     10.334644  3027A     10.409617  3028A     10.485173  
    3029A     10.525766  3030A     10.664506  3031A     10.716222  
    3032A     10.789222  3033A     10.932661  3034A     11.021268  
    3035A     11.130557  3036A     11.202101  3037A     11.260692  
    3038A     11.351691  3039A     11.363852  3040A     11.417114  
    3041A     11.634915  3042A     11.803851  3043A     11.861921  
    3044A     11.941814  3045A     12.105785  3046A     12.185973  
    3047A     12.249799  3048A     12.289707  3049A     12.504399  
    3050A     12.586469  3051A     12.642469  3052A     14.945426  
    3053A     15.332456  3054A     15.687167  3055A     16.174008  
    3056A     16.494839  3057A     16.728818  3058A     16.858847  
    3059A     17.292239  3060A     17.747758  3061A     18.078474  
    3062A     18.501853  3063A     18.876759  3064A     19.260544  
    3065A     19.762066  3066A     20.279665  3067A     20.827664  
    3068A     21.069851  3069A     21.297699  3070A     21.375787  
    3071A     21.664869  3072A     21.786020  3073A     22.345494  
    3074A     22.637617  3075A     22.767913  3076A     49.671076  
    3077A     50.625438  3078A     51.410316  3079A     52.183592  
    3080A     52.805493  3081A     53.318845  3082A     53.665376  
    3083A     54.233475  3084A     55.076378  3085A     55.695576  
    3086A     56.619869  3087A     57.417601  3088A     57.957764  
    3089A     58.735236  3090A     59.726816  3091A     60.525844  
    3092A     60.987249  3093A     61.591044  3094A     61.806867  
    3095A     62.391545  3096A     62.612940  3097A     63.568522  
    3098A     63.905557  3099A     64.207160  

    Final Occupation by Irrep:
              A 
    DOCC [    82 ]
    NA   [    82 ]
    NB   [    82 ]

  @DF-RKS Final Energy:  -925.79619316675337

   => Energetics <=

    Nuclear Repulsion Energy =           1864.8412087392382546
    One-Electron Energy =               -4956.9263460811180266
    Two-Electron Energy =                2302.6295790565409334
    DFT Exchange-Correlation Energy =    -136.3155165957523138
    Empirical Dispersion Energy =          -0.0251182856619280
    VV10 Nonlocal Energy =                  0.0000000000000000
    Total Energy =                       -925.7961931667533690

Computation Completed


Properties will be evaluated at   0.000000,   0.000000,   0.000000 [a0]

Properties computed using the SCF density matrix


 Multipole Moments:

 ------------------------------------------------------------------------------------
     Multipole            Electronic (a.u.)      Nuclear  (a.u.)        Total (a.u.)
 ------------------------------------------------------------------------------------

 L = 1.  Multiply by 2.5417464519 to convert [e a0] to [Debye]
 Dipole X            :      -5244.8686243         5244.7985666           -0.0700576
 Dipole Y            :      -3214.2116764         3213.8331896           -0.3784869
 Dipole Z            :      -6901.1599616         6901.1289601           -0.0310015
 Magnitude           :                                                    0.3861625

 ------------------------------------------------------------------------------------

*** tstop() called on atl1-1-02-004-2-2.pace.gatech.edu at Sat Jun 13 12:49:40 2026
Module time:
	user time   =   19171.56 seconds =     319.53 minutes
	system time =    1971.38 seconds =      32.86 minutes
	total time  =       3856 seconds =      64.27 minutes
Total time:
	user time   =   19171.56 seconds =     319.53 minutes
	system time =    1971.38 seconds =      32.86 minutes
	total time  =       3856 seconds =      64.27 minutes

    Psi4 stopped on: Saturday, 13 June 2026 12:49PM
    Psi4 wall time for execution: 1:04:26.55

*** Psi4 exiting successfully. Buy a developer a beer!
