
    -----------------------------------------------------------------------
          Psi4: An Open-Source Ab Initio Electronic Structure Package
                               Psi4 1.9.1 release

                         Git: Rev {} zzzzzzz 


    D. G. A. Smith, L. A. Burns, A. C. Simmonett, R. M. Parrish,
    M. C. Schieber, R. Galvelis, P. Kraus, H. Kruse, R. Di Remigio,
    A. Alenaizan, A. M. James, S. Lehtola, J. P. Misiewicz, M. Scheurer,
    R. A. Shaw, J. B. Schriber, Y. Xie, Z. L. Glick, D. A. Sirianni,
    J. S. O'Brien, J. M. Waldrop, A. Kumar, E. G. Hohenstein,
    B. P. Pritchard, B. R. Brooks, H. F. Schaefer III, A. Yu. Sokolov,
    K. Patkowski, A. E. DePrince III, U. Bozkaya, R. A. King,
    F. A. Evangelista, J. M. Turney, T. D. Crawford, C. D. Sherrill,
    J. Chem. Phys. 152(18) 184108 (2020). https://doi.org/10.1063/5.0006002

                            Additional Code Authors
    E. T. Seidl, C. L. Janssen, E. F. Valeev, M. L. Leininger,
    J. F. Gonthier, R. M. Richard, H. R. McAlexander, M. Saitow, X. Wang,
    P. Verma, M. H. Lechner, A. Jiang, S. Behnle, A. G. Heide,
    M. F. Herbst, and D. L. Poole

             Previous Authors, Complete List of Code Contributors,
                       and Citations for Specific Modules
    https://github.com/psi4/psi4/blob/master/codemeta.json
    https://github.com/psi4/psi4/graphs/contributors
    http://psicode.org/psi4manual/master/introduction.html#citing-psifour

    -----------------------------------------------------------------------


    Psi4 started on: Saturday, 13 June 2026 10:58AM

    Process ID: 3714692
    Host:       atl1-1-03-004-19-2.pace.gatech.edu
    PSIDATADIR: /storage/home/hcoda1/5/vlita3/.conda/envs/p4_qcml/share/psi4
    Memory:     250.0 GiB
    Threads:    10
    
  ==> Input QCSchema <==

--------------------------------------------------------------------------
{'driver': 'energy',
 'extras': {},
 'id': '210',
 'keywords': {},
 'model': {'basis': 'aug-cc-pvtz', 'method': 'pbe-d3'},
 'molecule': {'extras': {},
              'fix_com': True,
              'fix_orientation': True,
              'fragment_charges': [0.0, 0.0],
              'fragment_multiplicities': [1, 1],
              'fragments': [[0, 1, 2, 3, 4, 5, 6, 7, 8, 9, 10, 11, 12, 13, 14],
                            [15, 16, 17, 18, 19, 20, 21, 22, 23, 24, 25, 26, 27, 28, 29, 30, 31, 32, 33, 34, 35, 36, 37,
                             38, 39, 40, 41, 42, 43, 44, 45, 46, 47, 48, 49, 50, 51, 52, 53, 54, 55, 56, 57, 58, 59, 60,
                             61, 62, 63, 64, 65, 66, 67, 68, 69, 70, 71, 72, 73, 74, 75, 76, 77, 78, 79, 80, 81, 82, 83,
                             84, 85, 86]],
              'geometry': [-4.21408926, -0.28723837, 4.89628039, -1.79523982, -1.39650761, 4.99454615, 0.24755412,
                           0.2891281, 5.03989958, -2.26011245, 3.62260498, 4.98698725, 1.49477337, -3.70764266,
                           4.95864135, -4.39928242, 2.25255354, 4.90194957, 0.14172946, 2.81947138, 5.05312766,
                           -0.98265759, -3.88905637, 4.94352354, 2.3583782, -1.24532952, 5.0417893, -6.38349485,
                           -1.67240762, 4.84336806, -2.52278438, 5.65972975, 4.97375916, 2.79301521, -5.28367425,
                           4.88305231, 4.17440501, -0.66140414, 4.90761875, -7.96519562, -0.73321374, 4.3180242,
                           -6.25499348, -3.50544196, 4.31424474, 11.7540965, -2.40373163, -0.19464179, 12.01109925,
                           0.16251645, -0.12661165, 9.86437037, 1.80657818, -0.31180481, 7.41339559, 0.69163976,
                           -0.57447674, 7.14694421, -1.98232271, -0.66329387, 9.3239087, -3.57536183, -0.45353427,
                           4.71108723, -3.08214331, -0.90706854, 9.01399362, -6.20397087, -0.50077742, 6.6253798,
                           -7.32646819, -0.72754456, 4.43707694, -5.7504366, -0.94486306, 6.28333937, -10.01365874,
                           -0.73699319, 3.93440979, -11.06812592, -0.89950964, 1.70453297, -9.53744776, -1.06580553,
                           1.98988161, -6.8502572, -1.09415143, -0.17763426, -5.27989479, -1.26233705, 0.09637603,
                           -2.60026315, -1.26422678, 2.53601246, -1.50233227, -1.12627677, 5.24776945, 2.2638919,
                           -0.77667744, 2.80246384, 1.16407129, -1.01856238, 0.63305825, 2.7344337, -1.15651239,
                           -1.80279872, 1.63650282, -1.33414664, -2.07491929, -1.02990074, -1.34926445, -2.62293986,
                           -6.37593595, -1.31902884, -4.79990436, -4.80179408, -1.37005144, -4.52967352, -2.1335008,
                           -1.44375076, -0.72565483, -10.5824663, -1.15840211, -2.8931707, -9.0631265, -1.26044733,
                           -7.27166613, -5.89972496, -1.3889487, -9.39193884, -4.31424474, -1.4324124, -9.16517171,
                           -1.67618707, -1.46642747, -6.70285857, -0.56124866, -1.45130966, -3.98732212, 3.21064469,
                           -1.35115418, -6.430738, 2.11082408, -1.44186103, -5.39138864, -10.11003477, -1.29257267,
                           -7.48142573, -8.6001436, -1.34737473, -8.61904086, 3.69819403, -1.42863295, -11.06056701,
                           2.52845356, -1.46453775, -11.32323894, -0.03779452, -1.47776583, -8.3110155, 6.32680307,
                           -1.36627199, -5.9167325, 7.44930039, -1.28123431, -3.71709129, 5.87704825, -1.27745486,
                           -1.27367541, 6.97686886, -1.09415143, 0.90328909, 5.4102859, -1.048798, 3.34103579,
                           6.50632705, -0.82203086, 5.51044138, 4.93218519, -0.65195551, 7.9708648, 6.02822634,
                           -0.40629112, 10.08546833, 4.44274612, -0.23810549, 8.17306549, 8.72864497, -0.31936372,
                           3.59803854, 9.1935176, -0.69541921, 6.08680785, 10.23853615, -0.45920345, -0.99588567,
                           9.66405941, -0.98454731, 1.42863295, 10.70907795, -0.7955747, -5.58036125, 10.13649094,
                           -1.18107883, -3.23143167, 11.19284784, -1.04312882, 13.40760686, -3.61315635, -0.04535343,
                           13.87058976, 1.01100348, 0.06991987, 10.67317316, -7.40772641, -0.34204043, 7.94629836,
                           -11.20985538, -0.59526373, 3.71331184, -13.11280958, -0.88817128, -0.93919388, -12.62714997,
                           -1.12249732, -11.26843689, -5.1570626, -1.44186103, -5.59169961, -12.15471844, -1.2585576,
                           -9.3598135, -9.43351282, -1.36060281, -12.72163628, 3.739768, -1.47020693, -13.19406781,
                           -0.88817128, -1.49288364, -9.97964367, 7.52866888, -1.35871308, 11.95062802, 5.28556397,
                           -0.0434637, 10.04200463, 9.56012447, -0.13228083, 6.28144964, 12.28321982, -0.37983495,
                           1.6346131, 12.75376162, -0.7086473, -7.25276887, 11.32890812, -1.20753499, -3.0160029,
                           13.23564178, -0.9618706],
              'id': 1,
              'identifiers': {'molecular_formula': 'C59H23N5',
                              'molecule_hash': '12e9da1e1b8452b6fe71b82a8f2ee95d42c696b3'},
              'molecular_charge': 0.0,
              'molecular_multiplicity': 1,
              'name': 'C59H23N5',
              'provenance': {'creator': 'QCElemental',
                             'routine': 'qcelemental.molparse.from_string',
                             'version': '0.29.0'},
              'schema_name': 'qcschema_molecule',
              'schema_version': 2,
              'symbols': ['C', 'C', 'C', 'C', 'C', 'N', 'N', 'N', 'N', 'N', 'H', 'H', 'H', 'H', 'H', 'C', 'C', 'C', 'C',
                          'C', 'C', 'C', 'C', 'C', 'C', 'C', 'C', 'C', 'C', 'C', 'C', 'C', 'C', 'C', 'C', 'C', 'C', 'C',
                          'C', 'C', 'C', 'C', 'C', 'C', 'C', 'C', 'C', 'C', 'C', 'C', 'C', 'C', 'C', 'C', 'C', 'C', 'C',
                          'C', 'C', 'C', 'C', 'C', 'C', 'C', 'C', 'C', 'C', 'C', 'C', 'H', 'H', 'H', 'H', 'H', 'H', 'H',
                          'H', 'H', 'H', 'H', 'H', 'H', 'H', 'H', 'H', 'H', 'H'],
              'validated': True},
 'protocols': {},
 'provenance': {'creator': 'QCElemental', 'routine': 'qcelemental.models.results', 'version': '0.29.0'},
 'schema_name': 'qcschema_input',
 'schema_version': 1}
--------------------------------------------------------------------------

Scratch directory: /tmp/tmpds6keuj1_psi_scratch/
   => Libint2 <=

    Primary   basis highest AM E, G, H:  6, 6, 3
    Auxiliary basis highest AM E, G, H:  7, 7, 4
    Onebody   basis highest AM E, G, H:  -, -, -
    Solid Harmonics ordering:            Gaussian

*** tstart() called on atl1-1-03-004-19-2.pace.gatech.edu
*** at Sat Jun 13 10:58:25 2026

   => Loading Basis Set <=

    Name: AUG-CC-PVTZ
    Role: ORBITAL
    Keyword: BASIS
    atoms 1-5, 16-69   entry C          line   239 file /storage/home/hcoda1/5/vlita3/.conda/envs/p4_qcml/share/psi4/basis/aug-cc-pvtz.gbs 
    atoms 6-10         entry N          line   285 file /storage/home/hcoda1/5/vlita3/.conda/envs/p4_qcml/share/psi4/basis/aug-cc-pvtz.gbs 
    atoms 11-15, 70-87 entry H          line    40 file /storage/home/hcoda1/5/vlita3/.conda/envs/p4_qcml/share/psi4/basis/aug-cc-pvtz.gbs 

   => PBE-D3: Empirical Dispersion <=

    Grimme's -D3 (zero-damping) Dispersion Correction
    Grimme S.; Antony J.; Ehrlich S.; Krieg H. (2010), J. Chem. Phys., 132: 154104

        s6 =       1.000000
        s8 =       0.722000
       sr6 =       1.217000
    alpha6 =      14.000000
       sr8 =       1.000000


         ---------------------------------------------------------
                                   SCF
               by Justin Turney, Rob Parrish, Andy Simmonett
                          and Daniel G. A. Smith
                              RKS Reference
                       10 Threads, 256000 MiB Core
         ---------------------------------------------------------

  ==> Geometry <==

    Molecular point group: c1
    Full point group: C1

    Geometry (in Bohr), charge = 0, multiplicity = 1:

       Center              X                  Y                   Z               Mass       
    ------------   -----------------  -----------------  -----------------  -----------------
         C           -4.214089260000    -0.287238370000     4.896280390000    12.000000000000
         C           -1.795239820000    -1.396507610000     4.994546150000    12.000000000000
         C            0.247554120000     0.289128100000     5.039899580000    12.000000000000
         C           -2.260112450000     3.622604980000     4.986987250000    12.000000000000
         C            1.494773370000    -3.707642660000     4.958641350000    12.000000000000
         N           -4.399282420000     2.252553540000     4.901949570000    14.003074004430
         N            0.141729460000     2.819471380000     5.053127660000    14.003074004430
         N           -0.982657590000    -3.889056370000     4.943523540000    14.003074004430
         N            2.358378200000    -1.245329520000     5.041789300000    14.003074004430
         N           -6.383494850000    -1.672407620000     4.843368060000    14.003074004430
         H           -2.522784380000     5.659729750000     4.973759160000     1.007825032230
         H            2.793015210000    -5.283674250000     4.883052310000     1.007825032230
         H            4.174405010000    -0.661404140000     4.907618750000     1.007825032230
         H           -7.965195620000    -0.733213740000     4.318024200000     1.007825032230
         H           -6.254993480000    -3.505441960000     4.314244740000     1.007825032230
         C           11.754096500000    -2.403731630000    -0.194641790000    12.000000000000
         C           12.011099250000     0.162516450000    -0.126611650000    12.000000000000
         C            9.864370370000     1.806578180000    -0.311804810000    12.000000000000
         C            7.413395590000     0.691639760000    -0.574476740000    12.000000000000
         C            7.146944210000    -1.982322710000    -0.663293870000    12.000000000000
         C            9.323908700000    -3.575361830000    -0.453534270000    12.000000000000
         C            4.711087230000    -3.082143310000    -0.907068540000    12.000000000000
         C            9.013993620000    -6.203970870000    -0.500777420000    12.000000000000
         C            6.625379800000    -7.326468190000    -0.727544560000    12.000000000000
         C            4.437076940000    -5.750436600000    -0.944863060000    12.000000000000
         C            6.283339370000   -10.013658740000    -0.736993190000    12.000000000000
         C            3.934409790000   -11.068125920000    -0.899509640000    12.000000000000
         C            1.704532970000    -9.537447760000    -1.065805530000    12.000000000000
         C            1.989881610000    -6.850257200000    -1.094151430000    12.000000000000
         C           -0.177634260000    -5.279894790000    -1.262337050000    12.000000000000
         C            0.096376030000    -2.600263150000    -1.264226780000    12.000000000000
         C            2.536012460000    -1.502332270000    -1.126276770000    12.000000000000
         C            5.247769450000     2.263891900000    -0.776677440000    12.000000000000
         C            2.802463840000     1.164071290000    -1.018562380000    12.000000000000
         C            0.633058250000     2.734433700000    -1.156512390000    12.000000000000
         C           -1.802798720000     1.636502820000    -1.334146640000    12.000000000000
         C           -2.074919290000    -1.029900740000    -1.349264450000    12.000000000000
         C           -2.622939860000    -6.375935950000    -1.319028840000    12.000000000000
         C           -4.799904360000    -4.801794080000    -1.370051440000    12.000000000000
         C           -4.529673520000    -2.133500800000    -1.443750760000    12.000000000000
         C           -0.725654830000   -10.582466300000    -1.158402110000    12.000000000000
         C           -2.893170700000    -9.063126500000    -1.260447330000    12.000000000000
         C           -7.271666130000    -5.899724960000    -1.388948700000    12.000000000000
         C           -9.391938840000    -4.314244740000    -1.432412400000    12.000000000000
         C           -9.165171710000    -1.676187070000    -1.466427470000    12.000000000000
         C           -6.702858570000    -0.561248660000    -1.451309660000    12.000000000000
         C           -3.987322120000     3.210644690000    -1.351154180000    12.000000000000
         C           -6.430738000000     2.110824080000    -1.441861030000    12.000000000000
         C           -5.391388640000   -10.110034770000    -1.292572670000    12.000000000000
         C           -7.481425730000    -8.600143600000    -1.347374730000    12.000000000000
         C           -8.619040860000     3.698194030000    -1.428632950000    12.000000000000
         C          -11.060567010000     2.528453560000    -1.464537750000    12.000000000000
         C          -11.323238940000    -0.037794520000    -1.477765830000    12.000000000000
         C           -8.311015500000     6.326803070000    -1.366271990000    12.000000000000
         C           -5.916732500000     7.449300390000    -1.281234310000    12.000000000000
         C           -3.717091290000     5.877048250000    -1.277454860000    12.000000000000
         C           -1.273675410000     6.976868860000    -1.094151430000    12.000000000000
         C            0.903289090000     5.410285900000    -1.048798000000    12.000000000000
         C            3.341035790000     6.506327050000    -0.822030860000    12.000000000000
         C            5.510441380000     4.932185190000    -0.651955510000    12.000000000000
         C            7.970864800000     6.028226340000    -0.406291120000    12.000000000000
         C           10.085468330000     4.442746120000    -0.238105490000    12.000000000000
         C            8.173065490000     8.728644970000    -0.319363720000    12.000000000000
         C            3.598038540000     9.193517600000    -0.695419210000    12.000000000000
         C            6.086807850000    10.238536150000    -0.459203450000    12.000000000000
         C           -0.995885670000     9.664059410000    -0.984547310000    12.000000000000
         C            1.428632950000    10.709077950000    -0.795574700000    12.000000000000
         C           -5.580361250000    10.136490940000    -1.181078830000    12.000000000000
         C           -3.231431670000    11.192847840000    -1.043128820000    12.000000000000
         H           13.407606860000    -3.613156350000    -0.045353430000     1.007825032230
         H           13.870589760000     1.011003480000     0.069919870000     1.007825032230
         H           10.673173160000    -7.407726410000    -0.342040430000     1.007825032230
         H            7.946298360000   -11.209855380000    -0.595263730000     1.007825032230
         H            3.713311840000   -13.112809580000    -0.888171280000     1.007825032230
         H           -0.939193880000   -12.627149970000    -1.122497320000     1.007825032230
         H          -11.268436890000    -5.157062600000    -1.441861030000     1.007825032230
         H           -5.591699610000   -12.154718440000    -1.258557600000     1.007825032230
         H           -9.359813500000    -9.433512820000    -1.360602810000     1.007825032230
         H          -12.721636280000     3.739768000000    -1.470206930000     1.007825032230
         H          -13.194067810000    -0.888171280000    -1.492883640000     1.007825032230
         H           -9.979643670000     7.528668880000    -1.358713080000     1.007825032230
         H           11.950628020000     5.285563970000    -0.043463700000     1.007825032230
         H           10.042004630000     9.560124470000    -0.132280830000     1.007825032230
         H            6.281449640000    12.283219820000    -0.379834950000     1.007825032230
         H            1.634613100000    12.753761620000    -0.708647300000     1.007825032230
         H           -7.252768870000    11.328908120000    -1.207534990000     1.007825032230
         H           -3.016002900000    13.235641780000    -0.961870600000     1.007825032230

  Running in c1 symmetry.

  Rotational constants: A =      0.00187  B =      0.00184  C =      0.00106 [cm^-1]
  Rotational constants: A =     56.02922  B =     55.09335  C =     31.77172 [MHz]
  Nuclear repulsion = 9204.830048001262185

  Charge       = 0
  Multiplicity = 1
  Electrons    = 412
  Nalpha       = 206
  Nbeta        = 206

  ==> Algorithm <==

  SCF Algorithm Type is DF.
  DIIS enabled.
  MOM disabled.
  Fractional occupation disabled.
  Guess Type is SAD.
  Energy threshold   = 1.00e-06
  Density threshold  = 1.00e-06
  Integral threshold = 1.00e-12

  ==> Primary Basis <==

  Basis Set: AUG-CC-PVTZ
    Blend: AUG-CC-PVTZ
    Number of shells: 1103
    Number of basis functions: 3473
    Number of Cartesian functions: 4095
    Spherical Harmonics?: true
    Max angular momentum: 3

  ==> DFT Potential <==

   => LibXC <=

    Version 7.0.0
    S. Lehtola, C. Steigemann, M. J.T. Oliveira, and M. A.L. Marques.,  SoftwareX 7, 1–5 (2018) (10.1016/j.softx.2017.11.002)

   => Composite Functional: PBE-D3ZERO2B <= 

    PBE GGA Exchange-Correlation Functional

    J.P. Perdew et. al., Phys. Rev. Lett., 77(18), 3865-3868, 1996


    Deriv               =              1
    GGA                 =           TRUE
    Meta                =          FALSE

    Exchange Hybrid     =          FALSE
    MP2 Hybrid          =          FALSE

   => Exchange Functionals <=

    1.0000     XC_GGA_X_PBE

   => Correlation Functionals <=

    1.0000     XC_GGA_C_PBE

   => LibXC Density Thresholds  <==

    XC_GGA_C_PBE:  1.00E-12 
    XC_GGA_X_PBE:  1.00E-15 

   => Molecular Quadrature <=

    Radial Scheme          =       TREUTLER
    Pruning Scheme         =           NONE
    Nuclear Scheme         =       TREUTLER

    Blocking Scheme        =         OCTREE
    BS radius alpha        =              1
    Pruning alpha          =              1
    Radial Points          =             75
    Spherical Points       =            302
    Total Points           =        1715496
    Total Blocks           =          11517
    Max Points             =            256
    Max Functions          =           2168
    Weights Tolerance      =       1.00E-15

   => Loading Basis Set <=

    Name: (AUG-CC-PVTZ AUX)
    Role: JKFIT
    Keyword: DF_BASIS_SCF
    atoms 1-5, 16-69   entry C          line   162 file /storage/home/hcoda1/5/vlita3/.conda/envs/p4_qcml/share/psi4/basis/aug-cc-pvtz-jkfit.gbs 
    atoms 6-10         entry N          line   224 file /storage/home/hcoda1/5/vlita3/.conda/envs/p4_qcml/share/psi4/basis/aug-cc-pvtz-jkfit.gbs 
    atoms 11-15, 70-87 entry H          line    70 file /storage/home/hcoda1/5/vlita3/.conda/envs/p4_qcml/share/psi4/basis/aug-cc-pvtz-jkfit.gbs 

  ==> Integral Setup <==

  ==> DiskDFJK: Density-Fitted J/K Matrices <==

    J tasked:                  Yes
    K tasked:                   No
    wK tasked:                  No
    OpenMP threads:             10
    Integrals threads:          10
    Memory [MiB]:           172800
    Algorithm:                Disk
    Integral Cache:           NONE
    Schwarz Cutoff:          1E-12
    Fitting Condition:       1E-10

   => Auxiliary Basis Set <=

  Basis Set: (AUG-CC-PVTZ AUX)
    Blend: AUG-CC-PVTZ-JKFIT
    Number of shells: 2242
    Number of basis functions: 7714
    Number of Cartesian functions: 9649
    Spherical Harmonics?: true
    Max angular momentum: 4

  Minimum eigenvalue in the overlap matrix is 6.5964717033E-12.
  Reciprocal condition number of the overlap matrix is 1.9686718001E-13.
    Using canonical orthogonalization.
  Overall, 56 of 3473 possible MOs eliminated.


  ==> Pre-Iterations <==

  SCF Guess: Superposition of Atomic Densities via on-the-fly atomic UHF (no occupation information).

   -------------------------
    Irrep   Nso     Nmo    
   -------------------------
     A       3473    3417 
   -------------------------
    Total    3473    3417
   -------------------------

  ==> Iterations <==

                           Total Energy        Delta E     RMS |[F,P]|

   @DF-RKS iter SAD: -2536.45684478228259   -2.53646e+03   0.00000e+00 
   @DF-RKS iter   1: -2529.82684658455537    6.63000e+00   8.26448e-04 DIIS/ADIIS
   @DF-RKS iter   2: -2496.15692046880213    3.36699e+01   2.05385e-03 DIIS/ADIIS
   @DF-RKS iter   3: -2498.37715452433304   -2.22023e+00   1.87033e-03 DIIS/ADIIS
   @DF-RKS iter   4: -2532.76215335748157   -3.43850e+01   3.79880e-04 DIIS/ADIIS
   @DF-RKS iter   5: -2512.73430865741420    2.00278e+01   1.37206e-03 DIIS/ADIIS
   @DF-RKS iter   6: -2533.86261520011976   -2.11283e+01   1.85135e-04 DIIS/ADIIS
   @DF-RKS iter   7: -2533.80957568923895    5.30395e-02   2.03285e-04 DIIS/ADIIS
   @DF-RKS iter   8: -2534.06541202547487   -2.55836e-01   5.42914e-05 DIIS
   @DF-RKS iter   9: -2534.08035597762409   -1.49440e-02   2.93529e-05 DIIS
   @DF-RKS iter  10: -2534.08390476031263   -3.54878e-03   1.76061e-05 DIIS
   @DF-RKS iter  11: -2534.08595819549646   -2.05344e-03   5.37513e-06 DIIS
   @DF-RKS iter  12: -2534.08612637582519   -1.68180e-04   2.49918e-06 DIIS
   @DF-RKS iter  13: -2534.08616963426311   -4.32584e-05   7.11430e-07 DIIS
   @DF-RKS iter  14: -2534.08617239391060   -2.75965e-06   3.42251e-07 DIIS
   @DF-RKS iter  15: -2534.08617300337528   -6.09465e-07   1.76416e-07 DIIS
  Energy and wave function converged.


  ==> Post-Iterations <==

   Electrons on quadrature grid:
      Ntotal   =  412.0000556326 ; deviation = 5.563e-05 

    Orbital Energies [Eh]
    ---------------------

    Doubly Occupied:                                                      

       1A    -14.047131     2A    -14.003719     3A    -13.982312  
       4A    -13.977188     5A    -13.972176     6A     -9.962071  
       7A     -9.951727     8A     -9.949244     9A     -9.935392  
      10A     -9.912514    11A     -9.912191    12A     -9.911870  
      13A     -9.911776    14A     -9.911581    15A     -9.911330  
      16A     -9.911272    17A     -9.911049    18A     -9.910928  
      19A     -9.910924    20A     -9.910690    21A     -9.910496  
      22A     -9.910357    23A     -9.910300    24A     -9.910207  
      25A     -9.910086    26A     -9.909934    27A     -9.909855  
      28A     -9.909843    29A     -9.909690    30A     -9.909485  
      31A     -9.909417    32A     -9.909397    33A     -9.909304  
      34A     -9.909191    35A     -9.908954    36A     -9.908773  
      37A     -9.908506    38A     -9.908443    39A     -9.908340  
      40A     -9.908339    41A     -9.908223    42A     -9.908112  
      43A     -9.907899    44A     -9.907764    45A     -9.907619  
      46A     -9.907305    47A     -9.902039    48A     -9.901648  
      49A     -9.901556    50A     -9.901477    51A     -9.901085  
      52A     -9.901041    53A     -9.900752    54A     -9.900730  
      55A     -9.900321    56A     -9.900191    57A     -9.900151  
      58A     -9.899722    59A     -9.899553    60A     -9.898950  
      61A     -9.898910    62A     -9.898530    63A     -9.898350  
      64A     -9.898331    65A     -0.944993    66A     -0.889647  
      67A     -0.849901    68A     -0.848248    69A     -0.830773  
      70A     -0.829779    71A     -0.808243    72A     -0.807757  
      73A     -0.805262    74A     -0.801413    75A     -0.784090  
      76A     -0.778105    77A     -0.776012    78A     -0.767735  
      79A     -0.766920    80A     -0.751402    81A     -0.751344  
      82A     -0.728133    83A     -0.727726    84A     -0.725107  
      85A     -0.716540    86A     -0.716430    87A     -0.696103  
      88A     -0.688716    89A     -0.683221    90A     -0.681451  
      91A     -0.680905    92A     -0.679520    93A     -0.678024  
      94A     -0.655675    95A     -0.655466    96A     -0.639188  
      97A     -0.638991    98A     -0.599277    99A     -0.599162  
     100A     -0.598678   101A     -0.595449   102A     -0.588025  
     103A     -0.587663   104A     -0.586786   105A     -0.586723  
     106A     -0.583898   107A     -0.572956   108A     -0.564009  
     109A     -0.551335   110A     -0.540564   111A     -0.539368  
     112A     -0.538748   113A     -0.538244   114A     -0.522502  
     115A     -0.522371   116A     -0.519493   117A     -0.501583  
     118A     -0.498605   119A     -0.490051   120A     -0.480381  
     121A     -0.479898   122A     -0.476154   123A     -0.475970  
     124A     -0.469423   125A     -0.461903   126A     -0.461451  
     127A     -0.459476   128A     -0.459024   129A     -0.456265  
     130A     -0.442263   131A     -0.428124   132A     -0.425309  
     133A     -0.423859   134A     -0.422280   135A     -0.422128  
     136A     -0.418586   137A     -0.416911   138A     -0.416645  
     139A     -0.409071   140A     -0.404342   141A     -0.403606  
     142A     -0.403510   143A     -0.399652   144A     -0.392227  
     145A     -0.388661   146A     -0.387042   147A     -0.386363  
     148A     -0.385656   149A     -0.385330   150A     -0.384908  
     151A     -0.379372   152A     -0.377898   153A     -0.377505  
     154A     -0.374990   155A     -0.365243   156A     -0.364585  
     157A     -0.363214   158A     -0.358098   159A     -0.357892  
     160A     -0.357626   161A     -0.357241   162A     -0.355654  
     163A     -0.353964   164A     -0.352162   165A     -0.350089  
     166A     -0.349734   167A     -0.338810   168A     -0.338652  
     169A     -0.336185   170A     -0.332979   171A     -0.330325  
     172A     -0.325203   173A     -0.324531   174A     -0.323901  
     175A     -0.317920   176A     -0.309661   177A     -0.308492  
     178A     -0.302808   179A     -0.299852   180A     -0.299614  
     181A     -0.295740   182A     -0.295355   183A     -0.295004  
     184A     -0.279376   185A     -0.279258   186A     -0.275316  
     187A     -0.270648   188A     -0.270285   189A     -0.269010  
     190A     -0.262386   191A     -0.261772   192A     -0.258056  
     193A     -0.243116   194A     -0.241254   195A     -0.237947  
     196A     -0.236130   197A     -0.234994   198A     -0.232398  
     199A     -0.230985   200A     -0.211228   201A     -0.207720  
     202A     -0.206590   203A     -0.206002   204A     -0.194349  
     205A     -0.178590   206A     -0.178001  

    Virtual:                                                              

     207A     -0.108396   208A     -0.107934   209A     -0.083019  
     210A     -0.082822   211A     -0.073517   212A     -0.064129  
     213A     -0.063357   214A     -0.061945   215A     -0.059621  
     216A     -0.051543   217A     -0.041900   218A     -0.029522  
     219A     -0.024854   220A     -0.020434   221A     -0.018678  
     222A     -0.018486   223A     -0.017663   224A     -0.017274  
     225A     -0.014810   226A     -0.013709   227A     -0.012501  
     228A     -0.010909   229A     -0.009968   230A     -0.002174  
     231A     -0.001481   232A     -0.000727   233A      0.000459  
     234A      0.003577   235A      0.007760   236A      0.010802  
     237A      0.010921   238A      0.014154   239A      0.017238  
     240A      0.018134   241A      0.021636   242A      0.024652  
     243A      0.024938   244A      0.025009   245A      0.026577  
     246A      0.027519   247A      0.031195   248A      0.031394  
     249A      0.032252   250A      0.038200   251A      0.039006  
     252A      0.042375   253A      0.042820   254A      0.045071  
     255A      0.045834   256A      0.047251   257A      0.048033  
     258A      0.048650   259A      0.050250   260A      0.051263  
     261A      0.051882   262A      0.053192   263A      0.054519  
     264A      0.056174   265A      0.056494   266A      0.058834  
     267A      0.060849   268A      0.062634   269A      0.063187  
     270A      0.063277   271A      0.064300   272A      0.064696  
     273A      0.066792   274A      0.067224   275A      0.069419  
     276A      0.070852   277A      0.071311   278A      0.071864  
     279A      0.075492   280A      0.076652   281A      0.078839  
     282A      0.079777   283A      0.080411   284A      0.081947  
     285A      0.082011   286A      0.082235   287A      0.083255  
     288A      0.084538   289A      0.085022   290A      0.087062  
     291A      0.088051   292A      0.088144   293A      0.092823  
     294A      0.093743   295A      0.094695   296A      0.095203  
     297A      0.095579   298A      0.097534   299A      0.097695  
     300A      0.099037   301A      0.101969   302A      0.103494  
     303A      0.105077   304A      0.105228   305A      0.106215  
     306A      0.108533   307A      0.109522   308A      0.109824  
     309A      0.110845   310A      0.113928   311A      0.115921  
     312A      0.116015   313A      0.117112   314A      0.117882  
     315A      0.118400   316A      0.118880   317A      0.119856  
     318A      0.120470   319A      0.122596   320A      0.123014  
     321A      0.125048   322A      0.126840   323A      0.128500  
     324A      0.128684   325A      0.130179   326A      0.133676  
     327A      0.134713   328A      0.135827   329A      0.136851  
     330A      0.138092   331A      0.138215   332A      0.138452  
     333A      0.140513   334A      0.140964   335A      0.141986  
     336A      0.143253   337A      0.144015   338A      0.145166  
     339A      0.145458   340A      0.145746   341A      0.146287  
     342A      0.147439   343A      0.149299   344A      0.149542  
     345A      0.150759   346A      0.151723   347A      0.153657  
     348A      0.154033   349A      0.154935   350A      0.155259  
     351A      0.156518   352A      0.157392   353A      0.159652  
     354A      0.161656   355A      0.162236   356A      0.163198  
     357A      0.164159   358A      0.165296   359A      0.166094  
     360A      0.167781   361A      0.169803   362A      0.171380  
     363A      0.172825   364A      0.173648   365A      0.174174  
     366A      0.175159   367A      0.176082   368A      0.176516  
     369A      0.177541   370A      0.177897   371A      0.178021  
     372A      0.178701   373A      0.179134   374A      0.179782  
     375A      0.180454   376A      0.181107   377A      0.181511  
     378A      0.181863   379A      0.182140   380A      0.182234  
     381A      0.182671   382A      0.183151   383A      0.183467  
     384A      0.184897   385A      0.185957   386A      0.187087  
     387A      0.187440   388A      0.187974   389A      0.188843  
     390A      0.190425   391A      0.190944   392A      0.192551  
     393A      0.193036   394A      0.194511   395A      0.195023  
     396A      0.195536   397A      0.196086   398A      0.197754  
     399A      0.198207   400A      0.200502   401A      0.200849  
     402A      0.202122   403A      0.202200   404A      0.202754  
     405A      0.203564   406A      0.206282   407A      0.206818  
     408A      0.207212   409A      0.207825   410A      0.208457  
     411A      0.209347   412A      0.210020   413A      0.210920  
     414A      0.212545   415A      0.213187   416A      0.213583  
     417A      0.214243   418A      0.214422   419A      0.215553  
     420A      0.217105   421A      0.217796   422A      0.218918  
     423A      0.219537   424A      0.220702   425A      0.220802  
     426A      0.222285   427A      0.223076   428A      0.223627  
     429A      0.224116   430A      0.224669   431A      0.225920  
     432A      0.226764   433A      0.226956   434A      0.227878  
     435A      0.228496   436A      0.229035   437A      0.230275  
     438A      0.230375   439A      0.231968   440A      0.232604  
     441A      0.234032   442A      0.234970   443A      0.235904  
     444A      0.237387   445A      0.238455   446A      0.239473  
     447A      0.241110   448A      0.242082   449A      0.242727  
     450A      0.242985   451A      0.244137   452A      0.244892  
     453A      0.246720   454A      0.247901   455A      0.248648  
     456A      0.248764   457A      0.249786   458A      0.250487  
     459A      0.250870   460A      0.252298   461A      0.252453  
     462A      0.253096   463A      0.254811   464A      0.255343  
     465A      0.255501   466A      0.256253   467A      0.258173  
     468A      0.259823   469A      0.260205   470A      0.262478  
     471A      0.263174   472A      0.263413   473A      0.264763  
     474A      0.265021   475A      0.265760   476A      0.266725  
     477A      0.268986   478A      0.269376   479A      0.270707  
     480A      0.271430   481A      0.272480   482A      0.274044  
     483A      0.276068   484A      0.277463   485A      0.278950  
     486A      0.279543   487A      0.279624   488A      0.280174  
     489A      0.281953   490A      0.283261   491A      0.285075  
     492A      0.285974   493A      0.286927   494A      0.286941  
     495A      0.288200   496A      0.288502   497A      0.289321  
     498A      0.289903   499A      0.291525   500A      0.291688  
     501A      0.292711   502A      0.293127   503A      0.295183  
     504A      0.295590   505A      0.296134   506A      0.297399  
     507A      0.298647   508A      0.299294   509A      0.300072  
     510A      0.300571   511A      0.302048   512A      0.303011  
     513A      0.304650   514A      0.305303   515A      0.305980  
     516A      0.307788   517A      0.310364   518A      0.311312  
     519A      0.312072   520A      0.314746   521A      0.316054  
     522A      0.317648   523A      0.317932   524A      0.318644  
     525A      0.319278   526A      0.320546   527A      0.323040  
     528A      0.323487   529A      0.325468   530A      0.325856  
     531A      0.326756   532A      0.327390   533A      0.328162  
     534A      0.329268   535A      0.330404   536A      0.330668  
     537A      0.331940   538A      0.333610   539A      0.334452  
     540A      0.335210   541A      0.336468   542A      0.338496  
     543A      0.339827   544A      0.340426   545A      0.341354  
     546A      0.342670   547A      0.343154   548A      0.344643  
     549A      0.346133   550A      0.346566   551A      0.347935  
     552A      0.349124   553A      0.350132   554A      0.351372  
     555A      0.351901   556A      0.352584   557A      0.354011  
     558A      0.356385   559A      0.357768   560A      0.358235  
     561A      0.359036   562A      0.359716   563A      0.360691  
     564A      0.361776   565A      0.362878   566A      0.363285  
     567A      0.365054   568A      0.365385   569A      0.366231  
     570A      0.367173   571A      0.368243   572A      0.370317  
     573A      0.371009   574A      0.371957   575A      0.372688  
     576A      0.373397   577A      0.373825   578A      0.375334  
     579A      0.376325   580A      0.378300   581A      0.378789  
     582A      0.379921   583A      0.381481   584A      0.382345  
     585A      0.383145   586A      0.384032   587A      0.384424  
     588A      0.385055   589A      0.386505   590A      0.387915  
     591A      0.388436   592A      0.389375   593A      0.390208  
     594A      0.390985   595A      0.392773   596A      0.393946  
     597A      0.394312   598A      0.395328   599A      0.396350  
     600A      0.397297   601A      0.398301   602A      0.399209  
     603A      0.401029   604A      0.401125   605A      0.401643  
     606A      0.402377   607A      0.402748   608A      0.403759  
     609A      0.403875   610A      0.405412   611A      0.406099  
     612A      0.406862   613A      0.407928   614A      0.408578  
     615A      0.409093   616A      0.409766   617A      0.410810  
     618A      0.411807   619A      0.412364   620A      0.413452  
     621A      0.414874   622A      0.415078   623A      0.415476  
     624A      0.416584   625A      0.417682   626A      0.418236  
     627A      0.419692   628A      0.421565   629A      0.421820  
     630A      0.424087   631A      0.425641   632A      0.426496  
     633A      0.428025   634A      0.428223   635A      0.429169  
     636A      0.429359   637A      0.430847   638A      0.431222  
     639A      0.432697   640A      0.433712   641A      0.434786  
     642A      0.436084   643A      0.436996   644A      0.437684  
     645A      0.438890   646A      0.440085   647A      0.440400  
     648A      0.441677   649A      0.442429   650A      0.443592  
     651A      0.444651   652A      0.445366   653A      0.446622  
     654A      0.447030   655A      0.447816   656A      0.448074  
     657A      0.449373   658A      0.450019   659A      0.450895  
     660A      0.451145   661A      0.452477   662A      0.452575  
     663A      0.454017   664A      0.455246   665A      0.455708  
     666A      0.456619   667A      0.457236   668A      0.458047  
     669A      0.459738   670A      0.461487   671A      0.462350  
     672A      0.463881   673A      0.464388   674A      0.465736  
     675A      0.465934   676A      0.466441   677A      0.467996  
     678A      0.470842   679A      0.471375   680A      0.474202  
     681A      0.475320   682A      0.476125   683A      0.476994  
     684A      0.478159   685A      0.479469   686A      0.479974  
     687A      0.481870   688A      0.483067   689A      0.483967  
     690A      0.485137   691A      0.485837   692A      0.487782  
     693A      0.488145   694A      0.488919   695A      0.490853  
     696A      0.491436   697A      0.492185   698A      0.493054  
     699A      0.495186   700A      0.496116   701A      0.497926  
     702A      0.499658   703A      0.500780   704A      0.500958  
     705A      0.502375   706A      0.503284   707A      0.504405  
     708A      0.505529   709A      0.506638   710A      0.508756  
     711A      0.508942   712A      0.510680   713A      0.511860  
     714A      0.511952   715A      0.513296   716A      0.513523  
     717A      0.514503   718A      0.517974   719A      0.518483  
     720A      0.519844   721A      0.520136   722A      0.521880  
     723A      0.523016   724A      0.523384   725A      0.525284  
     726A      0.527088   727A      0.528399   728A      0.530505  
     729A      0.530989   730A      0.531176   731A      0.533109  
     732A      0.534287   733A      0.537492   734A      0.539971  
     735A      0.540565   736A      0.541869   737A      0.543141  
     738A      0.546417   739A      0.547177   740A      0.548520  
     741A      0.551148   742A      0.552966   743A      0.553322  
     744A      0.554648   745A      0.556342   746A      0.559456  
     747A      0.560318   748A      0.561086   749A      0.562640  
     750A      0.563449   751A      0.564992   752A      0.565493  
     753A      0.569072   754A      0.571559   755A      0.573626  
     756A      0.573808   757A      0.575627   758A      0.576838  
     759A      0.577783   760A      0.578707   761A      0.580068  
     762A      0.581369   763A      0.582465   764A      0.583148  
     765A      0.585446   766A      0.586045   767A      0.587345  
     768A      0.588464   769A      0.589107   770A      0.590005  
     771A      0.590202   772A      0.593551   773A      0.595495  
     774A      0.596026   775A      0.596319   776A      0.598331  
     777A      0.598848   778A      0.600414   779A      0.600616  
     780A      0.602974   781A      0.604000   782A      0.605379  
     783A      0.607084   784A      0.609790   785A      0.610232  
     786A      0.611676   787A      0.614999   788A      0.615231  
     789A      0.616819   790A      0.617762   791A      0.619254  
     792A      0.619812   793A      0.620937   794A      0.621761  
     795A      0.623017   796A      0.625914   797A      0.627122  
     798A      0.627337   799A      0.628073   800A      0.630198  
     801A      0.631189   802A      0.633653   803A      0.634129  
     804A      0.636090   805A      0.638142   806A      0.638672  
     807A      0.639783   808A      0.640188   809A      0.641832  
     810A      0.643185   811A      0.643840   812A      0.646407  
     813A      0.647500   814A      0.648221   815A      0.648658  
     816A      0.650892   817A      0.651588   818A      0.652769  
     819A      0.653931   820A      0.655058   821A      0.655429  
     822A      0.655735   823A      0.656802   824A      0.658045  
     825A      0.659103   826A      0.660069   827A      0.661621  
     828A      0.662342   829A      0.662626   830A      0.664262  
     831A      0.665567   832A      0.667010   833A      0.667739  
     834A      0.668666   835A      0.670784   836A      0.671937  
     837A      0.672479   838A      0.674486   839A      0.676011  
     840A      0.677167   841A      0.679431   842A      0.679836  
     843A      0.681239   844A      0.681482   845A      0.681955  
     846A      0.684965   847A      0.686125   848A      0.687545  
     849A      0.688319   850A      0.689078   851A      0.691182  
     852A      0.693031   853A      0.693609   854A      0.695122  
     855A      0.695935   856A      0.696648   857A      0.697275  
     858A      0.698718   859A      0.700749   860A      0.701458  
     861A      0.702825   862A      0.703961   863A      0.705156  
     864A      0.705819   865A      0.706589   866A      0.707900  
     867A      0.710136   868A      0.710484   869A      0.711375  
     870A      0.712840   871A      0.713446   872A      0.713636  
     873A      0.715704   874A      0.716269   875A      0.717712  
     876A      0.719033   877A      0.720210   878A      0.720686  
     879A      0.722264   880A      0.723439   881A      0.724417  
     882A      0.726470   883A      0.727641   884A      0.728484  
     885A      0.729601   886A      0.731106   887A      0.731580  
     888A      0.732442   889A      0.734048   890A      0.734588  
     891A      0.734731   892A      0.736125   893A      0.736745  
     894A      0.739229   895A      0.741101   896A      0.741855  
     897A      0.742207   898A      0.743140   899A      0.744958  
     900A      0.746499   901A      0.746661   902A      0.749323  
     903A      0.751291   904A      0.751943   905A      0.752028  
     906A      0.752715   907A      0.753649   908A      0.755379  
     909A      0.755933   910A      0.756898   911A      0.758375  
     912A      0.760426   913A      0.760901   914A      0.762684  
     915A      0.763473   916A      0.763831   917A      0.765242  
     918A      0.766552   919A      0.766907   920A      0.768041  
     921A      0.769520   922A      0.769910   923A      0.770863  
     924A      0.771254   925A      0.772157   926A      0.773533  
     927A      0.775103   928A      0.776012   929A      0.776318  
     930A      0.777378   931A      0.778489   932A      0.779806  
     933A      0.781199   934A      0.782838   935A      0.783524  
     936A      0.784566   937A      0.784829   938A      0.786771  
     939A      0.788147   940A      0.788618   941A      0.789404  
     942A      0.791701   943A      0.792885   944A      0.793516  
     945A      0.794983   946A      0.795583   947A      0.796704  
     948A      0.797658   949A      0.799056   950A      0.800837  
     951A      0.802606   952A      0.805375   953A      0.805971  
     954A      0.806943   955A      0.807546   956A      0.809154  
     957A      0.810382   958A      0.811139   959A      0.812137  
     960A      0.812643   961A      0.813716   962A      0.815676  
     963A      0.816131   964A      0.817584   965A      0.818693  
     966A      0.819301   967A      0.820938   968A      0.821567  
     969A      0.822976   970A      0.823864   971A      0.824569  
     972A      0.826313   973A      0.826914   974A      0.827381  
     975A      0.828672   976A      0.829419   977A      0.830187  
     978A      0.830603   979A      0.834361   980A      0.835049  
     981A      0.835899   982A      0.836536   983A      0.838338  
     984A      0.841139   985A      0.842593   986A      0.843791  
     987A      0.844525   988A      0.845620   989A      0.847208  
     990A      0.848530   991A      0.850658   992A      0.851105  
     993A      0.851595   994A      0.853339   995A      0.857154  
     996A      0.857717   997A      0.859072   998A      0.860191  
     999A      0.861305  1000A      0.862655  1001A      0.862695  
    1002A      0.864144  1003A      0.864864  1004A      0.866886  
    1005A      0.868642  1006A      0.870201  1007A      0.871599  
    1008A      0.872239  1009A      0.873967  1010A      0.875279  
    1011A      0.878052  1012A      0.879134  1013A      0.880160  
    1014A      0.881056  1015A      0.883064  1016A      0.884209  
    1017A      0.885341  1018A      0.885901  1019A      0.886487  
    1020A      0.888145  1021A      0.889890  1022A      0.890842  
    1023A      0.892813  1024A      0.894252  1025A      0.895282  
    1026A      0.896428  1027A      0.897957  1028A      0.899518  
    1029A      0.900705  1030A      0.901540  1031A      0.901962  
    1032A      0.904343  1033A      0.905143  1034A      0.906510  
    1035A      0.907156  1036A      0.907741  1037A      0.909302  
    1038A      0.910497  1039A      0.911394  1040A      0.913339  
    1041A      0.914610  1042A      0.914744  1043A      0.916306  
    1044A      0.917569  1045A      0.919829  1046A      0.919937  
    1047A      0.920886  1048A      0.922221  1049A      0.923619  
    1050A      0.924171  1051A      0.925956  1052A      0.926399  
    1053A      0.927883  1054A      0.929588  1055A      0.930885  
    1056A      0.931242  1057A      0.933082  1058A      0.934545  
    1059A      0.936717  1060A      0.938098  1061A      0.939258  
    1062A      0.940591  1063A      0.941040  1064A      0.943036  
    1065A      0.943467  1066A      0.944552  1067A      0.945125  
    1068A      0.947196  1069A      0.948740  1070A      0.950881  
    1071A      0.952399  1072A      0.953649  1073A      0.955180  
    1074A      0.956774  1075A      0.958229  1076A      0.959527  
    1077A      0.961243  1078A      0.963408  1079A      0.964289  
    1080A      0.964729  1081A      0.966522  1082A      0.967128  
    1083A      0.969037  1084A      0.969792  1085A      0.970794  
    1086A      0.971990  1087A      0.972868  1088A      0.974433  
    1089A      0.975211  1090A      0.975941  1091A      0.977414  
    1092A      0.979735  1093A      0.980281  1094A      0.981005  
    1095A      0.981946  1096A      0.983985  1097A      0.985241  
    1098A      0.986446  1099A      0.987913  1100A      0.989075  
    1101A      0.990148  1102A      0.990795  1103A      0.993045  
    1104A      0.993945  1105A      0.994228  1106A      0.996530  
    1107A      0.997541  1108A      0.999267  1109A      1.000747  
    1110A      1.000864  1111A      1.002593  1112A      1.003008  
    1113A      1.004555  1114A      1.006017  1115A      1.006705  
    1116A      1.008332  1117A      1.009279  1118A      1.011753  
    1119A      1.013057  1120A      1.014235  1121A      1.016068  
    1122A      1.017176  1123A      1.017972  1124A      1.019686  
    1125A      1.020941  1126A      1.022934  1127A      1.024225  
    1128A      1.025659  1129A      1.026140  1130A      1.028430  
    1131A      1.029298  1132A      1.029982  1133A      1.030054  
    1134A      1.031385  1135A      1.033467  1136A      1.034421  
    1137A      1.034477  1138A      1.035886  1139A      1.036684  
    1140A      1.037299  1141A      1.038492  1142A      1.039614  
    1143A      1.040310  1144A      1.042048  1145A      1.043356  
    1146A      1.045595  1147A      1.046216  1148A      1.047783  
    1149A      1.048293  1150A      1.049750  1151A      1.050980  
    1152A      1.053056  1153A      1.053472  1154A      1.053697  
    1155A      1.054652  1156A      1.055965  1157A      1.056321  
    1158A      1.058674  1159A      1.059859  1160A      1.060503  
    1161A      1.063642  1162A      1.065511  1163A      1.065899  
    1164A      1.066797  1165A      1.068777  1166A      1.070308  
    1167A      1.071211  1168A      1.071841  1169A      1.072766  
    1170A      1.073592  1171A      1.075920  1172A      1.077068  
    1173A      1.077978  1174A      1.078703  1175A      1.080181  
    1176A      1.081735  1177A      1.082404  1178A      1.083569  
    1179A      1.086299  1180A      1.088047  1181A      1.088516  
    1182A      1.090422  1183A      1.090902  1184A      1.092149  
    1185A      1.093661  1186A      1.094307  1187A      1.095486  
    1188A      1.096956  1189A      1.097981  1190A      1.099766  
    1191A      1.100121  1192A      1.103702  1193A      1.104773  
    1194A      1.107210  1195A      1.107573  1196A      1.109177  
    1197A      1.112326  1198A      1.112898  1199A      1.115392  
    1200A      1.116114  1201A      1.116992  1202A      1.117769  
    1203A      1.118880  1204A      1.120335  1205A      1.121582  
    1206A      1.123484  1207A      1.124262  1208A      1.126753  
    1209A      1.126916  1210A      1.128683  1211A      1.131090  
    1212A      1.131947  1213A      1.133446  1214A      1.135883  
    1215A      1.136380  1216A      1.138978  1217A      1.140483  
    1218A      1.141562  1219A      1.142856  1220A      1.144257  
    1221A      1.145033  1222A      1.146743  1223A      1.148066  
    1224A      1.148822  1225A      1.150392  1226A      1.152624  
    1227A      1.153982  1228A      1.155484  1229A      1.158139  
    1230A      1.159362  1231A      1.161529  1232A      1.162959  
    1233A      1.164115  1234A      1.166258  1235A      1.166837  
    1236A      1.170340  1237A      1.171037  1238A      1.171951  
    1239A      1.172808  1240A      1.175803  1241A      1.177020  
    1242A      1.177483  1243A      1.178795  1244A      1.179449  
    1245A      1.182930  1246A      1.184747  1247A      1.186624  
    1248A      1.187414  1249A      1.188271  1250A      1.191151  
    1251A      1.191893  1252A      1.193933  1253A      1.195446  
    1254A      1.196898  1255A      1.198377  1256A      1.200104  
    1257A      1.203032  1258A      1.203213  1259A      1.204090  
    1260A      1.205761  1261A      1.207073  1262A      1.208680  
    1263A      1.209821  1264A      1.211291  1265A      1.213154  
    1266A      1.215012  1267A      1.215974  1268A      1.218226  
    1269A      1.220182  1270A      1.222423  1271A      1.223414  
    1272A      1.224263  1273A      1.226100  1274A      1.227818  
    1275A      1.228768  1276A      1.229801  1277A      1.230958  
    1278A      1.233364  1279A      1.235013  1280A      1.235966  
    1281A      1.236873  1282A      1.240059  1283A      1.243507  
    1284A      1.244582  1285A      1.246704  1286A      1.248705  
    1287A      1.249583  1288A      1.251201  1289A      1.253173  
    1290A      1.254127  1291A      1.255687  1292A      1.256906  
    1293A      1.258401  1294A      1.260185  1295A      1.261605  
    1296A      1.262651  1297A      1.263345  1298A      1.264306  
    1299A      1.265729  1300A      1.266636  1301A      1.267954  
    1302A      1.269454  1303A      1.270643  1304A      1.271594  
    1305A      1.273475  1306A      1.275658  1307A      1.276450  
    1308A      1.279397  1309A      1.279818  1310A      1.281394  
    1311A      1.283898  1312A      1.284601  1313A      1.285841  
    1314A      1.287016  1315A      1.288668  1316A      1.289250  
    1317A      1.290757  1318A      1.292017  1319A      1.292481  
    1320A      1.293754  1321A      1.294972  1322A      1.298221  
    1323A      1.300245  1324A      1.302702  1325A      1.304546  
    1326A      1.305300  1327A      1.306488  1328A      1.308693  
    1329A      1.309151  1330A      1.310368  1331A      1.311704  
    1332A      1.314189  1333A      1.315367  1334A      1.317278  
    1335A      1.317984  1336A      1.319650  1337A      1.319957  
    1338A      1.321787  1339A      1.324516  1340A      1.325669  
    1341A      1.327901  1342A      1.328111  1343A      1.330802  
    1344A      1.331621  1345A      1.332126  1346A      1.332749  
    1347A      1.334113  1348A      1.335085  1349A      1.336146  
    1350A      1.337667  1351A      1.338542  1352A      1.339112  
    1353A      1.341274  1354A      1.342532  1355A      1.343313  
    1356A      1.345286  1357A      1.346307  1358A      1.348101  
    1359A      1.348975  1360A      1.350878  1361A      1.351192  
    1362A      1.352937  1363A      1.354149  1364A      1.354616  
    1365A      1.355722  1366A      1.356444  1367A      1.360669  
    1368A      1.362325  1369A      1.362407  1370A      1.364345  
    1371A      1.364624  1372A      1.365996  1373A      1.368418  
    1374A      1.370119  1375A      1.370347  1376A      1.371385  
    1377A      1.375478  1378A      1.375826  1379A      1.377243  
    1380A      1.377852  1381A      1.379645  1382A      1.382351  
    1383A      1.383007  1384A      1.383680  1385A      1.386923  
    1386A      1.387311  1387A      1.388482  1388A      1.389263  
    1389A      1.390651  1390A      1.392129  1391A      1.393755  
    1392A      1.394311  1393A      1.394973  1394A      1.396837  
    1395A      1.398503  1396A      1.399113  1397A      1.400666  
    1398A      1.402252  1399A      1.402697  1400A      1.403305  
    1401A      1.404948  1402A      1.405198  1403A      1.407544  
    1404A      1.408462  1405A      1.409921  1406A      1.411338  
    1407A      1.411829  1408A      1.413459  1409A      1.413900  
    1410A      1.415228  1411A      1.416918  1412A      1.418611  
    1413A      1.420295  1414A      1.420827  1415A      1.421965  
    1416A      1.422901  1417A      1.424145  1418A      1.426345  
    1419A      1.426973  1420A      1.427815  1421A      1.429230  
    1422A      1.431019  1423A      1.432147  1424A      1.435067  
    1425A      1.435792  1426A      1.436384  1427A      1.438157  
    1428A      1.438985  1429A      1.441241  1430A      1.442129  
    1431A      1.442463  1432A      1.446497  1433A      1.446997  
    1434A      1.448310  1435A      1.450796  1436A      1.452911  
    1437A      1.454403  1438A      1.454746  1439A      1.456440  
    1440A      1.458347  1441A      1.459272  1442A      1.459694  
    1443A      1.461489  1444A      1.463345  1445A      1.464266  
    1446A      1.466050  1447A      1.467242  1448A      1.469113  
    1449A      1.470001  1450A      1.471518  1451A      1.472189  
    1452A      1.472509  1453A      1.474074  1454A      1.475596  
    1455A      1.477681  1456A      1.480532  1457A      1.481590  
    1458A      1.483238  1459A      1.484132  1460A      1.485257  
    1461A      1.486853  1462A      1.490230  1463A      1.490649  
    1464A      1.491726  1465A      1.492302  1466A      1.493283  
    1467A      1.494954  1468A      1.497264  1469A      1.499975  
    1470A      1.500963  1471A      1.502677  1472A      1.503061  
    1473A      1.505105  1474A      1.507353  1475A      1.507714  
    1476A      1.509380  1477A      1.511453  1478A      1.513210  
    1479A      1.513460  1480A      1.515633  1481A      1.516787  
    1482A      1.518899  1483A      1.520049  1484A      1.520697  
    1485A      1.522755  1486A      1.524420  1487A      1.525199  
    1488A      1.527983  1489A      1.529014  1490A      1.529772  
    1491A      1.531303  1492A      1.531991  1493A      1.533568  
    1494A      1.534192  1495A      1.535968  1496A      1.537166  
    1497A      1.538902  1498A      1.541346  1499A      1.542512  
    1500A      1.544994  1501A      1.546856  1502A      1.548036  
    1503A      1.548743  1504A      1.550819  1505A      1.551507  
    1506A      1.554803  1507A      1.556081  1508A      1.556381  
    1509A      1.559234  1510A      1.560733  1511A      1.563568  
    1512A      1.565657  1513A      1.566655  1514A      1.568510  
    1515A      1.570854  1516A      1.571545  1517A      1.573207  
    1518A      1.575206  1519A      1.576317  1520A      1.578561  
    1521A      1.580662  1522A      1.581520  1523A      1.583625  
    1524A      1.584427  1525A      1.587118  1526A      1.588465  
    1527A      1.589931  1528A      1.592927  1529A      1.593231  
    1530A      1.595025  1531A      1.595275  1532A      1.597231  
    1533A      1.599112  1534A      1.600439  1535A      1.603045  
    1536A      1.603836  1537A      1.606423  1538A      1.606863  
    1539A      1.608493  1540A      1.609030  1541A      1.612108  
    1542A      1.612770  1543A      1.614253  1544A      1.614498  
    1545A      1.615567  1546A      1.617065  1547A      1.619442  
    1548A      1.620521  1549A      1.621421  1550A      1.623525  
    1551A      1.624443  1552A      1.625623  1553A      1.626491  
    1554A      1.629957  1555A      1.630218  1556A      1.632577  
    1557A      1.633968  1558A      1.636358  1559A      1.639424  
    1560A      1.640075  1561A      1.641068  1562A      1.642776  
    1563A      1.645039  1564A      1.646328  1565A      1.646926  
    1566A      1.648108  1567A      1.649421  1568A      1.649696  
    1569A      1.652414  1570A      1.655382  1571A      1.656902  
    1572A      1.658031  1573A      1.660253  1574A      1.660766  
    1575A      1.662402  1576A      1.665485  1577A      1.667506  
    1578A      1.670365  1579A      1.671004  1580A      1.673222  
    1581A      1.674455  1582A      1.675520  1583A      1.678017  
    1584A      1.679551  1585A      1.680944  1586A      1.684273  
    1587A      1.686116  1588A      1.687252  1589A      1.690851  
    1590A      1.691740  1591A      1.693570  1592A      1.697492  
    1593A      1.698001  1594A      1.699071  1595A      1.700395  
    1596A      1.701510  1597A      1.703660  1598A      1.704942  
    1599A      1.707364  1600A      1.707557  1601A      1.711425  
    1602A      1.712949  1603A      1.713916  1604A      1.715179  
    1605A      1.716415  1606A      1.718956  1607A      1.720231  
    1608A      1.721930  1609A      1.724005  1610A      1.724894  
    1611A      1.726421  1612A      1.728765  1613A      1.729738  
    1614A      1.731603  1615A      1.733005  1616A      1.734083  
    1617A      1.736336  1618A      1.738420  1619A      1.742064  
    1620A      1.746530  1621A      1.747906  1622A      1.750242  
    1623A      1.751795  1624A      1.753379  1625A      1.755389  
    1626A      1.757405  1627A      1.759417  1628A      1.760864  
    1629A      1.762675  1630A      1.765195  1631A      1.766607  
    1632A      1.768597  1633A      1.771122  1634A      1.773136  
    1635A      1.774479  1636A      1.776511  1637A      1.781286  
    1638A      1.782451  1639A      1.784813  1640A      1.786985  
    1641A      1.789503  1642A      1.792182  1643A      1.793555  
    1644A      1.794880  1645A      1.796336  1646A      1.797517  
    1647A      1.800438  1648A      1.801110  1649A      1.803497  
    1650A      1.805804  1651A      1.807156  1652A      1.809287  
    1653A      1.811119  1654A      1.812960  1655A      1.813768  
    1656A      1.814909  1657A      1.817500  1658A      1.818122  
    1659A      1.819914  1660A      1.823079  1661A      1.824709  
    1662A      1.825287  1663A      1.827766  1664A      1.828784  
    1665A      1.830584  1666A      1.831264  1667A      1.836633  
    1668A      1.837046  1669A      1.839082  1670A      1.840659  
    1671A      1.841727  1672A      1.843220  1673A      1.844345  
    1674A      1.846140  1675A      1.848683  1676A      1.850184  
    1677A      1.851934  1678A      1.855792  1679A      1.857433  
    1680A      1.858345  1681A      1.859620  1682A      1.862286  
    1683A      1.862875  1684A      1.864443  1685A      1.865668  
    1686A      1.867915  1687A      1.869232  1688A      1.869596  
    1689A      1.871321  1690A      1.871724  1691A      1.875086  
    1692A      1.876648  1693A      1.877417  1694A      1.877995  
    1695A      1.880712  1696A      1.882991  1697A      1.883056  
    1698A      1.885350  1699A      1.886864  1700A      1.888483  
    1701A      1.889363  1702A      1.891784  1703A      1.892343  
    1704A      1.894503  1705A      1.897125  1706A      1.897941  
    1707A      1.901706  1708A      1.902040  1709A      1.904117  
    1710A      1.904712  1711A      1.908898  1712A      1.910739  
    1713A      1.911883  1714A      1.913767  1715A      1.915223  
    1716A      1.917831  1717A      1.919302  1718A      1.919723  
    1719A      1.923701  1720A      1.926528  1721A      1.929489  
    1722A      1.933350  1723A      1.935852  1724A      1.937467  
    1725A      1.937850  1726A      1.938879  1727A      1.941515  
    1728A      1.943952  1729A      1.947214  1730A      1.947370  
    1731A      1.952405  1732A      1.953976  1733A      1.955561  
    1734A      1.956730  1735A      1.958831  1736A      1.959856  
    1737A      1.960637  1738A      1.962603  1739A      1.964058  
    1740A      1.964769  1741A      1.968242  1742A      1.970348  
    1743A      1.971400  1744A      1.973243  1745A      1.973927  
    1746A      1.976706  1747A      1.978176  1748A      1.980594  
    1749A      1.981886  1750A      1.984954  1751A      1.985354  
    1752A      1.987590  1753A      1.989634  1754A      1.990874  
    1755A      1.993230  1756A      1.994531  1757A      1.995834  
    1758A      1.997778  1759A      1.999470  1760A      2.001217  
    1761A      2.002727  1762A      2.003212  1763A      2.004846  
    1764A      2.005443  1765A      2.008620  1766A      2.009158  
    1767A      2.010588  1768A      2.014311  1769A      2.015462  
    1770A      2.016416  1771A      2.019106  1772A      2.022836  
    1773A      2.023073  1774A      2.027406  1775A      2.028708  
    1776A      2.031180  1777A      2.032054  1778A      2.034281  
    1779A      2.035981  1780A      2.036686  1781A      2.038997  
    1782A      2.040726  1783A      2.042361  1784A      2.044168  
    1785A      2.044781  1786A      2.045468  1787A      2.046745  
    1788A      2.048473  1789A      2.050016  1790A      2.052077  
    1791A      2.055980  1792A      2.056849  1793A      2.058541  
    1794A      2.060060  1795A      2.061784  1796A      2.062117  
    1797A      2.064266  1798A      2.065244  1799A      2.066686  
    1800A      2.071339  1801A      2.072104  1802A      2.074240  
    1803A      2.074608  1804A      2.076605  1805A      2.078959  
    1806A      2.079462  1807A      2.081215  1808A      2.082584  
    1809A      2.084352  1810A      2.086128  1811A      2.087784  
    1812A      2.089549  1813A      2.091308  1814A      2.093588  
    1815A      2.095898  1816A      2.097556  1817A      2.098505  
    1818A      2.101815  1819A      2.102000  1820A      2.104305  
    1821A      2.107086  1822A      2.108718  1823A      2.111450  
    1824A      2.112005  1825A      2.114510  1826A      2.116333  
    1827A      2.118948  1828A      2.122867  1829A      2.124507  
    1830A      2.125795  1831A      2.127483  1832A      2.128660  
    1833A      2.129685  1834A      2.132637  1835A      2.133418  
    1836A      2.134110  1837A      2.137196  1838A      2.139095  
    1839A      2.141054  1840A      2.143748  1841A      2.145455  
    1842A      2.146751  1843A      2.148010  1844A      2.150603  
    1845A      2.153640  1846A      2.154415  1847A      2.156928  
    1848A      2.160541  1849A      2.161389  1850A      2.164252  
    1851A      2.165663  1852A      2.167509  1853A      2.168278  
    1854A      2.170243  1855A      2.171082  1856A      2.173260  
    1857A      2.175957  1858A      2.177809  1859A      2.180197  
    1860A      2.183133  1861A      2.186310  1862A      2.186983  
    1863A      2.187437  1864A      2.190187  1865A      2.190879  
    1866A      2.192403  1867A      2.196679  1868A      2.197766  
    1869A      2.199215  1870A      2.200114  1871A      2.201579  
    1872A      2.203313  1873A      2.204713  1874A      2.207849  
    1875A      2.210970  1876A      2.212203  1877A      2.215130  
    1878A      2.216593  1879A      2.219927  1880A      2.223596  
    1881A      2.224770  1882A      2.227120  1883A      2.229767  
    1884A      2.232198  1885A      2.232875  1886A      2.234333  
    1887A      2.235795  1888A      2.237600  1889A      2.239140  
    1890A      2.241629  1891A      2.243213  1892A      2.244067  
    1893A      2.246440  1894A      2.247034  1895A      2.249822  
    1896A      2.252941  1897A      2.254176  1898A      2.256189  
    1899A      2.257213  1900A      2.262243  1901A      2.263891  
    1902A      2.266062  1903A      2.266195  1904A      2.268576  
    1905A      2.269958  1906A      2.274512  1907A      2.276939  
    1908A      2.278578  1909A      2.281222  1910A      2.281857  
    1911A      2.283923  1912A      2.285611  1913A      2.288887  
    1914A      2.289641  1915A      2.292477  1916A      2.293776  
    1917A      2.295464  1918A      2.297550  1919A      2.299737  
    1920A      2.302426  1921A      2.303961  1922A      2.305721  
    1923A      2.307935  1924A      2.309965  1925A      2.313510  
    1926A      2.314247  1927A      2.315462  1928A      2.317252  
    1929A      2.320948  1930A      2.323075  1931A      2.325596  
    1932A      2.327239  1933A      2.329600  1934A      2.331877  
    1935A      2.332657  1936A      2.335848  1937A      2.338156  
    1938A      2.340499  1939A      2.341572  1940A      2.344684  
    1941A      2.349113  1942A      2.351261  1943A      2.352641  
    1944A      2.357123  1945A      2.358741  1946A      2.359257  
    1947A      2.362177  1948A      2.363683  1949A      2.364883  
    1950A      2.367499  1951A      2.369579  1952A      2.372264  
    1953A      2.375375  1954A      2.378926  1955A      2.381182  
    1956A      2.382305  1957A      2.385297  1958A      2.388909  
    1959A      2.391516  1960A      2.393264  1961A      2.394208  
    1962A      2.397617  1963A      2.400974  1964A      2.401560  
    1965A      2.402861  1966A      2.403135  1967A      2.408956  
    1968A      2.409780  1969A      2.410484  1970A      2.415317  
    1971A      2.416766  1972A      2.417554  1973A      2.420853  
    1974A      2.422018  1975A      2.423710  1976A      2.427984  
    1977A      2.428413  1978A      2.428956  1979A      2.435544  
    1980A      2.439209  1981A      2.443187  1982A      2.444199  
    1983A      2.448123  1984A      2.449184  1985A      2.454788  
    1986A      2.457673  1987A      2.460916  1988A      2.463340  
    1989A      2.465638  1990A      2.467214  1991A      2.468864  
    1992A      2.474759  1993A      2.475937  1994A      2.478797  
    1995A      2.481638  1996A      2.486838  1997A      2.488927  
    1998A      2.492419  1999A      2.493311  2000A      2.496991  
    2001A      2.500315  2002A      2.501429  2003A      2.505439  
    2004A      2.508528  2005A      2.512643  2006A      2.515085  
    2007A      2.516680  2008A      2.517764  2009A      2.520687  
    2010A      2.523077  2011A      2.523578  2012A      2.528574  
    2013A      2.529300  2014A      2.532230  2015A      2.533205  
    2016A      2.537353  2017A      2.541505  2018A      2.541940  
    2019A      2.543474  2020A      2.546501  2021A      2.548797  
    2022A      2.551274  2023A      2.553229  2024A      2.555899  
    2025A      2.559383  2026A      2.561154  2027A      2.563000  
    2028A      2.565515  2029A      2.568312  2030A      2.569596  
    2031A      2.572288  2032A      2.575108  2033A      2.576261  
    2034A      2.577296  2035A      2.578238  2036A      2.581708  
    2037A      2.585021  2038A      2.587276  2039A      2.588881  
    2040A      2.591258  2041A      2.592950  2042A      2.596600  
    2043A      2.597751  2044A      2.600514  2045A      2.607292  
    2046A      2.609272  2047A      2.611236  2048A      2.615703  
    2049A      2.618510  2050A      2.621527  2051A      2.623905  
    2052A      2.627183  2053A      2.629093  2054A      2.632710  
    2055A      2.634260  2056A      2.636355  2057A      2.640355  
    2058A      2.643636  2059A      2.646774  2060A      2.648764  
    2061A      2.651856  2062A      2.653926  2063A      2.659303  
    2064A      2.661143  2065A      2.665897  2066A      2.666031  
    2067A      2.670316  2068A      2.675273  2069A      2.679418  
    2070A      2.681685  2071A      2.683906  2072A      2.685168  
    2073A      2.689693  2074A      2.691920  2075A      2.695153  
    2076A      2.698524  2077A      2.700491  2078A      2.706356  
    2079A      2.709457  2080A      2.710560  2081A      2.712894  
    2082A      2.717285  2083A      2.721303  2084A      2.726152  
    2085A      2.732558  2086A      2.737554  2087A      2.741848  
    2088A      2.745683  2089A      2.751671  2090A      2.752712  
    2091A      2.755356  2092A      2.764041  2093A      2.765704  
    2094A      2.771083  2095A      2.773844  2096A      2.775242  
    2097A      2.779306  2098A      2.780796  2099A      2.781446  
    2100A      2.785050  2101A      2.791607  2102A      2.796905  
    2103A      2.797913  2104A      2.801994  2105A      2.807181  
    2106A      2.807970  2107A      2.815945  2108A      2.820970  
    2109A      2.824165  2110A      2.826722  2111A      2.828915  
    2112A      2.833087  2113A      2.836481  2114A      2.837149  
    2115A      2.842241  2116A      2.843970  2117A      2.846004  
    2118A      2.849557  2119A      2.851832  2120A      2.854558  
    2121A      2.858292  2122A      2.860590  2123A      2.863321  
    2124A      2.869477  2125A      2.871952  2126A      2.874290  
    2127A      2.875528  2128A      2.882775  2129A      2.886836  
    2130A      2.888184  2131A      2.889557  2132A      2.891809  
    2133A      2.895173  2134A      2.899135  2135A      2.900059  
    2136A      2.902954  2137A      2.910459  2138A      2.911864  
    2139A      2.913052  2140A      2.915521  2141A      2.919182  
    2142A      2.921109  2143A      2.929173  2144A      2.931246  
    2145A      2.939651  2146A      2.940348  2147A      2.941668  
    2148A      2.947305  2149A      2.948189  2150A      2.950943  
    2151A      2.955246  2152A      2.958480  2153A      2.961764  
    2154A      2.965866  2155A      2.968390  2156A      2.972116  
    2157A      2.977060  2158A      2.984298  2159A      2.987599  
    2160A      2.989592  2161A      2.993292  2162A      2.996385  
    2163A      3.000710  2164A      3.002801  2165A      3.005605  
    2166A      3.007219  2167A      3.012713  2168A      3.014739  
    2169A      3.016802  2170A      3.018950  2171A      3.020711  
    2172A      3.025568  2173A      3.026473  2174A      3.032574  
    2175A      3.033672  2176A      3.040073  2177A      3.043683  
    2178A      3.044895  2179A      3.047510  2180A      3.049488  
    2181A      3.052062  2182A      3.054537  2183A      3.056260  
    2184A      3.060136  2185A      3.062732  2186A      3.066230  
    2187A      3.067548  2188A      3.073376  2189A      3.074718  
    2190A      3.076693  2191A      3.079347  2192A      3.080123  
    2193A      3.083578  2194A      3.086563  2195A      3.089223  
    2196A      3.095012  2197A      3.096177  2198A      3.102982  
    2199A      3.103959  2200A      3.104736  2201A      3.110279  
    2202A      3.113971  2203A      3.116492  2204A      3.119409  
    2205A      3.120007  2206A      3.121449  2207A      3.123932  
    2208A      3.127769  2209A      3.129172  2210A      3.132132  
    2211A      3.132766  2212A      3.135613  2213A      3.138252  
    2214A      3.142589  2215A      3.148065  2216A      3.150633  
    2217A      3.152632  2218A      3.156906  2219A      3.160231  
    2220A      3.160514  2221A      3.168304  2222A      3.169948  
    2223A      3.173242  2224A      3.175540  2225A      3.176208  
    2226A      3.178333  2227A      3.180236  2228A      3.182364  
    2229A      3.186159  2230A      3.186679  2231A      3.188518  
    2232A      3.192221  2233A      3.194032  2234A      3.197065  
    2235A      3.200900  2236A      3.202019  2237A      3.203133  
    2238A      3.205570  2239A      3.208175  2240A      3.211988  
    2241A      3.213225  2242A      3.214964  2243A      3.218668  
    2244A      3.222038  2245A      3.222572  2246A      3.224503  
    2247A      3.226271  2248A      3.227723  2249A      3.228693  
    2250A      3.229768  2251A      3.232663  2252A      3.233339  
    2253A      3.235530  2254A      3.239320  2255A      3.240832  
    2256A      3.243827  2257A      3.244763  2258A      3.251631  
    2259A      3.253011  2260A      3.253885  2261A      3.256122  
    2262A      3.258500  2263A      3.259982  2264A      3.263133  
    2265A      3.263893  2266A      3.265793  2267A      3.266156  
    2268A      3.269091  2269A      3.270758  2270A      3.273413  
    2271A      3.275041  2272A      3.275235  2273A      3.277740  
    2274A      3.278280  2275A      3.281754  2276A      3.282559  
    2277A      3.283717  2278A      3.284645  2279A      3.287131  
    2280A      3.288408  2281A      3.293867  2282A      3.295158  
    2283A      3.296782  2284A      3.297977  2285A      3.299697  
    2286A      3.301435  2287A      3.303053  2288A      3.305064  
    2289A      3.306230  2290A      3.307734  2291A      3.309762  
    2292A      3.313246  2293A      3.314216  2294A      3.315738  
    2295A      3.318807  2296A      3.322764  2297A      3.324009  
    2298A      3.324960  2299A      3.326774  2300A      3.328721  
    2301A      3.329324  2302A      3.331566  2303A      3.333787  
    2304A      3.335351  2305A      3.336094  2306A      3.338886  
    2307A      3.340954  2308A      3.343791  2309A      3.345546  
    2310A      3.347143  2311A      3.349618  2312A      3.350519  
    2313A      3.351257  2314A      3.352885  2315A      3.354399  
    2316A      3.354559  2317A      3.356954  2318A      3.358443  
    2319A      3.360054  2320A      3.362863  2321A      3.365032  
    2322A      3.368866  2323A      3.369676  2324A      3.370904  
    2325A      3.374697  2326A      3.374921  2327A      3.377637  
    2328A      3.378112  2329A      3.379918  2330A      3.382773  
    2331A      3.385011  2332A      3.387042  2333A      3.388665  
    2334A      3.391714  2335A      3.392883  2336A      3.393645  
    2337A      3.394795  2338A      3.396327  2339A      3.396815  
    2340A      3.398907  2341A      3.403136  2342A      3.403764  
    2343A      3.406504  2344A      3.407472  2345A      3.410760  
    2346A      3.412064  2347A      3.412913  2348A      3.413639  
    2349A      3.416631  2350A      3.418711  2351A      3.419256  
    2352A      3.421060  2353A      3.422717  2354A      3.424377  
    2355A      3.425899  2356A      3.427417  2357A      3.429795  
    2358A      3.432416  2359A      3.433255  2360A      3.436210  
    2361A      3.438145  2362A      3.440141  2363A      3.442102  
    2364A      3.443378  2365A      3.445704  2366A      3.446593  
    2367A      3.448387  2368A      3.449957  2369A      3.453298  
    2370A      3.453709  2371A      3.455634  2372A      3.457949  
    2373A      3.458129  2374A      3.459522  2375A      3.461068  
    2376A      3.462279  2377A      3.463364  2378A      3.464439  
    2379A      3.465797  2380A      3.466452  2381A      3.471948  
    2382A      3.474163  2383A      3.474609  2384A      3.475808  
    2385A      3.478448  2386A      3.480149  2387A      3.480718  
    2388A      3.484213  2389A      3.486391  2390A      3.488902  
    2391A      3.489885  2392A      3.491255  2393A      3.492550  
    2394A      3.493780  2395A      3.497622  2396A      3.498695  
    2397A      3.500406  2398A      3.502212  2399A      3.504118  
    2400A      3.506414  2401A      3.508218  2402A      3.508770  
    2403A      3.509212  2404A      3.511701  2405A      3.512888  
    2406A      3.514683  2407A      3.515645  2408A      3.517484  
    2409A      3.520822  2410A      3.522424  2411A      3.523315  
    2412A      3.525451  2413A      3.526625  2414A      3.528314  
    2415A      3.530388  2416A      3.531506  2417A      3.534079  
    2418A      3.535330  2419A      3.538346  2420A      3.541509  
    2421A      3.543960  2422A      3.545942  2423A      3.548057  
    2424A      3.548759  2425A      3.550159  2426A      3.552073  
    2427A      3.553354  2428A      3.556031  2429A      3.558937  
    2430A      3.559258  2431A      3.561128  2432A      3.562888  
    2433A      3.565546  2434A      3.567501  2435A      3.571179  
    2436A      3.571841  2437A      3.572693  2438A      3.573197  
    2439A      3.577208  2440A      3.579057  2441A      3.581076  
    2442A      3.582567  2443A      3.585407  2444A      3.586911  
    2445A      3.587921  2446A      3.591594  2447A      3.592952  
    2448A      3.595757  2449A      3.598165  2450A      3.598524  
    2451A      3.599681  2452A      3.602219  2453A      3.604116  
    2454A      3.606964  2455A      3.609004  2456A      3.611994  
    2457A      3.614730  2458A      3.616572  2459A      3.617304  
    2460A      3.620139  2461A      3.622178  2462A      3.623207  
    2463A      3.625854  2464A      3.626380  2465A      3.627018  
    2466A      3.629954  2467A      3.630996  2468A      3.632765  
    2469A      3.634903  2470A      3.639149  2471A      3.639953  
    2472A      3.641101  2473A      3.643533  2474A      3.645233  
    2475A      3.647693  2476A      3.651965  2477A      3.652289  
    2478A      3.653915  2479A      3.655378  2480A      3.658462  
    2481A      3.659953  2482A      3.660924  2483A      3.664799  
    2484A      3.666918  2485A      3.667650  2486A      3.669667  
    2487A      3.672974  2488A      3.673879  2489A      3.675284  
    2490A      3.677439  2491A      3.680495  2492A      3.682557  
    2493A      3.683236  2494A      3.684712  2495A      3.685939  
    2496A      3.688118  2497A      3.690633  2498A      3.691503  
    2499A      3.693426  2500A      3.695035  2501A      3.695364  
    2502A      3.698737  2503A      3.703053  2504A      3.706371  
    2505A      3.707070  2506A      3.708275  2507A      3.709735  
    2508A      3.711509  2509A      3.712746  2510A      3.714223  
    2511A      3.717542  2512A      3.719632  2513A      3.720678  
    2514A      3.721295  2515A      3.723376  2516A      3.724120  
    2517A      3.724611  2518A      3.727780  2519A      3.728632  
    2520A      3.732017  2521A      3.734242  2522A      3.735374  
    2523A      3.736502  2524A      3.741243  2525A      3.744266  
    2526A      3.746668  2527A      3.748474  2528A      3.750342  
    2529A      3.752659  2530A      3.754810  2531A      3.757565  
    2532A      3.758661  2533A      3.760249  2534A      3.762007  
    2535A      3.763788  2536A      3.765518  2537A      3.767316  
    2538A      3.769378  2539A      3.771624  2540A      3.772820  
    2541A      3.775376  2542A      3.778385  2543A      3.779088  
    2544A      3.782919  2545A      3.785097  2546A      3.785393  
    2547A      3.787363  2548A      3.788808  2549A      3.790347  
    2550A      3.791401  2551A      3.794926  2552A      3.795833  
    2553A      3.799829  2554A      3.801783  2555A      3.806214  
    2556A      3.807225  2557A      3.809740  2558A      3.811220  
    2559A      3.812740  2560A      3.813166  2561A      3.814697  
    2562A      3.817008  2563A      3.819915  2564A      3.820640  
    2565A      3.826465  2566A      3.827564  2567A      3.829742  
    2568A      3.831155  2569A      3.835710  2570A      3.836921  
    2571A      3.838136  2572A      3.839127  2573A      3.840651  
    2574A      3.840880  2575A      3.845121  2576A      3.847493  
    2577A      3.849193  2578A      3.851291  2579A      3.852692  
    2580A      3.855237  2581A      3.856025  2582A      3.858422  
    2583A      3.859869  2584A      3.861808  2585A      3.865714  
    2586A      3.866341  2587A      3.868419  2588A      3.869720  
    2589A      3.873521  2590A      3.874143  2591A      3.877221  
    2592A      3.878649  2593A      3.883705  2594A      3.884510  
    2595A      3.886853  2596A      3.889215  2597A      3.889873  
    2598A      3.891935  2599A      3.894487  2600A      3.895178  
    2601A      3.897641  2602A      3.898935  2603A      3.900078  
    2604A      3.903973  2605A      3.905146  2606A      3.908409  
    2607A      3.910793  2608A      3.912336  2609A      3.914729  
    2610A      3.919686  2611A      3.921215  2612A      3.921978  
    2613A      3.923731  2614A      3.925136  2615A      3.925700  
    2616A      3.929545  2617A      3.930683  2618A      3.932771  
    2619A      3.936038  2620A      3.938086  2621A      3.939421  
    2622A      3.940618  2623A      3.941916  2624A      3.945762  
    2625A      3.948348  2626A      3.949808  2627A      3.951818  
    2628A      3.953491  2629A      3.956837  2630A      3.960225  
    2631A      3.962644  2632A      3.964712  2633A      3.965889  
    2634A      3.968944  2635A      3.970136  2636A      3.973631  
    2637A      3.976010  2638A      3.977736  2639A      3.980555  
    2640A      3.981011  2641A      3.983227  2642A      3.985898  
    2643A      3.986563  2644A      3.988026  2645A      3.991519  
    2646A      3.992368  2647A      3.994666  2648A      3.995351  
    2649A      3.996088  2650A      3.999002  2651A      4.004395  
    2652A      4.006170  2653A      4.009222  2654A      4.010148  
    2655A      4.011486  2656A      4.016356  2657A      4.016814  
    2658A      4.018311  2659A      4.019155  2660A      4.022057  
    2661A      4.024602  2662A      4.026223  2663A      4.026684  
    2664A      4.028882  2665A      4.030717  2666A      4.032555  
    2667A      4.033581  2668A      4.035485  2669A      4.036128  
    2670A      4.039238  2671A      4.040884  2672A      4.044146  
    2673A      4.046540  2674A      4.047918  2675A      4.049303  
    2676A      4.051496  2677A      4.053948  2678A      4.055723  
    2679A      4.058434  2680A      4.060128  2681A      4.061337  
    2682A      4.063683  2683A      4.064986  2684A      4.065072  
    2685A      4.067386  2686A      4.071340  2687A      4.074502  
    2688A      4.075173  2689A      4.079417  2690A      4.080693  
    2691A      4.082442  2692A      4.083663  2693A      4.085859  
    2694A      4.087960  2695A      4.089056  2696A      4.091807  
    2697A      4.094066  2698A      4.096073  2699A      4.097298  
    2700A      4.099802  2701A      4.102346  2702A      4.102739  
    2703A      4.105491  2704A      4.106348  2705A      4.109170  
    2706A      4.109704  2707A      4.111261  2708A      4.114596  
    2709A      4.120387  2710A      4.124087  2711A      4.125278  
    2712A      4.126883  2713A      4.128635  2714A      4.131384  
    2715A      4.134502  2716A      4.135623  2717A      4.138799  
    2718A      4.139870  2719A      4.142159  2720A      4.144631  
    2721A      4.146383  2722A      4.148207  2723A      4.150057  
    2724A      4.151322  2725A      4.151525  2726A      4.153534  
    2727A      4.156428  2728A      4.157583  2729A      4.159658  
    2730A      4.161370  2731A      4.162905  2732A      4.163734  
    2733A      4.165675  2734A      4.166977  2735A      4.170329  
    2736A      4.171964  2737A      4.173948  2738A      4.174975  
    2739A      4.175380  2740A      4.178643  2741A      4.181508  
    2742A      4.182543  2743A      4.184217  2744A      4.187305  
    2745A      4.190650  2746A      4.191524  2747A      4.192634  
    2748A      4.195327  2749A      4.195553  2750A      4.197624  
    2751A      4.200417  2752A      4.201121  2753A      4.203541  
    2754A      4.204145  2755A      4.205000  2756A      4.207235  
    2757A      4.209474  2758A      4.210684  2759A      4.211916  
    2760A      4.214003  2761A      4.216109  2762A      4.216866  
    2763A      4.218207  2764A      4.224241  2765A      4.224562  
    2766A      4.225673  2767A      4.228605  2768A      4.229760  
    2769A      4.234657  2770A      4.235074  2771A      4.236136  
    2772A      4.238025  2773A      4.241150  2774A      4.242555  
    2775A      4.244119  2776A      4.245861  2777A      4.250390  
    2778A      4.251921  2779A      4.252962  2780A      4.253811  
    2781A      4.255943  2782A      4.257422  2783A      4.258155  
    2784A      4.261682  2785A      4.263845  2786A      4.265450  
    2787A      4.266659  2788A      4.269370  2789A      4.271260  
    2790A      4.271956  2791A      4.273061  2792A      4.275620  
    2793A      4.276665  2794A      4.278165  2795A      4.280961  
    2796A      4.281198  2797A      4.284801  2798A      4.285301  
    2799A      4.285811  2800A      4.287537  2801A      4.290389  
    2802A      4.293374  2803A      4.294208  2804A      4.295133  
    2805A      4.295793  2806A      4.297523  2807A      4.299688  
    2808A      4.302695  2809A      4.305617  2810A      4.306557  
    2811A      4.308106  2812A      4.310221  2813A      4.312293  
    2814A      4.314484  2815A      4.316665  2816A      4.318675  
    2817A      4.321814  2818A      4.325348  2819A      4.325793  
    2820A      4.327444  2821A      4.331360  2822A      4.333174  
    2823A      4.333460  2824A      4.337859  2825A      4.338208  
    2826A      4.340986  2827A      4.341854  2828A      4.343889  
    2829A      4.348039  2830A      4.348922  2831A      4.352937  
    2832A      4.354279  2833A      4.355294  2834A      4.357451  
    2835A      4.361740  2836A      4.364508  2837A      4.366135  
    2838A      4.368617  2839A      4.371004  2840A      4.373453  
    2841A      4.374843  2842A      4.377422  2843A      4.378800  
    2844A      4.379643  2845A      4.381140  2846A      4.385005  
    2847A      4.385998  2848A      4.386866  2849A      4.388562  
    2850A      4.391609  2851A      4.392959  2852A      4.394361  
    2853A      4.396272  2854A      4.398092  2855A      4.401192  
    2856A      4.403555  2857A      4.405913  2858A      4.408109  
    2859A      4.410125  2860A      4.413481  2861A      4.417483  
    2862A      4.420912  2863A      4.422958  2864A      4.424959  
    2865A      4.428714  2866A      4.430131  2867A      4.430942  
    2868A      4.435110  2869A      4.438570  2870A      4.439405  
    2871A      4.442167  2872A      4.444843  2873A      4.447373  
    2874A      4.449028  2875A      4.451364  2876A      4.453567  
    2877A      4.454006  2878A      4.456687  2879A      4.459009  
    2880A      4.460241  2881A      4.462314  2882A      4.462753  
    2883A      4.464841  2884A      4.468367  2885A      4.470870  
    2886A      4.474673  2887A      4.476029  2888A      4.477015  
    2889A      4.480494  2890A      4.484296  2891A      4.485815  
    2892A      4.489180  2893A      4.491606  2894A      4.495284  
    2895A      4.496959  2896A      4.500525  2897A      4.501006  
    2898A      4.503207  2899A      4.508354  2900A      4.509319  
    2901A      4.511260  2902A      4.512735  2903A      4.515003  
    2904A      4.516123  2905A      4.517830  2906A      4.520136  
    2907A      4.522459  2908A      4.523120  2909A      4.523728  
    2910A      4.526806  2911A      4.528324  2912A      4.530252  
    2913A      4.530579  2914A      4.533034  2915A      4.533147  
    2916A      4.537434  2917A      4.538252  2918A      4.540579  
    2919A      4.542039  2920A      4.545869  2921A      4.548643  
    2922A      4.549971  2923A      4.552324  2924A      4.554611  
    2925A      4.556819  2926A      4.559696  2927A      4.561855  
    2928A      4.563039  2929A      4.565958  2930A      4.567197  
    2931A      4.567913  2932A      4.574414  2933A      4.575692  
    2934A      4.577690  2935A      4.581316  2936A      4.583794  
    2937A      4.588240  2938A      4.590982  2939A      4.594245  
    2940A      4.595320  2941A      4.599628  2942A      4.601458  
    2943A      4.603502  2944A      4.605743  2945A      4.608441  
    2946A      4.610821  2947A      4.611099  2948A      4.612411  
    2949A      4.613752  2950A      4.618327  2951A      4.618817  
    2952A      4.621477  2953A      4.622912  2954A      4.628745  
    2955A      4.630652  2956A      4.632040  2957A      4.634799  
    2958A      4.638153  2959A      4.639122  2960A      4.642948  
    2961A      4.645979  2962A      4.651190  2963A      4.654541  
    2964A      4.656498  2965A      4.657298  2966A      4.660138  
    2967A      4.662340  2968A      4.663770  2969A      4.668168  
    2970A      4.669758  2971A      4.673738  2972A      4.676125  
    2973A      4.681760  2974A      4.682596  2975A      4.687878  
    2976A      4.694820  2977A      4.697138  2978A      4.705116  
    2979A      4.706693  2980A      4.711117  2981A      4.713009  
    2982A      4.714433  2983A      4.718057  2984A      4.721742  
    2985A      4.722548  2986A      4.726504  2987A      4.730564  
    2988A      4.731254  2989A      4.733076  2990A      4.734563  
    2991A      4.734795  2992A      4.737250  2993A      4.739138  
    2994A      4.740706  2995A      4.742099  2996A      4.743210  
    2997A      4.746400  2998A      4.746937  2999A      4.748603  
    3000A      4.749721  3001A      4.753308  3002A      4.755970  
    3003A      4.757309  3004A      4.760056  3005A      4.762659  
    3006A      4.764854  3007A      4.769377  3008A      4.771255  
    3009A      4.774769  3010A      4.777058  3011A      4.781106  
    3012A      4.783308  3013A      4.786029  3014A      4.788115  
    3015A      4.794052  3016A      4.794752  3017A      4.797220  
    3018A      4.800120  3019A      4.801663  3020A      4.802738  
    3021A      4.809172  3022A      4.810337  3023A      4.817522  
    3024A      4.819754  3025A      4.821570  3026A      4.824848  
    3027A      4.828179  3028A      4.833415  3029A      4.835366  
    3030A      4.839559  3031A      4.842513  3032A      4.844432  
    3033A      4.850094  3034A      4.853110  3035A      4.855999  
    3036A      4.863853  3037A      4.867690  3038A      4.870972  
    3039A      4.874266  3040A      4.876921  3041A      4.881665  
    3042A      4.883757  3043A      4.884976  3044A      4.888492  
    3045A      4.890168  3046A      4.894600  3047A      4.899935  
    3048A      4.902895  3049A      4.907457  3050A      4.908067  
    3051A      4.915192  3052A      4.918014  3053A      4.920493  
    3054A      4.924860  3055A      4.928056  3056A      4.930932  
    3057A      4.932418  3058A      4.934493  3059A      4.940643  
    3060A      4.943986  3061A      4.944528  3062A      4.948104  
    3063A      4.950295  3064A      4.951393  3065A      4.953295  
    3066A      4.957544  3067A      4.961353  3068A      4.962406  
    3069A      4.971687  3070A      4.974786  3071A      4.977311  
    3072A      4.979419  3073A      4.981529  3074A      4.987917  
    3075A      4.991829  3076A      4.994904  3077A      4.997031  
    3078A      4.999365  3079A      5.005183  3080A      5.013421  
    3081A      5.019532  3082A      5.021503  3083A      5.025477  
    3084A      5.029238  3085A      5.033737  3086A      5.035482  
    3087A      5.038688  3088A      5.040476  3089A      5.042710  
    3090A      5.044085  3091A      5.049393  3092A      5.053883  
    3093A      5.057594  3094A      5.059215  3095A      5.061815  
    3096A      5.064954  3097A      5.068846  3098A      5.071164  
    3099A      5.076019  3100A      5.084045  3101A      5.087157  
    3102A      5.089331  3103A      5.093031  3104A      5.100560  
    3105A      5.103601  3106A      5.106341  3107A      5.108693  
    3108A      5.112961  3109A      5.115096  3110A      5.122166  
    3111A      5.126911  3112A      5.127846  3113A      5.128743  
    3114A      5.131862  3115A      5.132227  3116A      5.137859  
    3117A      5.140756  3118A      5.146074  3119A      5.159644  
    3120A      5.169444  3121A      5.175242  3122A      5.176294  
    3123A      5.180588  3124A      5.182156  3125A      5.192927  
    3126A      5.202176  3127A      5.205380  3128A      5.210241  
    3129A      5.213387  3130A      5.214505  3131A      5.217054  
    3132A      5.218618  3133A      5.226505  3134A      5.231180  
    3135A      5.246692  3136A      5.250479  3137A      5.251593  
    3138A      5.252476  3139A      5.254761  3140A      5.257496  
    3141A      5.270141  3142A      5.278722  3143A      5.286990  
    3144A      5.289961  3145A      5.291711  3146A      5.296660  
    3147A      5.298332  3148A      5.301100  3149A      5.302239  
    3150A      5.306235  3151A      5.310201  3152A      5.314401  
    3153A      5.324032  3154A      5.325857  3155A      5.339801  
    3156A      5.340882  3157A      5.353296  3158A      5.355819  
    3159A      5.358879  3160A      5.360962  3161A      5.363047  
    3162A      5.368235  3163A      5.369639  3164A      5.373520  
    3165A      5.376132  3166A      5.378059  3167A      5.381893  
    3168A      5.390817  3169A      5.394005  3170A      5.397823  
    3171A      5.416406  3172A      5.417336  3173A      5.420135  
    3174A      5.430397  3175A      5.432169  3176A      5.434806  
    3177A      5.440340  3178A      5.446796  3179A      5.453429  
    3180A      5.457748  3181A      5.461451  3182A      5.462765  
    3183A      5.465042  3184A      5.467431  3185A      5.469070  
    3186A      5.473553  3187A      5.483975  3188A      5.502253  
    3189A      5.512938  3190A      5.524177  3191A      5.528896  
    3192A      5.531945  3193A      5.537998  3194A      5.564300  
    3195A      5.568750  3196A      5.571973  3197A      5.583332  
    3198A      5.595819  3199A      5.604131  3200A      5.607396  
    3201A      5.618538  3202A      5.622962  3203A      5.635808  
    3204A      5.647912  3205A      5.650009  3206A      5.652933  
    3207A      5.655845  3208A      5.661950  3209A      5.666441  
    3210A      5.708770  3211A      5.715921  3212A      5.725294  
    3213A      5.730526  3214A      5.748663  3215A      5.759714  
    3216A      5.773380  3217A      5.776619  3218A      5.786110  
    3219A      5.795325  3220A      5.802513  3221A      5.811653  
    3222A      5.822149  3223A      5.826673  3224A      5.833049  
    3225A      5.833686  3226A      5.847848  3227A      5.850562  
    3228A      5.862390  3229A      5.871514  3230A      5.900885  
    3231A      5.920020  3232A      5.921042  3233A      5.924165  
    3234A      5.928299  3235A      5.933185  3236A      5.952579  
    3237A      5.952820  3238A      5.956991  3239A      5.973949  
    3240A      5.975736  3241A      5.990002  3242A      5.991235  
    3243A      5.995545  3244A      5.997167  3245A      6.004021  
    3246A      6.023775  3247A      6.031946  3248A      6.037149  
    3249A      6.041313  3250A      6.051611  3251A      6.054051  
    3252A      6.055100  3253A      6.067816  3254A      6.073065  
    3255A      6.076224  3256A      6.088149  3257A      6.094578  
    3258A      6.099704  3259A      6.105191  3260A      6.120594  
    3261A      6.123944  3262A      6.126580  3263A      6.139798  
    3264A      6.142230  3265A      6.151112  3266A      6.153099  
    3267A      6.157169  3268A      6.158584  3269A      6.164548  
    3270A      6.167725  3271A      6.172582  3272A      6.173956  
    3273A      6.178706  3274A      6.183375  3275A      6.186450  
    3276A      6.195671  3277A      6.205369  3278A      6.205569  
    3279A      6.206129  3280A      6.215514  3281A      6.219737  
    3282A      6.221691  3283A      6.226757  3284A      6.247988  
    3285A      6.259574  3286A      6.266096  3287A      6.269684  
    3288A      6.286077  3289A      6.290057  3290A      6.292958  
    3291A      6.300187  3292A      6.336291  3293A      6.346992  
    3294A      6.351929  3295A      6.352574  3296A      6.362745  
    3297A      6.372503  3298A      6.390840  3299A      6.408140  
    3300A      6.410773  3301A      6.413705  3302A      6.414937  
    3303A      6.418754  3304A      6.425633  3305A      6.429387  
    3306A      6.431477  3307A      6.452976  3308A      6.458826  
    3309A      6.464855  3310A      6.468705  3311A      6.481676  
    3312A      6.483595  3313A      6.486285  3314A      6.489689  
    3315A      6.492858  3316A      6.496243  3317A      6.505495  
    3318A      6.521412  3319A      6.523079  3320A      6.539169  
    3321A      6.541093  3322A      6.544077  3323A      6.560569  
    3324A      6.567136  3325A      6.574557  3326A      6.577982  
    3327A      6.611674  3328A      6.634491  3329A      6.635597  
    3330A      6.639092  3331A      6.645969  3332A      6.652211  
    3333A      6.658937  3334A      6.661285  3335A      6.672621  
    3336A      6.681406  3337A      6.686873  3338A      6.689887  
    3339A      6.691207  3340A      6.694659  3341A      6.704179  
    3342A      6.774506  3343A      6.834356  3344A      6.872769  
    3345A      6.878181  3346A      6.919132  3347A      6.922623  
    3348A      6.928725  3349A      7.026528  3350A      7.102792  
    3351A      7.148695  3352A      7.366009  3353A      7.396154  
    3354A     14.898733  3355A     14.934974  3356A     15.054252  
    3357A     15.212820  3358A     15.698071  3359A     15.822956  
    3360A     16.170880  3361A     16.493753  3362A     16.538789  
    3363A     16.549639  3364A     16.632731  3365A     16.665541  
    3366A     16.684667  3367A     16.718082  3368A     16.734424  
    3369A     17.395117  3370A     17.600564  3371A     17.613105  
    3372A     18.171162  3373A     18.180914  3374A     18.294322  
    3375A     18.344893  3376A     18.382358  3377A     18.741863  
    3378A     18.879457  3379A     18.914092  3380A     19.087778  
    3381A     19.223367  3382A     19.341512  3383A     19.467703  
    3384A     20.000874  3385A     20.025325  3386A     20.096699  
    3387A     20.203822  3388A     20.244009  3389A     20.271771  
    3390A     20.585402  3391A     20.647589  3392A     20.766056  
    3393A     20.792323  3394A     20.880923  3395A     21.098398  
    3396A     21.207373  3397A     21.581389  3398A     21.655677  
    3399A     21.659649  3400A     21.778882  3401A     21.811145  
    3402A     21.936012  3403A     22.396081  3404A     22.419089  
    3405A     22.452951  3406A     22.502774  3407A     22.585128  
    3408A     22.657277  3409A     22.765421  3410A     22.832478  
    3411A     22.958567  3412A     23.077609  3413A     23.161281  
    3414A     23.183724  3415A     23.372081  3416A     23.469098  
    3417A     23.515094  

    Final Occupation by Irrep:
              A 
    DOCC [   206 ]
    NA   [   206 ]
    NB   [   206 ]

  @DF-RKS Final Energy: -2534.08617300337528

   => Energetics <=

    Nuclear Repulsion Energy =           9204.8300480012621847
    One-Electron Energy =              -21776.4959132756775944
    Two-Electron Energy =               10398.5894282806711999
    DFT Exchange-Correlation Energy =    -360.9232570945889620
    Empirical Dispersion Energy =          -0.0864789150425540
    VV10 Nonlocal Energy =                  0.0000000000000000
    Total Energy =                      -2534.0861730033752792

Computation Completed


Properties will be evaluated at   0.000000,   0.000000,   0.000000 [a0]

Properties computed using the SCF density matrix


 Multipole Moments:

 ------------------------------------------------------------------------------------
     Multipole            Electronic (a.u.)      Nuclear  (a.u.)        Total (a.u.)
 ------------------------------------------------------------------------------------

 L = 1.  Multiply by 2.5417464519 to convert [e a0] to [Debye]
 Dipole X            :         -6.9187732            7.2924530            0.3736798
 Dipole Y            :          3.2781210           -3.6736275           -0.3955065
 Dipole Z            :         -6.2290933            5.9110634           -0.3180298
 Magnitude           :                                                    0.6302420

 ------------------------------------------------------------------------------------

*** tstop() called on atl1-1-03-004-19-2.pace.gatech.edu at Sat Jun 13 14:53:15 2026
Module time:
	user time   =   27573.95 seconds =     459.57 minutes
	system time =    2913.70 seconds =      48.56 minutes
	total time  =      14090 seconds =     234.83 minutes
Total time:
	user time   =   27573.95 seconds =     459.57 minutes
	system time =    2913.70 seconds =      48.56 minutes
	total time  =      14090 seconds =     234.83 minutes

    Psi4 stopped on: Saturday, 13 June 2026 02:53PM
    Psi4 wall time for execution: 3:55:01.58

*** Psi4 exiting successfully. Buy a developer a beer!
