
    -----------------------------------------------------------------------
          Psi4: An Open-Source Ab Initio Electronic Structure Package
                               Psi4 1.9.1 release

                         Git: Rev {} zzzzzzz 


    D. G. A. Smith, L. A. Burns, A. C. Simmonett, R. M. Parrish,
    M. C. Schieber, R. Galvelis, P. Kraus, H. Kruse, R. Di Remigio,
    A. Alenaizan, A. M. James, S. Lehtola, J. P. Misiewicz, M. Scheurer,
    R. A. Shaw, J. B. Schriber, Y. Xie, Z. L. Glick, D. A. Sirianni,
    J. S. O'Brien, J. M. Waldrop, A. Kumar, E. G. Hohenstein,
    B. P. Pritchard, B. R. Brooks, H. F. Schaefer III, A. Yu. Sokolov,
    K. Patkowski, A. E. DePrince III, U. Bozkaya, R. A. King,
    F. A. Evangelista, J. M. Turney, T. D. Crawford, C. D. Sherrill,
    J. Chem. Phys. 152(18) 184108 (2020). https://doi.org/10.1063/5.0006002

                            Additional Code Authors
    E. T. Seidl, C. L. Janssen, E. F. Valeev, M. L. Leininger,
    J. F. Gonthier, R. M. Richard, H. R. McAlexander, M. Saitow, X. Wang,
    P. Verma, M. H. Lechner, A. Jiang, S. Behnle, A. G. Heide,
    M. F. Herbst, and D. L. Poole

             Previous Authors, Complete List of Code Contributors,
                       and Citations for Specific Modules
    https://github.com/psi4/psi4/blob/master/codemeta.json
    https://github.com/psi4/psi4/graphs/contributors
    http://psicode.org/psi4manual/master/introduction.html#citing-psifour

    -----------------------------------------------------------------------


    Psi4 started on: Saturday, 13 June 2026 11:15AM

    Process ID: 274126
    Host:       atl1-1-03-004-8-2.pace.gatech.edu
    PSIDATADIR: /storage/home/hcoda1/5/vlita3/.conda/envs/p4_qcml/share/psi4
    Memory:     250.0 GiB
    Threads:    10
    
  ==> Input QCSchema <==

--------------------------------------------------------------------------
{'driver': 'energy',
 'extras': {},
 'id': '213',
 'keywords': {},
 'model': {'basis': 'aug-cc-pvtz', 'method': 'pbe-d3'},
 'molecule': {'extras': {},
              'fix_com': True,
              'fix_orientation': True,
              'fragment_charges': [0.0, 0.0],
              'fragment_multiplicities': [1, 1],
              'fragments': [[0, 1, 2, 3, 4, 5, 6, 7, 8, 9, 10, 11, 12, 13, 14, 15, 16, 17, 18, 19, 20, 21, 22, 23, 24,
                             25, 26, 27, 28, 29, 30, 31, 32, 33, 34, 35],
                            [36, 37, 38, 39, 40, 41, 42, 43, 44, 45, 46, 47, 48, 49, 50, 51, 52, 53, 54, 55, 56, 57, 58,
                             59, 60, 61, 62, 63, 64, 65, 66, 67, 68, 69, 70, 71]],
              'geometry': [-2.81102804, -2.32727976, -3.26733672, -0.12371685, -2.32727976, -3.26733672, 1.21993874,
                           0.0, -3.26733672, -0.12371685, 2.32727976, -3.26733672, -2.81102804, 2.32727976, -3.26733672,
                           -4.15468364, 0.0, -3.26733672, 1.21375609, -4.64385085, -3.26733672, -0.17645855,
                           -6.93684965, -3.26733672, -2.75828635, -6.93684965, -3.26733672, -4.14850099, -4.64385085,
                           -3.26733672, -6.82962953, 0.0, -3.26733672, -8.12031742, -2.3504606, -3.26733672,
                           -6.82940352, -4.58638906, -3.26733672, -8.12031742, 2.3504606, -3.26733672, -6.82940352,
                           4.58638906, -3.26733672, -4.14850099, 4.64385085, -3.26733672, -2.75828635, 6.93684965,
                           -3.26733672, -0.17645855, 6.93684965, -3.26733672, 1.21375609, 4.64385085, -3.26733672,
                           3.89465863, 4.58638906, -3.26733672, 5.18557252, 2.3504606, -3.26733672, 3.89488463, 0.0,
                           -3.26733672, 5.18557252, -2.3504606, -3.26733672, 3.89465863, -4.58638906, -3.26733672,
                           0.84958395, -8.70675598, -3.26733672, -3.78432885, -8.70675598, -3.26733672, -7.84916611,
                           -6.35992109, -3.26733672, -10.16612251, -2.34683489, -3.26733672, -10.16612251, 2.34683489,
                           -3.26733672, -7.84916611, 6.35992109, -3.26733672, -3.78432885, 8.70675598, -3.26733672,
                           0.84958395, 8.70675598, -3.26733672, 4.91442121, 6.35992109, -3.26733672, 7.23137761,
                           2.34683489, -3.26733672, 7.23137761, -2.34683489, -3.26733672, 4.91442121, -6.35992109,
                           -3.26733672, 0.12371685, -2.32727976, 3.26733672, 2.81102804, -2.32727976, 3.26733672,
                           4.15468364, 0.0, 3.26733672, 2.81102804, 2.32727976, 3.26733672, 0.12371685, 2.32727976,
                           3.26733672, -1.21993874, 0.0, 3.26733672, 4.14850099, -4.64385085, 3.26733672, 2.75828635,
                           -6.93684965, 3.26733672, 0.17645855, -6.93684965, 3.26733672, -1.21375609, -4.64385085,
                           3.26733672, -3.89488463, 0.0, 3.26733672, -5.18557252, -2.3504606, 3.26733672, -3.89465863,
                           -4.58638906, 3.26733672, -5.18557252, 2.3504606, 3.26733672, -3.89465863, 4.58638906,
                           3.26733672, -1.21375609, 4.64385085, 3.26733672, 0.17645855, 6.93684965, 3.26733672,
                           2.75828635, 6.93684965, 3.26733672, 4.14850099, 4.64385085, 3.26733672, 6.82940352,
                           4.58638906, 3.26733672, 8.12031742, 2.3504606, 3.26733672, 6.82962953, 0.0, 3.26733672,
                           8.12031742, -2.3504606, 3.26733672, 6.82940352, -4.58638906, 3.26733672, 3.78432885,
                           -8.70675598, 3.26733672, -0.84958395, -8.70675598, 3.26733672, -4.91442121, -6.35992109,
                           3.26733672, -7.23137761, -2.34683489, 3.26733672, -7.23137761, 2.34683489, 3.26733672,
                           -4.91442121, 6.35992109, 3.26733672, -0.84958395, 8.70675598, 3.26733672, 3.78432885,
                           8.70675598, 3.26733672, 7.84916611, 6.35992109, 3.26733672, 10.16612251, 2.34683489,
                           3.26733672, 10.16612251, -2.34683489, 3.26733672, 7.84916611, -6.35992109, 3.26733672],
              'id': 2,
              'identifiers': {'molecular_formula': 'C48H24',
                              'molecule_hash': '5e8f6cf798e5af2fc45ad63c8cba340f6c4842b2'},
              'molecular_charge': 0.0,
              'molecular_multiplicity': 1,
              'name': 'C48H24',
              'provenance': {'creator': 'QCElemental',
                             'routine': 'qcelemental.molparse.from_string',
                             'version': '0.29.0'},
              'schema_name': 'qcschema_molecule',
              'schema_version': 2,
              'symbols': ['C', 'C', 'C', 'C', 'C', 'C', 'C', 'C', 'C', 'C', 'C', 'C', 'C', 'C', 'C', 'C', 'C', 'C', 'C',
                          'C', 'C', 'C', 'C', 'C', 'H', 'H', 'H', 'H', 'H', 'H', 'H', 'H', 'H', 'H', 'H', 'H', 'C', 'C',
                          'C', 'C', 'C', 'C', 'C', 'C', 'C', 'C', 'C', 'C', 'C', 'C', 'C', 'C', 'C', 'C', 'C', 'C', 'C',
                          'C', 'C', 'C', 'H', 'H', 'H', 'H', 'H', 'H', 'H', 'H', 'H', 'H', 'H', 'H'],
              'validated': True},
 'protocols': {},
 'provenance': {'creator': 'QCElemental', 'routine': 'qcelemental.models.results', 'version': '0.29.0'},
 'schema_name': 'qcschema_input',
 'schema_version': 1}
--------------------------------------------------------------------------

Scratch directory: /tmp/tmpo1eoyqe1_psi_scratch/
   => Libint2 <=

    Primary   basis highest AM E, G, H:  6, 6, 3
    Auxiliary basis highest AM E, G, H:  7, 7, 4
    Onebody   basis highest AM E, G, H:  -, -, -
    Solid Harmonics ordering:            Gaussian

*** tstart() called on atl1-1-03-004-8-2.pace.gatech.edu
*** at Sat Jun 13 11:15:19 2026

   => Loading Basis Set <=

    Name: AUG-CC-PVTZ
    Role: ORBITAL
    Keyword: BASIS
    atoms 1-24, 37-60  entry C          line   239 file /storage/home/hcoda1/5/vlita3/.conda/envs/p4_qcml/share/psi4/basis/aug-cc-pvtz.gbs 
    atoms 25-36, 61-72 entry H          line    40 file /storage/home/hcoda1/5/vlita3/.conda/envs/p4_qcml/share/psi4/basis/aug-cc-pvtz.gbs 

   => PBE-D3: Empirical Dispersion <=

    Grimme's -D3 (zero-damping) Dispersion Correction
    Grimme S.; Antony J.; Ehrlich S.; Krieg H. (2010), J. Chem. Phys., 132: 154104

        s6 =       1.000000
        s8 =       0.722000
       sr6 =       1.217000
    alpha6 =      14.000000
       sr8 =       1.000000


         ---------------------------------------------------------
                                   SCF
               by Justin Turney, Rob Parrish, Andy Simmonett
                          and Daniel G. A. Smith
                              RKS Reference
                       10 Threads, 256000 MiB Core
         ---------------------------------------------------------

  ==> Geometry <==

    Molecular point group: c2h
    Full point group: C2h

    Geometry (in Bohr), charge = 0, multiplicity = 1:

       Center              X                  Y                   Z               Mass       
    ------------   -----------------  -----------------  -----------------  -----------------
         C           -2.811028040000    -2.327279760000    -3.267336720000    12.000000000000
         C           -0.123716850000    -2.327279760000    -3.267336720000    12.000000000000
         C            1.219938740000     0.000000000000    -3.267336720000    12.000000000000
         C           -0.123716850000     2.327279760000    -3.267336720000    12.000000000000
         C           -2.811028040000     2.327279760000    -3.267336720000    12.000000000000
         C           -4.154683640000     0.000000000000    -3.267336720000    12.000000000000
         C            1.213756090000    -4.643850850000    -3.267336720000    12.000000000000
         C           -0.176458550000    -6.936849650000    -3.267336720000    12.000000000000
         C           -2.758286350000    -6.936849650000    -3.267336720000    12.000000000000
         C           -4.148500990000    -4.643850850000    -3.267336720000    12.000000000000
         C           -6.829629530000     0.000000000000    -3.267336720000    12.000000000000
         C           -8.120317420000    -2.350460600000    -3.267336720000    12.000000000000
         C           -6.829403520000    -4.586389060000    -3.267336720000    12.000000000000
         C           -8.120317420000     2.350460600000    -3.267336720000    12.000000000000
         C           -6.829403520000     4.586389060000    -3.267336720000    12.000000000000
         C           -4.148500990000     4.643850850000    -3.267336720000    12.000000000000
         C           -2.758286350000     6.936849650000    -3.267336720000    12.000000000000
         C           -0.176458550000     6.936849650000    -3.267336720000    12.000000000000
         C            1.213756090000     4.643850850000    -3.267336720000    12.000000000000
         C            3.894658630000     4.586389060000    -3.267336720000    12.000000000000
         C            5.185572520000     2.350460600000    -3.267336720000    12.000000000000
         C            3.894884630000     0.000000000000    -3.267336720000    12.000000000000
         C            5.185572520000    -2.350460600000    -3.267336720000    12.000000000000
         C            3.894658630000    -4.586389060000    -3.267336720000    12.000000000000
         H            0.849583950000    -8.706755980000    -3.267336720000     1.007825032230
         H           -3.784328850000    -8.706755980000    -3.267336720000     1.007825032230
         H           -7.849166110000    -6.359921090000    -3.267336720000     1.007825032230
         H          -10.166122510000    -2.346834890000    -3.267336720000     1.007825032230
         H          -10.166122510000     2.346834890000    -3.267336720000     1.007825032230
         H           -7.849166110000     6.359921090000    -3.267336720000     1.007825032230
         H           -3.784328850000     8.706755980000    -3.267336720000     1.007825032230
         H            0.849583950000     8.706755980000    -3.267336720000     1.007825032230
         H            4.914421210000     6.359921090000    -3.267336720000     1.007825032230
         H            7.231377610000     2.346834890000    -3.267336720000     1.007825032230
         H            7.231377610000    -2.346834890000    -3.267336720000     1.007825032230
         H            4.914421210000    -6.359921090000    -3.267336720000     1.007825032230
         C            0.123716850000    -2.327279760000     3.267336720000    12.000000000000
         C            2.811028040000    -2.327279760000     3.267336720000    12.000000000000
         C            4.154683640000     0.000000000000     3.267336720000    12.000000000000
         C            2.811028040000     2.327279760000     3.267336720000    12.000000000000
         C            0.123716850000     2.327279760000     3.267336720000    12.000000000000
         C           -1.219938740000     0.000000000000     3.267336720000    12.000000000000
         C            4.148500990000    -4.643850850000     3.267336720000    12.000000000000
         C            2.758286350000    -6.936849650000     3.267336720000    12.000000000000
         C            0.176458550000    -6.936849650000     3.267336720000    12.000000000000
         C           -1.213756090000    -4.643850850000     3.267336720000    12.000000000000
         C           -3.894884630000     0.000000000000     3.267336720000    12.000000000000
         C           -5.185572520000    -2.350460600000     3.267336720000    12.000000000000
         C           -3.894658630000    -4.586389060000     3.267336720000    12.000000000000
         C           -5.185572520000     2.350460600000     3.267336720000    12.000000000000
         C           -3.894658630000     4.586389060000     3.267336720000    12.000000000000
         C           -1.213756090000     4.643850850000     3.267336720000    12.000000000000
         C            0.176458550000     6.936849650000     3.267336720000    12.000000000000
         C            2.758286350000     6.936849650000     3.267336720000    12.000000000000
         C            4.148500990000     4.643850850000     3.267336720000    12.000000000000
         C            6.829403520000     4.586389060000     3.267336720000    12.000000000000
         C            8.120317420000     2.350460600000     3.267336720000    12.000000000000
         C            6.829629530000     0.000000000000     3.267336720000    12.000000000000
         C            8.120317420000    -2.350460600000     3.267336720000    12.000000000000
         C            6.829403520000    -4.586389060000     3.267336720000    12.000000000000
         H            3.784328850000    -8.706755980000     3.267336720000     1.007825032230
         H           -0.849583950000    -8.706755980000     3.267336720000     1.007825032230
         H           -4.914421210000    -6.359921090000     3.267336720000     1.007825032230
         H           -7.231377610000    -2.346834890000     3.267336720000     1.007825032230
         H           -7.231377610000     2.346834890000     3.267336720000     1.007825032230
         H           -4.914421210000     6.359921090000     3.267336720000     1.007825032230
         H           -0.849583950000     8.706755980000     3.267336720000     1.007825032230
         H            3.784328850000     8.706755980000     3.267336720000     1.007825032230
         H            7.849166110000     6.359921090000     3.267336720000     1.007825032230
         H           10.166122510000     2.346834890000     3.267336720000     1.007825032230
         H           10.166122510000    -2.346834890000     3.267336720000     1.007825032230
         H            7.849166110000    -6.359921090000     3.267336720000     1.007825032230

  Running in c2h symmetry.

  Rotational constants: A =      0.00378  B =      0.00326  C =      0.00251 [cm^-1]
  Rotational constants: A =    113.23902  B =     97.86670  C =     75.24221 [MHz]
  Nuclear repulsion = 6088.170067665134411

  Charge       = 0
  Multiplicity = 1
  Electrons    = 312
  Nalpha       = 156
  Nbeta        = 156

  ==> Algorithm <==

  SCF Algorithm Type is DF.
  DIIS enabled.
  MOM disabled.
  Fractional occupation disabled.
  Guess Type is SAD.
  Energy threshold   = 1.00e-06
  Density threshold  = 1.00e-06
  Integral threshold = 1.00e-12

  ==> Primary Basis <==

  Basis Set: AUG-CC-PVTZ
    Blend: AUG-CC-PVTZ
    Number of shells: 888
    Number of basis functions: 2760
    Number of Cartesian functions: 3240
    Spherical Harmonics?: true
    Max angular momentum: 3

  ==> DFT Potential <==

   => LibXC <=

    Version 7.0.0
    S. Lehtola, C. Steigemann, M. J.T. Oliveira, and M. A.L. Marques.,  SoftwareX 7, 1–5 (2018) (10.1016/j.softx.2017.11.002)

   => Composite Functional: PBE-D3ZERO2B <= 

    PBE GGA Exchange-Correlation Functional

    J.P. Perdew et. al., Phys. Rev. Lett., 77(18), 3865-3868, 1996


    Deriv               =              1
    GGA                 =           TRUE
    Meta                =          FALSE

    Exchange Hybrid     =          FALSE
    MP2 Hybrid          =          FALSE

   => Exchange Functionals <=

    1.0000     XC_GGA_X_PBE

   => Correlation Functionals <=

    1.0000     XC_GGA_C_PBE

   => LibXC Density Thresholds  <==

    XC_GGA_C_PBE:  1.00E-12 
    XC_GGA_X_PBE:  1.00E-15 

   => Molecular Quadrature <=

    Radial Scheme          =       TREUTLER
    Pruning Scheme         =           NONE
    Nuclear Scheme         =       TREUTLER

    Blocking Scheme        =         OCTREE
    BS radius alpha        =              1
    Pruning alpha          =              1
    Radial Points          =             75
    Spherical Points       =            302
    Total Points           =        1423706
    Total Blocks           =           9482
    Max Points             =            256
    Max Functions          =           2109
    Weights Tolerance      =       1.00E-15

   => Loading Basis Set <=

    Name: (AUG-CC-PVTZ AUX)
    Role: JKFIT
    Keyword: DF_BASIS_SCF
    atoms 1-24, 37-60  entry C          line   162 file /storage/home/hcoda1/5/vlita3/.conda/envs/p4_qcml/share/psi4/basis/aug-cc-pvtz-jkfit.gbs 
    atoms 25-36, 61-72 entry H          line    70 file /storage/home/hcoda1/5/vlita3/.conda/envs/p4_qcml/share/psi4/basis/aug-cc-pvtz-jkfit.gbs 

  ==> Integral Setup <==

  ==> DiskDFJK: Density-Fitted J/K Matrices <==

    J tasked:                  Yes
    K tasked:                   No
    wK tasked:                  No
    OpenMP threads:             10
    Integrals threads:          10
    Memory [MiB]:           147036
    Algorithm:                Disk
    Integral Cache:           NONE
    Schwarz Cutoff:          1E-12
    Fitting Condition:       1E-10

   => Auxiliary Basis Set <=

  Basis Set: (AUG-CC-PVTZ AUX)
    Blend: AUG-CC-PVTZ-JKFIT
    Number of shells: 1776
    Number of basis functions: 6096
    Number of Cartesian functions: 7608
    Spherical Harmonics?: true
    Max angular momentum: 4

  Cached 50.0% of DFT collocation blocks in 28.297 [GiB].

  Minimum eigenvalue in the overlap matrix is 1.3049964763E-10.
  Reciprocal condition number of the overlap matrix is 4.3273072668E-12.
    Using canonical orthogonalization.
  Overall, 31 of 2760 possible MOs eliminated.


  ==> Pre-Iterations <==

  SCF Guess: Superposition of Atomic Densities via on-the-fly atomic UHF (no occupation information).

   -------------------------
    Irrep   Nso     Nmo    
   -------------------------
     Ag       718     710 
     Bg       662     655 
     Au       662     654 
     Bu       718     710 
   -------------------------
    Total    2760    2729
   -------------------------

  ==> Iterations <==

                           Total Energy        Delta E     RMS |[F,P]|

   @DF-RKS iter SAD: -1843.14036247774220   -1.84314e+03   0.00000e+00 
    Occupation by irrep:
             Ag    Bg    Au    Bu 
    DOCC [    44,   34,   34,   44 ]
    NA   [    44,   34,   34,   44 ]
    NB   [    44,   34,   34,   44 ]

   @DF-RKS iter   1: -1838.25981955855968    4.88054e+00   1.93667e-03 DIIS/ADIIS
    Occupation by irrep:
             Ag    Bg    Au    Bu 
    DOCC [    43,   35,   35,   43 ]
    NA   [    43,   35,   35,   43 ]
    NB   [    43,   35,   35,   43 ]

   @DF-RKS iter   2: -1773.71542344083446    6.45444e+01   7.53217e-03 DIIS/ADIIS
   @DF-RKS iter   3: -1838.51247911172709   -6.47971e+01   1.91600e-03 DIIS/ADIIS
   @DF-RKS iter   4: -1840.15864055882321   -1.64616e+00   1.38820e-03 DIIS/ADIIS
   @DF-RKS iter   5: -1842.06008171137137   -1.90144e+00   2.72467e-04 DIIS/ADIIS
   @DF-RKS iter   6: -1842.08969581075803   -2.96141e-02   2.07851e-04 DIIS/ADIIS
   @DF-RKS iter   7: -1842.12396497462214   -3.42692e-02   6.31454e-05 DIIS
   @DF-RKS iter   8: -1842.12771221510479   -3.74724e-03   2.19845e-05 DIIS
   @DF-RKS iter   9: -1842.12818668201362   -4.74467e-04   7.55394e-06 DIIS
   @DF-RKS iter  10: -1842.12824003842684   -5.33564e-05   2.23172e-06 DIIS
   @DF-RKS iter  11: -1842.12824455410077   -4.51567e-06   7.36571e-07 DIIS
   @DF-RKS iter  12: -1842.12824504581840   -4.91718e-07   1.83255e-07 DIIS
  Energy and wave function converged.


  ==> Post-Iterations <==

   Electrons on quadrature grid:
      Ntotal   =  312.0006552865 ; deviation = 6.553e-04 

    Orbital Energies [Eh]
    ---------------------

    Doubly Occupied:                                                      

       1Ag    -9.899316     1Bu    -9.899315     2Ag    -9.898972  
       2Bu    -9.898972     1Au    -9.898828     1Bg    -9.898827  
       3Bu    -9.898740     3Ag    -9.898740     2Au    -9.898510  
       2Bg    -9.898510     4Ag    -9.898509     4Bu    -9.898508  
       5Bu    -9.898221     5Ag    -9.898220     3Au    -9.898184  
       3Bg    -9.898183     6Ag    -9.897661     6Bu    -9.897660  
       4Bg    -9.897566     4Au    -9.897566     7Ag    -9.897530  
       7Bu    -9.897529     8Bu    -9.897268     8Ag    -9.897267  
       5Bg    -9.890627     5Au    -9.890626     9Bu    -9.890616  
       9Ag    -9.890615    10Ag    -9.889999    10Bu    -9.889999  
       6Au    -9.889993     6Bg    -9.889993    11Bu    -9.889593  
      11Ag    -9.889592     7Au    -9.889591     7Bg    -9.889590  
      12Bu    -9.889000    12Ag    -9.889000     8Bg    -9.888987  
       8Au    -9.888987     9Au    -9.888302     9Bg    -9.888300  
      13Ag    -9.888286    13Bu    -9.888285    14Ag    -9.887414  
      14Bu    -9.887414    10Au    -9.887406    10Bg    -9.887405  
      15Ag    -0.829665    15Bu    -0.825979    11Au    -0.794962  
      16Bu    -0.794391    16Ag    -0.792059    11Bg    -0.791549  
      17Ag    -0.749809    12Bg    -0.749779    17Bu    -0.747823  
      12Au    -0.747673    18Ag    -0.733671    18Bu    -0.731802  
      13Au    -0.704828    13Bg    -0.703474    19Bu    -0.689967  
      19Ag    -0.688853    14Au    -0.674072    20Ag    -0.672996  
      20Bu    -0.672931    14Bg    -0.672099    21Ag    -0.644105  
      15Au    -0.643425    15Bg    -0.643141    21Bu    -0.642725  
      16Bg    -0.574497    22Ag    -0.574127    22Bu    -0.574105  
      16Au    -0.573802    23Ag    -0.569394    17Au    -0.569323  
      23Bu    -0.568949    17Bg    -0.568866    24Ag    -0.564475  
      24Bu    -0.564133    18Au    -0.503390    18Bg    -0.503152  
      25Bu    -0.497599    25Ag    -0.497465    19Au    -0.484750  
      19Bg    -0.484481    20Au    -0.483374    26Ag    -0.483053  
      26Bu    -0.482493    20Bg    -0.482340    27Bu    -0.463595  
      27Ag    -0.463472    28Ag    -0.425099    21Au    -0.424647  
      21Bg    -0.424192    28Bu    -0.424175    22Bg    -0.407831  
      29Ag    -0.407821    29Bu    -0.407704    22Au    -0.407673  
      23Bg    -0.403802    30Bu    -0.403539    23Au    -0.403431  
      30Ag    -0.403346    31Ag    -0.399971    32Ag    -0.379182  
      31Bu    -0.378785    32Bu    -0.374866    24Au    -0.372633  
      33Ag    -0.372570    24Bg    -0.372152    33Bu    -0.372098  
      25Au    -0.368770    25Bg    -0.368710    26Au    -0.360336  
      34Bu    -0.354954    35Bu    -0.353774    26Bg    -0.353505  
      34Ag    -0.353383    27Au    -0.353365    35Ag    -0.339698  
      27Bg    -0.336188    28Au    -0.327784    28Bg    -0.327676  
      36Bu    -0.326880    36Ag    -0.326546    29Au    -0.314369  
      37Ag    -0.314051    37Bu    -0.314033    29Bg    -0.313871  
      30Bg    -0.313675    30Au    -0.313584    38Ag    -0.307128  
      31Bg    -0.305627    38Bu    -0.292464    31Au    -0.291227  
      39Ag    -0.289922    39Bu    -0.277184    32Bg    -0.272864  
      40Ag    -0.272680    32Au    -0.272644    40Bu    -0.272511  
      33Au    -0.249603    41Bu    -0.247728    41Ag    -0.240937  
      33Bg    -0.239117    34Au    -0.233689    42Ag    -0.226834  
      42Bu    -0.225732    34Bg    -0.220783    43Ag    -0.193244  
      35Au    -0.188805    35Bg    -0.185695    43Bu    -0.182468  

    Virtual:                                                              

      36Au    -0.083823    44Ag    -0.083168    36Bg    -0.078076  
      44Bu    -0.077793    37Bg    -0.053028    45Bu    -0.050630  
      45Ag    -0.050441    37Au    -0.046739    46Ag    -0.033717  
      46Bu    -0.031455    47Ag    -0.022323    38Au    -0.018064  
      47Bu    -0.017124    39Au    -0.017029    38Bg    -0.015031  
      48Ag    -0.007163    39Bg    -0.007099    48Bu     0.000021  
      49Ag     0.002131    40Bg     0.003030    49Bu     0.005696  
      40Au     0.006818    50Ag     0.011126    50Bu     0.014524  
      51Ag     0.015330    41Au     0.016575    51Bu     0.017004  
      42Au     0.022168    52Bu     0.023390    41Bg     0.024389  
      52Ag     0.024662    53Bu     0.025874    42Bg     0.034216  
      53Ag     0.040149    43Au     0.042445    54Ag     0.042583  
      54Bu     0.044713    44Au     0.045590    43Bg     0.045608  
      55Ag     0.046508    55Bu     0.047096    44Bg     0.049769  
      56Ag     0.051302    45Au     0.053879    57Ag     0.054662  
      45Bg     0.055395    56Bu     0.055735    46Au     0.056941  
      57Bu     0.057413    58Ag     0.060530    46Bg     0.060624  
      58Bu     0.062615    59Ag     0.064520    47Bg     0.068004  
      60Ag     0.068975    59Bu     0.069127    47Au     0.069738  
      61Ag     0.069992    48Bg     0.070208    60Bu     0.071714  
      48Au     0.072092    49Au     0.078456    61Bu     0.078820  
      49Bg     0.080353    62Ag     0.081325    62Bu     0.083685  
      50Au     0.083722    51Au     0.085013    50Bg     0.085033  
      63Ag     0.088139    63Bu     0.088267    51Bg     0.089015  
      64Bu     0.090343    64Ag     0.091369    52Au     0.093588  
      65Bu     0.097148    53Au     0.099394    66Bu     0.099537  
      65Ag     0.102471    52Bg     0.102869    67Bu     0.104792  
      54Au     0.106745    66Ag     0.109461    53Bg     0.110270  
      67Ag     0.110854    54Bg     0.111767    68Ag     0.115153  
      55Bg     0.115238    69Ag     0.116593    68Bu     0.119441  
      70Ag     0.120226    55Au     0.121918    56Bg     0.122668  
      71Ag     0.122854    56Au     0.124397    69Bu     0.125463  
      70Bu     0.130343    57Au     0.130430    57Bg     0.131028  
      72Ag     0.131538    58Bg     0.131654    73Ag     0.132587  
      71Bu     0.134905    59Bg     0.135508    72Bu     0.141545  
      58Au     0.141974    74Ag     0.142379    59Au     0.144576  
      60Au     0.147625    73Bu     0.147880    74Bu     0.148544  
      61Au     0.149101    60Bg     0.149115    75Ag     0.154663  
      75Bu     0.155521    62Au     0.156347    76Ag     0.159694  
      61Bg     0.161894    77Ag     0.162107    63Au     0.162896  
      76Bu     0.163522    77Bu     0.163779    78Ag     0.164469  
      78Bu     0.166344    64Au     0.166454    62Bg     0.166816  
      79Bu     0.168472    65Au     0.169075    80Bu     0.170715  
      81Bu     0.172076    63Bg     0.172793    79Ag     0.175370  
      64Bg     0.175750    80Ag     0.176883    65Bg     0.176901  
      66Au     0.178560    81Ag     0.178653    82Bu     0.178809  
      67Au     0.178869    83Bu     0.181717    82Ag     0.183691  
      84Bu     0.183823    83Ag     0.184194    85Bu     0.185931  
      66Bg     0.186545    68Au     0.188506    84Ag     0.188528  
      67Bg     0.189044    86Bu     0.190076    85Ag     0.191848  
      68Bg     0.192610    69Au     0.192650    69Bg     0.196324  
      87Bu     0.196826    70Au     0.196987    86Ag     0.197874  
      70Bg     0.198941    87Ag     0.200124    88Bu     0.200667  
      71Au     0.200668    71Bg     0.201620    88Ag     0.201853  
      89Ag     0.202730    72Au     0.204083    73Au     0.204172  
      89Bu     0.204491    90Ag     0.204918    90Bu     0.207088  
      91Ag     0.209123    92Ag     0.212791    72Bg     0.213865  
      91Bu     0.214105    74Au     0.214256    73Bg     0.215326  
      93Ag     0.217245    74Bg     0.218024    75Au     0.218479  
      75Bg     0.220222    92Bu     0.221504    94Ag     0.221508  
      95Ag     0.222629    93Bu     0.224853    76Bg     0.227207  
      76Au     0.227768    77Au     0.228990    96Ag     0.229399  
      97Ag     0.230811    94Bu     0.231175    77Bg     0.232867  
      78Au     0.233492    78Bg     0.234857    98Ag     0.235997  
      95Bu     0.236435    96Bu     0.237096    79Bg     0.237603  
      79Au     0.237905    80Bg     0.238159    97Bu     0.239154  
      99Ag     0.239977    98Bu     0.240676    80Au     0.241782  
      99Bu     0.241887    81Bg     0.242266   100Ag     0.243069  
     101Ag     0.245164    81Au     0.246231    82Bg     0.247804  
     102Ag     0.248455   103Ag     0.248655    82Au     0.250004  
     100Bu     0.250077    83Bg     0.250822   101Bu     0.250871  
      83Au     0.253384   104Ag     0.254505    84Bg     0.254903  
     102Bu     0.255219   105Ag     0.255922    84Au     0.256430  
     103Bu     0.257519    85Au     0.259323   104Bu     0.261067  
     106Ag     0.262516    85Bg     0.264366    86Au     0.266868  
      86Bg     0.269321   107Ag     0.269909   105Bu     0.270385  
      87Au     0.271369    88Au     0.273435   106Bu     0.275030  
     107Bu     0.276133   108Ag     0.278115    87Bg     0.278775  
      89Au     0.278970   108Bu     0.280499    90Au     0.280543  
      88Bg     0.281973   109Ag     0.281974   110Ag     0.284091  
      89Bg     0.284289   109Bu     0.286423    91Au     0.287349  
     110Bu     0.290000   111Ag     0.290933    90Bg     0.290934  
      92Au     0.293686   112Ag     0.294018   111Bu     0.294263  
      91Bg     0.295494    93Au     0.298713   113Ag     0.298793  
     112Bu     0.299492    92Bg     0.299821    94Au     0.303900  
      93Bg     0.303905   113Bu     0.305300    94Bg     0.306032  
     114Ag     0.307946    95Au     0.308036   114Bu     0.310543  
     115Bu     0.314368    96Au     0.316126   115Ag     0.317411  
     116Bu     0.317958    97Au     0.321604   116Ag     0.323742  
     117Bu     0.323979   117Ag     0.325202    98Au     0.325327  
      95Bg     0.327638    96Bg     0.330091   118Bu     0.330292  
      97Bg     0.332912   118Ag     0.333359    99Au     0.336319  
     119Bu     0.337146    98Bg     0.337244   119Ag     0.337859  
      99Bg     0.340829   120Ag     0.342251   120Bu     0.343369  
     121Bu     0.344517   100Bg     0.345614   121Ag     0.348565  
     101Bg     0.350010   122Bu     0.351890   100Au     0.353220  
     101Au     0.354947   123Bu     0.356315   122Ag     0.356753  
     102Bg     0.359106   124Bu     0.359870   102Au     0.363715  
     125Bu     0.363771   123Ag     0.364306   103Au     0.366394  
     124Ag     0.368367   103Bg     0.371786   125Ag     0.375004  
     104Au     0.375159   104Bg     0.376645   126Ag     0.377776  
     105Bg     0.377780   127Ag     0.380664   126Bu     0.380730  
     105Au     0.383270   128Ag     0.383479   106Bg     0.385249  
     107Bg     0.385714   127Bu     0.386980   128Bu     0.387919  
     129Ag     0.388013   106Au     0.392514   130Ag     0.393257  
     107Au     0.394757   129Bu     0.395713   108Bg     0.396119  
     131Ag     0.397819   108Au     0.399494   130Bu     0.399886  
     109Bg     0.402951   109Au     0.404296   132Ag     0.405539  
     110Bg     0.406004   131Bu     0.406876   133Ag     0.409220  
     110Au     0.410689   132Bu     0.410855   111Bg     0.413139  
     111Au     0.414321   134Ag     0.414568   112Bg     0.415664  
     133Bu     0.415846   135Ag     0.416543   136Ag     0.416740  
     134Bu     0.418477   112Au     0.420445   135Bu     0.420862  
     113Bg     0.423962   137Ag     0.424152   136Bu     0.424201  
     138Ag     0.426791   113Au     0.427457   139Ag     0.429379  
     137Bu     0.430233   114Au     0.430353   140Ag     0.430754  
     114Bg     0.432081   115Bg     0.435194   141Ag     0.435483  
     138Bu     0.436102   142Ag     0.436231   115Au     0.436277  
     116Au     0.438419   116Bg     0.438680   139Bu     0.439369  
     117Bg     0.441554   140Bu     0.442182   117Au     0.443267  
     141Bu     0.446668   118Au     0.446962   143Ag     0.448688  
     118Bg     0.448886   119Au     0.449743   142Bu     0.450619  
     119Bg     0.452294   120Au     0.453366   143Bu     0.453686  
     144Bu     0.454220   144Ag     0.455212   145Ag     0.456467  
     121Au     0.459391   146Ag     0.459938   120Bg     0.461006  
     145Bu     0.462822   121Bg     0.463441   146Bu     0.465722  
     147Ag     0.466097   122Bg     0.466693   147Bu     0.467858  
     123Bg     0.467902   122Au     0.468515   148Ag     0.471725  
     123Au     0.472551   148Bu     0.472673   124Au     0.474863  
     149Ag     0.475711   150Ag     0.477269   149Bu     0.477960  
     124Bg     0.479399   125Bg     0.481669   151Ag     0.482000  
     150Bu     0.483599   126Bg     0.484829   152Ag     0.485601  
     125Au     0.486416   126Au     0.487224   127Bg     0.489739  
     127Au     0.490297   151Bu     0.492857   152Bu     0.495356  
     128Au     0.497191   153Bu     0.498019   153Ag     0.498183  
     128Bg     0.498481   154Ag     0.501940   129Bg     0.503343  
     155Ag     0.505318   130Bg     0.507122   154Bu     0.507628  
     129Au     0.508949   156Ag     0.509193   155Bu     0.510493  
     131Bg     0.511793   132Bg     0.515481   130Au     0.515975  
     131Au     0.518029   157Ag     0.520289   133Bg     0.521082  
     132Au     0.521473   156Bu     0.522642   157Bu     0.524029  
     158Ag     0.525031   133Au     0.529095   158Bu     0.530158  
     159Bu     0.533945   159Ag     0.537393   134Bg     0.538178  
     134Au     0.538203   160Bu     0.538759   135Bg     0.541337  
     160Ag     0.543425   135Au     0.543831   136Au     0.546819  
     161Bu     0.547812   137Au     0.549090   136Bg     0.551443  
     161Ag     0.554366   162Bu     0.556807   138Au     0.559104  
     162Ag     0.559162   139Au     0.561682   137Bg     0.563726  
     163Ag     0.565136   138Bg     0.565274   163Bu     0.566866  
     164Ag     0.569396   140Au     0.571553   164Bu     0.572366  
     141Au     0.577233   165Ag     0.578357   139Bg     0.578933  
     165Bu     0.579555   140Bg     0.581990   166Ag     0.582253  
     142Au     0.582288   166Bu     0.584513   167Ag     0.586664  
     141Bg     0.589594   167Bu     0.589605   143Au     0.589671  
     168Ag     0.591682   168Bu     0.592177   169Ag     0.595197  
     142Bg     0.596074   170Ag     0.597731   144Au     0.598894  
     143Bg     0.600495   169Bu     0.600628   145Au     0.603941  
     144Bg     0.608159   171Ag     0.611036   145Bg     0.611297  
     146Au     0.612862   170Bu     0.613750   146Bg     0.614584  
     147Au     0.617868   147Bg     0.618009   171Bu     0.618348  
     172Ag     0.620180   172Bu     0.620491   148Au     0.623536  
     173Ag     0.625521   148Bg     0.628471   174Ag     0.629869  
     173Bu     0.630803   174Bu     0.631476   149Au     0.633003  
     149Bg     0.633596   175Ag     0.634517   150Au     0.636576  
     175Bu     0.638796   176Ag     0.639332   150Bg     0.639622  
     176Bu     0.642264   177Bu     0.646901   151Au     0.647891  
     151Bg     0.649795   177Ag     0.650284   178Ag     0.651243  
     178Bu     0.654307   152Au     0.656576   152Bg     0.656736  
     179Bu     0.660026   179Ag     0.660681   180Bu     0.663463  
     153Bg     0.664370   153Au     0.664645   180Ag     0.666207  
     154Au     0.669001   154Bg     0.669341   181Ag     0.670971  
     181Bu     0.674315   182Ag     0.674887   155Bg     0.676617  
     155Au     0.676690   156Bg     0.679990   156Au     0.680620  
     182Bu     0.680758   183Ag     0.683550   157Au     0.683775  
     184Ag     0.686523   183Bu     0.686981   157Bg     0.688924  
     184Bu     0.689936   158Bg     0.692065   158Au     0.692199  
     185Ag     0.694697   185Bu     0.696144   186Ag     0.696823  
     159Au     0.697227   186Bu     0.699416   159Bg     0.703506  
     160Au     0.703784   160Bg     0.705377   187Ag     0.705578  
     187Bu     0.705715   161Au     0.707286   188Ag     0.708934  
     161Bg     0.709726   188Bu     0.711730   162Bg     0.712369  
     189Ag     0.712542   189Bu     0.713264   190Ag     0.715287  
     162Au     0.717767   190Bu     0.718287   163Bg     0.718755  
     163Au     0.720037   191Ag     0.721740   164Bg     0.724947  
     192Ag     0.731696   165Bg     0.733275   164Au     0.734240  
     193Ag     0.736000   191Bu     0.737091   192Bu     0.738195  
     165Au     0.741277   193Bu     0.742933   194Ag     0.744352  
     166Bg     0.746387   166Au     0.746742   194Bu     0.749219  
     167Au     0.751427   195Ag     0.751616   167Bg     0.755381  
     196Ag     0.756160   195Bu     0.758496   196Bu     0.759470  
     197Bu     0.759886   168Au     0.760127   168Bg     0.760529  
     197Ag     0.761931   169Bg     0.762043   169Au     0.763552  
     198Ag     0.764561   199Ag     0.766003   170Au     0.768226  
     170Bg     0.770065   198Bu     0.771250   200Ag     0.772402  
     171Au     0.773050   199Bu     0.776176   201Ag     0.777475  
     171Bg     0.778080   202Ag     0.780148   200Bu     0.780550  
     172Au     0.780628   172Bg     0.785232   173Bg     0.785895  
     173Au     0.785971   201Bu     0.786605   202Bu     0.789733  
     203Ag     0.792228   174Bg     0.793327   174Au     0.794554  
     175Au     0.795481   203Bu     0.796447   204Ag     0.796845  
     175Bg     0.798333   205Ag     0.799833   204Bu     0.800779  
     206Ag     0.804144   205Bu     0.804230   176Bg     0.805867  
     176Au     0.806427   207Ag     0.807551   177Bg     0.808350  
     206Bu     0.808647   177Au     0.811017   207Bu     0.811513  
     178Au     0.813272   208Ag     0.816043   208Bu     0.817407  
     178Bg     0.817418   179Au     0.820247   209Ag     0.820908  
     209Bu     0.822433   179Bg     0.824611   180Au     0.824954  
     210Ag     0.825645   210Bu     0.828789   181Au     0.829054  
     211Ag     0.829327   180Bg     0.832146   211Bu     0.832282  
     182Au     0.833330   212Ag     0.833377   213Ag     0.834556  
     212Bu     0.835258   183Au     0.838765   213Bu     0.838781  
     181Bg     0.839107   182Bg     0.842364   183Bg     0.844459  
     214Bu     0.844657   184Au     0.845756   214Ag     0.846706  
     184Bg     0.847639   215Ag     0.848358   185Au     0.851589  
     215Bu     0.855375   185Bg     0.856682   216Bu     0.858963  
     186Bg     0.859261   216Ag     0.860838   186Au     0.862101  
     187Au     0.863513   217Ag     0.865278   187Bg     0.866064  
     217Bu     0.867148   218Ag     0.869545   188Bg     0.872052  
     219Ag     0.874226   218Bu     0.875326   188Au     0.875654  
     189Bg     0.878538   220Ag     0.880365   219Bu     0.882741  
     221Ag     0.886462   220Bu     0.886816   189Au     0.887275  
     190Bg     0.887359   190Au     0.892282   191Au     0.893539  
     221Bu     0.895301   191Bg     0.898669   222Bu     0.900182  
     222Ag     0.900269   192Au     0.901889   223Ag     0.904455  
     192Bg     0.906048   193Au     0.906747   223Bu     0.906816  
     224Ag     0.907179   193Bg     0.909259   225Ag     0.911816  
     194Au     0.917417   194Bg     0.919157   224Bu     0.921521  
     195Bg     0.922366   195Au     0.922727   225Bu     0.923171  
     226Ag     0.926389   227Ag     0.931149   196Bg     0.935423  
     196Au     0.935795   228Ag     0.936645   226Bu     0.937589  
     197Bg     0.938304   229Ag     0.940239   198Bg     0.940347  
     227Bu     0.941432   197Au     0.941497   198Au     0.942013  
     228Bu     0.944742   230Ag     0.949312   199Au     0.951230  
     199Bg     0.952441   229Bu     0.953733   200Bg     0.955485  
     200Au     0.955654   231Ag     0.957569   230Bu     0.958298  
     232Ag     0.958346   201Bg     0.958631   201Au     0.962050  
     233Ag     0.963258   202Bg     0.966007   202Au     0.966280  
     231Bu     0.966916   232Bu     0.968778   203Au     0.972070  
     233Bu     0.975165   203Bg     0.977023   204Au     0.979368  
     234Ag     0.981713   234Bu     0.982335   204Bg     0.985837  
     235Ag     0.986459   235Bu     0.989145   205Au     0.989151  
     205Bg     0.991496   236Ag     0.992918   237Ag     0.993858  
     236Bu     0.994006   206Au     0.994416   206Bg     0.997658  
     238Ag     0.998800   237Bu     0.999420   207Au     1.002774  
     207Bg     1.004164   238Bu     1.006203   239Ag     1.008338  
     208Au     1.010338   239Bu     1.012309   208Bg     1.012516  
     209Au     1.014632   240Ag     1.015935   209Bg     1.016445  
     240Bu     1.018457   210Bg     1.019442   210Au     1.020918  
     241Bu     1.021399   211Bg     1.025629   241Ag     1.028648  
     242Ag     1.029527   242Bu     1.029722   212Bg     1.030835  
     211Au     1.033825   243Bu     1.035747   212Au     1.037433  
     244Bu     1.040435   213Bg     1.040679   243Ag     1.042708  
     213Au     1.042980   244Ag     1.045600   245Bu     1.046146  
     214Bg     1.048292   245Ag     1.049543   246Bu     1.052314  
     246Ag     1.053464   214Au     1.058299   215Au     1.059673  
     247Ag     1.062106   215Bg     1.062319   247Bu     1.062475  
     248Bu     1.064160   216Bg     1.067731   216Au     1.068625  
     248Ag     1.071732   249Bu     1.072013   217Bg     1.075015  
     217Au     1.075723   249Ag     1.077437   218Bg     1.078250  
     250Bu     1.079539   250Ag     1.082685   251Bu     1.082908  
     218Au     1.083238   219Bg     1.087754   251Ag     1.088943  
     219Au     1.089516   220Bg     1.091073   252Bu     1.092974  
     252Ag     1.093651   220Au     1.097435   253Bu     1.099783  
     253Ag     1.101919   221Au     1.104824   221Bg     1.104847  
     254Bu     1.106367   254Ag     1.107372   222Au     1.109761  
     255Bu     1.110737   255Ag     1.111822   222Bg     1.113176  
     256Bu     1.116822   256Ag     1.119068   223Bg     1.119704  
     257Bu     1.120098   224Bg     1.125514   223Au     1.125972  
     257Ag     1.127770   258Ag     1.131633   224Au     1.132409  
     259Ag     1.134289   258Bu     1.134956   260Ag     1.136866  
     225Au     1.137672   225Bg     1.138839   259Bu     1.141404  
     226Bg     1.143654   260Bu     1.144517   261Ag     1.145989  
     226Au     1.146198   227Bg     1.151265   261Bu     1.151667  
     262Bu     1.152904   227Au     1.156199   262Ag     1.156630  
     228Bg     1.160190   263Ag     1.161461   229Bg     1.163122  
     228Au     1.165064   264Ag     1.166182   263Bu     1.166768  
     264Bu     1.170934   229Au     1.171073   230Bg     1.171803  
     230Au     1.173229   231Bg     1.177966   265Bu     1.180630  
     231Au     1.182668   265Ag     1.182682   266Bu     1.184393  
     232Bg     1.188621   266Ag     1.189173   232Au     1.189944  
     267Ag     1.196416   267Bu     1.196692   233Bg     1.198983  
     268Bu     1.199211   233Au     1.200040   234Bg     1.200894  
     268Ag     1.205727   269Ag     1.207996   234Au     1.209082  
     235Bg     1.209191   270Ag     1.210664   269Bu     1.212045  
     235Au     1.212460   236Bg     1.217756   236Au     1.221876  
     270Bu     1.221922   237Bg     1.222141   271Bu     1.222544  
     271Ag     1.226150   272Bu     1.229267   237Au     1.230520  
     238Bg     1.232432   272Ag     1.235266   238Au     1.235475  
     273Ag     1.236053   273Bu     1.236108   239Bg     1.237265  
     274Bu     1.241694   274Ag     1.242234   240Bg     1.243517  
     239Au     1.248750   275Bu     1.250236   241Bg     1.252345  
     276Bu     1.252481   275Ag     1.253925   276Ag     1.257339  
     242Bg     1.258255   240Au     1.259838   277Bu     1.260730  
     243Bg     1.265464   277Ag     1.267358   241Au     1.269075  
     242Au     1.270409   278Ag     1.270854   278Bu     1.271444  
     279Bu     1.279026   243Au     1.279605   244Bg     1.279985  
     244Au     1.280244   245Bg     1.284166   279Ag     1.286009  
     246Bg     1.288618   280Ag     1.292335   280Bu     1.292432  
     245Au     1.293069   281Bu     1.296934   247Bg     1.297961  
     281Ag     1.298816   246Au     1.301321   248Bg     1.302124  
     282Ag     1.302940   282Bu     1.303048   283Bu     1.306153  
     247Au     1.306414   283Ag     1.307539   284Bu     1.311678  
     248Au     1.311854   284Ag     1.315140   249Bg     1.317860  
     285Ag     1.319390   286Ag     1.319569   249Au     1.319964  
     250Bg     1.320075   250Au     1.322950   285Bu     1.323483  
     251Au     1.325286   286Bu     1.329414   251Bg     1.329883  
     252Bg     1.333085   287Bu     1.334180   287Ag     1.337280  
     252Au     1.337985   288Ag     1.338853   288Bu     1.340005  
     253Bg     1.341119   253Au     1.343018   254Bg     1.346271  
     289Bu     1.346440   254Au     1.349644   255Bg     1.350404  
     289Ag     1.351512   255Au     1.354334   290Ag     1.356171  
     290Bu     1.356639   256Bg     1.357202   257Bg     1.357805  
     291Ag     1.358383   291Bu     1.362046   256Au     1.364209  
     292Bu     1.365644   292Ag     1.366014   257Au     1.367502  
     258Bg     1.368381   259Bg     1.373561   293Ag     1.375410  
     258Au     1.379438   259Au     1.380900   294Ag     1.381718  
     293Bu     1.382255   294Bu     1.383532   260Bg     1.384813  
     260Au     1.384909   295Ag     1.386985   296Ag     1.394683  
     295Bu     1.396267   261Au     1.397740   261Bg     1.399637  
     296Bu     1.400430   262Bg     1.401525   297Ag     1.403206  
     263Bg     1.405792   297Bu     1.406368   262Au     1.406407  
     298Ag     1.407949   263Au     1.409733   298Bu     1.410163  
     299Ag     1.414206   264Au     1.415627   299Bu     1.415948  
     265Au     1.420137   264Bg     1.420180   300Bu     1.421962  
     300Ag     1.422612   301Bu     1.426115   266Au     1.427483  
     265Bg     1.428014   301Ag     1.429728   302Bu     1.432008  
     267Au     1.432160   302Ag     1.433412   266Bg     1.435044  
     303Ag     1.436422   303Bu     1.436785   267Bg     1.438789  
     268Au     1.441951   304Ag     1.443829   268Bg     1.444700  
     304Bu     1.445686   269Au     1.445936   269Bg     1.450825  
     305Ag     1.451044   270Au     1.451994   306Ag     1.453361  
     270Bg     1.453793   305Bu     1.456663   307Ag     1.458654  
     271Au     1.462590   271Bg     1.466072   308Ag     1.466900  
     306Bu     1.466959   309Ag     1.468492   272Bg     1.468691  
     307Bu     1.469432   272Au     1.469998   273Au     1.472665  
     273Bg     1.472702   274Au     1.477168   274Bg     1.477795  
     308Bu     1.478103   309Bu     1.479394   310Ag     1.481049  
     310Bu     1.483804   275Bg     1.484043   311Ag     1.484125  
     275Au     1.488889   311Bu     1.490242   312Ag     1.490808  
     276Au     1.492665   276Bg     1.495515   313Ag     1.497763  
     312Bu     1.498716   314Ag     1.500499   313Bu     1.500720  
     277Au     1.501122   278Au     1.503557   315Ag     1.507968  
     277Bg     1.508063   279Au     1.509290   278Bg     1.510041  
     316Ag     1.511261   314Bu     1.513882   280Au     1.517004  
     281Au     1.518610   315Bu     1.520288   317Ag     1.520313  
     279Bg     1.523495   316Bu     1.523705   280Bg     1.525271  
     282Au     1.526198   317Bu     1.526878   318Ag     1.527969  
     318Bu     1.531884   281Bg     1.531905   282Bg     1.534406  
     283Bg     1.537253   319Bu     1.537612   319Ag     1.537936  
     283Au     1.539954   320Bu     1.540990   320Ag     1.544487  
     284Bg     1.545670   284Au     1.545991   321Bu     1.551235  
     321Ag     1.552373   285Bg     1.554736   322Ag     1.556979  
     322Bu     1.557590   285Au     1.558924   286Au     1.560805  
     323Ag     1.561989   286Bg     1.562753   323Bu     1.562956  
     287Au     1.567473   324Ag     1.570055   287Bg     1.571005  
     288Bg     1.572753   324Bu     1.576675   325Ag     1.576978  
     325Bu     1.580624   289Bg     1.582743   288Au     1.583337  
     326Bu     1.586216   290Bg     1.586284   326Ag     1.586955  
     289Au     1.587738   327Bu     1.587886   290Au     1.591441  
     327Ag     1.591822   291Au     1.595170   328Ag     1.596666  
     328Bu     1.596769   291Bg     1.600935   329Ag     1.601007  
     329Bu     1.601939   292Au     1.605084   330Ag     1.607139  
     292Bg     1.607525   330Bu     1.608939   331Ag     1.610366  
     293Bg     1.612900   331Bu     1.613594   293Au     1.617482  
     294Bg     1.618950   332Ag     1.619517   333Ag     1.622385  
     295Bg     1.625117   294Au     1.625676   332Bu     1.626501  
     295Au     1.628393   296Bg     1.632262   333Bu     1.633533  
     334Ag     1.636267   334Bu     1.636685   296Au     1.642493  
     335Ag     1.646250   297Au     1.646918   297Bg     1.647402  
     335Bu     1.649428   298Au     1.653473   298Bg     1.654489  
     336Bu     1.654902   336Ag     1.656027   299Au     1.658353  
     299Bg     1.661063   337Ag     1.661807   338Ag     1.663136  
     300Au     1.664902   337Bu     1.666730   301Au     1.667840  
     339Ag     1.671184   300Bg     1.672014   338Bu     1.674652  
     340Ag     1.678067   301Bg     1.679649   339Bu     1.681264  
     341Ag     1.684217   302Au     1.684350   302Bg     1.685710  
     340Bu     1.687108   303Bg     1.688386   303Au     1.690718  
     304Bg     1.692038   342Ag     1.692344   341Bu     1.694660  
     342Bu     1.698024   343Ag     1.699355   305Bg     1.700540  
     343Bu     1.702489   304Au     1.702506   344Ag     1.705488  
     306Bg     1.709006   344Bu     1.714098   305Au     1.715104  
     307Bg     1.715423   345Ag     1.717796   306Au     1.720314  
     345Bu     1.725936   346Ag     1.728410   307Au     1.729464  
     308Bg     1.732094   346Bu     1.737083   308Au     1.738132  
     347Ag     1.740214   309Bg     1.744886   347Bu     1.746437  
     309Au     1.748029   348Ag     1.748963   310Bg     1.749455  
     348Bu     1.754962   311Bg     1.755172   312Bg     1.762565  
     349Bu     1.763183   349Ag     1.765836   310Au     1.765885  
     350Ag     1.772260   311Au     1.773055   350Bu     1.774805  
     351Bu     1.777722   312Au     1.779565   351Ag     1.782621  
     313Bg     1.787601   352Bu     1.788564   352Ag     1.790884  
     314Bg     1.791943   353Bu     1.799632   313Au     1.800517  
     315Bg     1.806903   314Au     1.806970   353Ag     1.807460  
     315Au     1.817613   354Ag     1.817662   316Au     1.824359  
     316Bg     1.824741   354Bu     1.825970   355Ag     1.826468  
     355Bu     1.826603   317Au     1.827905   356Bu     1.830795  
     317Bg     1.838403   356Ag     1.839488   318Bg     1.840251  
     318Au     1.840644   357Bu     1.843043   319Au     1.843189  
     319Bg     1.843788   357Ag     1.849086   320Au     1.854207  
     320Bg     1.856326   321Au     1.862735   358Bu     1.864432  
     358Ag     1.866049   359Ag     1.871757   321Bg     1.872765  
     359Bu     1.872798   322Au     1.874602   360Ag     1.876831  
     323Au     1.878224   322Bg     1.881174   360Bu     1.883771  
     361Ag     1.888601   324Au     1.888707   323Bg     1.889979  
     361Bu     1.891357   324Bg     1.891382   362Ag     1.892945  
     325Au     1.895256   362Bu     1.897093   363Ag     1.899746  
     325Bg     1.901103   364Ag     1.903836   363Bu     1.904848  
     326Au     1.907623   365Ag     1.912135   326Bg     1.914406  
     327Au     1.917397   364Bu     1.923064   327Bg     1.925627  
     365Bu     1.926415   366Ag     1.926861   328Bg     1.928915  
     366Bu     1.930276   328Au     1.933040   367Ag     1.934510  
     329Au     1.936688   368Ag     1.937569   329Bg     1.939760  
     367Bu     1.940540   330Au     1.945541   368Bu     1.947418  
     369Ag     1.947720   330Bg     1.951034   369Bu     1.951555  
     370Ag     1.962527   331Au     1.962756   331Bg     1.963071  
     370Bu     1.963225   332Au     1.968494   332Bg     1.969920  
     371Ag     1.970665   333Au     1.972998   371Bu     1.974363  
     372Ag     1.974388   373Ag     1.981118   333Bg     1.981683  
     372Bu     1.982190   374Ag     1.985535   373Bu     1.988783  
     334Au     1.990817   334Bg     1.992097   374Bu     1.992819  
     335Bg     1.993707   335Au     1.996277   375Ag     1.996366  
     375Bu     1.997777   336Au     2.003646   376Ag     2.004814  
     336Bg     2.006513   337Au     2.009265   338Au     2.011871  
     376Bu     2.014951   377Ag     2.016927   337Bg     2.017526  
     377Bu     2.020104   378Ag     2.020481   339Au     2.026578  
     338Bg     2.027063   340Au     2.029053   378Bu     2.036161  
     339Bg     2.036662   341Au     2.038260   379Ag     2.040996  
     380Ag     2.045926   340Bg     2.047111   379Bu     2.049251  
     341Bg     2.054528   342Au     2.054761   380Bu     2.055110  
     343Au     2.057729   342Bg     2.060147   381Ag     2.061955  
     382Ag     2.063798   343Bg     2.066459   344Au     2.069284  
     381Bu     2.071023   344Bg     2.072328   383Ag     2.073284  
     384Ag     2.081502   345Bg     2.082373   382Bu     2.085024  
     346Bg     2.089121   345Au     2.091269   346Au     2.093588  
     383Bu     2.098154   347Bg     2.098611   385Ag     2.099205  
     384Bu     2.100842   347Au     2.101916   385Bu     2.108461  
     386Ag     2.112824   348Bg     2.114208   387Ag     2.117810  
     386Bu     2.119919   348Au     2.120381   349Au     2.124294  
     349Bg     2.124601   388Ag     2.125847   389Ag     2.134191  
     350Bg     2.135289   350Au     2.135679   387Bu     2.135765  
     388Bu     2.137180   390Ag     2.142925   351Bg     2.144339  
     389Bu     2.149775   391Ag     2.154856   351Au     2.158645  
     390Bu     2.159535   392Ag     2.162814   391Bu     2.163381  
     352Bg     2.166201   393Ag     2.167728   353Bg     2.169721  
     352Au     2.172258   353Au     2.174040   354Bg     2.177730  
     392Bu     2.180421   354Au     2.183712   394Ag     2.184917  
     393Bu     2.186146   395Ag     2.192973   355Bg     2.193022  
     355Au     2.193258   394Bu     2.202321   356Au     2.202915  
     356Bg     2.204528   395Bu     2.204627   357Bg     2.206929  
     396Ag     2.207300   357Au     2.212210   396Bu     2.216308  
     397Ag     2.217971   358Au     2.225555   398Ag     2.228012  
     397Bu     2.228292   359Au     2.229866   358Bg     2.230397  
     399Ag     2.231442   360Au     2.233652   359Bg     2.239803  
     398Bu     2.240543   360Bg     2.243596   400Ag     2.244602  
     399Bu     2.245125   361Au     2.250014   401Ag     2.251697  
     361Bg     2.256350   402Ag     2.258660   400Bu     2.262073  
     362Bg     2.263718   401Bu     2.267091   363Bg     2.269336  
     403Ag     2.270819   402Bu     2.271074   362Au     2.273349  
     364Bg     2.276051   363Au     2.277564   403Bu     2.277644  
     404Ag     2.279602   404Bu     2.279603   364Au     2.284685  
     405Ag     2.284851   365Au     2.292951   405Bu     2.300226  
     365Bg     2.300935   366Au     2.303307   406Ag     2.304021  
     366Bg     2.307846   407Ag     2.310357   367Au     2.311650  
     406Bu     2.318993   367Bg     2.324636   368Au     2.325133  
     408Ag     2.326299   368Bg     2.327878   409Ag     2.335830  
     407Bu     2.337027   408Bu     2.339088   369Bg     2.339195  
     410Ag     2.351157   369Au     2.352137   409Bu     2.353233  
     370Bg     2.354912   411Ag     2.357782   370Au     2.360914  
     410Bu     2.362890   412Ag     2.368330   371Bg     2.372664  
     371Au     2.372929   372Au     2.379088   411Bu     2.379158  
     372Bg     2.379698   413Ag     2.384126   412Bu     2.392025  
     414Ag     2.393095   373Bg     2.393795   373Au     2.395551  
     413Bu     2.399699   415Ag     2.400955   414Bu     2.402504  
     374Bg     2.405390   416Ag     2.406798   374Au     2.411848  
     375Bg     2.413038   375Au     2.414808   376Bg     2.419199  
     417Ag     2.420444   415Bu     2.422214   416Bu     2.427742  
     418Ag     2.429722   376Au     2.429932   377Bg     2.431724  
     417Bu     2.435524   418Bu     2.443836   378Bg     2.447079  
     377Au     2.447879   419Ag     2.452248   419Bu     2.455597  
     420Ag     2.459037   378Au     2.462928   379Bg     2.468469  
     420Bu     2.475422   421Ag     2.475831   379Au     2.476613  
     380Bg     2.476763   422Ag     2.481686   421Bu     2.488437  
     381Bg     2.490109   423Ag     2.491010   380Au     2.493235  
     422Bu     2.494357   382Bg     2.496475   423Bu     2.496866  
     381Au     2.498748   382Au     2.500262   424Bu     2.504651  
     383Bg     2.505976   424Ag     2.506233   425Ag     2.514221  
     425Bu     2.520014   383Au     2.521802   426Bu     2.527489  
     384Bg     2.529017   426Ag     2.532338   427Ag     2.533967  
     384Au     2.538224   385Bg     2.540242   386Bg     2.541960  
     427Bu     2.550704   385Au     2.551146   386Au     2.561575  
     387Bg     2.562128   428Ag     2.562813   428Bu     2.562816  
     429Ag     2.567090   388Bg     2.569935   429Bu     2.571227  
     387Au     2.575853   430Bu     2.576108   430Ag     2.576628  
     388Au     2.578454   389Au     2.581384   389Bg     2.586293  
     431Ag     2.587766   431Bu     2.597827   432Ag     2.604277  
     390Au     2.604468   390Bg     2.606789   433Ag     2.607328  
     391Au     2.609385   391Bg     2.612206   434Ag     2.619368  
     392Au     2.619506   392Bg     2.620962   432Bu     2.624006  
     433Bu     2.626204   435Ag     2.628051   393Bg     2.629475  
     434Bu     2.634343   394Bg     2.638859   393Au     2.647375  
     395Bg     2.649690   436Ag     2.650277   394Au     2.654196  
     435Bu     2.660363   396Bg     2.662103   437Ag     2.666969  
     436Bu     2.673503   395Au     2.673510   438Ag     2.676546  
     397Bg     2.684529   396Au     2.685689   398Bg     2.691340  
     397Au     2.692813   439Ag     2.696510   440Ag     2.699545  
     437Bu     2.700715   438Bu     2.703131   399Bg     2.703848  
     398Au     2.708031   439Bu     2.712227   440Bu     2.721140  
     399Au     2.726489   400Au     2.741947   441Ag     2.743335  
     400Bg     2.749116   441Bu     2.753901   442Ag     2.754448  
     401Bg     2.764249   442Bu     2.772729   401Au     2.776129  
     402Bg     2.777922   443Ag     2.782348   402Au     2.803502  
     403Bg     2.808220   443Bu     2.813699   404Bg     2.817684  
     403Au     2.830118   444Bu     2.847615   444Ag     2.848597  
     445Bu     2.850541   404Au     2.862564   445Ag     2.870000  
     405Bg     2.870157   405Au     2.882375   406Bg     2.884400  
     446Bu     2.889195   406Au     2.890533   446Ag     2.901198  
     407Au     2.903115   447Bu     2.912419   407Bg     2.919011  
     448Bu     2.920635   408Au     2.921062   447Ag     2.921142  
     448Ag     2.935439   409Au     2.936446   408Bg     2.941581  
     449Bu     2.942104   449Ag     2.949510   409Bg     2.950699  
     410Au     2.954416   450Ag     2.959562   451Ag     2.967299  
     410Bg     2.969660   411Bg     2.973832   450Bu     2.975271  
     411Au     2.975557   452Ag     2.978946   412Au     2.981873  
     451Bu     2.982023   452Bu     2.989952   412Bg     2.991154  
     453Ag     2.998263   453Bu     3.001231   413Au     3.004647  
     454Ag     3.007150   454Bu     3.007228   413Bg     3.011701  
     414Bg     3.015370   455Ag     3.018143   414Au     3.020806  
     415Au     3.022372   456Ag     3.024494   457Ag     3.036658  
     455Bu     3.037355   415Bg     3.046950   416Bg     3.057803  
     456Bu     3.058157   458Ag     3.059270   416Au     3.061928  
     459Ag     3.062594   457Bu     3.062612   417Au     3.065151  
     417Bg     3.071309   458Bu     3.077134   418Au     3.081024  
     459Bu     3.082951   418Bg     3.086915   460Bu     3.091880  
     419Au     3.094111   460Ag     3.100274   420Au     3.100705  
     419Bg     3.101296   461Bu     3.109814   461Ag     3.113158  
     420Bg     3.117749   462Bu     3.118814   421Au     3.120085  
     462Ag     3.121803   421Bg     3.122782   422Au     3.134222  
     463Bu     3.136498   463Ag     3.137929   464Ag     3.147544  
     422Bg     3.148807   465Ag     3.149359   466Ag     3.152752  
     464Bu     3.156099   423Au     3.161798   423Bg     3.165759  
     467Ag     3.166790   465Bu     3.167490   466Bu     3.176390  
     424Au     3.177301   467Bu     3.181385   424Bg     3.185329  
     425Au     3.186409   468Ag     3.189065   425Bg     3.190080  
     468Bu     3.190656   469Ag     3.192332   469Bu     3.195043  
     426Bg     3.196749   470Ag     3.203142   471Ag     3.204833  
     470Bu     3.206767   426Au     3.209483   427Bg     3.216841  
     472Ag     3.218079   427Au     3.218183   471Bu     3.218448  
     472Bu     3.224782   428Au     3.225369   428Bg     3.228979  
     473Bu     3.233279   473Ag     3.238109   429Bg     3.239500  
     429Au     3.240336   430Bg     3.244775   474Bu     3.245849  
     430Au     3.247780   474Ag     3.253495   431Bg     3.253584  
     475Bu     3.253650   431Au     3.253716   432Au     3.258106  
     475Ag     3.260403   432Bg     3.268962   476Ag     3.269215  
     477Ag     3.271284   476Bu     3.271822   433Bg     3.272584  
     477Bu     3.273062   433Au     3.278840   478Bu     3.279155  
     478Ag     3.279807   434Bg     3.285013   479Bu     3.287715  
     479Ag     3.293497   435Bg     3.295065   436Bg     3.296410  
     434Au     3.298070   480Ag     3.299800   481Ag     3.304428  
     435Au     3.305247   480Bu     3.305585   481Bu     3.310282  
     436Au     3.310976   437Bg     3.311895   482Ag     3.312291  
     437Au     3.321113   483Ag     3.321121   482Bu     3.322159  
     483Bu     3.328778   438Bg     3.328919   438Au     3.329016  
     439Bg     3.331786   484Ag     3.333230   439Au     3.335861  
     485Ag     3.337491   484Bu     3.340141   485Bu     3.340755  
     486Ag     3.340786   440Bg     3.348461   487Ag     3.348715  
     440Au     3.349911   486Bu     3.354310   441Bg     3.355744  
     441Au     3.356422   442Au     3.365735   487Bu     3.366386  
     488Ag     3.368127   442Bg     3.373281   488Bu     3.374622  
     443Bg     3.377671   489Ag     3.380280   443Au     3.382378  
     444Bg     3.382685   489Bu     3.384165   490Ag     3.384884  
     444Au     3.388138   445Bg     3.391674   491Ag     3.394697  
     445Au     3.395653   446Bg     3.400650   490Bu     3.401668  
     492Ag     3.405083   447Bg     3.405892   491Bu     3.409764  
     446Au     3.410547   493Ag     3.412970   447Au     3.416255  
     494Ag     3.418135   448Au     3.422289   492Bu     3.424208  
     493Bu     3.424701   448Bg     3.426547   449Bg     3.429327  
     495Ag     3.431831   449Au     3.436919   450Bg     3.438411  
     494Bu     3.438890   496Ag     3.442608   451Bg     3.444237  
     495Bu     3.447447   450Au     3.449350   451Au     3.455170  
     496Bu     3.455217   452Bg     3.455649   497Ag     3.457771  
     452Au     3.461945   497Bu     3.462336   453Bg     3.462360  
     498Bu     3.464477   498Ag     3.467065   453Au     3.472854  
     499Ag     3.473709   454Bg     3.477763   454Au     3.479147  
     500Ag     3.479655   499Bu     3.483841   455Au     3.484053  
     456Au     3.494434   501Ag     3.496680   500Bu     3.496917  
     455Bg     3.497653   502Ag     3.501612   501Bu     3.503162  
     457Au     3.505352   456Bg     3.506251   503Ag     3.508334  
     502Bu     3.509329   503Bu     3.509968   458Au     3.511932  
     457Bg     3.515851   504Ag     3.518168   504Bu     3.518626  
     458Bg     3.519561   459Au     3.524616   505Ag     3.531725  
     505Bu     3.533701   460Au     3.534184   459Bg     3.534982  
     506Ag     3.535354   460Bg     3.541240   506Bu     3.541957  
     507Ag     3.546699   507Bu     3.546995   461Bg     3.549149  
     508Ag     3.550017   461Au     3.553535   508Bu     3.554826  
     462Bg     3.555127   462Au     3.560518   509Ag     3.561816  
     510Ag     3.562503   463Bg     3.564135   509Bu     3.564387  
     463Au     3.575042   510Bu     3.575152   464Bg     3.578200  
     511Ag     3.580394   511Bu     3.581824   465Bg     3.583498  
     464Au     3.583582   512Ag     3.584431   512Bu     3.584552  
     465Au     3.593686   466Bg     3.594983   467Bg     3.597168  
     513Ag     3.599937   466Au     3.601623   467Au     3.602544  
     514Ag     3.603193   513Bu     3.609683   514Bu     3.617284  
     468Bg     3.621449   515Ag     3.623623   469Bg     3.623933  
     516Ag     3.627997   515Bu     3.628519   516Bu     3.633496  
     468Au     3.633604   470Bg     3.642426   517Ag     3.643382  
     517Bu     3.645235   469Au     3.645657   471Bg     3.650708  
     518Bu     3.654028   470Au     3.654732   518Ag     3.655881  
     519Ag     3.656340   472Bg     3.656374   471Au     3.663405  
     519Bu     3.666345   520Ag     3.668550   472Au     3.669092  
     520Bu     3.672691   521Ag     3.673243   521Bu     3.676491  
     522Ag     3.679205   473Au     3.680723   473Bg     3.683639  
     522Bu     3.686040   474Bg     3.687309   523Ag     3.689792  
     474Au     3.689835   523Bu     3.694240   475Bg     3.695664  
     476Bg     3.698796   524Ag     3.699686   475Au     3.703773  
     477Bg     3.705926   524Bu     3.707708   476Au     3.711729  
     525Bu     3.715196   525Ag     3.715897   478Bg     3.717335  
     526Ag     3.717997   477Au     3.719660   526Bu     3.721800  
     527Ag     3.723667   479Bg     3.723719   478Au     3.724475  
     527Bu     3.729073   528Ag     3.735200   529Ag     3.737544  
     479Au     3.738223   528Bu     3.738859   529Bu     3.741205  
     480Au     3.741552   530Ag     3.743375   480Bg     3.745008  
     530Bu     3.745362   481Bg     3.750458   482Bg     3.757049  
     531Ag     3.757952   481Au     3.758369   531Bu     3.758509  
     482Au     3.761173   532Bu     3.764075   532Ag     3.766765  
     483Bg     3.767108   483Au     3.768363   533Bu     3.771570  
     534Bu     3.777405   484Bg     3.778919   533Ag     3.779326  
     535Bu     3.780986   485Bg     3.782287   486Bg     3.786006  
     536Bu     3.786911   484Au     3.787304   485Au     3.790994  
     534Ag     3.793404   486Au     3.794271   535Ag     3.796190  
     487Bg     3.796748   487Au     3.802823   536Ag     3.804901  
     537Bu     3.805704   488Au     3.807004   488Bg     3.814230  
     538Bu     3.814343   537Ag     3.815880   539Bu     3.815913  
     489Bg     3.823347   538Ag     3.824736   490Bg     3.827113  
     489Au     3.829452   539Ag     3.831784   491Bg     3.833006  
     540Bu     3.835570   540Ag     3.836233   490Au     3.836502  
     491Au     3.839052   541Ag     3.840244   492Bg     3.843981  
     541Bu     3.851505   542Ag     3.852800   492Au     3.855227  
     543Ag     3.862197   493Bg     3.863497   542Bu     3.867189  
     494Bg     3.868782   493Au     3.869618   543Bu     3.871469  
     494Au     3.877831   544Ag     3.878039   495Bg     3.878310  
     544Bu     3.884931   545Ag     3.886135   495Au     3.887253  
     545Bu     3.888651   496Bg     3.889285   546Ag     3.890923  
     546Bu     3.891722   496Au     3.897491   497Bg     3.900054  
     547Ag     3.904309   547Bu     3.906907   498Bg     3.908251  
     497Au     3.911359   548Bu     3.911437   548Ag     3.915681  
     549Ag     3.917398   499Bg     3.920293   498Au     3.920418  
     550Ag     3.926785   499Au     3.927067   500Bg     3.928402  
     549Bu     3.933237   551Ag     3.935526   500Au     3.936274  
     552Ag     3.940290   501Au     3.944906   550Bu     3.949367  
     501Bg     3.950160   502Au     3.957381   551Bu     3.957543  
     553Ag     3.958453   502Bg     3.962691   552Bu     3.965222  
     503Au     3.966475   503Bg     3.968709   554Ag     3.973482  
     553Bu     3.978411   504Au     3.980008   554Bu     3.982601  
     555Ag     3.986858   504Bg     3.987574   555Bu     3.987652  
     505Au     3.991617   506Au     3.993570   556Ag     3.995753  
     556Bu     3.998121   557Ag     3.999374   505Bg     4.001185  
     507Au     4.001681   506Bg     4.005445   558Ag     4.005706  
     559Ag     4.009575   557Bu     4.012037   508Au     4.014394  
     507Bg     4.017712   509Au     4.017776   508Bg     4.019705  
     509Bg     4.021240   558Bu     4.021791   560Ag     4.026268  
     559Bu     4.027522   510Au     4.030598   561Ag     4.037692  
     560Bu     4.038479   510Bg     4.040115   561Bu     4.041072  
     511Au     4.041668   562Ag     4.045022   562Bu     4.045075  
     511Bg     4.046781   563Ag     4.048490   512Bg     4.051718  
     512Au     4.056919   564Ag     4.060312   513Au     4.061046  
     565Ag     4.063466   563Bu     4.066479   564Bu     4.067600  
     513Bg     4.069350   514Au     4.069392   514Bg     4.073191  
     565Bu     4.075659   515Bg     4.078507   566Ag     4.079812  
     515Au     4.080464   516Au     4.084877   566Bu     4.086131  
     567Ag     4.087054   516Bg     4.088523   567Bu     4.093356  
     517Bg     4.094674   518Bg     4.098735   517Au     4.099294  
     568Ag     4.102561   568Bu     4.103633   569Ag     4.107060  
     518Au     4.112166   519Bg     4.114494   519Au     4.115248  
     570Ag     4.115506   569Bu     4.116442   520Bg     4.118832  
     521Bg     4.122807   570Bu     4.123154   520Au     4.129064  
     571Bu     4.129102   571Ag     4.133455   522Bg     4.134882  
     572Bu     4.137487   572Ag     4.140387   521Au     4.140736  
     523Bg     4.141374   573Ag     4.142455   573Bu     4.146880  
     522Au     4.148374   524Bg     4.148500   574Bu     4.156765  
     523Au     4.157090   575Bu     4.161691   574Ag     4.163319  
     525Bg     4.167937   575Ag     4.170091   576Bu     4.170414  
     526Bg     4.174473   524Au     4.175046   576Ag     4.181577  
     577Ag     4.183032   577Bu     4.185165   525Au     4.190434  
     578Bu     4.192935   526Au     4.195203   527Bg     4.195701  
     578Ag     4.200161   579Bu     4.202115   528Bg     4.204159  
     527Au     4.206886   528Au     4.208762   579Ag     4.210689  
     529Bg     4.211857   529Au     4.214363   580Bu     4.215965  
     530Bg     4.219197   530Au     4.219829   580Ag     4.221446  
     581Bu     4.221869   531Bg     4.225385   532Bg     4.227509  
     581Ag     4.229939   582Ag     4.231950   531Au     4.234970  
     533Bg     4.236667   583Ag     4.236999   582Bu     4.241109  
     584Ag     4.241219   583Bu     4.243919   532Au     4.246629  
     585Ag     4.247532   534Bg     4.247643   533Au     4.251063  
     584Bu     4.256244   534Au     4.259726   585Bu     4.263892  
     586Ag     4.267527   535Bg     4.269550   587Ag     4.269581  
     535Au     4.273100   586Bu     4.275936   536Bg     4.276598  
     536Au     4.281170   587Bu     4.283599   537Bg     4.285230  
     588Ag     4.285443   589Ag     4.287966   538Bg     4.288605  
     537Au     4.293515   588Bu     4.296857   589Bu     4.300634  
     590Ag     4.302027   539Bg     4.308535   591Ag     4.310707  
     538Au     4.311483   590Bu     4.313669   591Bu     4.317637  
     539Au     4.324155   592Bu     4.326308   592Ag     4.327544  
     540Bg     4.327575   540Au     4.330845   541Bg     4.331147  
     593Ag     4.336316   593Bu     4.340062   541Au     4.344257  
     542Bg     4.344367   594Bu     4.346984   594Ag     4.348256  
     595Bu     4.353632   542Au     4.354221   543Bg     4.356794  
     595Ag     4.357593   544Bg     4.360607   543Au     4.362955  
     596Ag     4.363260   596Bu     4.363583   545Bg     4.365644  
     597Ag     4.368734   544Au     4.371663   597Bu     4.374001  
     545Au     4.376022   546Bg     4.380021   546Au     4.381223  
     547Au     4.383771   598Bu     4.386162   598Ag     4.386441  
     548Au     4.387576   599Ag     4.390853   547Bg     4.393018  
     599Bu     4.393381   548Bg     4.401274   600Bu     4.403234  
     600Ag     4.405721   601Bu     4.408652   549Au     4.410265  
     549Bg     4.413773   550Bg     4.414945   601Ag     4.415062  
     550Au     4.415910   551Bg     4.421548   602Bu     4.428780  
     551Au     4.432333   602Ag     4.433202   552Bg     4.433755  
     603Bu     4.433765   603Ag     4.437817   552Au     4.450618  
     604Bu     4.458157   604Ag     4.459468   605Ag     4.461709  
     606Ag     4.468444   553Au     4.472502   553Bg     4.473688  
     605Bu     4.474323   554Bg     4.475421   555Bg     4.478891  
     554Au     4.481269   606Bu     4.482879   607Bu     4.485438  
     555Au     4.487206   607Ag     4.488300   556Bg     4.490415  
     608Ag     4.496054   608Bu     4.496882   609Bu     4.503062  
     609Ag     4.503928   557Bg     4.505695   556Au     4.508000  
     558Bg     4.508265   610Bu     4.508541   610Ag     4.514932  
     557Au     4.522509   559Bg     4.524910   611Bu     4.526721  
     611Ag     4.528290   558Au     4.529665   560Bg     4.534611  
     559Au     4.538298   612Ag     4.540867   612Bu     4.544238  
     561Bg     4.545425   613Ag     4.546322   560Au     4.550780  
     613Bu     4.552170   614Bu     4.556091   561Au     4.557565  
     614Ag     4.558065   562Bg     4.558812   563Bg     4.566472  
     615Bu     4.572754   615Ag     4.575284   562Au     4.578587  
     616Ag     4.583757   564Bg     4.584684   616Bu     4.584925  
     617Ag     4.585900   618Ag     4.589090   563Au     4.591521  
     617Bu     4.594156   565Bg     4.596021   564Au     4.601618  
     566Bg     4.603842   565Au     4.606700   618Bu     4.611639  
     566Au     4.614654   567Bg     4.621187   619Ag     4.632017  
     567Au     4.633306   619Bu     4.634328   568Au     4.634543  
     568Bg     4.640707   569Bg     4.644393   620Ag     4.644424  
     569Au     4.649501   620Bu     4.651594   570Au     4.658795  
     621Bu     4.665710   570Bg     4.669220   571Bg     4.673364  
     621Ag     4.675513   571Au     4.680362   622Bu     4.680864  
     622Ag     4.689669   623Bu     4.694902   572Au     4.694948  
     573Au     4.699172   572Bg     4.699882   573Bg     4.700655  
     623Ag     4.700726   624Bu     4.701691   624Ag     4.703549  
     625Ag     4.707084   574Bg     4.707613   574Au     4.710528  
     575Bg     4.716000   626Ag     4.716970   625Bu     4.724409  
     576Bg     4.725729   627Ag     4.731558   626Bu     4.740458  
     628Ag     4.742529   575Au     4.743359   577Bg     4.743517  
     629Ag     4.746876   627Bu     4.750285   576Au     4.751263  
     628Bu     4.752764   577Au     4.755423   578Bg     4.760169  
     629Bu     4.760651   578Au     4.771083   579Bg     4.776145  
     630Bu     4.776346   630Ag     4.782013   631Ag     4.793788  
     579Au     4.793910   631Bu     4.794440   580Bg     4.803726  
     580Au     4.804232   581Bg     4.811701   632Bu     4.813122  
     633Bu     4.815826   632Ag     4.816144   581Au     4.819447  
     633Ag     4.821970   582Bg     4.822539   634Ag     4.827062  
     635Ag     4.828237   634Bu     4.829145   583Bg     4.836235  
     582Au     4.836923   584Bg     4.841092   583Au     4.842933  
     635Bu     4.844859   636Ag     4.844920   585Bg     4.848446  
     636Bu     4.852239   584Au     4.856482   637Ag     4.857185  
     586Bg     4.863224   585Au     4.867077   637Bu     4.868863  
     638Ag     4.870765   638Bu     4.871345   639Ag     4.874186  
     587Bg     4.875693   586Au     4.886483   588Bg     4.890676  
     640Ag     4.894159   639Bu     4.894388   640Bu     4.897520  
     587Au     4.901686   641Bu     4.903601   641Ag     4.906001  
     588Au     4.910821   589Bg     4.916399   589Au     4.921012  
     642Ag     4.932476   642Bu     4.933678   643Ag     4.936765  
     590Bg     4.937765   591Bg     4.943189   590Au     4.943239  
     643Bu     4.944037   591Au     4.944571   644Ag     4.949188  
     592Bg     4.953508   593Bg     4.961784   592Au     4.962628  
     644Bu     4.967997   645Bu     4.976382   593Au     4.976803  
     594Bg     4.984909   645Ag     4.996380   594Au     5.001665  
     646Ag     5.004516   646Bu     5.006014   595Bg     5.013652  
     647Bu     5.015501   595Au     5.020529   647Ag     5.030644  
     648Ag     5.032044   596Bg     5.032145   648Bu     5.036275  
     596Au     5.042541   649Ag     5.042742   649Bu     5.044720  
     650Bu     5.045512   597Au     5.048422   597Bg     5.050397  
     598Bg     5.053692   650Ag     5.056038   598Au     5.059056  
     651Ag     5.061384   651Bu     5.063114   599Bg     5.065694  
     599Au     5.081356   652Bu     5.085561   652Ag     5.087015  
     653Ag     5.099686   600Bg     5.102752   653Bu     5.110546  
     654Ag     5.123532   654Bu     5.124784   600Au     5.126252  
     601Bg     5.140758   655Ag     5.166485   655Bu     5.167420  
     601Au     5.173270   602Bg     5.174558   603Bg     5.182630  
     602Au     5.189328   656Ag     5.198237   657Ag     5.208239  
     603Au     5.208605   656Bu     5.210464   604Bg     5.211179  
     657Bu     5.215798   605Bg     5.220886   604Au     5.227828  
     658Bu     5.234010   659Bu     5.243787   658Ag     5.248497  
     660Bu     5.251251   605Au     5.252080   606Bg     5.254743  
     659Ag     5.255657   607Bg     5.258716   660Ag     5.260400  
     606Au     5.262717   661Ag     5.309983   607Au     5.318465  
     661Bu     5.325828   608Bg     5.326629   609Bg     5.346460  
     608Au     5.352095   662Ag     5.357245   662Bu     5.359084  
     610Bg     5.368818   663Ag     5.368829   611Bg     5.373364  
     663Bu     5.373751   609Au     5.376311   610Au     5.381334  
     664Bu     5.384210   664Ag     5.389463   612Bg     5.400080  
     611Au     5.400104   613Bg     5.410090   612Au     5.413469  
     665Bu     5.420582   665Ag     5.424003   666Ag     5.450443  
     614Bg     5.456768   666Bu     5.460270   613Au     5.462681  
     667Ag     5.465660   667Bu     5.467764   614Au     5.473805  
     615Bg     5.486178   615Au     5.493636   616Bg     5.502945  
     668Ag     5.531651   668Bu     5.545172   669Bu     5.550318  
     669Ag     5.560040   617Bg     5.564070   616Au     5.566879  
     670Bu     5.600995   617Au     5.606002   670Ag     5.610829  
     618Bg     5.620398   671Bu     5.627146   671Ag     5.628325  
     672Ag     5.672810   672Bu     5.673269   619Bg     5.676090  
     618Au     5.676711   619Au     5.734751   620Au     5.737081  
     673Bu     5.740600   620Bg     5.741946   673Ag     5.746686  
     621Bg     5.754851   621Au     5.764068   622Bg     5.764287  
     674Ag     5.775264   674Bu     5.782940   623Bg     5.819593  
     675Bu     5.831164   675Ag     5.838837   622Au     5.852455  
     676Bu     6.005609   623Au     6.015212   677Bu     6.015558  
     676Ag     6.027300   677Ag     6.036852   624Bg     6.040052  
     624Au     6.090008   625Bg     6.091632   678Bu     6.093487  
     625Au     6.093813   678Ag     6.098173   626Bg     6.099018  
     626Au     6.109886   679Bu     6.110922   627Bg     6.117165  
     627Au     6.118278   679Ag     6.120631   680Bu     6.131949  
     628Bg     6.136018   680Ag     6.142857   681Bu     6.151119  
     681Ag     6.157566   629Bg     6.159520   630Bg     6.181995  
     682Ag     6.186274   631Bg     6.192525   682Bu     6.193726  
     683Ag     6.198317   628Au     6.200351   683Bu     6.205196  
     629Au     6.208812   632Bg     6.210417   630Au     6.216929  
     684Ag     6.220540   684Bu     6.229639   631Au     6.229990  
     633Bg     6.235488   632Au     6.235966   633Au     6.316796  
     685Bu     6.321259   685Ag     6.325777   686Ag     6.335642  
     686Bu     6.343234   634Au     6.343563   634Bg     6.345522  
     635Bg     6.357445   687Bu     6.360784   687Ag     6.363822  
     688Bu     6.379115   688Ag     6.380860   636Bg     6.385715  
     635Au     6.386020   636Au     6.466958   689Ag     6.473979  
     689Bu     6.474019   637Bg     6.485484   690Ag     6.502489  
     690Bu     6.508226   638Bg     6.510356   637Au     6.517266  
     691Ag     6.528227   639Bg     6.530199   691Bu     6.537969  
     638Au     6.541037   639Au     6.583884   692Ag     6.585068  
     692Bu     6.588233   640Bg     6.594118   693Ag     6.602833  
     640Au     6.613009   693Bu     6.616381   641Bg     6.635495  
     641Au     6.641269   694Bu     6.646117   694Ag     6.663167  
     642Bg     6.684674   695Bu     6.755768   642Au     6.762403  
     643Bg     6.764674   695Ag     6.765423   696Ag     6.776382  
     644Bg     6.789635   643Au     6.790924   696Bu     6.796487  
     645Bg     7.118340   644Au     7.120747   697Ag    14.838601  
     697Bu    14.928346   646Bg    15.642777   698Bu    15.655208  
     698Ag    15.762039   645Au    15.764036   699Bu    16.847447  
     699Ag    16.927974   647Bg    16.933284   646Au    16.973496  
     700Bu    17.297785   700Ag    17.305487   648Bg    17.352031  
     647Au    17.357830   649Bg    17.996761   701Ag    18.004485  
     701Bu    18.027730   648Au    18.053535   649Au    19.530845  
     702Bu    19.565830   702Ag    19.633877   650Bg    19.691428  
     703Bu    19.899042   703Ag    20.326251   651Bg    20.424830  
     650Au    20.506312   704Ag    20.735454   704Bu    20.767724  
     652Bg    20.811798   651Au    20.872344   705Ag    20.897658  
     653Bg    20.944421   705Bu    21.033216   652Au    21.219519  
     706Bu    21.529309   706Ag    21.533205   707Bu    21.604853  
     707Ag    21.878109   708Bu    22.378512   653Au    22.460981  
     708Ag    22.474958   654Bg    22.502479   709Bu    22.898606  
     709Ag    22.953235   710Bu    23.018205   710Ag    23.113889  
     654Au    23.129294   655Bg    23.170364  

    Final Occupation by Irrep:
             Ag    Bg    Au    Bu 
    DOCC [    43,   35,   35,   43 ]
    NA   [    43,   35,   35,   43 ]
    NB   [    43,   35,   35,   43 ]

  @DF-RKS Final Energy: -1842.12824504581840

   => Energetics <=

    Nuclear Repulsion Energy =           6088.1700676651344111
    One-Electron Energy =              -14621.0357678460786701
    Two-Electron Energy =                6958.5297482961013884
    DFT Exchange-Correlation Energy =    -267.7145055517848959
    Empirical Dispersion Energy =          -0.0777876091905276
    VV10 Nonlocal Energy =                  0.0000000000000000
    Total Energy =                      -1842.1282450458184030

Computation Completed


Properties will be evaluated at   0.000000,   0.000000,   0.000000 [a0]

Properties computed using the SCF density matrix


 Multipole Moments:

 ------------------------------------------------------------------------------------
     Multipole            Electronic (a.u.)      Nuclear  (a.u.)        Total (a.u.)
 ------------------------------------------------------------------------------------

 L = 1.  Multiply by 2.5417464519 to convert [e a0] to [Debye]
 Dipole X            :          0.0000000            0.0000000            0.0000000
 Dipole Y            :          0.0000000           -0.0000000           -0.0000000
 Dipole Z            :          0.0000000           -0.0000000           -0.0000000
 Magnitude           :                                                    0.0000000

 ------------------------------------------------------------------------------------

*** tstop() called on atl1-1-03-004-8-2.pace.gatech.edu at Sat Jun 13 11:58:04 2026
Module time:
	user time   =   13795.58 seconds =     229.93 minutes
	system time =    1220.52 seconds =      20.34 minutes
	total time  =       2565 seconds =      42.75 minutes
Total time:
	user time   =   13795.58 seconds =     229.93 minutes
	system time =    1220.52 seconds =      20.34 minutes
	total time  =       2565 seconds =      42.75 minutes

    Psi4 stopped on: Saturday, 13 June 2026 11:58AM
    Psi4 wall time for execution: 0:42:53.41

*** Psi4 exiting successfully. Buy a developer a beer!
