
    -----------------------------------------------------------------------
          Psi4: An Open-Source Ab Initio Electronic Structure Package
                               Psi4 1.9.1 release

                         Git: Rev {} zzzzzzz 


    D. G. A. Smith, L. A. Burns, A. C. Simmonett, R. M. Parrish,
    M. C. Schieber, R. Galvelis, P. Kraus, H. Kruse, R. Di Remigio,
    A. Alenaizan, A. M. James, S. Lehtola, J. P. Misiewicz, M. Scheurer,
    R. A. Shaw, J. B. Schriber, Y. Xie, Z. L. Glick, D. A. Sirianni,
    J. S. O'Brien, J. M. Waldrop, A. Kumar, E. G. Hohenstein,
    B. P. Pritchard, B. R. Brooks, H. F. Schaefer III, A. Yu. Sokolov,
    K. Patkowski, A. E. DePrince III, U. Bozkaya, R. A. King,
    F. A. Evangelista, J. M. Turney, T. D. Crawford, C. D. Sherrill,
    J. Chem. Phys. 152(18) 184108 (2020). https://doi.org/10.1063/5.0006002

                            Additional Code Authors
    E. T. Seidl, C. L. Janssen, E. F. Valeev, M. L. Leininger,
    J. F. Gonthier, R. M. Richard, H. R. McAlexander, M. Saitow, X. Wang,
    P. Verma, M. H. Lechner, A. Jiang, S. Behnle, A. G. Heide,
    M. F. Herbst, and D. L. Poole

             Previous Authors, Complete List of Code Contributors,
                       and Citations for Specific Modules
    https://github.com/psi4/psi4/blob/master/codemeta.json
    https://github.com/psi4/psi4/graphs/contributors
    http://psicode.org/psi4manual/master/introduction.html#citing-psifour

    -----------------------------------------------------------------------


    Psi4 started on: Saturday, 13 June 2026 11:18AM

    Process ID: 1229688
    Host:       atl1-1-02-004-3-1.pace.gatech.edu
    PSIDATADIR: /storage/home/hcoda1/5/vlita3/.conda/envs/p4_qcml/share/psi4
    Memory:     250.0 GiB
    Threads:    10
    
  ==> Input QCSchema <==

--------------------------------------------------------------------------
{'driver': 'energy',
 'extras': {},
 'id': '218',
 'keywords': {},
 'model': {'basis': 'aug-cc-pvtz', 'method': 'pbe-d3'},
 'molecule': {'extras': {},
              'fix_com': True,
              'fix_orientation': True,
              'fragment_charges': [0.0, 0.0],
              'fragment_multiplicities': [1, 1],
              'fragments': [[0, 1, 2, 3, 4, 5, 6, 7, 8, 9, 10, 11, 12, 13, 14, 15, 16, 17, 18, 19, 20, 21, 22, 23, 24,
                             25, 26, 27, 28, 29, 30, 31, 32, 33, 34, 35, 36, 37, 38, 39, 40, 41, 42, 43, 44, 45, 46, 47,
                             48, 49, 50, 51, 52, 53, 54, 55],
                            [56, 57, 58, 59, 60, 61, 62, 63, 64, 65, 66, 67, 68, 69, 70, 71, 72, 73, 74, 75, 76, 77, 78,
                             79, 80, 81, 82, 83, 84, 85, 86, 87, 88, 89, 90, 91, 92, 93, 94, 95, 96, 97, 98, 99, 100,
                             101, 102, 103, 104, 105, 106, 107, 108, 109, 110, 111]],
              'geometry': [39.18725066, 24.74029443, 4.00810911, 37.91546498, 22.14947992, 3.77378307, 35.03363264,
                           22.26853266, 4.05535227, 33.7429497, 19.68527705, 3.82102623, 30.85922763, 19.81566815,
                           4.07613925, 29.56287551, 17.23808172, 3.82858513, 26.67726371, 17.37792145, 4.05535227,
                           25.37335269, 14.80600419, 3.78890088, 22.48774089, 14.95907201, 3.99866048, 21.17249151,
                           12.3909342, 3.72653992, 18.28876944, 12.55534038, 3.93818925, 16.9621817, 9.99287175,
                           3.67551731, 14.08034936, 10.16483683, 3.9060639, 12.74809244, 7.60425793, 3.66417896,
                           9.86814983, 7.77811273, 3.92685089, 8.53400318, 5.21564411, 3.71142211, 5.65595029,
                           5.38571946, 4.00621939, 4.34070091, 2.8138022, 3.80590842, 2.28845834, 3.00088509,
                           4.00432966, 38.81875407, 25.57933283, 5.86570989, 41.23760351, 24.59667525, 3.76811389,
                           38.46915474, 26.04798491, 2.57191726, 38.38222733, 21.31233124, 1.93318983, 38.68647324,
                           20.86635588, 5.21186465, 34.56120111, 23.10568134, 5.89594551, 34.26073465, 23.5516567,
                           2.61538096, 34.22860931, 18.8424592, 1.98610216, 34.50072987, 18.40782219, 5.27044616,
                           30.37356801, 20.65281683, 5.91484277, 30.10333718, 21.10257164, 2.63238849, 30.06365293,
                           16.39337414, 1.99744051, 30.30175842, 15.95495768, 5.28556397, 26.17648629, 18.2131804,
                           5.89027633, 25.94216025, 18.67049412, 2.60593233, 25.88168901, 13.96507607, 1.95964599,
                           26.09711779, 13.51532125, 5.24776945, 21.97940457, 15.79433096, 5.83169482, 21.76586551,
                           16.25353441, 2.54546109, 21.67893811, 11.5518958, 1.89728503, 21.89247716, 11.09647181,
                           5.18351876, 17.78610229, 13.3962685, 5.76933386, 17.56878379, 13.8516925, 2.48310013,
                           17.45540022, 9.14816417, 1.84248297, 17.68594681, 8.69651963, 5.1287167, 13.59468975,
                           11.01521359, 5.73909824, 13.3528048, 11.4574095, 2.45286451, 13.21863425, 6.7557709,
                           1.82925489, 13.48697536, 6.31168526, 5.1135989, 9.4032772, 8.63604839, 5.76177496,
                           9.12359773, 9.0631265, 2.47743095, 8.983758, 4.35959817, 1.87271859, 9.29178336, 3.92874061,
                           5.15517287, 5.21186465, 6.2493243, 5.84114345, 4.90005984, 6.66506404, 2.55868917,
                           4.72431531, 1.92563092, 1.9747638, 5.00966396, 1.52500898, 5.28367425, 9.39004912,
                           8.90249978, -3.87960774, 8.09936617, 6.31924416, -4.11393378, 5.21753383, 6.43829691,
                           -3.83236458, 3.94574815, 3.84748239, -4.06669062, 12.27188146, 8.77210867, -4.13661049,
                           13.57012331, 11.35158484, -3.88716664, 16.45384537, 11.20985538, -4.11393378, 17.75964613,
                           13.78177263, -3.84748239, 20.64525792, 13.62870482, -4.05724199, 21.95861758, 16.19684262,
                           -3.78512143, 24.84422937, 16.03243645, -3.99677076, 26.16892739, 18.5967948, -3.73409882,
                           29.05075973, 18.42294, -3.96464541, 30.38301665, 20.98540862, -3.72276047, 33.26295926,
                           20.80966409, -3.98732212, 34.5971059, 23.37213272, -3.77000362, 37.47515879, 23.20205737,
                           -4.0648009, 38.79040818, 25.77397463, -3.86637965, 40.84265075, 25.58878146, -4.0648009,
                           38.12144513, 27.06276784, -5.34414548, 37.91924443, 22.33845253, -5.89972496, 38.23104924,
                           21.92271278, -2.61727068, 34.14735109, 24.23006838, -1.93318983, 33.83932573, 24.65903621,
                           -5.21564411, 33.72783189, 19.95172843, -5.82035647, 34.00751135, 19.52465033, -2.53601246,
                           29.91247484, 21.83389565, -1.8878364, 29.64413373, 22.27609157, -5.17218041, 29.53641934,
                           17.57256324, -5.79767975, 29.78019401, 17.13225705, -2.51144602, 25.67759859, 19.43961265,
                           -1.90106448, 25.44516228, 19.8912572, -5.18729821, 25.34500679, 15.19150832, -5.82791537,
                           25.5623253, 14.73797405, -2.54168164, 21.45217098, 17.03777075, -1.95586654, 21.24052165,
                           17.49130502, -5.24210027, 21.15359425, 12.79344587, -5.89027633, 21.3671333, 12.33424242,
                           -2.6040426, 17.24942007, 14.62270076, -2.02011723, 17.03588102, 15.07245558, -5.30635096,
                           16.9546228, 10.37459643, -5.95074757, 17.18894884, 9.91728271, -2.66451384, 13.06934588,
                           12.19440269, -2.05791175, 12.82935067, 12.63281915, -5.34414548, 12.75754107, 7.93684973,
                           -5.97531401, 13.02777191, 7.48520518, -2.69285973, 8.9043895, 9.74531763, -2.04468367,
                           8.57179771, 5.48209549, -5.95641675, 8.87037443, 5.03612012, -2.67585219, 4.75077148,
                           7.27544558, -1.99177134, 4.44652557, 7.72142095, -5.27044616, 1.8953953, 3.99110158,
                           -3.82858513, 4.31424474, 3.00844399, -5.92618113, 4.66384408, 2.53979191, -2.63238849,
                           8.63037921, 10.17995464, -5.3309174, 38.40679377, 26.6621459, -2.03334531],
              'id': 14,
              'identifiers': {'molecular_formula': 'C36H76',
                              'molecule_hash': '50a7586feb101e20a452f7f17161f8f38cf3c226'},
              'masses': [12.0, 12.0, 12.0, 12.0, 12.0, 12.0, 12.0, 12.0, 12.0, 12.0, 12.0, 12.0, 12.0, 12.0, 12.0, 12.0,
                         12.0, 12.0, 1.00782503223, 1.00782503223, 1.00782503223, 1.00782503223, 1.00782503223,
                         1.00782503223, 1.00782503223, 1.00782503223, 1.00782503223, 1.00782503223, 1.00782503223,
                         1.00782503223, 1.00782503223, 1.00782503223, 1.00782503223, 1.00782503223, 1.00782503223,
                         1.00782503223, 1.00782503223, 1.00782503223, 1.00782503223, 1.00782503223, 1.00782503223,
                         1.00782503223, 1.00782503223, 1.00782503223, 1.00782503223, 1.00782503223, 1.00782503223,
                         1.00782503223, 1.00782503223, 1.00782503223, 1.00782503223, 1.00782503223, 1.00782503223,
                         1.00782503223, 1.00782503223, 1.00782503223, 12.0, 12.0, 12.0, 12.0, 12.0, 12.0, 12.0, 12.0,
                         12.0, 12.0, 12.0, 12.0, 12.0, 12.0, 12.0, 12.0, 12.0, 12.0, 1.00782503223, 1.00782503223,
                         1.00782503223, 1.00782503223, 1.00782503223, 1.00782503223, 1.00782503223, 1.00782503223,
                         1.00782503223, 1.00782503223, 1.00782503223, 1.00782503223, 1.00782503223, 1.00782503223,
                         1.00782503223, 1.00782503223, 1.00782503223, 1.00782503223, 1.00782503223, 1.00782503223,
                         1.00782503223, 1.00782503223, 1.00782503223, 1.00782503223, 1.00782503223, 1.00782503223,
                         1.00782503223, 1.00782503223, 1.00782503223, 1.00782503223, 1.00782503223, 1.00782503223,
                         1.00782503223, 1.00782503223, 1.00782503223, 1.00782503223, 1.00782503223, 1.00782503223],
              'molecular_charge': 0.0,
              'molecular_multiplicity': 1,
              'name': 'C36H76 ([0],[1])',
              'provenance': {'creator': 'QCElemental',
                             'routine': 'qcelemental.molparse.from_schema',
                             'version': '0.29.0'},
              'real': [True, True, True, True, True, True, True, True, True, True, True, True, True, True, True, True,
                       True, True, True, True, True, True, True, True, True, True, True, True, True, True, True, True,
                       True, True, True, True, True, True, True, True, True, True, True, True, True, True, True, True,
                       True, True, True, True, True, True, True, True, False, False, False, False, False, False, False,
                       False, False, False, False, False, False, False, False, False, False, False, False, False, False,
                       False, False, False, False, False, False, False, False, False, False, False, False, False, False,
                       False, False, False, False, False, False, False, False, False, False, False, False, False, False,
                       False, False, False, False, False, False, False],
              'schema_name': 'qcschema_molecule',
              'schema_version': 2,
              'symbols': ['C', 'C', 'C', 'C', 'C', 'C', 'C', 'C', 'C', 'C', 'C', 'C', 'C', 'C', 'C', 'C', 'C', 'C', 'H',
                          'H', 'H', 'H', 'H', 'H', 'H', 'H', 'H', 'H', 'H', 'H', 'H', 'H', 'H', 'H', 'H', 'H', 'H', 'H',
                          'H', 'H', 'H', 'H', 'H', 'H', 'H', 'H', 'H', 'H', 'H', 'H', 'H', 'H', 'H', 'H', 'H', 'H', 'C',
                          'C', 'C', 'C', 'C', 'C', 'C', 'C', 'C', 'C', 'C', 'C', 'C', 'C', 'C', 'C', 'C', 'C', 'H', 'H',
                          'H', 'H', 'H', 'H', 'H', 'H', 'H', 'H', 'H', 'H', 'H', 'H', 'H', 'H', 'H', 'H', 'H', 'H', 'H',
                          'H', 'H', 'H', 'H', 'H', 'H', 'H', 'H', 'H', 'H', 'H', 'H', 'H', 'H', 'H', 'H', 'H'],
              'validated': True},
 'protocols': {},
 'provenance': {'creator': 'QCElemental', 'routine': 'qcelemental.models.results', 'version': '0.29.0'},
 'schema_name': 'qcschema_input',
 'schema_version': 1}
--------------------------------------------------------------------------

Scratch directory: /tmp/tmphl32xt_g_psi_scratch/
   => Libint2 <=

    Primary   basis highest AM E, G, H:  6, 6, 3
    Auxiliary basis highest AM E, G, H:  7, 7, 4
    Onebody   basis highest AM E, G, H:  -, -, -
    Solid Harmonics ordering:            Gaussian

*** tstart() called on atl1-1-02-004-3-1.pace.gatech.edu
*** at Sat Jun 13 11:18:36 2026

   => Loading Basis Set <=

    Name: AUG-CC-PVTZ
    Role: ORBITAL
    Keyword: BASIS
    atoms 1-18, 57-74   entry C          line   239 file /storage/home/hcoda1/5/vlita3/.conda/envs/p4_qcml/share/psi4/basis/aug-cc-pvtz.gbs 
    atoms 19-56, 75-112 entry H          line    40 file /storage/home/hcoda1/5/vlita3/.conda/envs/p4_qcml/share/psi4/basis/aug-cc-pvtz.gbs 

   => PBE-D3: Empirical Dispersion <=

    Grimme's -D3 (zero-damping) Dispersion Correction
    Grimme S.; Antony J.; Ehrlich S.; Krieg H. (2010), J. Chem. Phys., 132: 154104

        s6 =       1.000000
        s8 =       0.722000
       sr6 =       1.217000
    alpha6 =      14.000000
       sr8 =       1.000000


         ---------------------------------------------------------
                                   SCF
               by Justin Turney, Rob Parrish, Andy Simmonett
                          and Daniel G. A. Smith
                              RKS Reference
                       10 Threads, 256000 MiB Core
         ---------------------------------------------------------

  ==> Geometry <==

    Molecular point group: c1
    Full point group: C1

    Geometry (in Bohr), charge = 0, multiplicity = 1:

       Center              X                  Y                   Z               Mass       
    ------------   -----------------  -----------------  -----------------  -----------------
         C           39.187250660000    24.740294430000     4.008109110000    12.000000000000
         C           37.915464980000    22.149479920000     3.773783070000    12.000000000000
         C           35.033632640000    22.268532660000     4.055352270000    12.000000000000
         C           33.742949700000    19.685277050000     3.821026230000    12.000000000000
         C           30.859227630000    19.815668150000     4.076139250000    12.000000000000
         C           29.562875510000    17.238081720000     3.828585130000    12.000000000000
         C           26.677263710000    17.377921450000     4.055352270000    12.000000000000
         C           25.373352690000    14.806004190000     3.788900880000    12.000000000000
         C           22.487740890000    14.959072010000     3.998660480000    12.000000000000
         C           21.172491510000    12.390934200000     3.726539920000    12.000000000000
         C           18.288769440000    12.555340380000     3.938189250000    12.000000000000
         C           16.962181700000     9.992871750000     3.675517310000    12.000000000000
         C           14.080349360000    10.164836830000     3.906063900000    12.000000000000
         C           12.748092440000     7.604257930000     3.664178960000    12.000000000000
         C            9.868149830000     7.778112730000     3.926850890000    12.000000000000
         C            8.534003180000     5.215644110000     3.711422110000    12.000000000000
         C            5.655950290000     5.385719460000     4.006219390000    12.000000000000
         C            4.340700910000     2.813802200000     3.805908420000    12.000000000000
         H            2.288458340000     3.000885090000     4.004329660000     1.007825032230
         H           38.818754070000    25.579332830000     5.865709890000     1.007825032230
         H           41.237603510000    24.596675250000     3.768113890000     1.007825032230
         H           38.469154740000    26.047984910000     2.571917260000     1.007825032230
         H           38.382227330000    21.312331240000     1.933189830000     1.007825032230
         H           38.686473240000    20.866355880000     5.211864650000     1.007825032230
         H           34.561201110000    23.105681340000     5.895945510000     1.007825032230
         H           34.260734650000    23.551656700000     2.615380960000     1.007825032230
         H           34.228609310000    18.842459200000     1.986102160000     1.007825032230
         H           34.500729870000    18.407822190000     5.270446160000     1.007825032230
         H           30.373568010000    20.652816830000     5.914842770000     1.007825032230
         H           30.103337180000    21.102571640000     2.632388490000     1.007825032230
         H           30.063652930000    16.393374140000     1.997440510000     1.007825032230
         H           30.301758420000    15.954957680000     5.285563970000     1.007825032230
         H           26.176486290000    18.213180400000     5.890276330000     1.007825032230
         H           25.942160250000    18.670494120000     2.605932330000     1.007825032230
         H           25.881689010000    13.965076070000     1.959645990000     1.007825032230
         H           26.097117790000    13.515321250000     5.247769450000     1.007825032230
         H           21.979404570000    15.794330960000     5.831694820000     1.007825032230
         H           21.765865510000    16.253534410000     2.545461090000     1.007825032230
         H           21.678938110000    11.551895800000     1.897285030000     1.007825032230
         H           21.892477160000    11.096471810000     5.183518760000     1.007825032230
         H           17.786102290000    13.396268500000     5.769333860000     1.007825032230
         H           17.568783790000    13.851692500000     2.483100130000     1.007825032230
         H           17.455400220000     9.148164170000     1.842482970000     1.007825032230
         H           17.685946810000     8.696519630000     5.128716700000     1.007825032230
         H           13.594689750000    11.015213590000     5.739098240000     1.007825032230
         H           13.352804800000    11.457409500000     2.452864510000     1.007825032230
         H           13.218634250000     6.755770900000     1.829254890000     1.007825032230
         H           13.486975360000     6.311685260000     5.113598900000     1.007825032230
         H            9.403277200000     8.636048390000     5.761774960000     1.007825032230
         H            9.123597730000     9.063126500000     2.477430950000     1.007825032230
         H            8.983758000000     4.359598170000     1.872718590000     1.007825032230
         H            9.291783360000     3.928740610000     5.155172870000     1.007825032230
         H            5.211864650000     6.249324300000     5.841143450000     1.007825032230
         H            4.900059840000     6.665064040000     2.558689170000     1.007825032230
         H            4.724315310000     1.925630920000     1.974763800000     1.007825032230
         H            5.009663960000     1.525008980000     5.283674250000     1.007825032230
      Gh(C)           9.390049120000     8.902499780000    -3.879607740000    12.000000000000
      Gh(C)           8.099366170000     6.319244160000    -4.113933780000    12.000000000000
      Gh(C)           5.217533830000     6.438296910000    -3.832364580000    12.000000000000
      Gh(C)           3.945748150000     3.847482390000    -4.066690620000    12.000000000000
      Gh(C)          12.271881460000     8.772108670000    -4.136610490000    12.000000000000
      Gh(C)          13.570123310000    11.351584840000    -3.887166640000    12.000000000000
      Gh(C)          16.453845370000    11.209855380000    -4.113933780000    12.000000000000
      Gh(C)          17.759646130000    13.781772630000    -3.847482390000    12.000000000000
      Gh(C)          20.645257920000    13.628704820000    -4.057241990000    12.000000000000
      Gh(C)          21.958617580000    16.196842620000    -3.785121430000    12.000000000000
      Gh(C)          24.844229370000    16.032436450000    -3.996770760000    12.000000000000
      Gh(C)          26.168927390000    18.596794800000    -3.734098820000    12.000000000000
      Gh(C)          29.050759730000    18.422940000000    -3.964645410000    12.000000000000
      Gh(C)          30.383016650000    20.985408620000    -3.722760470000    12.000000000000
      Gh(C)          33.262959260000    20.809664090000    -3.987322120000    12.000000000000
      Gh(C)          34.597105900000    23.372132720000    -3.770003620000    12.000000000000
      Gh(C)          37.475158790000    23.202057370000    -4.064800900000    12.000000000000
      Gh(C)          38.790408180000    25.773974630000    -3.866379650000    12.000000000000
      Gh(H)          40.842650750000    25.588781460000    -4.064800900000     1.007825032230
      Gh(H)          38.121445130000    27.062767840000    -5.344145480000     1.007825032230
      Gh(H)          37.919244430000    22.338452530000    -5.899724960000     1.007825032230
      Gh(H)          38.231049240000    21.922712780000    -2.617270680000     1.007825032230
      Gh(H)          34.147351090000    24.230068380000    -1.933189830000     1.007825032230
      Gh(H)          33.839325730000    24.659036210000    -5.215644110000     1.007825032230
      Gh(H)          33.727831890000    19.951728430000    -5.820356470000     1.007825032230
      Gh(H)          34.007511350000    19.524650330000    -2.536012460000     1.007825032230
      Gh(H)          29.912474840000    21.833895650000    -1.887836400000     1.007825032230
      Gh(H)          29.644133730000    22.276091570000    -5.172180410000     1.007825032230
      Gh(H)          29.536419340000    17.572563240000    -5.797679750000     1.007825032230
      Gh(H)          29.780194010000    17.132257050000    -2.511446020000     1.007825032230
      Gh(H)          25.677598590000    19.439612650000    -1.901064480000     1.007825032230
      Gh(H)          25.445162280000    19.891257200000    -5.187298210000     1.007825032230
      Gh(H)          25.345006790000    15.191508320000    -5.827915370000     1.007825032230
      Gh(H)          25.562325300000    14.737974050000    -2.541681640000     1.007825032230
      Gh(H)          21.452170980000    17.037770750000    -1.955866540000     1.007825032230
      Gh(H)          21.240521650000    17.491305020000    -5.242100270000     1.007825032230
      Gh(H)          21.153594250000    12.793445870000    -5.890276330000     1.007825032230
      Gh(H)          21.367133300000    12.334242420000    -2.604042600000     1.007825032230
      Gh(H)          17.249420070000    14.622700760000    -2.020117230000     1.007825032230
      Gh(H)          17.035881020000    15.072455580000    -5.306350960000     1.007825032230
      Gh(H)          16.954622800000    10.374596430000    -5.950747570000     1.007825032230
      Gh(H)          17.188948840000     9.917282710000    -2.664513840000     1.007825032230
      Gh(H)          13.069345880000    12.194402690000    -2.057911750000     1.007825032230
      Gh(H)          12.829350670000    12.632819150000    -5.344145480000     1.007825032230
      Gh(H)          12.757541070000     7.936849730000    -5.975314010000     1.007825032230
      Gh(H)          13.027771910000     7.485205180000    -2.692859730000     1.007825032230
      Gh(H)           8.904389500000     9.745317630000    -2.044683670000     1.007825032230
      Gh(H)           8.571797710000     5.482095490000    -5.956416750000     1.007825032230
      Gh(H)           8.870374430000     5.036120120000    -2.675852190000     1.007825032230
      Gh(H)           4.750771480000     7.275445580000    -1.991771340000     1.007825032230
      Gh(H)           4.446525570000     7.721420950000    -5.270446160000     1.007825032230
      Gh(H)           1.895395300000     3.991101580000    -3.828585130000     1.007825032230
      Gh(H)           4.314244740000     3.008443990000    -5.926181130000     1.007825032230
      Gh(H)           4.663844080000     2.539791910000    -2.632388490000     1.007825032230
      Gh(H)           8.630379210000    10.179954640000    -5.330917400000     1.007825032230
      Gh(H)          38.406793770000    26.662145900000    -2.033345310000     1.007825032230

  Running in c1 symmetry.

  Rotational constants: A =      0.00674  B =      0.00014  C =      0.00014 [cm^-1]
  Rotational constants: A =    202.03768  B =      4.27015  C =      4.19674 [MHz]
  Nuclear repulsion = 1177.196919444696050

  Charge       = 0
  Multiplicity = 1
  Electrons    = 146
  Nalpha       = 73
  Nbeta        = 73

  ==> Algorithm <==

  SCF Algorithm Type is DF.
  DIIS enabled.
  MOM disabled.
  Fractional occupation disabled.
  Guess Type is SAD.
  Energy threshold   = 1.00e-06
  Density threshold  = 1.00e-06
  Integral threshold = 1.00e-12

  ==> Primary Basis <==

  Basis Set: AUG-CC-PVTZ
    Blend: AUG-CC-PVTZ
    Number of shells: 1188
    Number of basis functions: 3404
    Number of Cartesian functions: 3880
    Spherical Harmonics?: true
    Max angular momentum: 3

  ==> DFT Potential <==

   => LibXC <=

    Version 7.0.0
    S. Lehtola, C. Steigemann, M. J.T. Oliveira, and M. A.L. Marques.,  SoftwareX 7, 1–5 (2018) (10.1016/j.softx.2017.11.002)

   => Composite Functional: PBE-D3ZERO2B <= 

    PBE GGA Exchange-Correlation Functional

    J.P. Perdew et. al., Phys. Rev. Lett., 77(18), 3865-3868, 1996


    Deriv               =              1
    GGA                 =           TRUE
    Meta                =          FALSE

    Exchange Hybrid     =          FALSE
    MP2 Hybrid          =          FALSE

   => Exchange Functionals <=

    1.0000     XC_GGA_X_PBE

   => Correlation Functionals <=

    1.0000     XC_GGA_C_PBE

   => LibXC Density Thresholds  <==

    XC_GGA_C_PBE:  1.00E-12 
    XC_GGA_X_PBE:  1.00E-15 

   => Molecular Quadrature <=

    Radial Scheme          =       TREUTLER
    Pruning Scheme         =           NONE
    Nuclear Scheme         =       TREUTLER

    Blocking Scheme        =         OCTREE
    BS radius alpha        =              1
    Pruning alpha          =              1
    Radial Points          =             75
    Spherical Points       =            302
    Total Points           =        2287807
    Total Blocks           =          15476
    Max Points             =            256
    Max Functions          =           1540
    Weights Tolerance      =       1.00E-15

   => Loading Basis Set <=

    Name: (AUG-CC-PVTZ AUX)
    Role: JKFIT
    Keyword: DF_BASIS_SCF
    atoms 1-18, 57-74   entry C          line   162 file /storage/home/hcoda1/5/vlita3/.conda/envs/p4_qcml/share/psi4/basis/aug-cc-pvtz-jkfit.gbs 
    atoms 19-56, 75-112 entry H          line    70 file /storage/home/hcoda1/5/vlita3/.conda/envs/p4_qcml/share/psi4/basis/aug-cc-pvtz-jkfit.gbs 

  ==> Integral Setup <==

  ==> DiskDFJK: Density-Fitted J/K Matrices <==

    J tasked:                  Yes
    K tasked:                   No
    wK tasked:                  No
    OpenMP threads:             10
    Integrals threads:          10
    Memory [MiB]:           172368
    Algorithm:                Disk
    Integral Cache:           NONE
    Schwarz Cutoff:          1E-12
    Fitting Condition:       1E-10

   => Auxiliary Basis Set <=

  Basis Set: (AUG-CC-PVTZ AUX)
    Blend: AUG-CC-PVTZ-JKFIT
    Number of shells: 2144
    Number of basis functions: 7240
    Number of Cartesian functions: 8896
    Spherical Harmonics?: true
    Max angular momentum: 4

  Minimum eigenvalue in the overlap matrix is 2.2061596341E-08.
  Reciprocal condition number of the overlap matrix is 6.8411741151E-10.
    Using canonical orthogonalization.
  Overall, 1 of 3404 possible MOs eliminated.


  ==> Pre-Iterations <==

  SCF Guess: Superposition of Atomic Densities via on-the-fly atomic UHF (no occupation information).

   -------------------------
    Irrep   Nso     Nmo    
   -------------------------
     A       3404    3403 
   -------------------------
    Total    3404    3403
   -------------------------

  ==> Iterations <==

                           Total Energy        Delta E     RMS |[F,P]|

   @DF-RKS iter SAD:  -705.89637013306969   -7.05896e+02   0.00000e+00 
   @DF-RKS iter   1:  -704.56273046291517    1.33364e+00   7.52391e-04 ADIIS/DIIS
   @DF-RKS iter   2:  -686.33183857785741    1.82309e+01   1.56557e-03 ADIIS/DIIS
   @DF-RKS iter   3:  -707.90408117453751   -2.15722e+01   1.52216e-04 ADIIS/DIIS
   @DF-RKS iter   4:  -707.99139889289324   -8.73177e-02   1.22445e-04 ADIIS/DIIS
   @DF-RKS iter   5:  -708.07263489740205   -8.12360e-02   2.61106e-05 DIIS
   @DF-RKS iter   6:  -708.07600693389008   -3.37204e-03   7.63785e-06 DIIS
   @DF-RKS iter   7:  -708.07630859842232   -3.01665e-04   2.76922e-06 DIIS
   @DF-RKS iter   8:  -708.07635202098470   -4.34226e-05   5.24072e-07 DIIS
   @DF-RKS iter   9:  -708.07635337657791   -1.35559e-06   2.30598e-07 DIIS
   @DF-RKS iter  10:  -708.07635368649767   -3.09920e-07   5.89886e-08 DIIS
  Energy and wave function converged.


  ==> Post-Iterations <==

   Electrons on quadrature grid:
      Ntotal   =  146.0011826398 ; deviation = 1.183e-03 

    Orbital Energies [Eh]
    ---------------------

    Doubly Occupied:                                                      

       1A     -9.878474     2A     -9.878458     3A     -9.876463  
       4A     -9.876460     5A     -9.876382     6A     -9.876377  
       7A     -9.876333     8A     -9.876319     9A     -9.876287  
      10A     -9.876276    11A     -9.876257    12A     -9.876234  
      13A     -9.876197    14A     -9.876161    15A     -9.876127  
      16A     -9.876083    17A     -9.870684    18A     -9.870604  
      19A     -0.740769    20A     -0.735765    21A     -0.727330  
      22A     -0.715640    23A     -0.700773    24A     -0.682901  
      25A     -0.662190    26A     -0.639047    27A     -0.613831  
      28A     -0.587399    29A     -0.560921    30A     -0.536861  
      31A     -0.519258    32A     -0.518658    33A     -0.515465  
      34A     -0.512644    35A     -0.508646    36A     -0.508273  
      37A     -0.437568    38A     -0.432888    39A     -0.425124  
      40A     -0.414482    41A     -0.401357    42A     -0.387897  
      43A     -0.387373    44A     -0.386120    45A     -0.379173  
      46A     -0.374614    47A     -0.369318    48A     -0.365128  
      49A     -0.352261    50A     -0.351685    51A     -0.347777  
      52A     -0.334119    53A     -0.333071    54A     -0.321469  
      55A     -0.317573    56A     -0.317296    57A     -0.303914  
      58A     -0.303088    59A     -0.295502    60A     -0.291568  
      61A     -0.290766    62A     -0.287337    63A     -0.283364  
      64A     -0.283036    65A     -0.281078    66A     -0.280059  
      67A     -0.278569    68A     -0.277103    69A     -0.276811  
      70A     -0.275811    71A     -0.275771    72A     -0.266592  
      73A     -0.249225  

    Virtual:                                                              

      74A     -0.021766    75A     -0.018809    76A     -0.013917  
      77A     -0.011191    78A     -0.009882    79A     -0.007363  
      80A     -0.005911    81A     -0.004539    82A      0.001113  
      83A      0.002664    84A      0.004096    85A      0.011415  
      86A      0.013653    87A      0.014892    88A      0.022922  
      89A      0.022996    90A      0.023846    91A      0.026028  
      92A      0.026377    93A      0.027129    94A      0.027318  
      95A      0.027466    96A      0.028061    97A      0.034383  
      98A      0.034610    99A      0.035241   100A      0.037524  
     101A      0.037619   102A      0.039880   103A      0.042538  
     104A      0.043942   105A      0.045335   106A      0.047094  
     107A      0.047922   108A      0.049481   109A      0.049701  
     110A      0.053485   111A      0.055050   112A      0.056244  
     113A      0.058479   114A      0.060099   115A      0.060293  
     116A      0.061974   117A      0.063009   118A      0.063361  
     119A      0.064019   120A      0.064447   121A      0.065016  
     122A      0.065677   123A      0.067049   124A      0.067279  
     125A      0.069206   126A      0.072134   127A      0.072985  
     128A      0.073259   129A      0.074046   130A      0.074507  
     131A      0.075557   132A      0.076592   133A      0.076653  
     134A      0.077680   135A      0.078424   136A      0.080129  
     137A      0.081904   138A      0.082513   139A      0.082918  
     140A      0.083232   141A      0.085705   142A      0.086839  
     143A      0.087515   144A      0.087943   145A      0.088539  
     146A      0.089904   147A      0.092063   148A      0.092487  
     149A      0.094121   150A      0.094394   151A      0.096586  
     152A      0.097065   153A      0.098106   154A      0.098403  
     155A      0.099841   156A      0.099912   157A      0.100426  
     158A      0.102246   159A      0.102919   160A      0.103438  
     161A      0.103593   162A      0.106302   163A      0.107188  
     164A      0.108616   165A      0.109300   166A      0.110661  
     167A      0.112210   168A      0.112667   169A      0.113055  
     170A      0.113272   171A      0.113797   172A      0.114564  
     173A      0.115203   174A      0.117441   175A      0.117996  
     176A      0.118833   177A      0.119604   178A      0.120276  
     179A      0.121794   180A      0.123471   181A      0.123710  
     182A      0.124850   183A      0.126030   184A      0.126532  
     185A      0.127710   186A      0.127798   187A      0.129305  
     188A      0.129664   189A      0.130147   190A      0.131471  
     191A      0.134610   192A      0.135897   193A      0.136321  
     194A      0.137275   195A      0.138285   196A      0.138823  
     197A      0.141729   198A      0.141919   199A      0.143412  
     200A      0.144490   201A      0.144581   202A      0.144868  
     203A      0.145761   204A      0.148654   205A      0.148845  
     206A      0.149227   207A      0.150156   208A      0.150933  
     209A      0.152549   210A      0.153418   211A      0.155466  
     212A      0.155759   213A      0.156539   214A      0.157067  
     215A      0.157969   216A      0.158584   217A      0.159222  
     218A      0.160778   219A      0.161634   220A      0.162089  
     221A      0.163308   222A      0.164392   223A      0.165550  
     224A      0.166025   225A      0.166451   226A      0.167576  
     227A      0.169829   228A      0.170775   229A      0.171479  
     230A      0.172689   231A      0.173016   232A      0.173695  
     233A      0.174768   234A      0.175723   235A      0.176559  
     236A      0.178123   237A      0.178714   238A      0.178955  
     239A      0.179879   240A      0.181057   241A      0.182041  
     242A      0.183432   243A      0.185054   244A      0.186778  
     245A      0.187850   246A      0.188925   247A      0.189038  
     248A      0.190259   249A      0.190672   250A      0.191916  
     251A      0.192307   252A      0.192764   253A      0.193788  
     254A      0.195705   255A      0.196249   256A      0.197521  
     257A      0.198715   258A      0.199723   259A      0.201012  
     260A      0.201289   261A      0.202933   262A      0.203183  
     263A      0.204238   264A      0.205667   265A      0.206343  
     266A      0.207450   267A      0.208031   268A      0.208967  
     269A      0.209534   270A      0.211361   271A      0.211631  
     272A      0.212893   273A      0.213187   274A      0.214114  
     275A      0.214725   276A      0.215084   277A      0.219012  
     278A      0.219466   279A      0.220252   280A      0.220751  
     281A      0.222070   282A      0.222452   283A      0.223867  
     284A      0.225231   285A      0.226144   286A      0.227628  
     287A      0.227836   288A      0.228734   289A      0.228935  
     290A      0.229405   291A      0.231684   292A      0.232575  
     293A      0.233405   294A      0.233967   295A      0.234650  
     296A      0.234842   297A      0.236144   298A      0.236497  
     299A      0.237082   300A      0.239644   301A      0.240468  
     302A      0.241650   303A      0.242758   304A      0.244145  
     305A      0.244438   306A      0.247557   307A      0.248737  
     308A      0.250569   309A      0.250945   310A      0.252582  
     311A      0.254206   312A      0.255572   313A      0.256178  
     314A      0.259658   315A      0.259881   316A      0.261714  
     317A      0.262329   318A      0.264361   319A      0.264672  
     320A      0.265223   321A      0.267655   322A      0.268416  
     323A      0.269953   324A      0.271545   325A      0.271870  
     326A      0.273825   327A      0.274964   328A      0.275734  
     329A      0.276896   330A      0.277815   331A      0.279256  
     332A      0.280102   333A      0.281160   334A      0.283598  
     335A      0.284279   336A      0.285309   337A      0.285942  
     338A      0.286079   339A      0.286815   340A      0.287366  
     341A      0.289575   342A      0.290008   343A      0.290460  
     344A      0.293324   345A      0.294543   346A      0.295807  
     347A      0.296705   348A      0.299954   349A      0.301146  
     350A      0.301983   351A      0.303173   352A      0.304683  
     353A      0.305060   354A      0.306525   355A      0.309754  
     356A      0.310995   357A      0.311603   358A      0.312731  
     359A      0.313125   360A      0.314441   361A      0.315799  
     362A      0.316070   363A      0.317974   364A      0.319494  
     365A      0.320224   366A      0.322501   367A      0.322899  
     368A      0.323279   369A      0.324004   370A      0.324841  
     371A      0.326881   372A      0.327580   373A      0.327750  
     374A      0.328564   375A      0.329269   376A      0.330814  
     377A      0.331558   378A      0.332967   379A      0.333296  
     380A      0.333697   381A      0.334598   382A      0.335160  
     383A      0.335717   384A      0.338070   385A      0.338748  
     386A      0.339218   387A      0.340276   388A      0.341207  
     389A      0.342373   390A      0.343374   391A      0.343951  
     392A      0.344881   393A      0.345319   394A      0.347102  
     395A      0.347694   396A      0.348595   397A      0.350443  
     398A      0.350899   399A      0.352082   400A      0.352385  
     401A      0.353768   402A      0.354166   403A      0.355211  
     404A      0.356635   405A      0.360718   406A      0.361782  
     407A      0.362887   408A      0.363637   409A      0.364320  
     410A      0.364665   411A      0.367053   412A      0.367898  
     413A      0.368609   414A      0.369983   415A      0.370102  
     416A      0.370295   417A      0.372451   418A      0.373296  
     419A      0.374021   420A      0.375844   421A      0.376906  
     422A      0.379227   423A      0.379793   424A      0.380956  
     425A      0.382118   426A      0.383958   427A      0.384855  
     428A      0.385274   429A      0.386407   430A      0.387175  
     431A      0.388836   432A      0.390172   433A      0.391463  
     434A      0.392174   435A      0.392623   436A      0.393217  
     437A      0.395508   438A      0.396245   439A      0.396638  
     440A      0.397979   441A      0.398896   442A      0.398975  
     443A      0.399528   444A      0.400825   445A      0.402446  
     446A      0.403056   447A      0.404692   448A      0.406587  
     449A      0.406955   450A      0.407414   451A      0.409790  
     452A      0.411030   453A      0.412039   454A      0.412507  
     455A      0.414059   456A      0.414945   457A      0.415355  
     458A      0.415563   459A      0.417375   460A      0.417861  
     461A      0.419145   462A      0.419270   463A      0.420422  
     464A      0.421741   465A      0.422240   466A      0.423292  
     467A      0.423442   468A      0.424092   469A      0.424616  
     470A      0.426429   471A      0.427290   472A      0.428444  
     473A      0.429456   474A      0.431941   475A      0.432628  
     476A      0.433493   477A      0.434528   478A      0.435403  
     479A      0.436040   480A      0.438165   481A      0.439801  
     482A      0.440852   483A      0.441526   484A      0.443546  
     485A      0.444720   486A      0.446568   487A      0.447420  
     488A      0.447802   489A      0.448781   490A      0.449623  
     491A      0.450469   492A      0.451803   493A      0.452496  
     494A      0.452745   495A      0.454243   496A      0.454878  
     497A      0.457354   498A      0.458545   499A      0.458670  
     500A      0.459421   501A      0.460032   502A      0.461317  
     503A      0.462256   504A      0.463976   505A      0.464951  
     506A      0.465845   507A      0.466887   508A      0.467985  
     509A      0.468728   510A      0.469244   511A      0.469579  
     512A      0.471048   513A      0.471805   514A      0.472868  
     515A      0.473814   516A      0.474877   517A      0.475847  
     518A      0.477069   519A      0.478770   520A      0.480113  
     521A      0.481569   522A      0.481743   523A      0.482523  
     524A      0.484645   525A      0.485491   526A      0.486842  
     527A      0.487230   528A      0.488657   529A      0.490480  
     530A      0.491210   531A      0.493016   532A      0.495565  
     533A      0.496755   534A      0.497771   535A      0.498755  
     536A      0.500292   537A      0.500642   538A      0.502103  
     539A      0.502265   540A      0.503793   541A      0.506589  
     542A      0.507153   543A      0.507980   544A      0.508053  
     545A      0.510194   546A      0.512035   547A      0.513258  
     548A      0.513844   549A      0.515104   550A      0.516910  
     551A      0.517585   552A      0.518817   553A      0.519727  
     554A      0.520474   555A      0.522363   556A      0.523882  
     557A      0.525076   558A      0.525228   559A      0.527664  
     560A      0.528056   561A      0.529514   562A      0.532527  
     563A      0.532925   564A      0.533510   565A      0.534045  
     566A      0.536057   567A      0.536793   568A      0.539357  
     569A      0.542432   570A      0.542859   571A      0.544534  
     572A      0.545143   573A      0.545893   574A      0.547017  
     575A      0.547773   576A      0.548940   577A      0.550376  
     578A      0.551897   579A      0.552139   580A      0.553443  
     581A      0.554430   582A      0.555881   583A      0.556427  
     584A      0.557067   585A      0.558917   586A      0.560136  
     587A      0.561727   588A      0.563127   589A      0.563852  
     590A      0.566519   591A      0.567227   592A      0.568410  
     593A      0.569209   594A      0.569710   595A      0.570922  
     596A      0.571826   597A      0.572464   598A      0.574068  
     599A      0.575328   600A      0.576137   601A      0.577568  
     602A      0.578038   603A      0.578198   604A      0.579621  
     605A      0.580531   606A      0.584828   607A      0.584954  
     608A      0.585278   609A      0.587700   610A      0.588678  
     611A      0.589951   612A      0.590461   613A      0.590928  
     614A      0.592614   615A      0.593167   616A      0.593819  
     617A      0.595612   618A      0.596264   619A      0.598457  
     620A      0.598919   621A      0.601380   622A      0.602198  
     623A      0.603058   624A      0.604057   625A      0.605410  
     626A      0.605833   627A      0.606755   628A      0.607508  
     629A      0.608835   630A      0.609206   631A      0.610278  
     632A      0.613495   633A      0.614409   634A      0.615075  
     635A      0.615734   636A      0.618553   637A      0.620731  
     638A      0.622501   639A      0.623150   640A      0.625378  
     641A      0.626787   642A      0.629239   643A      0.629746  
     644A      0.630123   645A      0.630793   646A      0.631475  
     647A      0.634247   648A      0.635606   649A      0.637040  
     650A      0.637276   651A      0.638253   652A      0.640122  
     653A      0.640962   654A      0.641861   655A      0.642281  
     656A      0.643607   657A      0.645150   658A      0.646057  
     659A      0.646185   660A      0.647709   661A      0.649991  
     662A      0.653151   663A      0.653992   664A      0.655457  
     665A      0.655918   666A      0.657069   667A      0.658476  
     668A      0.659997   669A      0.660909   670A      0.662266  
     671A      0.664040   672A      0.666964   673A      0.668034  
     674A      0.668994   675A      0.669574   676A      0.671949  
     677A      0.672539   678A      0.673636   679A      0.675709  
     680A      0.676300   681A      0.678551   682A      0.679733  
     683A      0.680464   684A      0.681349   685A      0.682369  
     686A      0.684525   687A      0.685921   688A      0.687155  
     689A      0.688361   690A      0.689052   691A      0.691623  
     692A      0.693808   693A      0.695457   694A      0.696648  
     695A      0.696986   696A      0.698171   697A      0.700311  
     698A      0.700939   699A      0.701448   700A      0.702785  
     701A      0.703943   702A      0.705074   703A      0.705719  
     704A      0.707048   705A      0.707815   706A      0.708439  
     707A      0.710025   708A      0.710883   709A      0.711766  
     710A      0.712779   711A      0.714984   712A      0.716858  
     713A      0.717717   714A      0.719919   715A      0.720849  
     716A      0.721509   717A      0.723415   718A      0.724055  
     719A      0.726520   720A      0.727398   721A      0.728116  
     722A      0.730212   723A      0.730956   724A      0.732642  
     725A      0.733061   726A      0.734256   727A      0.735196  
     728A      0.736066   729A      0.737933   730A      0.738787  
     731A      0.739605   732A      0.741130   733A      0.742263  
     734A      0.744020   735A      0.744125   736A      0.745585  
     737A      0.747402   738A      0.747715   739A      0.748830  
     740A      0.749246   741A      0.750459   742A      0.751150  
     743A      0.752261   744A      0.752724   745A      0.754515  
     746A      0.755545   747A      0.755887   748A      0.756068  
     749A      0.757217   750A      0.759754   751A      0.760098  
     752A      0.763628   753A      0.765449   754A      0.766429  
     755A      0.768832   756A      0.770652   757A      0.771518  
     758A      0.772401   759A      0.773001   760A      0.773960  
     761A      0.774580   762A      0.774780   763A      0.777050  
     764A      0.777532   765A      0.779357   766A      0.780645  
     767A      0.781877   768A      0.783759   769A      0.784389  
     770A      0.784916   771A      0.786537   772A      0.789574  
     773A      0.790354   774A      0.791917   775A      0.792441  
     776A      0.795144   777A      0.796383   778A      0.796770  
     779A      0.797625   780A      0.798464   781A      0.800727  
     782A      0.801398   783A      0.802945   784A      0.803102  
     785A      0.804471   786A      0.806790   787A      0.808652  
     788A      0.809868   789A      0.810864   790A      0.811538  
     791A      0.812201   792A      0.814578   793A      0.815587  
     794A      0.816464   795A      0.818247   796A      0.818378  
     797A      0.819489   798A      0.821738   799A      0.822163  
     800A      0.823250   801A      0.824863   802A      0.825594  
     803A      0.826631   804A      0.827646   805A      0.828258  
     806A      0.828600   807A      0.830859   808A      0.831018  
     809A      0.833435   810A      0.833902   811A      0.834954  
     812A      0.837540   813A      0.838088   814A      0.838991  
     815A      0.840018   816A      0.842181   817A      0.842758  
     818A      0.846010   819A      0.846585   820A      0.847803  
     821A      0.848689   822A      0.849875   823A      0.851206  
     824A      0.852391   825A      0.853242   826A      0.855200  
     827A      0.856673   828A      0.857491   829A      0.858355  
     830A      0.859592   831A      0.860195   832A      0.861711  
     833A      0.862759   834A      0.864168   835A      0.865469  
     836A      0.866372   837A      0.866838   838A      0.868897  
     839A      0.869466   840A      0.869969   841A      0.871096  
     842A      0.871594   843A      0.872253   844A      0.874004  
     845A      0.875530   846A      0.877143   847A      0.877765  
     848A      0.880165   849A      0.881555   850A      0.882853  
     851A      0.883835   852A      0.886817   853A      0.887487  
     854A      0.888324   855A      0.890967   856A      0.892348  
     857A      0.895068   858A      0.896176   859A      0.898189  
     860A      0.898452   861A      0.899455   862A      0.900840  
     863A      0.901993   864A      0.902911   865A      0.904800  
     866A      0.907565   867A      0.908040   868A      0.909207  
     869A      0.910687   870A      0.911683   871A      0.913000  
     872A      0.914894   873A      0.916001   874A      0.917890  
     875A      0.919447   876A      0.920100   877A      0.923320  
     878A      0.923668   879A      0.926018   880A      0.926879  
     881A      0.929252   882A      0.929944   883A      0.931300  
     884A      0.932934   885A      0.933506   886A      0.935824  
     887A      0.936781   888A      0.939675   889A      0.940092  
     890A      0.941113   891A      0.941661   892A      0.944890  
     893A      0.945585   894A      0.948090   895A      0.950695  
     896A      0.951300   897A      0.952363   898A      0.953269  
     899A      0.954405   900A      0.956047   901A      0.957329  
     902A      0.958511   903A      0.959227   904A      0.960446  
     905A      0.960798   906A      0.962635   907A      0.962944  
     908A      0.964254   909A      0.966563   910A      0.967519  
     911A      0.968716   912A      0.970168   913A      0.971448  
     914A      0.972076   915A      0.975008   916A      0.976660  
     917A      0.977555   918A      0.978633   919A      0.979106  
     920A      0.980524   921A      0.981312   922A      0.982594  
     923A      0.984200   924A      0.985234   925A      0.986025  
     926A      0.987567   927A      0.988948   928A      0.989320  
     929A      0.990272   930A      0.991369   931A      0.992638  
     932A      0.994646   933A      0.995640   934A      0.995924  
     935A      0.997239   936A      0.997558   937A      1.000478  
     938A      1.001952   939A      1.003451   940A      1.004740  
     941A      1.005406   942A      1.007791   943A      1.008388  
     944A      1.009223   945A      1.011882   946A      1.013445  
     947A      1.014595   948A      1.015104   949A      1.017055  
     950A      1.019535   951A      1.021687   952A      1.021884  
     953A      1.022468   954A      1.024154   955A      1.024927  
     956A      1.026137   957A      1.026810   958A      1.027058  
     959A      1.028454   960A      1.031761   961A      1.032322  
     962A      1.033437   963A      1.035221   964A      1.038078  
     965A      1.039495   966A      1.040302   967A      1.041437  
     968A      1.044425   969A      1.045849   970A      1.046470  
     971A      1.047181   972A      1.049487   973A      1.051256  
     974A      1.051820   975A      1.054315   976A      1.055025  
     977A      1.056745   978A      1.057769   979A      1.060857  
     980A      1.061930   981A      1.063130   982A      1.063901  
     983A      1.064577   984A      1.066135   985A      1.067043  
     986A      1.067570   987A      1.069073   988A      1.071612  
     989A      1.072880   990A      1.074090   991A      1.075638  
     992A      1.077688   993A      1.078552   994A      1.081336  
     995A      1.083158   996A      1.084565   997A      1.087936  
     998A      1.088478   999A      1.089970  1000A      1.092121  
    1001A      1.092906  1002A      1.094268  1003A      1.096639  
    1004A      1.097876  1005A      1.099063  1006A      1.101541  
    1007A      1.103005  1008A      1.104801  1009A      1.105832  
    1010A      1.107381  1011A      1.108678  1012A      1.111231  
    1013A      1.112013  1014A      1.113035  1015A      1.114897  
    1016A      1.115248  1017A      1.116680  1018A      1.118241  
    1019A      1.118537  1020A      1.119570  1021A      1.120746  
    1022A      1.121624  1023A      1.122468  1024A      1.123265  
    1025A      1.124531  1026A      1.125741  1027A      1.125958  
    1028A      1.127288  1029A      1.128892  1030A      1.130923  
    1031A      1.131274  1032A      1.133099  1033A      1.133607  
    1034A      1.135383  1035A      1.136950  1036A      1.137419  
    1037A      1.138864  1038A      1.139689  1039A      1.141099  
    1040A      1.142828  1041A      1.143640  1042A      1.145645  
    1043A      1.146307  1044A      1.148256  1045A      1.149243  
    1046A      1.149969  1047A      1.151650  1048A      1.153028  
    1049A      1.153652  1050A      1.153852  1051A      1.154653  
    1052A      1.155810  1053A      1.158433  1054A      1.158871  
    1055A      1.159671  1056A      1.160789  1057A      1.163184  
    1058A      1.163481  1059A      1.165209  1060A      1.165699  
    1061A      1.167669  1062A      1.168542  1063A      1.170120  
    1064A      1.171109  1065A      1.171955  1066A      1.172735  
    1067A      1.174934  1068A      1.175920  1069A      1.178478  
    1070A      1.180502  1071A      1.181052  1072A      1.183172  
    1073A      1.184244  1074A      1.186176  1075A      1.188374  
    1076A      1.190221  1077A      1.191070  1078A      1.191712  
    1079A      1.193942  1080A      1.195333  1081A      1.196090  
    1082A      1.198591  1083A      1.200045  1084A      1.201421  
    1085A      1.201878  1086A      1.203659  1087A      1.203867  
    1088A      1.205011  1089A      1.207684  1090A      1.208656  
    1091A      1.209121  1092A      1.210532  1093A      1.210986  
    1094A      1.212314  1095A      1.213762  1096A      1.214742  
    1097A      1.215717  1098A      1.216257  1099A      1.218542  
    1100A      1.220033  1101A      1.221158  1102A      1.222837  
    1103A      1.226213  1104A      1.227498  1105A      1.229010  
    1106A      1.229840  1107A      1.231140  1108A      1.233640  
    1109A      1.234821  1110A      1.236642  1111A      1.237874  
    1112A      1.238190  1113A      1.240135  1114A      1.241931  
    1115A      1.243059  1116A      1.244817  1117A      1.245812  
    1118A      1.247563  1119A      1.249756  1120A      1.251649  
    1121A      1.253321  1122A      1.254522  1123A      1.255844  
    1124A      1.258144  1125A      1.258608  1126A      1.259665  
    1127A      1.260725  1128A      1.261568  1129A      1.264195  
    1130A      1.265816  1131A      1.267041  1132A      1.268198  
    1133A      1.269577  1134A      1.270392  1135A      1.271523  
    1136A      1.272344  1137A      1.274170  1138A      1.274452  
    1139A      1.276937  1140A      1.278827  1141A      1.280093  
    1142A      1.281423  1143A      1.281906  1144A      1.284581  
    1145A      1.284932  1146A      1.285690  1147A      1.288853  
    1148A      1.289880  1149A      1.291366  1150A      1.292743  
    1151A      1.294554  1152A      1.295287  1153A      1.297794  
    1154A      1.299139  1155A      1.299703  1156A      1.300465  
    1157A      1.301716  1158A      1.302636  1159A      1.303387  
    1160A      1.304820  1161A      1.306681  1162A      1.308171  
    1163A      1.309324  1164A      1.311793  1165A      1.312099  
    1166A      1.312803  1167A      1.315194  1168A      1.318059  
    1169A      1.318977  1170A      1.319313  1171A      1.320910  
    1172A      1.321936  1173A      1.322584  1174A      1.323801  
    1175A      1.325187  1176A      1.326312  1177A      1.328044  
    1178A      1.328543  1179A      1.329001  1180A      1.330475  
    1181A      1.331678  1182A      1.334176  1183A      1.335820  
    1184A      1.337412  1185A      1.338951  1186A      1.340358  
    1187A      1.340677  1188A      1.342259  1189A      1.342807  
    1190A      1.345280  1191A      1.346450  1192A      1.348130  
    1193A      1.349054  1194A      1.349594  1195A      1.350962  
    1196A      1.351759  1197A      1.352177  1198A      1.352891  
    1199A      1.355898  1200A      1.357746  1201A      1.358469  
    1202A      1.360581  1203A      1.362319  1204A      1.363973  
    1205A      1.365182  1206A      1.366073  1207A      1.368656  
    1208A      1.370557  1209A      1.371030  1210A      1.373617  
    1211A      1.376400  1212A      1.377440  1213A      1.379404  
    1214A      1.381077  1215A      1.383673  1216A      1.385441  
    1217A      1.386169  1218A      1.387039  1219A      1.387972  
    1220A      1.388990  1221A      1.391568  1222A      1.393346  
    1223A      1.394065  1224A      1.397639  1225A      1.397785  
    1226A      1.398674  1227A      1.400422  1228A      1.402933  
    1229A      1.404525  1230A      1.405579  1231A      1.405784  
    1232A      1.408291  1233A      1.409219  1234A      1.410502  
    1235A      1.412582  1236A      1.413053  1237A      1.414988  
    1238A      1.417529  1239A      1.417659  1240A      1.418537  
    1241A      1.419415  1242A      1.420743  1243A      1.423552  
    1244A      1.424121  1245A      1.424880  1246A      1.426850  
    1247A      1.428494  1248A      1.429642  1249A      1.431313  
    1250A      1.432451  1251A      1.433605  1252A      1.435445  
    1253A      1.437252  1254A      1.438799  1255A      1.439572  
    1256A      1.440286  1257A      1.443459  1258A      1.445762  
    1259A      1.446697  1260A      1.448202  1261A      1.449260  
    1262A      1.450654  1263A      1.451869  1264A      1.453995  
    1265A      1.454033  1266A      1.454142  1267A      1.456782  
    1268A      1.457662  1269A      1.459323  1270A      1.459538  
    1271A      1.462141  1272A      1.463650  1273A      1.464943  
    1274A      1.466071  1275A      1.468362  1276A      1.469937  
    1277A      1.471599  1278A      1.472033  1279A      1.476207  
    1280A      1.477199  1281A      1.477671  1282A      1.479260  
    1283A      1.480690  1284A      1.481640  1285A      1.483199  
    1286A      1.485049  1287A      1.486403  1288A      1.487239  
    1289A      1.489162  1290A      1.489713  1291A      1.490754  
    1292A      1.493830  1293A      1.495830  1294A      1.497131  
    1295A      1.497781  1296A      1.498235  1297A      1.499647  
    1298A      1.500809  1299A      1.502108  1300A      1.502381  
    1301A      1.504100  1302A      1.505869  1303A      1.507684  
    1304A      1.509471  1305A      1.510424  1306A      1.511530  
    1307A      1.512251  1308A      1.516324  1309A      1.516706  
    1310A      1.517725  1311A      1.518676  1312A      1.520984  
    1313A      1.522776  1314A      1.524301  1315A      1.525312  
    1316A      1.526663  1317A      1.527821  1318A      1.528886  
    1319A      1.529451  1320A      1.530505  1321A      1.533719  
    1322A      1.534270  1323A      1.536661  1324A      1.537141  
    1325A      1.539552  1326A      1.540821  1327A      1.542053  
    1328A      1.543850  1329A      1.544579  1330A      1.546570  
    1331A      1.547150  1332A      1.548771  1333A      1.550994  
    1334A      1.553096  1335A      1.554042  1336A      1.555990  
    1337A      1.556712  1338A      1.557668  1339A      1.560701  
    1340A      1.561706  1341A      1.562434  1342A      1.563270  
    1343A      1.564389  1344A      1.566220  1345A      1.568325  
    1346A      1.568925  1347A      1.569271  1348A      1.570861  
    1349A      1.573692  1350A      1.574334  1351A      1.575558  
    1352A      1.576315  1353A      1.577850  1354A      1.579310  
    1355A      1.579926  1356A      1.582209  1357A      1.582909  
    1358A      1.583753  1359A      1.584721  1360A      1.585825  
    1361A      1.587699  1362A      1.589357  1363A      1.589540  
    1364A      1.590814  1365A      1.592742  1366A      1.593629  
    1367A      1.593644  1368A      1.595433  1369A      1.596467  
    1370A      1.597248  1371A      1.598770  1372A      1.599508  
    1373A      1.600415  1374A      1.602074  1375A      1.602611  
    1376A      1.603480  1377A      1.604624  1378A      1.606516  
    1379A      1.607689  1380A      1.608905  1381A      1.609610  
    1382A      1.610197  1383A      1.612590  1384A      1.613022  
    1385A      1.613773  1386A      1.614060  1387A      1.615567  
    1388A      1.616476  1389A      1.618405  1390A      1.620157  
    1391A      1.622251  1392A      1.622575  1393A      1.623682  
    1394A      1.625394  1395A      1.627013  1396A      1.628081  
    1397A      1.628654  1398A      1.628888  1399A      1.630254  
    1400A      1.631951  1401A      1.633052  1402A      1.635314  
    1403A      1.635910  1404A      1.637917  1405A      1.638571  
    1406A      1.639091  1407A      1.640633  1408A      1.641897  
    1409A      1.643976  1410A      1.644118  1411A      1.645606  
    1412A      1.647203  1413A      1.648137  1414A      1.649413  
    1415A      1.650413  1416A      1.650973  1417A      1.652831  
    1418A      1.653739  1419A      1.654308  1420A      1.656173  
    1421A      1.656856  1422A      1.657865  1423A      1.660019  
    1424A      1.660223  1425A      1.660618  1426A      1.662049  
    1427A      1.663478  1428A      1.664332  1429A      1.665004  
    1430A      1.667431  1431A      1.668510  1432A      1.668792  
    1433A      1.670363  1434A      1.671604  1435A      1.672322  
    1436A      1.673520  1437A      1.674088  1438A      1.675561  
    1439A      1.677631  1440A      1.679400  1441A      1.680832  
    1442A      1.682632  1443A      1.683580  1444A      1.685195  
    1445A      1.685792  1446A      1.687762  1447A      1.690655  
    1448A      1.691908  1449A      1.692003  1450A      1.693268  
    1451A      1.695187  1452A      1.695722  1453A      1.696521  
    1454A      1.697376  1455A      1.699326  1456A      1.700901  
    1457A      1.702814  1458A      1.704581  1459A      1.705239  
    1460A      1.705880  1461A      1.707420  1462A      1.708924  
    1463A      1.710333  1464A      1.710778  1465A      1.712100  
    1466A      1.712733  1467A      1.714488  1468A      1.715806  
    1469A      1.717314  1470A      1.718357  1471A      1.719187  
    1472A      1.720060  1473A      1.721923  1474A      1.723128  
    1475A      1.723826  1476A      1.727119  1477A      1.728115  
    1478A      1.728696  1479A      1.732884  1480A      1.733155  
    1481A      1.734357  1482A      1.736382  1483A      1.740059  
    1484A      1.740694  1485A      1.742267  1486A      1.743697  
    1487A      1.744703  1488A      1.745263  1489A      1.746541  
    1490A      1.749042  1491A      1.750281  1492A      1.751877  
    1493A      1.753664  1494A      1.754628  1495A      1.756504  
    1496A      1.757314  1497A      1.760702  1498A      1.761037  
    1499A      1.762327  1500A      1.762607  1501A      1.763279  
    1502A      1.765251  1503A      1.766308  1504A      1.767648  
    1505A      1.769712  1506A      1.770860  1507A      1.772880  
    1508A      1.773281  1509A      1.775817  1510A      1.777215  
    1511A      1.779112  1512A      1.782848  1513A      1.783290  
    1514A      1.784915  1515A      1.786475  1516A      1.789461  
    1517A      1.790459  1518A      1.790816  1519A      1.791429  
    1520A      1.792234  1521A      1.794999  1522A      1.795533  
    1523A      1.798549  1524A      1.799855  1525A      1.801526  
    1526A      1.803073  1527A      1.803451  1528A      1.806000  
    1529A      1.807124  1530A      1.809211  1531A      1.810905  
    1532A      1.814348  1533A      1.814606  1534A      1.816329  
    1535A      1.817816  1536A      1.819249  1537A      1.820607  
    1538A      1.824168  1539A      1.825554  1540A      1.825969  
    1541A      1.827471  1542A      1.831442  1543A      1.832986  
    1544A      1.835962  1545A      1.836966  1546A      1.837801  
    1547A      1.839406  1548A      1.840941  1549A      1.841431  
    1550A      1.843865  1551A      1.844771  1552A      1.847816  
    1553A      1.848762  1554A      1.851231  1555A      1.852455  
    1556A      1.856054  1557A      1.857302  1558A      1.858661  
    1559A      1.860373  1560A      1.862755  1561A      1.864654  
    1562A      1.866930  1563A      1.868515  1564A      1.869280  
    1565A      1.870697  1566A      1.873551  1567A      1.876279  
    1568A      1.876733  1569A      1.879317  1570A      1.880480  
    1571A      1.882724  1572A      1.884478  1573A      1.885614  
    1574A      1.886965  1575A      1.890468  1576A      1.893054  
    1577A      1.895408  1578A      1.895832  1579A      1.898407  
    1580A      1.898960  1581A      1.899025  1582A      1.902227  
    1583A      1.904261  1584A      1.905833  1585A      1.906682  
    1586A      1.907947  1587A      1.909560  1588A      1.911033  
    1589A      1.912045  1590A      1.913943  1591A      1.917355  
    1592A      1.918720  1593A      1.920566  1594A      1.922319  
    1595A      1.924180  1596A      1.924458  1597A      1.926613  
    1598A      1.929967  1599A      1.930028  1600A      1.931703  
    1601A      1.934003  1602A      1.934800  1603A      1.936215  
    1604A      1.936999  1605A      1.939979  1606A      1.941801  
    1607A      1.943206  1608A      1.944842  1609A      1.948354  
    1610A      1.950174  1611A      1.951472  1612A      1.952835  
    1613A      1.954588  1614A      1.954910  1615A      1.955468  
    1616A      1.958594  1617A      1.960412  1618A      1.961971  
    1619A      1.965104  1620A      1.965312  1621A      1.968155  
    1622A      1.970413  1623A      1.971238  1624A      1.972841  
    1625A      1.973522  1626A      1.975200  1627A      1.975672  
    1628A      1.977929  1629A      1.979388  1630A      1.979764  
    1631A      1.981737  1632A      1.983322  1633A      1.984277  
    1634A      1.984817  1635A      1.987132  1636A      1.988944  
    1637A      1.990345  1638A      1.992641  1639A      1.994333  
    1640A      1.995843  1641A      1.997462  1642A      1.999081  
    1643A      2.000142  1644A      2.001564  1645A      2.002378  
    1646A      2.004008  1647A      2.007582  1648A      2.008831  
    1649A      2.010397  1650A      2.011725  1651A      2.016019  
    1652A      2.017803  1653A      2.018894  1654A      2.019545  
    1655A      2.020861  1656A      2.021476  1657A      2.025278  
    1658A      2.025892  1659A      2.027212  1660A      2.028847  
    1661A      2.032000  1662A      2.033669  1663A      2.036029  
    1664A      2.038409  1665A      2.040272  1666A      2.041468  
    1667A      2.045546  1668A      2.045684  1669A      2.046975  
    1670A      2.047833  1671A      2.050721  1672A      2.051988  
    1673A      2.052498  1674A      2.054607  1675A      2.056291  
    1676A      2.058570  1677A      2.059729  1678A      2.062762  
    1679A      2.064592  1680A      2.067537  1681A      2.068693  
    1682A      2.070203  1683A      2.074035  1684A      2.075698  
    1685A      2.078881  1686A      2.083412  1687A      2.084098  
    1688A      2.087984  1689A      2.089486  1690A      2.090233  
    1691A      2.093197  1692A      2.095099  1693A      2.096711  
    1694A      2.101349  1695A      2.102703  1696A      2.106040  
    1697A      2.107179  1698A      2.107552  1699A      2.110067  
    1700A      2.111447  1701A      2.114271  1702A      2.117051  
    1703A      2.118526  1704A      2.119984  1705A      2.120928  
    1706A      2.123983  1707A      2.124445  1708A      2.126892  
    1709A      2.129292  1710A      2.130084  1711A      2.132682  
    1712A      2.135933  1713A      2.138993  1714A      2.139328  
    1715A      2.140563  1716A      2.143007  1717A      2.143870  
    1718A      2.144904  1719A      2.146469  1720A      2.148574  
    1721A      2.150555  1722A      2.152355  1723A      2.154220  
    1724A      2.155771  1725A      2.157121  1726A      2.161814  
    1727A      2.163680  1728A      2.164484  1729A      2.167272  
    1730A      2.168482  1731A      2.170586  1732A      2.171713  
    1733A      2.173441  1734A      2.176839  1735A      2.178367  
    1736A      2.179278  1737A      2.182201  1738A      2.182692  
    1739A      2.186299  1740A      2.188528  1741A      2.189703  
    1742A      2.190961  1743A      2.193043  1744A      2.195216  
    1745A      2.196689  1746A      2.199850  1747A      2.200271  
    1748A      2.201154  1749A      2.204793  1750A      2.206142  
    1751A      2.210609  1752A      2.214307  1753A      2.214892  
    1754A      2.217094  1755A      2.219566  1756A      2.221765  
    1757A      2.222182  1758A      2.224503  1759A      2.225602  
    1760A      2.229223  1761A      2.231135  1762A      2.232280  
    1763A      2.236170  1764A      2.238227  1765A      2.239445  
    1766A      2.240896  1767A      2.246664  1768A      2.247295  
    1769A      2.250356  1770A      2.252370  1771A      2.253344  
    1772A      2.254799  1773A      2.256906  1774A      2.258311  
    1775A      2.258879  1776A      2.261880  1777A      2.263017  
    1778A      2.264589  1779A      2.266794  1780A      2.268354  
    1781A      2.269742  1782A      2.273685  1783A      2.275346  
    1784A      2.276691  1785A      2.278660  1786A      2.280006  
    1787A      2.285772  1788A      2.287874  1789A      2.289259  
    1790A      2.291744  1791A      2.293125  1792A      2.295527  
    1793A      2.297616  1794A      2.299086  1795A      2.300963  
    1796A      2.302023  1797A      2.303831  1798A      2.306309  
    1799A      2.307002  1800A      2.308385  1801A      2.309969  
    1802A      2.312494  1803A      2.312962  1804A      2.314267  
    1805A      2.317260  1806A      2.318273  1807A      2.319507  
    1808A      2.320093  1809A      2.322470  1810A      2.324609  
    1811A      2.327733  1812A      2.327941  1813A      2.329514  
    1814A      2.332589  1815A      2.333474  1816A      2.334853  
    1817A      2.336304  1818A      2.338988  1819A      2.339858  
    1820A      2.342038  1821A      2.344070  1822A      2.347563  
    1823A      2.347843  1824A      2.350997  1825A      2.352135  
    1826A      2.353516  1827A      2.354718  1828A      2.356568  
    1829A      2.359387  1830A      2.362398  1831A      2.365782  
    1832A      2.367456  1833A      2.368828  1834A      2.371083  
    1835A      2.373764  1836A      2.375338  1837A      2.376291  
    1838A      2.378282  1839A      2.379047  1840A      2.381388  
    1841A      2.383341  1842A      2.384335  1843A      2.387486  
    1844A      2.390704  1845A      2.393987  1846A      2.395310  
    1847A      2.396181  1848A      2.397506  1849A      2.399366  
    1850A      2.401136  1851A      2.404803  1852A      2.405102  
    1853A      2.410077  1854A      2.411138  1855A      2.415336  
    1856A      2.415907  1857A      2.417372  1858A      2.421443  
    1859A      2.422301  1860A      2.425508  1861A      2.429208  
    1862A      2.432700  1863A      2.435042  1864A      2.436394  
    1865A      2.438640  1866A      2.440353  1867A      2.443892  
    1868A      2.448440  1869A      2.450313  1870A      2.454757  
    1871A      2.460431  1872A      2.462749  1873A      2.463867  
    1874A      2.466854  1875A      2.467782  1876A      2.471560  
    1877A      2.473992  1878A      2.476349  1879A      2.479449  
    1880A      2.480842  1881A      2.483860  1882A      2.484821  
    1883A      2.486606  1884A      2.492416  1885A      2.495861  
    1886A      2.496572  1887A      2.498538  1888A      2.500700  
    1889A      2.501542  1890A      2.505073  1891A      2.508882  
    1892A      2.511453  1893A      2.511986  1894A      2.513036  
    1895A      2.515038  1896A      2.517056  1897A      2.519996  
    1898A      2.521598  1899A      2.521981  1900A      2.522929  
    1901A      2.530111  1902A      2.532112  1903A      2.534987  
    1904A      2.537675  1905A      2.538621  1906A      2.541910  
    1907A      2.543288  1908A      2.546201  1909A      2.547966  
    1910A      2.550607  1911A      2.559769  1912A      2.562574  
    1913A      2.565744  1914A      2.568283  1915A      2.571652  
    1916A      2.574372  1917A      2.576420  1918A      2.578731  
    1919A      2.582574  1920A      2.583474  1921A      2.586068  
    1922A      2.594039  1923A      2.595393  1924A      2.600154  
    1925A      2.607688  1926A      2.609004  1927A      2.611530  
    1928A      2.611747  1929A      2.614153  1930A      2.616694  
    1931A      2.619022  1932A      2.622032  1933A      2.627743  
    1934A      2.630631  1935A      2.633804  1936A      2.640078  
    1937A      2.640663  1938A      2.645028  1939A      2.646045  
    1940A      2.649356  1941A      2.651640  1942A      2.658932  
    1943A      2.659485  1944A      2.659947  1945A      2.661342  
    1946A      2.662907  1947A      2.666196  1948A      2.669509  
    1949A      2.672139  1950A      2.673566  1951A      2.675669  
    1952A      2.680106  1953A      2.685435  1954A      2.686348  
    1955A      2.687673  1956A      2.689276  1957A      2.695036  
    1958A      2.700002  1959A      2.701007  1960A      2.704520  
    1961A      2.704934  1962A      2.706756  1963A      2.709391  
    1964A      2.713900  1965A      2.718109  1966A      2.722926  
    1967A      2.726910  1968A      2.728839  1969A      2.730654  
    1970A      2.732965  1971A      2.736117  1972A      2.739121  
    1973A      2.741515  1974A      2.743276  1975A      2.745307  
    1976A      2.746792  1977A      2.750560  1978A      2.751520  
    1979A      2.752507  1980A      2.754454  1981A      2.759764  
    1982A      2.761526  1983A      2.762757  1984A      2.764181  
    1985A      2.769154  1986A      2.772564  1987A      2.774395  
    1988A      2.776577  1989A      2.780437  1990A      2.783735  
    1991A      2.785549  1992A      2.786471  1993A      2.791055  
    1994A      2.792862  1995A      2.798507  1996A      2.799569  
    1997A      2.802823  1998A      2.805262  1999A      2.808059  
    2000A      2.810985  2001A      2.815285  2002A      2.816275  
    2003A      2.820183  2004A      2.822854  2005A      2.824591  
    2006A      2.825856  2007A      2.827677  2008A      2.829924  
    2009A      2.837833  2010A      2.841402  2011A      2.844361  
    2012A      2.847982  2013A      2.850852  2014A      2.853743  
    2015A      2.857455  2016A      2.860463  2017A      2.861783  
    2018A      2.863065  2019A      2.867597  2020A      2.868011  
    2021A      2.869349  2022A      2.871396  2023A      2.874412  
    2024A      2.875411  2025A      2.877163  2026A      2.883113  
    2027A      2.885018  2028A      2.886723  2029A      2.889090  
    2030A      2.890410  2031A      2.895944  2032A      2.898148  
    2033A      2.901318  2034A      2.902281  2035A      2.906000  
    2036A      2.914002  2037A      2.914266  2038A      2.918014  
    2039A      2.923384  2040A      2.925557  2041A      2.933445  
    2042A      2.939468  2043A      2.942989  2044A      2.951873  
    2045A      2.953827  2046A      2.963774  2047A      2.965764  
    2048A      2.969052  2049A      2.978744  2050A      2.980732  
    2051A      2.991478  2052A      2.992351  2053A      2.995015  
    2054A      2.998783  2055A      3.000258  2056A      3.005945  
    2057A      3.008022  2058A      3.018321  2059A      3.019392  
    2060A      3.024023  2061A      3.024710  2062A      3.027441  
    2063A      3.032031  2064A      3.034913  2065A      3.038656  
    2066A      3.039430  2067A      3.044141  2068A      3.047111  
    2069A      3.048381  2070A      3.055614  2071A      3.057387  
    2072A      3.059433  2073A      3.064889  2074A      3.067540  
    2075A      3.072802  2076A      3.074622  2077A      3.080127  
    2078A      3.092557  2079A      3.100940  2080A      3.106819  
    2081A      3.113875  2082A      3.119034  2083A      3.124109  
    2084A      3.126500  2085A      3.132826  2086A      3.137233  
    2087A      3.138018  2088A      3.141562  2089A      3.144858  
    2090A      3.153072  2091A      3.156441  2092A      3.157409  
    2093A      3.158830  2094A      3.167384  2095A      3.171390  
    2096A      3.177419  2097A      3.179644  2098A      3.180762  
    2099A      3.186500  2100A      3.192229  2101A      3.195842  
    2102A      3.196449  2103A      3.204046  2104A      3.205944  
    2105A      3.212224  2106A      3.215605  2107A      3.217636  
    2108A      3.222499  2109A      3.223401  2110A      3.231134  
    2111A      3.232678  2112A      3.239724  2113A      3.241215  
    2114A      3.245724  2115A      3.250392  2116A      3.253572  
    2117A      3.257487  2118A      3.260256  2119A      3.264092  
    2120A      3.266518  2121A      3.278809  2122A      3.280288  
    2123A      3.283747  2124A      3.285223  2125A      3.289264  
    2126A      3.292514  2127A      3.293829  2128A      3.297683  
    2129A      3.300827  2130A      3.303629  2131A      3.305749  
    2132A      3.310003  2133A      3.313049  2134A      3.314964  
    2135A      3.318367  2136A      3.320912  2137A      3.324898  
    2138A      3.326528  2139A      3.328832  2140A      3.330842  
    2141A      3.333428  2142A      3.335402  2143A      3.337935  
    2144A      3.341956  2145A      3.344299  2146A      3.348483  
    2147A      3.352325  2148A      3.356359  2149A      3.356395  
    2150A      3.359299  2151A      3.362991  2152A      3.364756  
    2153A      3.368170  2154A      3.371464  2155A      3.377712  
    2156A      3.382139  2157A      3.383117  2158A      3.393346  
    2159A      3.396243  2160A      3.396765  2161A      3.400137  
    2162A      3.405534  2163A      3.406127  2164A      3.410494  
    2165A      3.412888  2166A      3.417464  2167A      3.419492  
    2168A      3.423496  2169A      3.433419  2170A      3.434057  
    2171A      3.434752  2172A      3.437665  2173A      3.440115  
    2174A      3.442429  2175A      3.444575  2176A      3.446354  
    2177A      3.447873  2178A      3.451659  2179A      3.455530  
    2180A      3.458756  2181A      3.462806  2182A      3.466485  
    2183A      3.467506  2184A      3.468361  2185A      3.471572  
    2186A      3.475296  2187A      3.476291  2188A      3.478752  
    2189A      3.481921  2190A      3.483287  2191A      3.486984  
    2192A      3.493067  2193A      3.498104  2194A      3.506210  
    2195A      3.508749  2196A      3.509702  2197A      3.512559  
    2198A      3.515338  2199A      3.517710  2200A      3.518802  
    2201A      3.523157  2202A      3.529187  2203A      3.533272  
    2204A      3.536099  2205A      3.538811  2206A      3.543963  
    2207A      3.546832  2208A      3.548539  2209A      3.550345  
    2210A      3.552219  2211A      3.554060  2212A      3.561890  
    2213A      3.566155  2214A      3.567187  2215A      3.569329  
    2216A      3.574656  2217A      3.577511  2218A      3.580417  
    2219A      3.585698  2220A      3.586643  2221A      3.587513  
    2222A      3.589378  2223A      3.593907  2224A      3.597213  
    2225A      3.600853  2226A      3.604245  2227A      3.609225  
    2228A      3.611258  2229A      3.612221  2230A      3.616177  
    2231A      3.619733  2232A      3.621194  2233A      3.625129  
    2234A      3.627939  2235A      3.630953  2236A      3.632313  
    2237A      3.633315  2238A      3.637186  2239A      3.637827  
    2240A      3.641289  2241A      3.645944  2242A      3.648066  
    2243A      3.654073  2244A      3.654262  2245A      3.657258  
    2246A      3.661933  2247A      3.664717  2248A      3.667532  
    2249A      3.669833  2250A      3.671936  2251A      3.674734  
    2252A      3.676577  2253A      3.683327  2254A      3.685591  
    2255A      3.689050  2256A      3.694128  2257A      3.696213  
    2258A      3.698624  2259A      3.701475  2260A      3.702314  
    2261A      3.705142  2262A      3.710541  2263A      3.714657  
    2264A      3.717326  2265A      3.717981  2266A      3.719447  
    2267A      3.721497  2268A      3.726403  2269A      3.733784  
    2270A      3.737130  2271A      3.739553  2272A      3.741122  
    2273A      3.743505  2274A      3.744771  2275A      3.750540  
    2276A      3.752380  2277A      3.752806  2278A      3.757565  
    2279A      3.761591  2280A      3.768203  2281A      3.769181  
    2282A      3.770158  2283A      3.774658  2284A      3.778364  
    2285A      3.779161  2286A      3.784664  2287A      3.786865  
    2288A      3.791666  2289A      3.794236  2290A      3.797209  
    2291A      3.800801  2292A      3.806041  2293A      3.811092  
    2294A      3.816528  2295A      3.818152  2296A      3.822177  
    2297A      3.824845  2298A      3.825717  2299A      3.827605  
    2300A      3.835229  2301A      3.837521  2302A      3.838232  
    2303A      3.844958  2304A      3.846900  2305A      3.851343  
    2306A      3.854869  2307A      3.857734  2308A      3.859032  
    2309A      3.861592  2310A      3.865816  2311A      3.868613  
    2312A      3.871132  2313A      3.873691  2314A      3.874305  
    2315A      3.875754  2316A      3.884918  2317A      3.887135  
    2318A      3.900704  2319A      3.901590  2320A      3.903007  
    2321A      3.907835  2322A      3.913915  2323A      3.914938  
    2324A      3.916922  2325A      3.923339  2326A      3.929286  
    2327A      3.933146  2328A      3.936598  2329A      3.944038  
    2330A      3.949520  2331A      3.952387  2332A      3.955631  
    2333A      3.957093  2334A      3.961896  2335A      3.964024  
    2336A      3.972131  2337A      3.975062  2338A      3.976702  
    2339A      3.978409  2340A      3.980611  2341A      3.987969  
    2342A      3.990538  2343A      3.994855  2344A      3.997138  
    2345A      3.999555  2346A      4.003491  2347A      4.006147  
    2348A      4.011820  2349A      4.014167  2350A      4.017332  
    2351A      4.018784  2352A      4.026824  2353A      4.027462  
    2354A      4.032058  2355A      4.034774  2356A      4.039081  
    2357A      4.043986  2358A      4.050619  2359A      4.053524  
    2360A      4.054609  2361A      4.058128  2362A      4.059072  
    2363A      4.061398  2364A      4.068030  2365A      4.068973  
    2366A      4.082119  2367A      4.088960  2368A      4.090858  
    2369A      4.096193  2370A      4.102668  2371A      4.104862  
    2372A      4.110762  2373A      4.112240  2374A      4.119150  
    2375A      4.119996  2376A      4.120470  2377A      4.123525  
    2378A      4.132195  2379A      4.141910  2380A      4.143533  
    2381A      4.144029  2382A      4.147423  2383A      4.151335  
    2384A      4.153857  2385A      4.158830  2386A      4.159572  
    2387A      4.161160  2388A      4.166221  2389A      4.167450  
    2390A      4.168923  2391A      4.173479  2392A      4.174666  
    2393A      4.176662  2394A      4.182216  2395A      4.183966  
    2396A      4.188048  2397A      4.190135  2398A      4.194835  
    2399A      4.198250  2400A      4.199751  2401A      4.205368  
    2402A      4.206350  2403A      4.209440  2404A      4.211296  
    2405A      4.213299  2406A      4.215753  2407A      4.219055  
    2408A      4.223091  2409A      4.223897  2410A      4.224980  
    2411A      4.229159  2412A      4.230037  2413A      4.230706  
    2414A      4.233596  2415A      4.236843  2416A      4.239248  
    2417A      4.242366  2418A      4.243009  2419A      4.247444  
    2420A      4.252624  2421A      4.254215  2422A      4.258847  
    2423A      4.261526  2424A      4.264519  2425A      4.266690  
    2426A      4.268005  2427A      4.269575  2428A      4.271318  
    2429A      4.274500  2430A      4.277719  2431A      4.278508  
    2432A      4.283016  2433A      4.286837  2434A      4.287579  
    2435A      4.289075  2436A      4.291732  2437A      4.296339  
    2438A      4.299057  2439A      4.300915  2440A      4.306463  
    2441A      4.308143  2442A      4.309726  2443A      4.312219  
    2444A      4.314703  2445A      4.315085  2446A      4.318215  
    2447A      4.320264  2448A      4.321456  2449A      4.324396  
    2450A      4.325755  2451A      4.329788  2452A      4.330455  
    2453A      4.336659  2454A      4.339219  2455A      4.340780  
    2456A      4.342504  2457A      4.343933  2458A      4.350435  
    2459A      4.352612  2460A      4.354172  2461A      4.354969  
    2462A      4.356036  2463A      4.361058  2464A      4.361496  
    2465A      4.364341  2466A      4.364526  2467A      4.366854  
    2468A      4.368607  2469A      4.372494  2470A      4.373977  
    2471A      4.376389  2472A      4.378432  2473A      4.383114  
    2474A      4.384586  2475A      4.386003  2476A      4.387559  
    2477A      4.392700  2478A      4.396157  2479A      4.399903  
    2480A      4.400059  2481A      4.403010  2482A      4.405451  
    2483A      4.408097  2484A      4.410869  2485A      4.416077  
    2486A      4.418312  2487A      4.418910  2488A      4.419046  
    2489A      4.421293  2490A      4.424703  2491A      4.425589  
    2492A      4.430641  2493A      4.435412  2494A      4.435697  
    2495A      4.436769  2496A      4.440357  2497A      4.441225  
    2498A      4.444844  2499A      4.445501  2500A      4.448729  
    2501A      4.449259  2502A      4.452642  2503A      4.455302  
    2504A      4.457857  2505A      4.458419  2506A      4.460224  
    2507A      4.461332  2508A      4.463923  2509A      4.466543  
    2510A      4.467599  2511A      4.470454  2512A      4.471721  
    2513A      4.474447  2514A      4.477187  2515A      4.479289  
    2516A      4.480806  2517A      4.482045  2518A      4.486367  
    2519A      4.490361  2520A      4.494179  2521A      4.494526  
    2522A      4.496011  2523A      4.499867  2524A      4.502435  
    2525A      4.503870  2526A      4.506259  2527A      4.509847  
    2528A      4.510983  2529A      4.512481  2530A      4.514529  
    2531A      4.515856  2532A      4.518656  2533A      4.524458  
    2534A      4.526158  2535A      4.527522  2536A      4.528508  
    2537A      4.530924  2538A      4.532198  2539A      4.533211  
    2540A      4.534706  2541A      4.537070  2542A      4.540188  
    2543A      4.547498  2544A      4.551287  2545A      4.552937  
    2546A      4.556800  2547A      4.560065  2548A      4.563193  
    2549A      4.566901  2550A      4.570333  2551A      4.571822  
    2552A      4.573347  2553A      4.574591  2554A      4.580045  
    2555A      4.582314  2556A      4.584881  2557A      4.586829  
    2558A      4.589225  2559A      4.592348  2560A      4.594189  
    2561A      4.598073  2562A      4.599037  2563A      4.600931  
    2564A      4.605598  2565A      4.610242  2566A      4.611297  
    2567A      4.614678  2568A      4.616169  2569A      4.618210  
    2570A      4.623037  2571A      4.624786  2572A      4.627002  
    2573A      4.629363  2574A      4.629873  2575A      4.634705  
    2576A      4.636094  2577A      4.636889  2578A      4.643457  
    2579A      4.645731  2580A      4.648704  2581A      4.649194  
    2582A      4.651752  2583A      4.654022  2584A      4.658132  
    2585A      4.661198  2586A      4.664637  2587A      4.668359  
    2588A      4.674183  2589A      4.680228  2590A      4.682007  
    2591A      4.688394  2592A      4.689688  2593A      4.692770  
    2594A      4.693838  2595A      4.703490  2596A      4.706076  
    2597A      4.709090  2598A      4.712785  2599A      4.715374  
    2600A      4.718130  2601A      4.719901  2602A      4.724304  
    2603A      4.728102  2604A      4.733042  2605A      4.734454  
    2606A      4.740478  2607A      4.742268  2608A      4.743998  
    2609A      4.746913  2610A      4.748365  2611A      4.751919  
    2612A      4.754991  2613A      4.756098  2614A      4.758519  
    2615A      4.762715  2616A      4.762821  2617A      4.764950  
    2618A      4.765861  2619A      4.768903  2620A      4.769070  
    2621A      4.773908  2622A      4.776793  2623A      4.780668  
    2624A      4.784869  2625A      4.788853  2626A      4.790460  
    2627A      4.791617  2628A      4.793526  2629A      4.795716  
    2630A      4.797787  2631A      4.801745  2632A      4.803838  
    2633A      4.805916  2634A      4.808946  2635A      4.812249  
    2636A      4.815970  2637A      4.817200  2638A      4.820699  
    2639A      4.826481  2640A      4.831640  2641A      4.831839  
    2642A      4.833243  2643A      4.833860  2644A      4.837064  
    2645A      4.837660  2646A      4.840948  2647A      4.841684  
    2648A      4.844276  2649A      4.852355  2650A      4.853535  
    2651A      4.855551  2652A      4.858202  2653A      4.862384  
    2654A      4.862768  2655A      4.866978  2656A      4.868485  
    2657A      4.870913  2658A      4.873181  2659A      4.875181  
    2660A      4.877123  2661A      4.879077  2662A      4.882076  
    2663A      4.885314  2664A      4.885820  2665A      4.886936  
    2666A      4.889366  2667A      4.892249  2668A      4.895202  
    2669A      4.896011  2670A      4.898969  2671A      4.901552  
    2672A      4.903490  2673A      4.906440  2674A      4.908383  
    2675A      4.911570  2676A      4.914474  2677A      4.919580  
    2678A      4.921039  2679A      4.923233  2680A      4.924840  
    2681A      4.928049  2682A      4.928725  2683A      4.930941  
    2684A      4.934555  2685A      4.937469  2686A      4.939164  
    2687A      4.941128  2688A      4.943582  2689A      4.944774  
    2690A      4.947773  2691A      4.951919  2692A      4.953090  
    2693A      4.954339  2694A      4.957753  2695A      4.959650  
    2696A      4.961130  2697A      4.962979  2698A      4.964350  
    2699A      4.968217  2700A      4.969816  2701A      4.974310  
    2702A      4.975892  2703A      4.977890  2704A      4.980020  
    2705A      4.980640  2706A      4.981941  2707A      4.984385  
    2708A      4.985703  2709A      4.989627  2710A      4.989987  
    2711A      4.991634  2712A      4.994355  2713A      4.996863  
    2714A      4.998340  2715A      5.001385  2716A      5.001941  
    2717A      5.002522  2718A      5.007441  2719A      5.008244  
    2720A      5.010572  2721A      5.011755  2722A      5.012425  
    2723A      5.014339  2724A      5.018300  2725A      5.018808  
    2726A      5.019741  2727A      5.022109  2728A      5.023606  
    2729A      5.025612  2730A      5.026222  2731A      5.027945  
    2732A      5.029364  2733A      5.033387  2734A      5.035741  
    2735A      5.037120  2736A      5.038989  2737A      5.041623  
    2738A      5.042149  2739A      5.042881  2740A      5.045377  
    2741A      5.046970  2742A      5.050478  2743A      5.051085  
    2744A      5.053241  2745A      5.055210  2746A      5.056399  
    2747A      5.057592  2748A      5.060405  2749A      5.062085  
    2750A      5.063188  2751A      5.064994  2752A      5.066485  
    2753A      5.069434  2754A      5.072237  2755A      5.072899  
    2756A      5.075304  2757A      5.075871  2758A      5.078415  
    2759A      5.078776  2760A      5.080377  2761A      5.084399  
    2762A      5.085296  2763A      5.087539  2764A      5.091182  
    2765A      5.092489  2766A      5.092928  2767A      5.095686  
    2768A      5.096232  2769A      5.098698  2770A      5.100765  
    2771A      5.102381  2772A      5.105093  2773A      5.105555  
    2774A      5.106666  2775A      5.108547  2776A      5.110505  
    2777A      5.113052  2778A      5.114292  2779A      5.115171  
    2780A      5.115755  2781A      5.116632  2782A      5.118336  
    2783A      5.119013  2784A      5.123241  2785A      5.125187  
    2786A      5.128252  2787A      5.130596  2788A      5.134126  
    2789A      5.135097  2790A      5.137754  2791A      5.141022  
    2792A      5.143683  2793A      5.144903  2794A      5.151379  
    2795A      5.153090  2796A      5.157724  2797A      5.159215  
    2798A      5.159746  2799A      5.161052  2800A      5.162579  
    2801A      5.164213  2802A      5.167872  2803A      5.169981  
    2804A      5.171687  2805A      5.172597  2806A      5.174596  
    2807A      5.175825  2808A      5.183193  2809A      5.184627  
    2810A      5.185552  2811A      5.189033  2812A      5.190249  
    2813A      5.191707  2814A      5.193834  2815A      5.196173  
    2816A      5.200116  2817A      5.202825  2818A      5.204376  
    2819A      5.205469  2820A      5.207603  2821A      5.208535  
    2822A      5.210846  2823A      5.213133  2824A      5.214515  
    2825A      5.217382  2826A      5.220334  2827A      5.223203  
    2828A      5.226663  2829A      5.228346  2830A      5.229807  
    2831A      5.232479  2832A      5.233170  2833A      5.234141  
    2834A      5.238246  2835A      5.239194  2836A      5.240398  
    2837A      5.242905  2838A      5.245611  2839A      5.248998  
    2840A      5.251567  2841A      5.252211  2842A      5.254531  
    2843A      5.256335  2844A      5.258791  2845A      5.261944  
    2846A      5.266957  2847A      5.269156  2848A      5.269944  
    2849A      5.271482  2850A      5.276873  2851A      5.279772  
    2852A      5.282371  2853A      5.285825  2854A      5.288738  
    2855A      5.291408  2856A      5.293875  2857A      5.295930  
    2858A      5.297314  2859A      5.303387  2860A      5.306650  
    2861A      5.307821  2862A      5.312508  2863A      5.315020  
    2864A      5.316439  2865A      5.317599  2866A      5.318359  
    2867A      5.321810  2868A      5.327220  2869A      5.333090  
    2870A      5.334855  2871A      5.335143  2872A      5.336939  
    2873A      5.339437  2874A      5.340744  2875A      5.345309  
    2876A      5.349040  2877A      5.353021  2878A      5.355126  
    2879A      5.357987  2880A      5.360003  2881A      5.364415  
    2882A      5.366868  2883A      5.368519  2884A      5.370800  
    2885A      5.372381  2886A      5.377130  2887A      5.382084  
    2888A      5.387180  2889A      5.394435  2890A      5.395613  
    2891A      5.399258  2892A      5.400280  2893A      5.404735  
    2894A      5.409056  2895A      5.410311  2896A      5.411893  
    2897A      5.413747  2898A      5.418720  2899A      5.420524  
    2900A      5.422030  2901A      5.423803  2902A      5.425477  
    2903A      5.427808  2904A      5.429806  2905A      5.433494  
    2906A      5.436424  2907A      5.439981  2908A      5.442204  
    2909A      5.444456  2910A      5.445630  2911A      5.447277  
    2912A      5.453681  2913A      5.454991  2914A      5.460283  
    2915A      5.462010  2916A      5.465074  2917A      5.477165  
    2918A      5.480838  2919A      5.484795  2920A      5.489662  
    2921A      5.491883  2922A      5.497636  2923A      5.500746  
    2924A      5.503341  2925A      5.504275  2926A      5.511930  
    2927A      5.515881  2928A      5.520848  2929A      5.522712  
    2930A      5.524191  2931A      5.528572  2932A      5.529217  
    2933A      5.537472  2934A      5.540374  2935A      5.542699  
    2936A      5.544665  2937A      5.546650  2938A      5.547735  
    2939A      5.550566  2940A      5.552307  2941A      5.557311  
    2942A      5.557919  2943A      5.562324  2944A      5.565446  
    2945A      5.566760  2946A      5.572543  2947A      5.575963  
    2948A      5.578202  2949A      5.584382  2950A      5.585525  
    2951A      5.589709  2952A      5.590573  2953A      5.594804  
    2954A      5.596335  2955A      5.598103  2956A      5.599205  
    2957A      5.603561  2958A      5.607164  2959A      5.611348  
    2960A      5.614533  2961A      5.618586  2962A      5.618717  
    2963A      5.621927  2964A      5.625998  2965A      5.627891  
    2966A      5.633244  2967A      5.636498  2968A      5.644169  
    2969A      5.650410  2970A      5.651253  2971A      5.656351  
    2972A      5.662037  2973A      5.662993  2974A      5.664815  
    2975A      5.666839  2976A      5.674326  2977A      5.677774  
    2978A      5.681797  2979A      5.683053  2980A      5.686508  
    2981A      5.689932  2982A      5.690398  2983A      5.694010  
    2984A      5.695191  2985A      5.696261  2986A      5.698451  
    2987A      5.703415  2988A      5.706967  2989A      5.710077  
    2990A      5.711966  2991A      5.718323  2992A      5.719563  
    2993A      5.721607  2994A      5.724145  2995A      5.727161  
    2996A      5.731163  2997A      5.733638  2998A      5.737585  
    2999A      5.741622  3000A      5.743781  3001A      5.747150  
    3002A      5.747758  3003A      5.753247  3004A      5.756733  
    3005A      5.758700  3006A      5.760971  3007A      5.763578  
    3008A      5.766789  3009A      5.773881  3010A      5.776097  
    3011A      5.779489  3012A      5.782067  3013A      5.784426  
    3014A      5.785750  3015A      5.790974  3016A      5.794530  
    3017A      5.796266  3018A      5.799436  3019A      5.800469  
    3020A      5.806118  3021A      5.808072  3022A      5.809058  
    3023A      5.812229  3024A      5.813556  3025A      5.820292  
    3026A      5.821476  3027A      5.825479  3028A      5.827522  
    3029A      5.828902  3030A      5.830392  3031A      5.832466  
    3032A      5.833938  3033A      5.837173  3034A      5.841439  
    3035A      5.842427  3036A      5.846630  3037A      5.851131  
    3038A      5.853517  3039A      5.857118  3040A      5.858235  
    3041A      5.861318  3042A      5.863062  3043A      5.865523  
    3044A      5.868615  3045A      5.870836  3046A      5.873505  
    3047A      5.877600  3048A      5.880726  3049A      5.883517  
    3050A      5.887602  3051A      5.889819  3052A      5.890152  
    3053A      5.891585  3054A      5.893347  3055A      5.894671  
    3056A      5.896565  3057A      5.898197  3058A      5.903900  
    3059A      5.905253  3060A      5.906854  3061A      5.908874  
    3062A      5.910794  3063A      5.915835  3064A      5.917703  
    3065A      5.918422  3066A      5.919363  3067A      5.920963  
    3068A      5.923648  3069A      5.927863  3070A      5.928171  
    3071A      5.930411  3072A      5.932293  3073A      5.937454  
    3074A      5.938895  3075A      5.945614  3076A      5.948432  
    3077A      5.956452  3078A      5.962388  3079A      5.968836  
    3080A      5.972033  3081A      5.975898  3082A      5.977656  
    3083A      5.980173  3084A      5.985364  3085A      5.985791  
    3086A      5.989827  3087A      5.997427  3088A      6.004120  
    3089A      6.006279  3090A      6.008788  3091A      6.011401  
    3092A      6.012989  3093A      6.015283  3094A      6.016284  
    3095A      6.026561  3096A      6.027215  3097A      6.034698  
    3098A      6.039919  3099A      6.042344  3100A      6.049957  
    3101A      6.050220  3102A      6.058662  3103A      6.058688  
    3104A      6.063423  3105A      6.063772  3106A      6.066714  
    3107A      6.070815  3108A      6.080537  3109A      6.083829  
    3110A      6.085356  3111A      6.086395  3112A      6.092009  
    3113A      6.094808  3114A      6.096365  3115A      6.100281  
    3116A      6.101195  3117A      6.116241  3118A      6.116272  
    3119A      6.124272  3120A      6.133430  3121A      6.145403  
    3122A      6.150496  3123A      6.153396  3124A      6.160759  
    3125A      6.163708  3126A      6.172934  3127A      6.180047  
    3128A      6.181075  3129A      6.184742  3130A      6.188141  
    3131A      6.189388  3132A      6.198592  3133A      6.202877  
    3134A      6.211120  3135A      6.214121  3136A      6.218395  
    3137A      6.228330  3138A      6.230847  3139A      6.235981  
    3140A      6.241461  3141A      6.249703  3142A      6.251956  
    3143A      6.255867  3144A      6.259027  3145A      6.262941  
    3146A      6.266716  3147A      6.269616  3148A      6.274077  
    3149A      6.280720  3150A      6.291918  3151A      6.297449  
    3152A      6.306678  3153A      6.311083  3154A      6.311464  
    3155A      6.317717  3156A      6.319208  3157A      6.327195  
    3158A      6.329167  3159A      6.341991  3160A      6.352118  
    3161A      6.355920  3162A      6.367732  3163A      6.370181  
    3164A      6.378196  3165A      6.387350  3166A      6.391438  
    3167A      6.406470  3168A      6.412008  3169A      6.416353  
    3170A      6.420789  3171A      6.425451  3172A      6.427154  
    3173A      6.431630  3174A      6.433008  3175A      6.435166  
    3176A      6.445492  3177A      6.449043  3178A      6.454300  
    3179A      6.466614  3180A      6.490598  3181A      6.498698  
    3182A      6.513830  3183A      6.520597  3184A      6.525340  
    3185A      6.535600  3186A      6.541236  3187A      6.546089  
    3188A      6.550556  3189A      6.557723  3190A      6.560980  
    3191A      6.564548  3192A      6.569558  3193A      6.573413  
    3194A      6.574505  3195A      6.586936  3196A      6.589335  
    3197A      6.601324  3198A      6.610212  3199A      6.620801  
    3200A      6.622679  3201A      6.626271  3202A      6.634121  
    3203A      6.642914  3204A      6.665970  3205A      6.678680  
    3206A      6.687285  3207A      6.693241  3208A      6.703743  
    3209A      6.719161  3210A      6.751518  3211A      6.753786  
    3212A      6.761778  3213A      6.776606  3214A      6.782978  
    3215A      6.788119  3216A      6.788868  3217A      6.796754  
    3218A      6.817421  3219A      6.837806  3220A      6.888541  
    3221A      6.899999  3222A      6.906209  3223A      6.923992  
    3224A      6.928324  3225A      6.937250  3226A      6.961981  
    3227A      6.969010  3228A      6.996226  3229A      7.005078  
    3230A      7.028556  3231A      7.034487  3232A      7.058143  
    3233A      7.059984  3234A      7.077782  3235A      7.081338  
    3236A      7.099238  3237A      7.102318  3238A      7.128950  
    3239A      7.133714  3240A      7.161455  3241A      7.165638  
    3242A      7.193074  3243A      7.193709  3244A      7.218566  
    3245A      7.225115  3246A      7.239199  3247A      7.241546  
    3248A      7.265832  3249A      7.277485  3250A      7.286084  
    3251A      7.302652  3252A      7.316106  3253A      7.326755  
    3254A      7.351606  3255A      7.354445  3256A      7.365704  
    3257A      7.402059  3258A      7.415818  3259A      7.430548  
    3260A      7.443799  3261A      7.446939  3262A      7.508769  
    3263A      7.558291  3264A      7.589923  3265A      7.597389  
    3266A      7.625848  3267A      7.628547  3268A      7.648148  
    3269A      7.651685  3270A      7.664302  3271A      7.667569  
    3272A      7.674496  3273A      7.679431  3274A      7.693591  
    3275A      7.699039  3276A      7.705813  3277A      7.729408  
    3278A      7.741932  3279A      7.756933  3280A      7.819377  
    3281A      7.833644  3282A      7.839929  3283A      7.858046  
    3284A      7.860146  3285A      7.883215  3286A      7.886753  
    3287A      7.919759  3288A      7.926319  3289A      7.936332  
    3290A      7.937910  3291A      7.946865  3292A      7.956401  
    3293A      7.969144  3294A      7.974327  3295A      7.985631  
    3296A      7.991385  3297A      7.996280  3298A      8.004534  
    3299A      8.006931  3300A      8.016369  3301A      8.026109  
    3302A      8.038364  3303A      8.055265  3304A      8.057327  
    3305A      8.075970  3306A      8.111881  3307A      8.145219  
    3308A      8.169685  3309A      8.190865  3310A      8.197690  
    3311A      8.215748  3312A      8.217840  3313A      8.333364  
    3314A      8.344929  3315A      8.388955  3316A      8.391413  
    3317A      8.483181  3318A      8.511138  3319A      8.533028  
    3320A      8.540949  3321A      8.564520  3322A      8.574029  
    3323A      8.590441  3324A      8.596404  3325A      8.618103  
    3326A      8.621715  3327A      8.646970  3328A      8.648470  
    3329A      8.677472  3330A      8.678213  3331A      8.730275  
    3332A      8.731473  3333A      9.058300  3334A      9.086104  
    3335A      9.174229  3336A      9.267739  3337A      9.332678  
    3338A      9.377236  3339A      9.397153  3340A      9.428978  
    3341A      9.437319  3342A      9.438682  3343A      9.481646  
    3344A      9.482983  3345A      9.535485  3346A      9.693239  
    3347A      9.859463  3348A     10.000521  3349A     10.102757  
    3350A     10.484471  3351A     10.486909  3352A     10.547224  
    3353A     10.552369  3354A     10.582594  3355A     10.598445  
    3356A     10.617887  3357A     10.659169  3358A     10.687525  
    3359A     10.749664  3360A     10.768675  3361A     10.872549  
    3362A     10.883721  3363A     10.891199  3364A     10.994442  
    3365A     11.049666  3366A     11.101594  3367A     11.113861  
    3368A     17.024729  3369A     17.029700  3370A     17.254983  
    3371A     17.294417  3372A     17.369926  3373A     17.405476  
    3374A     17.500784  3375A     17.554189  3376A     17.603437  
    3377A     17.615597  3378A     17.679810  3379A     17.898208  
    3380A     17.921300  3381A     17.962743  3382A     18.374354  
    3383A     18.692690  3384A     18.944969  3385A     18.954605  
    3386A     53.566452  3387A     53.584700  3388A     54.131443  
    3389A     54.216438  3390A     54.351764  3391A     54.492633  
    3392A     54.693186  3393A     54.727094  3394A     54.798143  
    3395A     54.966323  3396A     54.991061  3397A     55.255427  
    3398A     55.273844  3399A     55.382175  3400A     56.194443  
    3401A     56.840151  3402A     57.371535  3403A     57.377522  

    Final Occupation by Irrep:
              A 
    DOCC [    73 ]
    NA   [    73 ]
    NB   [    73 ]

  @DF-RKS Final Energy:  -708.07635368649767

   => Energetics <=

    Nuclear Repulsion Energy =           1177.1969194446960500
    One-Electron Energy =               -3289.1955319868779952
    Two-Electron Energy =                1514.8971396982615261
    DFT Exchange-Correlation Energy =    -110.9487214179567900
    Empirical Dispersion Energy =          -0.0261594246204807
    VV10 Nonlocal Energy =                  0.0000000000000000
    Total Energy =                       -708.0763536864976686

Computation Completed


Properties will be evaluated at   0.000000,   0.000000,   0.000000 [a0]

Properties computed using the SCF density matrix


 Multipole Moments:

 ------------------------------------------------------------------------------------
     Multipole            Electronic (a.u.)      Nuclear  (a.u.)        Total (a.u.)
 ------------------------------------------------------------------------------------

 L = 1.  Multiply by 2.5417464519 to convert [e a0] to [Debye]
 Dipole X            :      -3183.4302985         3183.4307411            0.0004426
 Dipole Y            :      -2003.1113928         2003.1115827            0.0001900
 Dipole Z            :       -565.9995631          565.9994308           -0.0001323
 Magnitude           :                                                    0.0004995

 ------------------------------------------------------------------------------------

*** tstop() called on atl1-1-02-004-3-1.pace.gatech.edu at Sat Jun 13 12:05:07 2026
Module time:
	user time   =   15032.27 seconds =     250.54 minutes
	system time =    1343.36 seconds =      22.39 minutes
	total time  =       2791 seconds =      46.52 minutes
Total time:
	user time   =   15032.27 seconds =     250.54 minutes
	system time =    1343.36 seconds =      22.39 minutes
	total time  =       2791 seconds =      46.52 minutes

    Psi4 stopped on: Saturday, 13 June 2026 12:05PM
    Psi4 wall time for execution: 0:46:39.95

*** Psi4 exiting successfully. Buy a developer a beer!
