
    -----------------------------------------------------------------------
          Psi4: An Open-Source Ab Initio Electronic Structure Package
                               Psi4 1.9.1 release

                         Git: Rev {} zzzzzzz 


    D. G. A. Smith, L. A. Burns, A. C. Simmonett, R. M. Parrish,
    M. C. Schieber, R. Galvelis, P. Kraus, H. Kruse, R. Di Remigio,
    A. Alenaizan, A. M. James, S. Lehtola, J. P. Misiewicz, M. Scheurer,
    R. A. Shaw, J. B. Schriber, Y. Xie, Z. L. Glick, D. A. Sirianni,
    J. S. O'Brien, J. M. Waldrop, A. Kumar, E. G. Hohenstein,
    B. P. Pritchard, B. R. Brooks, H. F. Schaefer III, A. Yu. Sokolov,
    K. Patkowski, A. E. DePrince III, U. Bozkaya, R. A. King,
    F. A. Evangelista, J. M. Turney, T. D. Crawford, C. D. Sherrill,
    J. Chem. Phys. 152(18) 184108 (2020). https://doi.org/10.1063/5.0006002

                            Additional Code Authors
    E. T. Seidl, C. L. Janssen, E. F. Valeev, M. L. Leininger,
    J. F. Gonthier, R. M. Richard, H. R. McAlexander, M. Saitow, X. Wang,
    P. Verma, M. H. Lechner, A. Jiang, S. Behnle, A. G. Heide,
    M. F. Herbst, and D. L. Poole

             Previous Authors, Complete List of Code Contributors,
                       and Citations for Specific Modules
    https://github.com/psi4/psi4/blob/master/codemeta.json
    https://github.com/psi4/psi4/graphs/contributors
    http://psicode.org/psi4manual/master/introduction.html#citing-psifour

    -----------------------------------------------------------------------


    Psi4 started on: Monday, 15 June 2026 10:17AM

    Process ID: 1668698
    Host:       atl1-1-03-004-6-1.pace.gatech.edu
    PSIDATADIR: /storage/home/hcoda1/5/vlita3/.conda/envs/p4_qcml/share/psi4
    Memory:     250.0 GiB
    Threads:    10
    
  ==> Input QCSchema <==

--------------------------------------------------------------------------
{'driver': 'energy',
 'extras': {},
 'id': '332',
 'keywords': {},
 'model': {'basis': 'aug-cc-pvtz', 'method': 'pbe-d3'},
 'molecule': {'extras': {},
              'fix_com': True,
              'fix_orientation': True,
              'fragment_charges': [0.0, 0.0],
              'fragment_multiplicities': [1, 1],
              'fragments': [[0, 1, 2, 3, 4, 5, 6, 7, 8, 9, 10, 11, 12, 13, 14, 15, 16, 17, 18, 19, 20, 21, 22, 23, 24,
                             25, 26, 27, 28, 29, 30, 31, 32, 33, 34, 35, 36, 37, 38, 39, 40, 41, 42, 43, 44, 45, 46, 47,
                             48, 49, 50, 51, 52, 53, 54, 55, 56, 57, 58, 59, 60, 61, 62, 63, 64, 65, 66, 67],
                            [68, 69, 70, 71, 72, 73, 74, 75, 76, 77, 78, 79, 80, 81, 82, 83]],
              'geometry': [-5.34620642, -4.85206741, -0.42040662, -6.29696543, -3.97249137, -2.73196591, -7.16652857,
                           -1.39360971, -2.91024059, -7.07225732, 0.1478346, -0.75712917, -6.06055521, -0.70522859,
                           1.52779916, -5.14660825, -3.28275871, 1.6937689, -8.00940954, -0.47795161, -5.29622845,
                           -8.00389532, -2.01265111, -7.39175445, -7.1739962, -4.55869367, -7.20967896, -6.3482405,
                           -5.51081404, -4.93971915, -5.79174545, 0.94432733, 3.66064233, -4.5983628, 0.0799819,
                           5.76970066, -3.62293398, -2.4551662, 5.90550866, -3.92400421, -4.11631993, 3.96419018,
                           -2.16569152, -2.61945029, 8.3885177, 0.07636213, -0.84617571, 7.95116799, -0.9078112,
                           1.61784783, 7.8674416, -3.76570071, 1.39135281, 8.20497635, -3.85671125, -0.88804523,
                           10.06281411, 2.58001171, -1.3655127, 7.31184057, 4.1057488, 0.7110172, 6.7716308, 3.12911434,
                           3.1826792, 6.68292857, 0.58226752, 3.66820181, 7.1546987, 5.22477035, 4.85680231, 5.5947568,
                           5.45773257, 3.95265056, 2.86034162, 6.48712479, 1.44012834, 2.99187034, 6.82098554,
                           0.8515344, 5.79382301, 7.56885523, 3.52377684, 6.77238443, 6.80325367, 0.01007923,
                           0.87853632, 6.01230407, 0.99764822, -1.51581981, 4.9476594, 3.51769873, -1.64633715,
                           4.72513697, 4.9862546, 0.62058001, 6.12205861, -0.46131862, -3.71310038, 5.15756848,
                           0.40687221, -6.02295948, 4.08395781, 2.91056166, -6.14884699, 4.05329983, 4.41018879,
                           -3.96462935, 5.13306837, -1.12454068, -8.23614739, 4.07851898, -0.25961114, -10.44460058,
                           2.99478619, 2.19392857, -10.56107574, 3.00851807, 3.73807424, -8.47334713, 3.50361025,
                           -3.823107, 7.21233591, -0.52564981, 6.01194181, 6.93361699, 5.05829719, 6.89567715,
                           5.87089814, 8.0356414, -0.74107273, 6.26352729, 7.58901842, 3.63875572, 8.83518962,
                           9.35421802, 4.19783591, 5.97522954, -5.76611566, -1.64188193, 10.31542343, -2.98864212,
                           -0.45542891, 11.88758146, -4.77253092, 3.11242428, 8.71181923, -1.70891184, -4.50721847,
                           9.0671295, 7.55489696, -1.89976737, 0.96862939, 3.89947197, 6.86430373, 0.5027639,
                           -6.46680418, 2.87873678, 3.51311765, -3.18323648, -6.03153223, 4.04964208, 3.22722344,
                           6.29110633, -4.05969977, 6.91726822, -2.35617478, -3.61337858, 2.17488807, 5.6139636,
                           -8.5558299, 2.15939666, 2.84829877, -12.31851423, 4.06363758, -1.45295543, -12.11512622,
                           5.94772646, -3.00842661, -8.1365677, -4.65219392, -6.78410677, -0.29846731, -7.72607119,
                           2.09308409, -0.89347536, -5.69192784, -7.45269585, -4.79824367, -8.63836085, 1.47325902,
                           -5.4323305, -8.64382367, -1.28398557, -9.20131008, -7.19028923, -5.75067773, -8.88116704,
                           0.69471926, 7.16657411, 6.19908801, 3.21943853, -4.43255237, 5.4924338, -1.01804176,
                           -2.06721752, -6.41424693, -0.04006805, -3.69463605, -4.59993014, 0.29508244, -2.88730801,
                           -2.09508758, -0.32679714, -0.42272984, -1.41690966, -1.32071561, 1.15392876, -3.24915277,
                           -1.68814035, 0.37514049, -5.74325186, 0.62349756, -6.02367305, -5.33266218, 1.25684872,
                           -4.55988854, -0.10878832, -2.01790096, 3.74535177, -2.52671085, -2.46962752, 1.68011751,
                           -7.10722613, -0.06092458, 0.2181685, 0.50639917, -1.23619836, -2.74752497, -8.33105453,
                           2.06085935, -3.52195874, 1.83306118, 1.18336559, -6.86024705, -0.44470452, -2.90698951,
                           5.11929396, -4.19647021, -1.67462389, 4.39177019, -0.3135118],
              'id': 6,
              'identifiers': {'molecular_formula': 'C46FH29N2O6',
                              'molecule_hash': '6059439b7d3ff97eb634aabdaf8efaa815866e92'},
              'molecular_charge': 0.0,
              'molecular_multiplicity': 1,
              'name': 'C46FH29N2O6',
              'provenance': {'creator': 'QCElemental',
                             'routine': 'qcelemental.molparse.from_string',
                             'version': '0.29.0'},
              'schema_name': 'qcschema_molecule',
              'schema_version': 2,
              'symbols': ['C', 'C', 'C', 'C', 'C', 'C', 'C', 'C', 'C', 'C', 'C', 'C', 'C', 'C', 'C', 'C', 'C', 'C', 'C',
                          'C', 'C', 'C', 'C', 'C', 'C', 'C', 'C', 'C', 'C', 'C', 'C', 'C', 'C', 'C', 'C', 'C', 'C', 'C',
                          'C', 'C', 'O', 'O', 'H', 'H', 'H', 'H', 'H', 'H', 'H', 'H', 'H', 'H', 'H', 'H', 'H', 'H', 'H',
                          'H', 'H', 'H', 'H', 'H', 'H', 'H', 'H', 'H', 'H', 'H', 'C', 'C', 'C', 'C', 'C', 'C', 'F', 'N',
                          'N', 'H', 'H', 'H', 'O', 'O', 'O', 'O'],
              'validated': True},
 'protocols': {},
 'provenance': {'creator': 'QCElemental', 'routine': 'qcelemental.models.results', 'version': '0.29.0'},
 'schema_name': 'qcschema_input',
 'schema_version': 1}
--------------------------------------------------------------------------

Scratch directory: /tmp/tmpxz07rprs_psi_scratch/
   => Libint2 <=

    Primary   basis highest AM E, G, H:  6, 6, 3
    Auxiliary basis highest AM E, G, H:  7, 7, 4
    Onebody   basis highest AM E, G, H:  -, -, -
    Solid Harmonics ordering:            Gaussian

*** tstart() called on atl1-1-03-004-6-1.pace.gatech.edu
*** at Mon Jun 15 10:17:57 2026

   => Loading Basis Set <=

    Name: AUG-CC-PVTZ
    Role: ORBITAL
    Keyword: BASIS
    atoms 1-40, 69-74  entry C          line   239 file /storage/home/hcoda1/5/vlita3/.conda/envs/p4_qcml/share/psi4/basis/aug-cc-pvtz.gbs 
    atoms 41-42, 81-84 entry O          line   331 file /storage/home/hcoda1/5/vlita3/.conda/envs/p4_qcml/share/psi4/basis/aug-cc-pvtz.gbs 
    atoms 43-68, 78-80 entry H          line    40 file /storage/home/hcoda1/5/vlita3/.conda/envs/p4_qcml/share/psi4/basis/aug-cc-pvtz.gbs 
    atoms 75           entry F          line   377 file /storage/home/hcoda1/5/vlita3/.conda/envs/p4_qcml/share/psi4/basis/aug-cc-pvtz.gbs 
    atoms 76-77        entry N          line   285 file /storage/home/hcoda1/5/vlita3/.conda/envs/p4_qcml/share/psi4/basis/aug-cc-pvtz.gbs 

   => PBE-D3: Empirical Dispersion <=

    Grimme's -D3 (zero-damping) Dispersion Correction
    Grimme S.; Antony J.; Ehrlich S.; Krieg H. (2010), J. Chem. Phys., 132: 154104

        s6 =       1.000000
        s8 =       0.722000
       sr6 =       1.217000
    alpha6 =      14.000000
       sr8 =       1.000000


         ---------------------------------------------------------
                                   SCF
               by Justin Turney, Rob Parrish, Andy Simmonett
                          and Daniel G. A. Smith
                              RKS Reference
                       10 Threads, 256000 MiB Core
         ---------------------------------------------------------

  ==> Geometry <==

    Molecular point group: c1
    Full point group: C1

    Geometry (in Bohr), charge = 0, multiplicity = 1:

       Center              X                  Y                   Z               Mass       
    ------------   -----------------  -----------------  -----------------  -----------------
         C           -5.346206420000    -4.852067410000    -0.420406620000    12.000000000000
         C           -6.296965430000    -3.972491370000    -2.731965910000    12.000000000000
         C           -7.166528570000    -1.393609710000    -2.910240590000    12.000000000000
         C           -7.072257320000     0.147834600000    -0.757129170000    12.000000000000
         C           -6.060555210000    -0.705228590000     1.527799160000    12.000000000000
         C           -5.146608250000    -3.282758710000     1.693768900000    12.000000000000
         C           -8.009409540000    -0.477951610000    -5.296228450000    12.000000000000
         C           -8.003895320000    -2.012651110000    -7.391754450000    12.000000000000
         C           -7.173996200000    -4.558693670000    -7.209678960000    12.000000000000
         C           -6.348240500000    -5.510814040000    -4.939719150000    12.000000000000
         C           -5.791745450000     0.944327330000     3.660642330000    12.000000000000
         C           -4.598362800000     0.079981900000     5.769700660000    12.000000000000
         C           -3.622933980000    -2.455166200000     5.905508660000    12.000000000000
         C           -3.924004210000    -4.116319930000     3.964190180000    12.000000000000
         C           -2.165691520000    -2.619450290000     8.388517700000    12.000000000000
         C            0.076362130000    -0.846175710000     7.951167990000    12.000000000000
         C           -0.907811200000     1.617847830000     7.867441600000    12.000000000000
         C           -3.765700710000     1.391352810000     8.204976350000    12.000000000000
         C           -3.856711250000    -0.888045230000    10.062814110000    12.000000000000
         C            2.580011710000    -1.365512700000     7.311840570000    12.000000000000
         C            4.105748800000     0.711017200000     6.771630800000    12.000000000000
         C            3.129114340000     3.182679200000     6.682928570000    12.000000000000
         C            0.582267520000     3.668201810000     7.154698700000    12.000000000000
         C            5.224770350000     4.856802310000     5.594756800000    12.000000000000
         C            5.457732570000     3.952650560000     2.860341620000    12.000000000000
         C            6.487124790000     1.440128340000     2.991870340000    12.000000000000
         C            6.820985540000     0.851534400000     5.793823010000    12.000000000000
         C            7.568855230000     3.523776840000     6.772384430000    12.000000000000
         C            6.803253670000     0.010079230000     0.878536320000    12.000000000000
         C            6.012304070000     0.997648220000    -1.515819810000    12.000000000000
         C            4.947659400000     3.517698730000    -1.646337150000    12.000000000000
         C            4.725136970000     4.986254600000     0.620580010000    12.000000000000
         C            6.122058610000    -0.461318620000    -3.713100380000    12.000000000000
         C            5.157568480000     0.406872210000    -6.022959480000    12.000000000000
         C            4.083957810000     2.910561660000    -6.148846990000    12.000000000000
         C            4.053299830000     4.410188790000    -3.964629350000    12.000000000000
         C            5.133068370000    -1.124540680000    -8.236147390000    12.000000000000
         C            4.078518980000    -0.259611140000   -10.444600580000    12.000000000000
         C            2.994786190000     2.193928570000   -10.561075740000    12.000000000000
         C            3.008518070000     3.738074240000    -8.473347130000    12.000000000000
         O            3.503610250000    -3.823107000000     7.212335910000    15.994914619570
         O           -0.525649810000     6.011941810000     6.933616990000    15.994914619570
         H            5.058297190000     6.895677150000     5.870898140000     1.007825032230
         H            8.035641400000    -0.741072730000     6.263527290000     1.007825032230
         H            7.589018420000     3.638755720000     8.835189620000     1.007825032230
         H            9.354218020000     4.197835910000     5.975229540000     1.007825032230
         H           -5.766115660000    -1.641881930000    10.315423430000     1.007825032230
         H           -2.988642120000    -0.455428910000    11.887581460000     1.007825032230
         H           -4.772530920000     3.112424280000     8.711819230000     1.007825032230
         H           -1.708911840000    -4.507218470000     9.067129500000     1.007825032230
         H            7.554896960000    -1.899767370000     0.968629390000     1.007825032230
         H            3.899471970000     6.864303730000     0.502763900000     1.007825032230
         H           -6.466804180000     2.878736780000     3.513117650000     1.007825032230
         H           -3.183236480000    -6.031532230000     4.049642080000     1.007825032230
         H            3.227223440000     6.291106330000    -4.059699770000     1.007825032230
         H            6.917268220000    -2.356174780000    -3.613378580000     1.007825032230
         H            2.174888070000     5.613963600000    -8.555829900000     1.007825032230
         H            2.159396660000     2.848298770000   -12.318514230000     1.007825032230
         H            4.063637580000    -1.452955430000   -12.115126220000     1.007825032230
         H            5.947726460000    -3.008426610000    -8.136567700000     1.007825032230
         H           -4.652193920000    -6.784106770000    -0.298467310000     1.007825032230
         H           -7.726071190000     2.093084090000    -0.893475360000     1.007825032230
         H           -5.691927840000    -7.452695850000    -4.798243670000     1.007825032230
         H           -8.638360850000     1.473259020000    -5.432330500000     1.007825032230
         H           -8.643823670000    -1.283985570000    -9.201310080000     1.007825032230
         H           -7.190289230000    -5.750677730000    -8.881167040000     1.007825032230
         H            0.694719260000     7.166574110000     6.199088010000     1.007825032230
         H            3.219438530000    -4.432552370000     5.492433800000     1.007825032230
         C           -1.018041760000    -2.067217520000    -6.414246930000    12.000000000000
         C           -0.040068050000    -3.694636050000    -4.599930140000    12.000000000000
         C            0.295082440000    -2.887308010000    -2.095087580000    12.000000000000
         C           -0.326797140000    -0.422729840000    -1.416909660000    12.000000000000
         C           -1.320715610000     1.153928760000    -3.249152770000    12.000000000000
         C           -1.688140350000     0.375140490000    -5.743251860000    12.000000000000
         F            0.623497560000    -6.023673050000    -5.332662180000    18.998403162730
         N            1.256848720000    -4.559888540000    -0.108788320000    14.003074004430
         N           -2.017900960000     3.745351770000    -2.526710850000    14.003074004430
         H           -2.469627520000     1.680117510000    -7.107226130000     1.007825032230
         H           -0.060924580000     0.218168500000     0.506399170000     1.007825032230
         H           -1.236198360000    -2.747524970000    -8.331054530000     1.007825032230
         O            2.060859350000    -3.521958740000     1.833061180000    15.994914619570
         O            1.183365590000    -6.860247050000    -0.444704520000    15.994914619570
         O           -2.906989510000     5.119293960000    -4.196470210000    15.994914619570
         O           -1.674623890000     4.391770190000    -0.313511800000    15.994914619570

  Running in c1 symmetry.

  Rotational constants: A =      0.00269  B =      0.00202  C =      0.00154 [cm^-1]
  Rotational constants: A =     80.53073  B =     60.67005  C =     46.28054 [MHz]
  Nuclear repulsion = 8036.031125408757362

  Charge       = 0
  Multiplicity = 1
  Electrons    = 376
  Nalpha       = 188
  Nbeta        = 188

  ==> Algorithm <==

  SCF Algorithm Type is DF.
  DIIS enabled.
  MOM disabled.
  Fractional occupation disabled.
  Guess Type is SAD.
  Energy threshold   = 1.00e-06
  Density threshold  = 1.00e-06
  Integral threshold = 1.00e-12

  ==> Primary Basis <==

  Basis Set: AUG-CC-PVTZ
    Blend: AUG-CC-PVTZ
    Number of shells: 1031
    Number of basis functions: 3197
    Number of Cartesian functions: 3750
    Spherical Harmonics?: true
    Max angular momentum: 3

  ==> DFT Potential <==

   => LibXC <=

    Version 7.0.0
    S. Lehtola, C. Steigemann, M. J.T. Oliveira, and M. A.L. Marques.,  SoftwareX 7, 1–5 (2018) (10.1016/j.softx.2017.11.002)

   => Composite Functional: PBE-D3ZERO2B <= 

    PBE GGA Exchange-Correlation Functional

    J.P. Perdew et. al., Phys. Rev. Lett., 77(18), 3865-3868, 1996


    Deriv               =              1
    GGA                 =           TRUE
    Meta                =          FALSE

    Exchange Hybrid     =          FALSE
    MP2 Hybrid          =          FALSE

   => Exchange Functionals <=

    1.0000     XC_GGA_X_PBE

   => Correlation Functionals <=

    1.0000     XC_GGA_C_PBE

   => LibXC Density Thresholds  <==

    XC_GGA_C_PBE:  1.00E-12 
    XC_GGA_X_PBE:  1.00E-15 

   => Molecular Quadrature <=

    Radial Scheme          =       TREUTLER
    Pruning Scheme         =           NONE
    Nuclear Scheme         =       TREUTLER

    Blocking Scheme        =         OCTREE
    BS radius alpha        =              1
    Pruning alpha          =              1
    Radial Points          =             75
    Spherical Points       =            302
    Total Points           =        1660585
    Total Blocks           =          11397
    Max Points             =            256
    Max Functions          =           2139
    Weights Tolerance      =       1.00E-15

   => Loading Basis Set <=

    Name: (AUG-CC-PVTZ AUX)
    Role: JKFIT
    Keyword: DF_BASIS_SCF
    atoms 1-40, 69-74  entry C          line   162 file /storage/home/hcoda1/5/vlita3/.conda/envs/p4_qcml/share/psi4/basis/aug-cc-pvtz-jkfit.gbs 
    atoms 41-42, 81-84 entry O          line   286 file /storage/home/hcoda1/5/vlita3/.conda/envs/p4_qcml/share/psi4/basis/aug-cc-pvtz-jkfit.gbs 
    atoms 43-68, 78-80 entry H          line    70 file /storage/home/hcoda1/5/vlita3/.conda/envs/p4_qcml/share/psi4/basis/aug-cc-pvtz-jkfit.gbs 
    atoms 75           entry F          line   348 file /storage/home/hcoda1/5/vlita3/.conda/envs/p4_qcml/share/psi4/basis/aug-cc-pvtz-jkfit.gbs 
    atoms 76-77        entry N          line   224 file /storage/home/hcoda1/5/vlita3/.conda/envs/p4_qcml/share/psi4/basis/aug-cc-pvtz-jkfit.gbs 

  ==> Integral Setup <==

  ==> DiskDFJK: Density-Fitted J/K Matrices <==

    J tasked:                  Yes
    K tasked:                   No
    wK tasked:                  No
    OpenMP threads:             10
    Integrals threads:          10
    Memory [MiB]:           172800
    Algorithm:                Disk
    Integral Cache:           NONE
    Schwarz Cutoff:          1E-12
    Fitting Condition:       1E-10

   => Auxiliary Basis Set <=

  Basis Set: (AUG-CC-PVTZ AUX)
    Blend: AUG-CC-PVTZ-JKFIT
    Number of shells: 2056
    Number of basis functions: 7054
    Number of Cartesian functions: 8800
    Spherical Harmonics?: true
    Max angular momentum: 4

  Minimum eigenvalue in the overlap matrix is 8.4696743678E-09.
  Reciprocal condition number of the overlap matrix is 2.5542464085E-10.
    Using canonical orthogonalization.
  Overall, 16 of 3197 possible MOs eliminated.


  ==> Pre-Iterations <==

  SCF Guess: Superposition of Atomic Densities via on-the-fly atomic UHF (no occupation information).

   -------------------------
    Irrep   Nso     Nmo    
   -------------------------
     A       3197    3181 
   -------------------------
    Total    3197    3181
   -------------------------

  ==> Iterations <==

                           Total Energy        Delta E     RMS |[F,P]|

   @DF-RKS iter SAD: -2429.50612664294295   -2.42951e+03   0.00000e+00 
   @DF-RKS iter   1: -2424.36342729283569    5.14270e+00   9.32624e-04 ADIIS/DIIS
   @DF-RKS iter   2: -2373.96234769724333    5.04011e+01   2.89096e-03 ADIIS/DIIS
   @DF-RKS iter   3: -2413.57159732498121   -3.96092e+01   1.48227e-03 ADIIS/DIIS
   @DF-RKS iter   4: -2423.67388527325556   -1.01023e+01   8.20077e-04 ADIIS/DIIS
   @DF-RKS iter   5: -2422.60835697243829    1.06553e+00   8.51798e-04 ADIIS/DIIS
   @DF-RKS iter   6: -2428.46325840275813   -5.85490e+00   3.24181e-04 ADIIS/DIIS
   @DF-RKS iter   7: -2428.59835117376406   -1.35093e-01   2.82961e-04 ADIIS/DIIS
   @DF-RKS iter   8: -2428.87951604438058   -2.81165e-01   1.20601e-04 ADIIS/DIIS
   @DF-RKS iter   9: -2428.93664964706340   -5.71336e-02   4.35236e-05 DIIS
   @DF-RKS iter  10: -2428.94335217952903   -6.70253e-03   2.06046e-05 DIIS
   @DF-RKS iter  11: -2428.94514895612565   -1.79678e-03   1.09710e-05 DIIS
   @DF-RKS iter  12: -2428.94555370791795   -4.04752e-04   6.52531e-06 DIIS
   @DF-RKS iter  13: -2428.94572032068845   -1.66613e-04   2.17513e-06 DIIS
   @DF-RKS iter  14: -2428.94573863415326   -1.83135e-05   8.06452e-07 DIIS
   @DF-RKS iter  15: -2428.94574118351193   -2.54936e-06   4.75194e-07 DIIS
   @DF-RKS iter  16: -2428.94574153563235   -3.52120e-07   3.76059e-07 DIIS
  Energy and wave function converged.


  ==> Post-Iterations <==

   Electrons on quadrature grid:
      Ntotal   =  375.9997421222 ; deviation = -2.579e-04 

    Orbital Energies [Eh]
    ---------------------

    Doubly Occupied:                                                      

       1A    -24.307713     2A    -18.804524     3A    -18.803868  
       4A    -18.793386     5A    -18.793188     6A    -18.788993  
       7A    -18.759203     8A    -14.231182     9A    -14.218513  
      10A    -10.018131    11A     -9.976164    12A     -9.964838  
      13A     -9.948270    14A     -9.939434    15A     -9.935701  
      16A     -9.934532    17A     -9.928622    18A     -9.921035  
      19A     -9.912208    20A     -9.910363    21A     -9.910060  
      22A     -9.909905    23A     -9.909892    24A     -9.909472  
      25A     -9.909192    26A     -9.908012    27A     -9.907740  
      28A     -9.907532    29A     -9.907439    30A     -9.906726  
      31A     -9.904574    32A     -9.902462    33A     -9.902285  
      34A     -9.902141    35A     -9.901817    36A     -9.901700  
      37A     -9.901526    38A     -9.901490    39A     -9.900685  
      40A     -9.900432    41A     -9.900138    42A     -9.899772  
      43A     -9.899671    44A     -9.898513    45A     -9.898169  
      46A     -9.897583    47A     -9.896750    48A     -9.896420  
      49A     -9.896098    50A     -9.896096    51A     -9.895840  
      52A     -9.894867    53A     -9.894154    54A     -9.893616  
      55A     -9.892658    56A     -1.164062    57A     -1.147923  
      58A     -1.137208    59A     -0.985287    60A     -0.974387  
      61A     -0.974036    62A     -0.944813    63A     -0.842926  
      64A     -0.839612    65A     -0.832389    66A     -0.811001  
      67A     -0.808600    68A     -0.780337    69A     -0.774966  
      70A     -0.771199    71A     -0.749712    72A     -0.742610  
      73A     -0.727904    74A     -0.722555    75A     -0.720035  
      76A     -0.716999    77A     -0.699624    78A     -0.695788  
      79A     -0.679510    80A     -0.673500    81A     -0.667141  
      82A     -0.665795    83A     -0.664894    84A     -0.651901  
      85A     -0.647154    86A     -0.642077    87A     -0.629513  
      88A     -0.610104    89A     -0.593521    90A     -0.591797  
      91A     -0.590163    92A     -0.568039    93A     -0.557800  
      94A     -0.552257    95A     -0.551284    96A     -0.550934  
      97A     -0.549605    98A     -0.547580    99A     -0.543508  
     100A     -0.533279   101A     -0.532408   102A     -0.515787  
     103A     -0.513009   104A     -0.508953   105A     -0.503906  
     106A     -0.493884   107A     -0.493107   108A     -0.491453  
     109A     -0.489369   110A     -0.482616   111A     -0.478222  
     112A     -0.478059   113A     -0.476420   114A     -0.470589  
     115A     -0.467848   116A     -0.459537   117A     -0.454196  
     118A     -0.452666   119A     -0.448053   120A     -0.444800  
     121A     -0.438392   122A     -0.430531   123A     -0.427076  
     124A     -0.413782   125A     -0.410392   126A     -0.410280  
     127A     -0.407542   128A     -0.406088   129A     -0.403779  
     130A     -0.398504   131A     -0.394890   132A     -0.386157  
     133A     -0.384371   134A     -0.384184   135A     -0.381940  
     136A     -0.381294   137A     -0.381079   138A     -0.379101  
     139A     -0.376645   140A     -0.375467   141A     -0.372725  
     142A     -0.370245   143A     -0.367978   144A     -0.362614  
     145A     -0.358684   146A     -0.351370   147A     -0.348556  
     148A     -0.346641   149A     -0.342936   150A     -0.341921  
     151A     -0.337616   152A     -0.336887   153A     -0.336472  
     154A     -0.330670   155A     -0.325885   156A     -0.321385  
     157A     -0.318686   158A     -0.315600   159A     -0.310429  
     160A     -0.308235   161A     -0.305289   162A     -0.301145  
     163A     -0.300514   164A     -0.298862   165A     -0.296031  
     166A     -0.292421   167A     -0.289863   168A     -0.288448  
     169A     -0.286812   170A     -0.284720   171A     -0.279946  
     172A     -0.277022   173A     -0.274848   174A     -0.274443  
     175A     -0.268517   176A     -0.266770   177A     -0.259329  
     178A     -0.257148   179A     -0.253601   180A     -0.243621  
     181A     -0.241255   182A     -0.237304   183A     -0.227529  
     184A     -0.223313   185A     -0.198099   186A     -0.194556  
     187A     -0.187763   188A     -0.184495  

    Virtual:                                                              

     189A     -0.140987   190A     -0.133438   191A     -0.100920  
     192A     -0.095636   193A     -0.069108   194A     -0.064929  
     195A     -0.056974   196A     -0.048493   197A     -0.043442  
     198A     -0.040562   199A     -0.035332   200A     -0.029156  
     201A     -0.028337   202A     -0.026601   203A     -0.020070  
     204A     -0.016579   205A     -0.011898   206A     -0.011248  
     207A     -0.010494   208A     -0.005760   209A     -0.004615  
     210A     -0.002745   211A      0.000964   212A      0.004741  
     213A      0.007740   214A      0.008284   215A      0.009276  
     216A      0.011435   217A      0.013173   218A      0.015593  
     219A      0.018962   220A      0.020047   221A      0.020831  
     222A      0.023114   223A      0.023992   224A      0.024111  
     225A      0.027870   226A      0.030869   227A      0.032507  
     228A      0.034356   229A      0.038100   230A      0.040212  
     231A      0.044114   232A      0.045705   233A      0.046502  
     234A      0.047921   235A      0.049102   236A      0.050238  
     237A      0.051022   238A      0.052464   239A      0.054066  
     240A      0.056081   241A      0.056943   242A      0.057450  
     243A      0.060006   244A      0.060665   245A      0.061417  
     246A      0.062071   247A      0.062960   248A      0.066224  
     249A      0.067336   250A      0.069292   251A      0.070252  
     252A      0.071712   253A      0.072824   254A      0.072887  
     255A      0.073679   256A      0.073875   257A      0.075555  
     258A      0.075754   259A      0.077645   260A      0.078360  
     261A      0.079546   262A      0.080982   263A      0.081444  
     264A      0.082363   265A      0.084318   266A      0.084998  
     267A      0.085379   268A      0.086839   269A      0.088442  
     270A      0.089265   271A      0.090038   272A      0.090638  
     273A      0.091396   274A      0.092031   275A      0.093321  
     276A      0.093904   277A      0.095377   278A      0.096784  
     279A      0.098025   280A      0.099165   281A      0.099690  
     282A      0.102638   283A      0.103888   284A      0.105094  
     285A      0.107624   286A      0.108369   287A      0.109975  
     288A      0.110913   289A      0.111993   290A      0.112426  
     291A      0.113111   292A      0.115553   293A      0.116223  
     294A      0.118055   295A      0.119067   296A      0.120132  
     297A      0.122079   298A      0.122946   299A      0.123262  
     300A      0.124204   301A      0.126137   302A      0.128107  
     303A      0.128530   304A      0.130279   305A      0.131578  
     306A      0.132273   307A      0.134118   308A      0.134742  
     309A      0.135969   310A      0.136420   311A      0.137817  
     312A      0.139187   313A      0.140141   314A      0.142366  
     315A      0.143576   316A      0.146367   317A      0.148345  
     318A      0.149626   319A      0.150231   320A      0.151310  
     321A      0.152752   322A      0.152902   323A      0.154451  
     324A      0.155487   325A      0.156480   326A      0.156715  
     327A      0.157071   328A      0.157531   329A      0.158609  
     330A      0.160114   331A      0.161787   332A      0.162662  
     333A      0.163524   334A      0.164110   335A      0.165823  
     336A      0.166042   337A      0.166755   338A      0.167416  
     339A      0.168335   340A      0.169288   341A      0.169779  
     342A      0.170968   343A      0.171874   344A      0.172608  
     345A      0.173137   346A      0.176272   347A      0.177112  
     348A      0.178360   349A      0.178881   350A      0.179719  
     351A      0.180414   352A      0.181489   353A      0.181844  
     354A      0.182791   355A      0.183955   356A      0.184529  
     357A      0.185288   358A      0.186317   359A      0.187761  
     360A      0.188585   361A      0.188987   362A      0.189754  
     363A      0.190767   364A      0.192627   365A      0.193012  
     366A      0.193624   367A      0.194129   368A      0.194803  
     369A      0.195941   370A      0.196176   371A      0.196498  
     372A      0.197718   373A      0.199007   374A      0.200347  
     375A      0.201454   376A      0.202078   377A      0.202510  
     378A      0.203395   379A      0.204228   380A      0.204338  
     381A      0.204964   382A      0.205733   383A      0.207069  
     384A      0.207563   385A      0.208145   386A      0.208577  
     387A      0.210284   388A      0.210654   389A      0.211050  
     390A      0.213212   391A      0.213620   392A      0.215592  
     393A      0.216896   394A      0.218209   395A      0.218325  
     396A      0.219771   397A      0.220858   398A      0.221576  
     399A      0.222879   400A      0.223969   401A      0.224340  
     402A      0.224514   403A      0.225710   404A      0.226400  
     405A      0.227736   406A      0.228692   407A      0.229595  
     408A      0.230791   409A      0.231202   410A      0.232320  
     411A      0.232754   412A      0.234108   413A      0.234399  
     414A      0.235674   415A      0.235832   416A      0.236965  
     417A      0.238764   418A      0.239286   419A      0.239722  
     420A      0.240923   421A      0.242183   422A      0.243520  
     423A      0.243630   424A      0.244366   425A      0.244712  
     426A      0.246334   427A      0.246703   428A      0.247418  
     429A      0.249151   430A      0.249471   431A      0.250931  
     432A      0.251802   433A      0.251972   434A      0.253524  
     435A      0.254586   436A      0.257747   437A      0.258462  
     438A      0.259469   439A      0.260596   440A      0.261308  
     441A      0.261877   442A      0.263809   443A      0.265256  
     444A      0.266068   445A      0.266394   446A      0.268145  
     447A      0.268870   448A      0.270755   449A      0.272642  
     450A      0.273060   451A      0.274887   452A      0.275284  
     453A      0.277417   454A      0.278175   455A      0.279467  
     456A      0.280285   457A      0.280658   458A      0.281405  
     459A      0.282736   460A      0.284751   461A      0.286613  
     462A      0.286897   463A      0.289053   464A      0.289313  
     465A      0.290536   466A      0.290937   467A      0.291956  
     468A      0.292664   469A      0.295291   470A      0.295637  
     471A      0.295983   472A      0.297048   473A      0.298041  
     474A      0.299494   475A      0.299824   476A      0.301156  
     477A      0.302548   478A      0.304812   479A      0.305910  
     480A      0.306058   481A      0.307906   482A      0.310378  
     483A      0.310604   484A      0.311553   485A      0.313194  
     486A      0.316476   487A      0.316761   488A      0.317984  
     489A      0.319755   490A      0.320316   491A      0.320621  
     492A      0.321152   493A      0.322429   494A      0.323847  
     495A      0.325523   496A      0.326829   497A      0.327508  
     498A      0.329415   499A      0.331910   500A      0.332919  
     501A      0.334302   502A      0.334946   503A      0.335361  
     504A      0.337494   505A      0.338467   506A      0.341019  
     507A      0.342131   508A      0.342431   509A      0.343845  
     510A      0.345800   511A      0.346771   512A      0.347825  
     513A      0.349191   514A      0.351973   515A      0.353039  
     516A      0.354357   517A      0.355528   518A      0.356565  
     519A      0.357694   520A      0.358768   521A      0.361434  
     522A      0.362945   523A      0.364083   524A      0.364951  
     525A      0.366271   526A      0.367542   527A      0.367968  
     528A      0.369710   529A      0.370385   530A      0.372093  
     531A      0.375629   532A      0.376339   533A      0.376826  
     534A      0.377586   535A      0.378028   536A      0.378664  
     537A      0.381061   538A      0.382531   539A      0.382651  
     540A      0.384580   541A      0.385163   542A      0.386987  
     543A      0.387409   544A      0.388685   545A      0.388927  
     546A      0.390303   547A      0.391564   548A      0.392450  
     549A      0.393188   550A      0.394306   551A      0.395535  
     552A      0.396018   553A      0.396641   554A      0.398135  
     555A      0.399994   556A      0.401778   557A      0.402821  
     558A      0.403228   559A      0.403906   560A      0.404914  
     561A      0.406651   562A      0.407391   563A      0.409370  
     564A      0.410253   565A      0.412030   566A      0.413116  
     567A      0.413605   568A      0.415337   569A      0.415605  
     570A      0.417443   571A      0.418161   572A      0.419372  
     573A      0.420121   574A      0.420786   575A      0.421819  
     576A      0.422847   577A      0.424395   578A      0.425817  
     579A      0.426930   580A      0.427244   581A      0.428075  
     582A      0.429297   583A      0.430481   584A      0.430689  
     585A      0.432066   586A      0.433242   587A      0.433731  
     588A      0.435085   589A      0.435638   590A      0.437173  
     591A      0.437439   592A      0.438846   593A      0.439921  
     594A      0.440430   595A      0.442113   596A      0.442607  
     597A      0.444077   598A      0.444695   599A      0.445957  
     600A      0.448173   601A      0.448594   602A      0.449563  
     603A      0.450731   604A      0.451069   605A      0.452038  
     606A      0.454184   607A      0.454570   608A      0.455597  
     609A      0.457116   610A      0.458360   611A      0.459544  
     612A      0.460506   613A      0.461380   614A      0.462650  
     615A      0.464027   616A      0.465518   617A      0.466372  
     618A      0.468047   619A      0.468511   620A      0.469717  
     621A      0.470182   622A      0.471138   623A      0.472709  
     624A      0.474142   625A      0.474776   626A      0.476478  
     627A      0.477007   628A      0.478121   629A      0.479750  
     630A      0.480134   631A      0.481401   632A      0.481866  
     633A      0.482494   634A      0.483873   635A      0.484877  
     636A      0.485383   637A      0.487894   638A      0.489117  
     639A      0.489810   640A      0.490308   641A      0.490978  
     642A      0.493360   643A      0.494290   644A      0.495572  
     645A      0.496746   646A      0.498881   647A      0.500509  
     648A      0.501196   649A      0.502242   650A      0.504071  
     651A      0.505949   652A      0.506525   653A      0.508060  
     654A      0.508710   655A      0.509590   656A      0.511545  
     657A      0.513574   658A      0.514583   659A      0.515371  
     660A      0.516808   661A      0.518700   662A      0.520997  
     663A      0.522697   664A      0.523512   665A      0.525526  
     666A      0.525952   667A      0.526604   668A      0.526797  
     669A      0.529299   670A      0.530457   671A      0.531445  
     672A      0.532651   673A      0.534295   674A      0.535811  
     675A      0.537250   676A      0.538302   677A      0.539192  
     678A      0.540437   679A      0.542113   680A      0.543638  
     681A      0.544760   682A      0.545170   683A      0.547583  
     684A      0.548266   685A      0.550018   686A      0.550889  
     687A      0.552013   688A      0.553348   689A      0.555501  
     690A      0.557378   691A      0.558498   692A      0.560077  
     693A      0.560805   694A      0.561992   695A      0.563129  
     696A      0.564850   697A      0.566079   698A      0.568055  
     699A      0.568368   700A      0.569489   701A      0.570411  
     702A      0.572222   703A      0.573644   704A      0.575097  
     705A      0.576278   706A      0.576813   707A      0.579199  
     708A      0.581512   709A      0.582030   710A      0.583733  
     711A      0.586554   712A      0.587325   713A      0.588284  
     714A      0.589796   715A      0.591175   716A      0.592017  
     717A      0.594649   718A      0.595087   719A      0.595965  
     720A      0.598817   721A      0.599582   722A      0.601093  
     723A      0.602432   724A      0.603292   725A      0.604741  
     726A      0.607274   727A      0.608269   728A      0.609194  
     729A      0.610271   730A      0.612030   731A      0.614320  
     732A      0.615354   733A      0.616811   734A      0.619599  
     735A      0.620802   736A      0.621586   737A      0.622857  
     738A      0.624103   739A      0.624948   740A      0.627344  
     741A      0.628107   742A      0.628372   743A      0.631056  
     744A      0.632125   745A      0.633103   746A      0.634363  
     747A      0.634888   748A      0.635404   749A      0.637558  
     750A      0.639072   751A      0.639738   752A      0.641255  
     753A      0.643422   754A      0.644445   755A      0.644811  
     756A      0.647799   757A      0.648411   758A      0.650362  
     759A      0.652133   760A      0.653189   761A      0.654538  
     762A      0.655415   763A      0.657146   764A      0.657908  
     765A      0.659255   766A      0.659786   767A      0.661301  
     768A      0.662764   769A      0.663153   770A      0.664324  
     771A      0.667329   772A      0.667689   773A      0.669877  
     774A      0.671604   775A      0.672003   776A      0.673559  
     777A      0.674704   778A      0.674827   779A      0.676391  
     780A      0.679387   781A      0.680630   782A      0.681599  
     783A      0.682210   784A      0.682903   785A      0.683671  
     786A      0.685608   787A      0.687812   788A      0.688366  
     789A      0.690131   790A      0.691797   791A      0.693652  
     792A      0.694742   793A      0.696599   794A      0.697339  
     795A      0.699205   796A      0.701077   797A      0.702438  
     798A      0.705818   799A      0.705998   800A      0.707371  
     801A      0.709545   802A      0.710829   803A      0.711962  
     804A      0.712745   805A      0.714782   806A      0.716180  
     807A      0.717100   808A      0.717747   809A      0.718697  
     810A      0.719884   811A      0.723408   812A      0.724289  
     813A      0.724916   814A      0.726092   815A      0.728621  
     816A      0.729218   817A      0.731569   818A      0.732528  
     819A      0.733829   820A      0.734578   821A      0.736137  
     822A      0.739336   823A      0.739755   824A      0.741468  
     825A      0.742282   826A      0.743554   827A      0.745500  
     828A      0.747837   829A      0.749535   830A      0.750132  
     831A      0.752577   832A      0.755008   833A      0.755841  
     834A      0.757130   835A      0.757639   836A      0.759139  
     837A      0.759955   838A      0.760315   839A      0.761197  
     840A      0.761511   841A      0.763699   842A      0.764435  
     843A      0.766030   844A      0.768294   845A      0.769229  
     846A      0.770455   847A      0.770976   848A      0.771669  
     849A      0.773372   850A      0.774484   851A      0.777075  
     852A      0.778351   853A      0.779773   854A      0.781395  
     855A      0.781801   856A      0.783471   857A      0.784007  
     858A      0.785237   859A      0.787611   860A      0.788169  
     861A      0.788477   862A      0.790091   863A      0.790503  
     864A      0.791681   865A      0.796127   866A      0.797391  
     867A      0.797555   868A      0.798704   869A      0.799918  
     870A      0.802176   871A      0.802623   872A      0.803814  
     873A      0.804992   874A      0.805864   875A      0.806799  
     876A      0.808576   877A      0.809537   878A      0.811437  
     879A      0.812318   880A      0.813242   881A      0.814107  
     882A      0.816224   883A      0.816307   884A      0.817078  
     885A      0.819643   886A      0.820848   887A      0.821962  
     888A      0.822928   889A      0.824543   890A      0.826991  
     891A      0.827551   892A      0.828418   893A      0.828628  
     894A      0.829551   895A      0.829786   896A      0.833199  
     897A      0.834187   898A      0.835500   899A      0.836817  
     900A      0.837713   901A      0.837839   902A      0.842251  
     903A      0.843332   904A      0.844072   905A      0.845333  
     906A      0.847197   907A      0.847539   908A      0.849744  
     909A      0.850508   910A      0.851579   911A      0.852177  
     912A      0.854998   913A      0.856377   914A      0.858983  
     915A      0.861077   916A      0.861783   917A      0.863141  
     918A      0.864599   919A      0.865502   920A      0.865865  
     921A      0.867920   922A      0.870111   923A      0.871401  
     924A      0.873686   925A      0.874442   926A      0.875482  
     927A      0.876953   928A      0.878578   929A      0.881111  
     930A      0.882148   931A      0.882610   932A      0.884815  
     933A      0.885486   934A      0.886616   935A      0.888467  
     936A      0.889874   937A      0.890559   938A      0.893208  
     939A      0.895385   940A      0.896022   941A      0.897991  
     942A      0.898581   943A      0.899975   944A      0.902452  
     945A      0.903290   946A      0.904509   947A      0.905894  
     948A      0.907563   949A      0.908997   950A      0.909975  
     951A      0.911924   952A      0.912325   953A      0.913133  
     954A      0.913938   955A      0.915928   956A      0.916479  
     957A      0.917643   958A      0.918164   959A      0.919946  
     960A      0.922366   961A      0.923909   962A      0.926162  
     963A      0.927211   964A      0.929907   965A      0.930242  
     966A      0.931584   967A      0.933378   968A      0.935745  
     969A      0.937808   970A      0.938609   971A      0.940583  
     972A      0.943316   973A      0.944909   974A      0.945092  
     975A      0.946704   976A      0.947508   977A      0.950061  
     978A      0.951292   979A      0.954339   980A      0.955943  
     981A      0.956302   982A      0.957394   983A      0.960896  
     984A      0.961339   985A      0.962532   986A      0.963238  
     987A      0.964144   988A      0.965783   989A      0.966660  
     990A      0.968564   991A      0.970842   992A      0.971733  
     993A      0.973351   994A      0.976412   995A      0.976837  
     996A      0.978229   997A      0.980021   998A      0.981018  
     999A      0.982942  1000A      0.984342  1001A      0.984806  
    1002A      0.985842  1003A      0.986331  1004A      0.988687  
    1005A      0.989673  1006A      0.992848  1007A      0.994845  
    1008A      0.995244  1009A      0.997516  1010A      0.998741  
    1011A      0.999608  1012A      1.001920  1013A      1.002348  
    1014A      1.003967  1015A      1.005203  1016A      1.007165  
    1017A      1.008049  1018A      1.008810  1019A      1.010756  
    1020A      1.011633  1021A      1.013861  1022A      1.015106  
    1023A      1.018037  1024A      1.019187  1025A      1.019626  
    1026A      1.020254  1027A      1.021001  1028A      1.021621  
    1029A      1.024817  1030A      1.026737  1031A      1.027262  
    1032A      1.028210  1033A      1.029636  1034A      1.032401  
    1035A      1.033456  1036A      1.034605  1037A      1.036078  
    1038A      1.037459  1039A      1.039749  1040A      1.041815  
    1041A      1.044125  1042A      1.045299  1043A      1.047231  
    1044A      1.047697  1045A      1.048544  1046A      1.050400  
    1047A      1.052321  1048A      1.053864  1049A      1.054806  
    1050A      1.056268  1051A      1.058693  1052A      1.060846  
    1053A      1.063191  1054A      1.064416  1055A      1.065402  
    1056A      1.066411  1057A      1.067760  1058A      1.068801  
    1059A      1.071840  1060A      1.072452  1061A      1.075908  
    1062A      1.076612  1063A      1.079786  1064A      1.080297  
    1065A      1.081837  1066A      1.082632  1067A      1.083939  
    1068A      1.085080  1069A      1.085861  1070A      1.088112  
    1071A      1.089369  1072A      1.089751  1073A      1.091749  
    1074A      1.093702  1075A      1.094318  1076A      1.095210  
    1077A      1.096861  1078A      1.098041  1079A      1.098940  
    1080A      1.103169  1081A      1.104838  1082A      1.106312  
    1083A      1.107682  1084A      1.108784  1085A      1.110826  
    1086A      1.112023  1087A      1.113317  1088A      1.116566  
    1089A      1.117097  1090A      1.117741  1091A      1.119436  
    1092A      1.120947  1093A      1.122266  1094A      1.123857  
    1095A      1.125169  1096A      1.127570  1097A      1.128095  
    1098A      1.130214  1099A      1.132059  1100A      1.133102  
    1101A      1.134655  1102A      1.135667  1103A      1.137345  
    1104A      1.139271  1105A      1.139694  1106A      1.140584  
    1107A      1.141664  1108A      1.143257  1109A      1.144918  
    1110A      1.147088  1111A      1.149357  1112A      1.151181  
    1113A      1.152779  1114A      1.154112  1115A      1.155359  
    1116A      1.156827  1117A      1.157727  1118A      1.160331  
    1119A      1.161962  1120A      1.163828  1121A      1.164973  
    1122A      1.166796  1123A      1.168140  1124A      1.168576  
    1125A      1.169357  1126A      1.173417  1127A      1.174460  
    1128A      1.176415  1129A      1.178596  1130A      1.179472  
    1131A      1.180153  1132A      1.183302  1133A      1.184620  
    1134A      1.186988  1135A      1.188282  1136A      1.189045  
    1137A      1.190843  1138A      1.193345  1139A      1.195674  
    1140A      1.195783  1141A      1.199663  1142A      1.200518  
    1143A      1.201518  1144A      1.202573  1145A      1.203628  
    1146A      1.204955  1147A      1.206141  1148A      1.208938  
    1149A      1.212068  1150A      1.213086  1151A      1.213507  
    1152A      1.214945  1153A      1.215913  1154A      1.217956  
    1155A      1.218154  1156A      1.220684  1157A      1.221068  
    1158A      1.222733  1159A      1.224372  1160A      1.225587  
    1161A      1.228095  1162A      1.229095  1163A      1.230775  
    1164A      1.234033  1165A      1.235180  1166A      1.237823  
    1167A      1.238615  1168A      1.239765  1169A      1.242401  
    1170A      1.244501  1171A      1.245035  1172A      1.246730  
    1173A      1.248058  1174A      1.248728  1175A      1.251571  
    1176A      1.252659  1177A      1.254141  1178A      1.256985  
    1179A      1.257707  1180A      1.258829  1181A      1.260132  
    1182A      1.263060  1183A      1.265224  1184A      1.265514  
    1185A      1.266912  1186A      1.268697  1187A      1.271302  
    1188A      1.271995  1189A      1.272777  1190A      1.274857  
    1191A      1.276283  1192A      1.276593  1193A      1.277451  
    1194A      1.279108  1195A      1.282671  1196A      1.283893  
    1197A      1.284205  1198A      1.284827  1199A      1.287820  
    1200A      1.289122  1201A      1.290151  1202A      1.292515  
    1203A      1.293312  1204A      1.294785  1205A      1.296998  
    1206A      1.298366  1207A      1.299559  1208A      1.301252  
    1209A      1.303351  1210A      1.304349  1211A      1.307030  
    1212A      1.308426  1213A      1.309460  1214A      1.310950  
    1215A      1.311360  1216A      1.312385  1217A      1.314157  
    1218A      1.315295  1219A      1.316224  1220A      1.318425  
    1221A      1.319334  1222A      1.321484  1223A      1.322557  
    1224A      1.323711  1225A      1.325643  1226A      1.329655  
    1227A      1.330492  1228A      1.331185  1229A      1.333219  
    1230A      1.335173  1231A      1.337247  1232A      1.339503  
    1233A      1.340219  1234A      1.340683  1235A      1.341791  
    1236A      1.345361  1237A      1.345808  1238A      1.346034  
    1239A      1.348435  1240A      1.349598  1241A      1.351989  
    1242A      1.352840  1243A      1.353986  1244A      1.355393  
    1245A      1.357941  1246A      1.358853  1247A      1.360924  
    1248A      1.363122  1249A      1.364934  1250A      1.365381  
    1251A      1.367980  1252A      1.368630  1253A      1.370968  
    1254A      1.371465  1255A      1.372630  1256A      1.375353  
    1257A      1.376600  1258A      1.378104  1259A      1.379268  
    1260A      1.380850  1261A      1.381401  1262A      1.384036  
    1263A      1.385784  1264A      1.387434  1265A      1.387991  
    1266A      1.390110  1267A      1.391514  1268A      1.393349  
    1269A      1.395372  1270A      1.396392  1271A      1.398133  
    1272A      1.400723  1273A      1.400831  1274A      1.401941  
    1275A      1.404049  1276A      1.404297  1277A      1.406448  
    1278A      1.408379  1279A      1.410462  1280A      1.412409  
    1281A      1.414328  1282A      1.415546  1283A      1.417604  
    1284A      1.418120  1285A      1.419206  1286A      1.420801  
    1287A      1.422841  1288A      1.424238  1289A      1.425222  
    1290A      1.426910  1291A      1.429138  1292A      1.430522  
    1293A      1.431214  1294A      1.434974  1295A      1.435437  
    1296A      1.436253  1297A      1.438760  1298A      1.440004  
    1299A      1.441107  1300A      1.442231  1301A      1.443654  
    1302A      1.445015  1303A      1.447032  1304A      1.449093  
    1305A      1.449398  1306A      1.451649  1307A      1.452534  
    1308A      1.455617  1309A      1.455852  1310A      1.457506  
    1311A      1.458588  1312A      1.460176  1313A      1.461479  
    1314A      1.463404  1315A      1.466636  1316A      1.467145  
    1317A      1.468590  1318A      1.469678  1319A      1.471455  
    1320A      1.473257  1321A      1.474372  1322A      1.476168  
    1323A      1.476588  1324A      1.477031  1325A      1.480099  
    1326A      1.481317  1327A      1.482751  1328A      1.483202  
    1329A      1.484586  1330A      1.486471  1331A      1.487979  
    1332A      1.490086  1333A      1.490530  1334A      1.493491  
    1335A      1.495338  1336A      1.497048  1337A      1.497963  
    1338A      1.499538  1339A      1.500870  1340A      1.501582  
    1341A      1.503069  1342A      1.504200  1343A      1.504748  
    1344A      1.508177  1345A      1.509863  1346A      1.511471  
    1347A      1.512805  1348A      1.513504  1349A      1.514841  
    1350A      1.515889  1351A      1.516688  1352A      1.520582  
    1353A      1.522364  1354A      1.522745  1355A      1.524188  
    1356A      1.524827  1357A      1.526865  1358A      1.529751  
    1359A      1.530209  1360A      1.530919  1361A      1.534922  
    1362A      1.535531  1363A      1.538808  1364A      1.539960  
    1365A      1.542271  1366A      1.543209  1367A      1.545421  
    1368A      1.547993  1369A      1.548511  1370A      1.551653  
    1371A      1.551799  1372A      1.553132  1373A      1.553794  
    1374A      1.555783  1375A      1.556502  1376A      1.559718  
    1377A      1.560784  1378A      1.562107  1379A      1.562559  
    1380A      1.565240  1381A      1.566298  1382A      1.567274  
    1383A      1.568273  1384A      1.571647  1385A      1.572278  
    1386A      1.575194  1387A      1.576151  1388A      1.577024  
    1389A      1.579995  1390A      1.581420  1391A      1.582494  
    1392A      1.583519  1393A      1.585195  1394A      1.585791  
    1395A      1.586713  1396A      1.588694  1397A      1.590741  
    1398A      1.594253  1399A      1.596037  1400A      1.597399  
    1401A      1.598633  1402A      1.600904  1403A      1.602720  
    1404A      1.604010  1405A      1.604991  1406A      1.607634  
    1407A      1.608244  1408A      1.610173  1409A      1.611528  
    1410A      1.611778  1411A      1.614353  1412A      1.616572  
    1413A      1.618537  1414A      1.619223  1415A      1.621377  
    1416A      1.623247  1417A      1.624432  1418A      1.625528  
    1419A      1.628235  1420A      1.629938  1421A      1.630714  
    1422A      1.632076  1423A      1.633590  1424A      1.635340  
    1425A      1.636641  1426A      1.637760  1427A      1.639240  
    1428A      1.640884  1429A      1.643507  1430A      1.645772  
    1431A      1.646427  1432A      1.647629  1433A      1.648929  
    1434A      1.652392  1435A      1.653410  1436A      1.654961  
    1437A      1.656767  1438A      1.658790  1439A      1.661065  
    1440A      1.661213  1441A      1.662929  1442A      1.664963  
    1443A      1.665737  1444A      1.667788  1445A      1.671708  
    1446A      1.672708  1447A      1.673810  1448A      1.675530  
    1449A      1.676466  1450A      1.680084  1451A      1.680690  
    1452A      1.683536  1453A      1.685294  1454A      1.687058  
    1455A      1.688065  1456A      1.692324  1457A      1.692907  
    1458A      1.695291  1459A      1.697898  1460A      1.699031  
    1461A      1.701202  1462A      1.701501  1463A      1.702622  
    1464A      1.706258  1465A      1.709791  1466A      1.711803  
    1467A      1.712817  1468A      1.714213  1469A      1.716028  
    1470A      1.717716  1471A      1.719943  1472A      1.721435  
    1473A      1.724090  1474A      1.725390  1475A      1.725819  
    1476A      1.727448  1477A      1.729054  1478A      1.732314  
    1479A      1.736241  1480A      1.736964  1481A      1.737999  
    1482A      1.740025  1483A      1.742933  1484A      1.744372  
    1485A      1.745242  1486A      1.746188  1487A      1.748198  
    1488A      1.749428  1489A      1.752069  1490A      1.753627  
    1491A      1.756280  1492A      1.757884  1493A      1.759136  
    1494A      1.759955  1495A      1.761680  1496A      1.764716  
    1497A      1.765129  1498A      1.766750  1499A      1.767754  
    1500A      1.769388  1501A      1.772163  1502A      1.773764  
    1503A      1.774582  1504A      1.777050  1505A      1.779681  
    1506A      1.780375  1507A      1.781315  1508A      1.783893  
    1509A      1.786661  1510A      1.788377  1511A      1.789718  
    1512A      1.791625  1513A      1.794054  1514A      1.795858  
    1515A      1.797380  1516A      1.798938  1517A      1.801066  
    1518A      1.802959  1519A      1.804363  1520A      1.806082  
    1521A      1.807653  1522A      1.808798  1523A      1.811347  
    1524A      1.813204  1525A      1.814084  1526A      1.817038  
    1527A      1.819223  1528A      1.821557  1529A      1.824124  
    1530A      1.825868  1531A      1.827526  1532A      1.829783  
    1533A      1.831593  1534A      1.834003  1535A      1.834050  
    1536A      1.836438  1537A      1.837398  1538A      1.838704  
    1539A      1.840191  1540A      1.843052  1541A      1.843602  
    1542A      1.845809  1543A      1.846708  1544A      1.848402  
    1545A      1.852183  1546A      1.854566  1547A      1.855225  
    1548A      1.857155  1549A      1.859420  1550A      1.859801  
    1551A      1.862331  1552A      1.866096  1553A      1.866455  
    1554A      1.868121  1555A      1.870202  1556A      1.871389  
    1557A      1.872829  1558A      1.875355  1559A      1.876521  
    1560A      1.879664  1561A      1.880856  1562A      1.882990  
    1563A      1.883991  1564A      1.885642  1565A      1.888084  
    1566A      1.889796  1567A      1.891817  1568A      1.892938  
    1569A      1.895916  1570A      1.899293  1571A      1.900108  
    1572A      1.902474  1573A      1.904857  1574A      1.906721  
    1575A      1.909413  1576A      1.911025  1577A      1.913380  
    1578A      1.916368  1579A      1.917790  1580A      1.918082  
    1581A      1.921246  1582A      1.922519  1583A      1.924610  
    1584A      1.926670  1585A      1.927174  1586A      1.930326  
    1587A      1.931892  1588A      1.933354  1589A      1.934898  
    1590A      1.936617  1591A      1.937767  1592A      1.939874  
    1593A      1.941248  1594A      1.944450  1595A      1.946340  
    1596A      1.948217  1597A      1.949453  1598A      1.952369  
    1599A      1.953135  1600A      1.955176  1601A      1.956668  
    1602A      1.960123  1603A      1.961125  1604A      1.962353  
    1605A      1.965126  1606A      1.965814  1607A      1.967245  
    1608A      1.969984  1609A      1.971887  1610A      1.974831  
    1611A      1.976825  1612A      1.977828  1613A      1.980762  
    1614A      1.983371  1615A      1.985148  1616A      1.987488  
    1617A      1.989454  1618A      1.990772  1619A      1.992128  
    1620A      1.994357  1621A      1.996385  1622A      1.998426  
    1623A      2.001180  1624A      2.002651  1625A      2.005149  
    1626A      2.006693  1627A      2.008191  1628A      2.009091  
    1629A      2.012958  1630A      2.014758  1631A      2.015538  
    1632A      2.018151  1633A      2.020222  1634A      2.021301  
    1635A      2.022647  1636A      2.024666  1637A      2.028885  
    1638A      2.029416  1639A      2.031565  1640A      2.032568  
    1641A      2.035396  1642A      2.036214  1643A      2.037592  
    1644A      2.038812  1645A      2.041202  1646A      2.044627  
    1647A      2.045744  1648A      2.048518  1649A      2.048655  
    1650A      2.051232  1651A      2.054593  1652A      2.055269  
    1653A      2.057563  1654A      2.059489  1655A      2.060752  
    1656A      2.064839  1657A      2.065468  1658A      2.068485  
    1659A      2.069436  1660A      2.071065  1661A      2.073297  
    1662A      2.077274  1663A      2.078735  1664A      2.081318  
    1665A      2.083612  1666A      2.086535  1667A      2.087422  
    1668A      2.090103  1669A      2.093491  1670A      2.094199  
    1671A      2.097158  1672A      2.099711  1673A      2.102526  
    1674A      2.103703  1675A      2.107070  1676A      2.109190  
    1677A      2.110775  1678A      2.112172  1679A      2.114229  
    1680A      2.116917  1681A      2.119139  1682A      2.121066  
    1683A      2.124648  1684A      2.126625  1685A      2.128707  
    1686A      2.131425  1687A      2.132222  1688A      2.132657  
    1689A      2.138387  1690A      2.139096  1691A      2.139403  
    1692A      2.140314  1693A      2.142388  1694A      2.146655  
    1695A      2.148434  1696A      2.150953  1697A      2.151737  
    1698A      2.153622  1699A      2.157525  1700A      2.158807  
    1701A      2.160993  1702A      2.163279  1703A      2.165367  
    1704A      2.166370  1705A      2.167954  1706A      2.170706  
    1707A      2.172108  1708A      2.177045  1709A      2.180854  
    1710A      2.181528  1711A      2.182547  1712A      2.185688  
    1713A      2.187214  1714A      2.187793  1715A      2.189937  
    1716A      2.193703  1717A      2.196073  1718A      2.198152  
    1719A      2.199342  1720A      2.201322  1721A      2.204079  
    1722A      2.205847  1723A      2.208107  1724A      2.208603  
    1725A      2.209420  1726A      2.211843  1727A      2.213289  
    1728A      2.217706  1729A      2.218898  1730A      2.221578  
    1731A      2.222799  1732A      2.223980  1733A      2.225771  
    1734A      2.230854  1735A      2.231217  1736A      2.232332  
    1737A      2.233487  1738A      2.234990  1739A      2.238525  
    1740A      2.240740  1741A      2.243147  1742A      2.244950  
    1743A      2.247139  1744A      2.247923  1745A      2.251313  
    1746A      2.253685  1747A      2.255096  1748A      2.258593  
    1749A      2.261230  1750A      2.262389  1751A      2.263344  
    1752A      2.267533  1753A      2.269261  1754A      2.270273  
    1755A      2.273791  1756A      2.275000  1757A      2.278602  
    1758A      2.280721  1759A      2.282613  1760A      2.283520  
    1761A      2.286059  1762A      2.288012  1763A      2.289605  
    1764A      2.292961  1765A      2.295621  1766A      2.300525  
    1767A      2.301118  1768A      2.304126  1769A      2.307671  
    1770A      2.309528  1771A      2.310879  1772A      2.313414  
    1773A      2.313852  1774A      2.318462  1775A      2.319031  
    1776A      2.321857  1777A      2.325075  1778A      2.326730  
    1779A      2.328421  1780A      2.329174  1781A      2.329970  
    1782A      2.335648  1783A      2.339902  1784A      2.342169  
    1785A      2.345006  1786A      2.347176  1787A      2.348406  
    1788A      2.351899  1789A      2.353658  1790A      2.357111  
    1791A      2.358169  1792A      2.359512  1793A      2.362172  
    1794A      2.366201  1795A      2.368755  1796A      2.371756  
    1797A      2.373052  1798A      2.375701  1799A      2.377938  
    1800A      2.380548  1801A      2.381147  1802A      2.382117  
    1803A      2.383869  1804A      2.387981  1805A      2.389396  
    1806A      2.393550  1807A      2.397807  1808A      2.399928  
    1809A      2.400898  1810A      2.401539  1811A      2.405182  
    1812A      2.406130  1813A      2.408281  1814A      2.411559  
    1815A      2.415565  1816A      2.417442  1817A      2.421254  
    1818A      2.425865  1819A      2.426168  1820A      2.426858  
    1821A      2.431248  1822A      2.434017  1823A      2.437405  
    1824A      2.439302  1825A      2.443392  1826A      2.445538  
    1827A      2.447791  1828A      2.450209  1829A      2.451795  
    1830A      2.456222  1831A      2.457851  1832A      2.460716  
    1833A      2.461857  1834A      2.466022  1835A      2.471285  
    1836A      2.471702  1837A      2.475078  1838A      2.478105  
    1839A      2.480629  1840A      2.481748  1841A      2.483583  
    1842A      2.486286  1843A      2.489556  1844A      2.491065  
    1845A      2.494829  1846A      2.496763  1847A      2.501700  
    1848A      2.502783  1849A      2.503805  1850A      2.507351  
    1851A      2.507627  1852A      2.511392  1853A      2.512192  
    1854A      2.515183  1855A      2.520575  1856A      2.521652  
    1857A      2.524048  1858A      2.526921  1859A      2.531107  
    1860A      2.532228  1861A      2.536400  1862A      2.537807  
    1863A      2.541527  1864A      2.544724  1865A      2.549347  
    1866A      2.549766  1867A      2.551926  1868A      2.553805  
    1869A      2.555645  1870A      2.557401  1871A      2.561822  
    1872A      2.562967  1873A      2.566291  1874A      2.569588  
    1875A      2.572103  1876A      2.574432  1877A      2.577776  
    1878A      2.578887  1879A      2.582437  1880A      2.585851  
    1881A      2.589830  1882A      2.593211  1883A      2.596097  
    1884A      2.599273  1885A      2.600611  1886A      2.602622  
    1887A      2.605429  1888A      2.607177  1889A      2.610831  
    1890A      2.613829  1891A      2.617925  1892A      2.619714  
    1893A      2.623725  1894A      2.626108  1895A      2.629151  
    1896A      2.631534  1897A      2.635777  1898A      2.640482  
    1899A      2.641785  1900A      2.643746  1901A      2.644933  
    1902A      2.649188  1903A      2.653004  1904A      2.655763  
    1905A      2.657847  1906A      2.661957  1907A      2.664728  
    1908A      2.667796  1909A      2.668358  1910A      2.672122  
    1911A      2.676230  1912A      2.678640  1913A      2.680757  
    1914A      2.686843  1915A      2.688527  1916A      2.691689  
    1917A      2.697640  1918A      2.698808  1919A      2.704230  
    1920A      2.705568  1921A      2.708746  1922A      2.712241  
    1923A      2.713002  1924A      2.718299  1925A      2.720716  
    1926A      2.731341  1927A      2.733411  1928A      2.735951  
    1929A      2.741022  1930A      2.744748  1931A      2.748752  
    1932A      2.752247  1933A      2.755310  1934A      2.757182  
    1935A      2.762115  1936A      2.767114  1937A      2.770994  
    1938A      2.774369  1939A      2.775945  1940A      2.779984  
    1941A      2.784301  1942A      2.793540  1943A      2.796591  
    1944A      2.801922  1945A      2.804447  1946A      2.807537  
    1947A      2.813266  1948A      2.815053  1949A      2.822617  
    1950A      2.823931  1951A      2.825320  1952A      2.829957  
    1953A      2.834656  1954A      2.837803  1955A      2.841810  
    1956A      2.846982  1957A      2.852866  1958A      2.855442  
    1959A      2.862515  1960A      2.864084  1961A      2.868770  
    1962A      2.873506  1963A      2.875796  1964A      2.880607  
    1965A      2.884399  1966A      2.887625  1967A      2.891143  
    1968A      2.896347  1969A      2.901610  1970A      2.907018  
    1971A      2.911424  1972A      2.914660  1973A      2.917519  
    1974A      2.921478  1975A      2.923495  1976A      2.929050  
    1977A      2.934294  1978A      2.935307  1979A      2.939916  
    1980A      2.941958  1981A      2.947796  1982A      2.952573  
    1983A      2.958057  1984A      2.960436  1985A      2.963762  
    1986A      2.966749  1987A      2.970945  1988A      2.974349  
    1989A      2.981488  1990A      2.983643  1991A      2.986170  
    1992A      2.987010  1993A      2.995790  1994A      2.997468  
    1995A      2.999672  1996A      3.001471  1997A      3.002606  
    1998A      3.006110  1999A      3.012692  2000A      3.016939  
    2001A      3.017879  2002A      3.024981  2003A      3.027214  
    2004A      3.029957  2005A      3.032466  2006A      3.035124  
    2007A      3.036850  2008A      3.043916  2009A      3.047202  
    2010A      3.052353  2011A      3.054498  2012A      3.059312  
    2013A      3.061057  2014A      3.067233  2015A      3.070213  
    2016A      3.074847  2017A      3.078920  2018A      3.079917  
    2019A      3.084425  2020A      3.088093  2021A      3.091190  
    2022A      3.093024  2023A      3.096543  2024A      3.098588  
    2025A      3.100662  2026A      3.102721  2027A      3.105022  
    2028A      3.107933  2029A      3.109995  2030A      3.114907  
    2031A      3.119777  2032A      3.120223  2033A      3.124025  
    2034A      3.125782  2035A      3.128504  2036A      3.130852  
    2037A      3.134218  2038A      3.139864  2039A      3.142296  
    2040A      3.142915  2041A      3.149065  2042A      3.151324  
    2043A      3.153555  2044A      3.154132  2045A      3.158227  
    2046A      3.159371  2047A      3.163878  2048A      3.165815  
    2049A      3.168184  2050A      3.171381  2051A      3.174521  
    2052A      3.177777  2053A      3.180824  2054A      3.183394  
    2055A      3.185119  2056A      3.187392  2057A      3.191759  
    2058A      3.194963  2059A      3.195782  2060A      3.196652  
    2061A      3.198159  2062A      3.201581  2063A      3.203127  
    2064A      3.204444  2065A      3.205778  2066A      3.208986  
    2067A      3.214643  2068A      3.216081  2069A      3.218946  
    2070A      3.220758  2071A      3.222556  2072A      3.225173  
    2073A      3.228982  2074A      3.229552  2075A      3.234840  
    2076A      3.235407  2077A      3.237025  2078A      3.240518  
    2079A      3.241543  2080A      3.245356  2081A      3.246401  
    2082A      3.249038  2083A      3.254197  2084A      3.255423  
    2085A      3.259480  2086A      3.261964  2087A      3.263509  
    2088A      3.265262  2089A      3.269070  2090A      3.270667  
    2091A      3.272968  2092A      3.275088  2093A      3.278213  
    2094A      3.280423  2095A      3.282669  2096A      3.286300  
    2097A      3.286711  2098A      3.288572  2099A      3.292504  
    2100A      3.296007  2101A      3.296637  2102A      3.300312  
    2103A      3.300546  2104A      3.302677  2105A      3.305010  
    2106A      3.308259  2107A      3.310401  2108A      3.312700  
    2109A      3.315095  2110A      3.317301  2111A      3.318663  
    2112A      3.323117  2113A      3.325067  2114A      3.327876  
    2115A      3.329750  2116A      3.331079  2117A      3.332093  
    2118A      3.334709  2119A      3.335967  2120A      3.337787  
    2121A      3.340697  2122A      3.342736  2123A      3.343294  
    2124A      3.346724  2125A      3.348349  2126A      3.349971  
    2127A      3.353738  2128A      3.356214  2129A      3.359070  
    2130A      3.360902  2131A      3.364465  2132A      3.367091  
    2133A      3.368003  2134A      3.370188  2135A      3.373024  
    2136A      3.374758  2137A      3.378100  2138A      3.380105  
    2139A      3.381986  2140A      3.386391  2141A      3.387368  
    2142A      3.389592  2143A      3.390159  2144A      3.394212  
    2145A      3.395395  2146A      3.398893  2147A      3.399512  
    2148A      3.401334  2149A      3.404016  2150A      3.407557  
    2151A      3.408679  2152A      3.409724  2153A      3.413691  
    2154A      3.417548  2155A      3.419489  2156A      3.421695  
    2157A      3.422370  2158A      3.423768  2159A      3.427421  
    2160A      3.428091  2161A      3.430771  2162A      3.432217  
    2163A      3.433383  2164A      3.436651  2165A      3.439852  
    2166A      3.441288  2167A      3.442015  2168A      3.444964  
    2169A      3.449607  2170A      3.450284  2171A      3.452347  
    2172A      3.455889  2173A      3.458089  2174A      3.459573  
    2175A      3.462740  2176A      3.464439  2177A      3.465396  
    2178A      3.467122  2179A      3.469992  2180A      3.475388  
    2181A      3.476007  2182A      3.477655  2183A      3.479643  
    2184A      3.481802  2185A      3.483284  2186A      3.488553  
    2187A      3.489768  2188A      3.491031  2189A      3.494267  
    2190A      3.496278  2191A      3.497314  2192A      3.498410  
    2193A      3.501477  2194A      3.502994  2195A      3.505091  
    2196A      3.508310  2197A      3.508489  2198A      3.513985  
    2199A      3.515278  2200A      3.516827  2201A      3.517150  
    2202A      3.521039  2203A      3.523472  2204A      3.525729  
    2205A      3.529111  2206A      3.530813  2207A      3.533597  
    2208A      3.535027  2209A      3.538153  2210A      3.539735  
    2211A      3.540742  2212A      3.541833  2213A      3.544323  
    2214A      3.546590  2215A      3.548943  2216A      3.549548  
    2217A      3.552664  2218A      3.554413  2219A      3.557151  
    2220A      3.560688  2221A      3.562298  2222A      3.564252  
    2223A      3.565103  2224A      3.566476  2225A      3.568111  
    2226A      3.570015  2227A      3.573557  2228A      3.575770  
    2229A      3.578345  2230A      3.580881  2231A      3.582195  
    2232A      3.582994  2233A      3.586570  2234A      3.587642  
    2235A      3.590222  2236A      3.592753  2237A      3.595659  
    2238A      3.598095  2239A      3.600078  2240A      3.600814  
    2241A      3.602691  2242A      3.604008  2243A      3.605082  
    2244A      3.608048  2245A      3.608534  2246A      3.612300  
    2247A      3.615427  2248A      3.618432  2249A      3.619613  
    2250A      3.621219  2251A      3.622572  2252A      3.624351  
    2253A      3.628168  2254A      3.629284  2255A      3.632269  
    2256A      3.634311  2257A      3.637931  2258A      3.640002  
    2259A      3.642013  2260A      3.643288  2261A      3.645531  
    2262A      3.646223  2263A      3.649883  2264A      3.653625  
    2265A      3.653979  2266A      3.656865  2267A      3.659428  
    2268A      3.660733  2269A      3.661974  2270A      3.663330  
    2271A      3.666591  2272A      3.669911  2273A      3.670633  
    2274A      3.674551  2275A      3.674646  2276A      3.676207  
    2277A      3.677723  2278A      3.678854  2279A      3.680983  
    2280A      3.683763  2281A      3.687408  2282A      3.689088  
    2283A      3.692355  2284A      3.692843  2285A      3.696432  
    2286A      3.698848  2287A      3.701687  2288A      3.703069  
    2289A      3.703887  2290A      3.705671  2291A      3.709098  
    2292A      3.710285  2293A      3.712614  2294A      3.716245  
    2295A      3.716331  2296A      3.717246  2297A      3.721467  
    2298A      3.722222  2299A      3.725221  2300A      3.726714  
    2301A      3.727455  2302A      3.729801  2303A      3.732342  
    2304A      3.734607  2305A      3.736872  2306A      3.738383  
    2307A      3.739364  2308A      3.740934  2309A      3.745958  
    2310A      3.746262  2311A      3.749130  2312A      3.750791  
    2313A      3.753163  2314A      3.753691  2315A      3.756535  
    2316A      3.759629  2317A      3.760516  2318A      3.764619  
    2319A      3.767413  2320A      3.768818  2321A      3.770783  
    2322A      3.774845  2323A      3.776104  2324A      3.776710  
    2325A      3.777894  2326A      3.781136  2327A      3.781917  
    2328A      3.783916  2329A      3.787191  2330A      3.789815  
    2331A      3.790247  2332A      3.797025  2333A      3.797957  
    2334A      3.799440  2335A      3.803241  2336A      3.804647  
    2337A      3.805219  2338A      3.806111  2339A      3.810274  
    2340A      3.813245  2341A      3.816092  2342A      3.818630  
    2343A      3.819541  2344A      3.822701  2345A      3.823592  
    2346A      3.826397  2347A      3.830683  2348A      3.833018  
    2349A      3.834494  2350A      3.836023  2351A      3.838128  
    2352A      3.840975  2353A      3.842652  2354A      3.844299  
    2355A      3.847078  2356A      3.848494  2357A      3.849980  
    2358A      3.852030  2359A      3.855080  2360A      3.858876  
    2361A      3.860174  2362A      3.861271  2363A      3.865818  
    2364A      3.867682  2365A      3.871390  2366A      3.873762  
    2367A      3.875958  2368A      3.879601  2369A      3.881700  
    2370A      3.884384  2371A      3.886142  2372A      3.889281  
    2373A      3.891240  2374A      3.893093  2375A      3.894587  
    2376A      3.895356  2377A      3.897847  2378A      3.899869  
    2379A      3.900822  2380A      3.901509  2381A      3.903646  
    2382A      3.906200  2383A      3.910626  2384A      3.911159  
    2385A      3.914483  2386A      3.918003  2387A      3.920583  
    2388A      3.922995  2389A      3.925917  2390A      3.927813  
    2391A      3.928946  2392A      3.929999  2393A      3.935979  
    2394A      3.937862  2395A      3.938451  2396A      3.939003  
    2397A      3.941738  2398A      3.943347  2399A      3.945643  
    2400A      3.948064  2401A      3.950025  2402A      3.952609  
    2403A      3.954918  2404A      3.958061  2405A      3.961167  
    2406A      3.963841  2407A      3.966105  2408A      3.969890  
    2409A      3.971769  2410A      3.974132  2411A      3.977779  
    2412A      3.978914  2413A      3.980962  2414A      3.982391  
    2415A      3.985340  2416A      3.986891  2417A      3.990091  
    2418A      3.990593  2419A      3.992628  2420A      3.995682  
    2421A      3.998446  2422A      3.999116  2423A      4.000802  
    2424A      4.002444  2425A      4.005483  2426A      4.006842  
    2427A      4.009942  2428A      4.013166  2429A      4.013383  
    2430A      4.016451  2431A      4.017504  2432A      4.019273  
    2433A      4.020249  2434A      4.023057  2435A      4.023780  
    2436A      4.026028  2437A      4.029000  2438A      4.031709  
    2439A      4.035891  2440A      4.037348  2441A      4.039069  
    2442A      4.040026  2443A      4.043781  2444A      4.044457  
    2445A      4.047340  2446A      4.048346  2447A      4.053240  
    2448A      4.054070  2449A      4.057516  2450A      4.058988  
    2451A      4.060273  2452A      4.063307  2453A      4.065904  
    2454A      4.066614  2455A      4.069108  2456A      4.071632  
    2457A      4.073487  2458A      4.074715  2459A      4.076745  
    2460A      4.078798  2461A      4.082259  2462A      4.083613  
    2463A      4.086099  2464A      4.088439  2465A      4.091644  
    2466A      4.092265  2467A      4.093851  2468A      4.097841  
    2469A      4.101528  2470A      4.102340  2471A      4.104932  
    2472A      4.106129  2473A      4.107777  2474A      4.111328  
    2475A      4.112047  2476A      4.114502  2477A      4.118060  
    2478A      4.121871  2479A      4.122837  2480A      4.124063  
    2481A      4.126428  2482A      4.130213  2483A      4.130875  
    2484A      4.133264  2485A      4.135274  2486A      4.137077  
    2487A      4.137724  2488A      4.140606  2489A      4.144959  
    2490A      4.145454  2491A      4.150145  2492A      4.152482  
    2493A      4.154943  2494A      4.157375  2495A      4.159709  
    2496A      4.160531  2497A      4.163165  2498A      4.166619  
    2499A      4.167307  2500A      4.170727  2501A      4.173974  
    2502A      4.175156  2503A      4.177097  2504A      4.177835  
    2505A      4.180996  2506A      4.182937  2507A      4.184393  
    2508A      4.186667  2509A      4.189317  2510A      4.195295  
    2511A      4.198391  2512A      4.200966  2513A      4.202962  
    2514A      4.205401  2515A      4.207235  2516A      4.209374  
    2517A      4.211987  2518A      4.215852  2519A      4.216253  
    2520A      4.219403  2521A      4.221801  2522A      4.225533  
    2523A      4.226396  2524A      4.230660  2525A      4.233395  
    2526A      4.237038  2527A      4.238250  2528A      4.239150  
    2529A      4.242126  2530A      4.244698  2531A      4.245464  
    2532A      4.249395  2533A      4.250333  2534A      4.251737  
    2535A      4.255911  2536A      4.257341  2537A      4.259700  
    2538A      4.261109  2539A      4.262787  2540A      4.267897  
    2541A      4.269544  2542A      4.271478  2543A      4.275783  
    2544A      4.276665  2545A      4.280605  2546A      4.281154  
    2547A      4.282298  2548A      4.288938  2549A      4.292788  
    2550A      4.293710  2551A      4.294906  2552A      4.297131  
    2553A      4.297546  2554A      4.302325  2555A      4.305513  
    2556A      4.307203  2557A      4.310720  2558A      4.311715  
    2559A      4.313803  2560A      4.314407  2561A      4.316250  
    2562A      4.318218  2563A      4.325050  2564A      4.326837  
    2565A      4.327323  2566A      4.330425  2567A      4.332386  
    2568A      4.334701  2569A      4.337834  2570A      4.340130  
    2571A      4.343932  2572A      4.347085  2573A      4.352114  
    2574A      4.353002  2575A      4.357646  2576A      4.358542  
    2577A      4.360483  2578A      4.363318  2579A      4.363640  
    2580A      4.366857  2581A      4.370447  2582A      4.371875  
    2583A      4.376721  2584A      4.381459  2585A      4.382462  
    2586A      4.385248  2587A      4.386900  2588A      4.388750  
    2589A      4.392658  2590A      4.393817  2591A      4.397757  
    2592A      4.400203  2593A      4.403033  2594A      4.404085  
    2595A      4.405589  2596A      4.408253  2597A      4.410357  
    2598A      4.412420  2599A      4.415668  2600A      4.417759  
    2601A      4.423485  2602A      4.424353  2603A      4.425201  
    2604A      4.431302  2605A      4.432899  2606A      4.434475  
    2607A      4.438623  2608A      4.439039  2609A      4.443317  
    2610A      4.444575  2611A      4.446570  2612A      4.448546  
    2613A      4.453243  2614A      4.455814  2615A      4.457977  
    2616A      4.460426  2617A      4.462751  2618A      4.468125  
    2619A      4.470548  2620A      4.473314  2621A      4.475312  
    2622A      4.478043  2623A      4.479219  2624A      4.480164  
    2625A      4.483827  2626A      4.485288  2627A      4.490296  
    2628A      4.493916  2629A      4.496332  2630A      4.501462  
    2631A      4.502255  2632A      4.506765  2633A      4.510221  
    2634A      4.514248  2635A      4.516471  2636A      4.519290  
    2637A      4.519890  2638A      4.523644  2639A      4.526604  
    2640A      4.532161  2641A      4.533928  2642A      4.536139  
    2643A      4.539865  2644A      4.543611  2645A      4.544828  
    2646A      4.551024  2647A      4.552761  2648A      4.554690  
    2649A      4.557460  2650A      4.560673  2651A      4.564974  
    2652A      4.566311  2653A      4.570165  2654A      4.570788  
    2655A      4.572199  2656A      4.575503  2657A      4.578470  
    2658A      4.582636  2659A      4.583874  2660A      4.585137  
    2661A      4.590976  2662A      4.593661  2663A      4.594155  
    2664A      4.598161  2665A      4.600722  2666A      4.603493  
    2667A      4.605675  2668A      4.609850  2669A      4.613672  
    2670A      4.614291  2671A      4.619538  2672A      4.621399  
    2673A      4.623537  2674A      4.624355  2675A      4.629878  
    2676A      4.631172  2677A      4.634001  2678A      4.637107  
    2679A      4.640086  2680A      4.642181  2681A      4.644581  
    2682A      4.647621  2683A      4.652200  2684A      4.655571  
    2685A      4.657370  2686A      4.660754  2687A      4.662779  
    2688A      4.665279  2689A      4.669321  2690A      4.673747  
    2691A      4.674976  2692A      4.678604  2693A      4.682011  
    2694A      4.683377  2695A      4.687027  2696A      4.692309  
    2697A      4.694930  2698A      4.696528  2699A      4.698353  
    2700A      4.702500  2701A      4.706210  2702A      4.712410  
    2703A      4.713715  2704A      4.714726  2705A      4.717415  
    2706A      4.718968  2707A      4.722746  2708A      4.730687  
    2709A      4.734166  2710A      4.739863  2711A      4.743668  
    2712A      4.745412  2713A      4.746124  2714A      4.750006  
    2715A      4.754150  2716A      4.756660  2717A      4.758955  
    2718A      4.762258  2719A      4.765427  2720A      4.766436  
    2721A      4.772880  2722A      4.775715  2723A      4.779500  
    2724A      4.782056  2725A      4.784517  2726A      4.788592  
    2727A      4.791365  2728A      4.794753  2729A      4.799194  
    2730A      4.802435  2731A      4.804480  2732A      4.808419  
    2733A      4.809570  2734A      4.812663  2735A      4.817683  
    2736A      4.819247  2737A      4.820715  2738A      4.825564  
    2739A      4.828572  2740A      4.831406  2741A      4.834870  
    2742A      4.835898  2743A      4.840619  2744A      4.841955  
    2745A      4.842863  2746A      4.844891  2747A      4.849803  
    2748A      4.850226  2749A      4.854584  2750A      4.860033  
    2751A      4.862570  2752A      4.864961  2753A      4.867190  
    2754A      4.874941  2755A      4.879152  2756A      4.882812  
    2757A      4.887332  2758A      4.890025  2759A      4.895398  
    2760A      4.897514  2761A      4.899936  2762A      4.904553  
    2763A      4.908356  2764A      4.911651  2765A      4.914976  
    2766A      4.922507  2767A      4.923059  2768A      4.928290  
    2769A      4.930755  2770A      4.932110  2771A      4.933204  
    2772A      4.939194  2773A      4.942307  2774A      4.946486  
    2775A      4.947850  2776A      4.950775  2777A      4.956792  
    2778A      4.958198  2779A      4.960706  2780A      4.963801  
    2781A      4.964408  2782A      4.970448  2783A      4.977043  
    2784A      4.977252  2785A      4.979566  2786A      4.982135  
    2787A      4.988765  2788A      4.991325  2789A      4.991927  
    2790A      4.996230  2791A      4.998530  2792A      5.002615  
    2793A      5.004565  2794A      5.007057  2795A      5.008602  
    2796A      5.011804  2797A      5.015090  2798A      5.019078  
    2799A      5.022084  2800A      5.023521  2801A      5.027566  
    2802A      5.028968  2803A      5.035418  2804A      5.040921  
    2805A      5.042114  2806A      5.049529  2807A      5.050038  
    2808A      5.052912  2809A      5.058180  2810A      5.059599  
    2811A      5.063883  2812A      5.065331  2813A      5.074379  
    2814A      5.078221  2815A      5.081144  2816A      5.085242  
    2817A      5.085755  2818A      5.090454  2819A      5.098449  
    2820A      5.101103  2821A      5.107165  2822A      5.116672  
    2823A      5.120433  2824A      5.123785  2825A      5.124270  
    2826A      5.127612  2827A      5.131038  2828A      5.133672  
    2829A      5.139605  2830A      5.141810  2831A      5.145367  
    2832A      5.150299  2833A      5.153016  2834A      5.156419  
    2835A      5.157470  2836A      5.163029  2837A      5.165840  
    2838A      5.170059  2839A      5.178731  2840A      5.181003  
    2841A      5.191221  2842A      5.197249  2843A      5.199802  
    2844A      5.202335  2845A      5.207367  2846A      5.214898  
    2847A      5.220148  2848A      5.223223  2849A      5.229653  
    2850A      5.234157  2851A      5.241399  2852A      5.242813  
    2853A      5.251768  2854A      5.252688  2855A      5.256010  
    2856A      5.261381  2857A      5.267219  2858A      5.271728  
    2859A      5.274835  2860A      5.281344  2861A      5.283627  
    2862A      5.286029  2863A      5.290226  2864A      5.293425  
    2865A      5.297958  2866A      5.300866  2867A      5.305869  
    2868A      5.309996  2869A      5.312175  2870A      5.314940  
    2871A      5.320172  2872A      5.324184  2873A      5.327060  
    2874A      5.328630  2875A      5.329517  2876A      5.334723  
    2877A      5.337917  2878A      5.346501  2879A      5.347867  
    2880A      5.358991  2881A      5.367092  2882A      5.371617  
    2883A      5.376223  2884A      5.380186  2885A      5.385619  
    2886A      5.388045  2887A      5.392582  2888A      5.398484  
    2889A      5.401242  2890A      5.404130  2891A      5.410533  
    2892A      5.411487  2893A      5.414494  2894A      5.429098  
    2895A      5.434764  2896A      5.443812  2897A      5.445705  
    2898A      5.451926  2899A      5.458825  2900A      5.474746  
    2901A      5.477840  2902A      5.481489  2903A      5.487474  
    2904A      5.493386  2905A      5.500280  2906A      5.502855  
    2907A      5.507184  2908A      5.512246  2909A      5.520449  
    2910A      5.526656  2911A      5.535252  2912A      5.536194  
    2913A      5.539060  2914A      5.544546  2915A      5.552726  
    2916A      5.556599  2917A      5.559529  2918A      5.562866  
    2919A      5.571266  2920A      5.573422  2921A      5.578903  
    2922A      5.595118  2923A      5.597529  2924A      5.617340  
    2925A      5.621264  2926A      5.626301  2927A      5.637693  
    2928A      5.648650  2929A      5.656284  2930A      5.657076  
    2931A      5.665438  2932A      5.680116  2933A      5.693352  
    2934A      5.704556  2935A      5.706678  2936A      5.713510  
    2937A      5.713909  2938A      5.722968  2939A      5.727995  
    2940A      5.738930  2941A      5.739572  2942A      5.770541  
    2943A      5.784453  2944A      5.786161  2945A      5.791960  
    2946A      5.795648  2947A      5.807782  2948A      5.818096  
    2949A      5.820419  2950A      5.826592  2951A      5.832529  
    2952A      5.844872  2953A      5.858871  2954A      5.875008  
    2955A      5.880113  2956A      5.888629  2957A      5.901984  
    2958A      5.908702  2959A      5.916717  2960A      5.941562  
    2961A      5.953017  2962A      5.965102  2963A      5.988730  
    2964A      5.999113  2965A      6.002005  2966A      6.016273  
    2967A      6.029700  2968A      6.030026  2969A      6.037903  
    2970A      6.045216  2971A      6.050987  2972A      6.066000  
    2973A      6.078048  2974A      6.083718  2975A      6.106715  
    2976A      6.115862  2977A      6.124602  2978A      6.126420  
    2979A      6.127701  2980A      6.133491  2981A      6.134726  
    2982A      6.147436  2983A      6.149323  2984A      6.153836  
    2985A      6.160353  2986A      6.165414  2987A      6.170160  
    2988A      6.180377  2989A      6.188530  2990A      6.199417  
    2991A      6.207723  2992A      6.216953  2993A      6.221547  
    2994A      6.230479  2995A      6.236757  2996A      6.243946  
    2997A      6.251879  2998A      6.259115  2999A      6.261876  
    3000A      6.266579  3001A      6.282124  3002A      6.286307  
    3003A      6.287237  3004A      6.296819  3005A      6.304802  
    3006A      6.314377  3007A      6.315926  3008A      6.326826  
    3009A      6.334920  3010A      6.343552  3011A      6.346258  
    3012A      6.355014  3013A      6.360163  3014A      6.381602  
    3015A      6.390003  3016A      6.400619  3017A      6.405922  
    3018A      6.420874  3019A      6.423629  3020A      6.438190  
    3021A      6.450617  3022A      6.455267  3023A      6.464104  
    3024A      6.467023  3025A      6.475435  3026A      6.478269  
    3027A      6.481641  3028A      6.488566  3029A      6.489585  
    3030A      6.498078  3031A      6.501094  3032A      6.511661  
    3033A      6.524178  3034A      6.533612  3035A      6.542953  
    3036A      6.551763  3037A      6.562317  3038A      6.571179  
    3039A      6.580193  3040A      6.585093  3041A      6.592451  
    3042A      6.605797  3043A      6.613473  3044A      6.619934  
    3045A      6.624564  3046A      6.637162  3047A      6.639341  
    3048A      6.650859  3049A      6.652176  3050A      6.658662  
    3051A      6.683391  3052A      6.688551  3053A      6.694876  
    3054A      6.701506  3055A      6.709560  3056A      6.715970  
    3057A      6.722756  3058A      6.738503  3059A      6.740418  
    3060A      6.760660  3061A      6.768135  3062A      6.793263  
    3063A      6.805713  3064A      6.827008  3065A      6.853019  
    3066A      6.854650  3067A      6.866094  3068A      6.872935  
    3069A      6.887195  3070A      6.900378  3071A      6.912286  
    3072A      6.916444  3073A      6.923773  3074A      6.928095  
    3075A      6.932853  3076A      6.938687  3077A      6.958671  
    3078A      6.962539  3079A      6.970071  3080A      6.992748  
    3081A      7.005395  3082A      7.008784  3083A      7.058713  
    3084A      7.089321  3085A      7.120638  3086A      7.136049  
    3087A      7.159904  3088A      7.171197  3089A      7.185946  
    3090A      7.195199  3091A      7.213270  3092A      7.267975  
    3093A      7.280036  3094A      7.294355  3095A      7.330898  
    3096A      7.394242  3097A      7.426065  3098A      7.451277  
    3099A      7.454537  3100A      7.458746  3101A      7.503777  
    3102A      7.523401  3103A      7.534434  3104A      7.599590  
    3105A      7.628116  3106A      7.635388  3107A      7.675125  
    3108A      7.885613  3109A      7.898030  3110A      7.949084  
    3111A      8.121822  3112A      8.174912  3113A      8.188281  
    3114A      8.274444  3115A      8.345803  3116A      8.468481  
    3117A      8.647029  3118A      8.689150  3119A      8.826359  
    3120A      8.923079  3121A      8.947893  3122A      8.968061  
    3123A      9.007193  3124A      9.061386  3125A      9.331743  
    3126A      9.433387  3127A     15.112062  3128A     15.138068  
    3129A     15.570851  3130A     15.775760  3131A     15.945551  
    3132A     15.954610  3133A     16.014949  3134A     16.066005  
    3135A     16.135380  3136A     16.315622  3137A     16.502957  
    3138A     16.620162  3139A     16.763234  3140A     16.875569  
    3141A     17.068148  3142A     17.279736  3143A     17.305142  
    3144A     17.351017  3145A     17.582106  3146A     17.617076  
    3147A     17.680645  3148A     17.794140  3149A     17.965233  
    3150A     18.022827  3151A     18.547174  3152A     18.744180  
    3153A     18.777454  3154A     19.071067  3155A     19.291038  
    3156A     19.327169  3157A     19.392379  3158A     20.029233  
    3159A     20.290942  3160A     20.346979  3161A     20.471701  
    3162A     20.578303  3163A     20.604873  3164A     20.816811  
    3165A     20.957973  3166A     20.958921  3167A     21.081987  
    3168A     21.093042  3169A     21.165353  3170A     21.250503  
    3171A     21.313914  3172A     21.465105  3173A     21.540357  
    3174A     21.607106  3175A     21.659512  3176A     21.839275  
    3177A     21.875706  3178A     21.969755  3179A     22.101815  
    3180A     22.261610  3181A     22.330664  

    Final Occupation by Irrep:
              A 
    DOCC [   188 ]
    NA   [   188 ]
    NB   [   188 ]

  @DF-RKS Final Energy: -2428.94574153563235

   => Energetics <=

    Nuclear Repulsion Energy =           8036.0311254087573616
    One-Electron Energy =              -19319.3719029352796497
    Two-Electron Energy =                9187.9943789278022450
    DFT Exchange-Correlation Energy =    -333.5088715017880645
    Empirical Dispersion Energy =          -0.0904714351240266
    VV10 Nonlocal Energy =                  0.0000000000000000
    Total Energy =                      -2428.9457415356323509

Computation Completed


Properties will be evaluated at   0.000000,   0.000000,   0.000000 [a0]

Properties computed using the SCF density matrix


 Multipole Moments:

 ------------------------------------------------------------------------------------
     Multipole            Electronic (a.u.)      Nuclear  (a.u.)        Total (a.u.)
 ------------------------------------------------------------------------------------

 L = 1.  Multiply by 2.5417464519 to convert [e a0] to [Debye]
 Dipole X            :        -10.7951820           10.8896665            0.0944845
 Dipole Y            :         38.7534000          -38.3816908            0.3717092
 Dipole Z            :        -32.4730230           31.3327632           -1.1402598
 Magnitude           :                                                    1.2030326

 ------------------------------------------------------------------------------------

*** tstop() called on atl1-1-03-004-6-1.pace.gatech.edu at Mon Jun 15 11:42:31 2026
Module time:
	user time   =   25129.96 seconds =     418.83 minutes
	system time =    2582.24 seconds =      43.04 minutes
	total time  =       5074 seconds =      84.57 minutes
Total time:
	user time   =   25129.96 seconds =     418.83 minutes
	system time =    2582.24 seconds =      43.04 minutes
	total time  =       5074 seconds =      84.57 minutes

    Psi4 stopped on: Monday, 15 June 2026 11:42AM
    Psi4 wall time for execution: 1:24:43.98

*** Psi4 exiting successfully. Buy a developer a beer!
