
    -----------------------------------------------------------------------
          Psi4: An Open-Source Ab Initio Electronic Structure Package
                               Psi4 1.9.1 release

                         Git: Rev {} zzzzzzz 


    D. G. A. Smith, L. A. Burns, A. C. Simmonett, R. M. Parrish,
    M. C. Schieber, R. Galvelis, P. Kraus, H. Kruse, R. Di Remigio,
    A. Alenaizan, A. M. James, S. Lehtola, J. P. Misiewicz, M. Scheurer,
    R. A. Shaw, J. B. Schriber, Y. Xie, Z. L. Glick, D. A. Sirianni,
    J. S. O'Brien, J. M. Waldrop, A. Kumar, E. G. Hohenstein,
    B. P. Pritchard, B. R. Brooks, H. F. Schaefer III, A. Yu. Sokolov,
    K. Patkowski, A. E. DePrince III, U. Bozkaya, R. A. King,
    F. A. Evangelista, J. M. Turney, T. D. Crawford, C. D. Sherrill,
    J. Chem. Phys. 152(18) 184108 (2020). https://doi.org/10.1063/5.0006002

                            Additional Code Authors
    E. T. Seidl, C. L. Janssen, E. F. Valeev, M. L. Leininger,
    J. F. Gonthier, R. M. Richard, H. R. McAlexander, M. Saitow, X. Wang,
    P. Verma, M. H. Lechner, A. Jiang, S. Behnle, A. G. Heide,
    M. F. Herbst, and D. L. Poole

             Previous Authors, Complete List of Code Contributors,
                       and Citations for Specific Modules
    https://github.com/psi4/psi4/blob/master/codemeta.json
    https://github.com/psi4/psi4/graphs/contributors
    http://psicode.org/psi4manual/master/introduction.html#citing-psifour

    -----------------------------------------------------------------------


    Psi4 started on: Saturday, 13 June 2026 11:17AM

    Process ID: 428749
    Host:       atl1-1-03-004-6-1.pace.gatech.edu
    PSIDATADIR: /storage/home/hcoda1/5/vlita3/.conda/envs/p4_qcml/share/psi4
    Memory:     250.0 GiB
    Threads:    10
    
  ==> Input QCSchema <==

--------------------------------------------------------------------------
{'driver': 'energy',
 'extras': {},
 'id': '214',
 'keywords': {},
 'model': {'basis': 'aug-cc-pvtz', 'method': 'pbe-d3'},
 'molecule': {'extras': {},
              'fix_com': True,
              'fix_orientation': True,
              'fragment_charges': [0.0, 0.0],
              'fragment_multiplicities': [1, 1],
              'fragments': [[0, 1, 2, 3, 4, 5, 6, 7, 8, 9, 10, 11, 12, 13, 14, 15, 16, 17, 18, 19, 20, 21, 22, 23, 24,
                             25, 26, 27, 28, 29, 30, 31, 32, 33, 34, 35],
                            [36, 37, 38, 39, 40, 41, 42, 43, 44, 45, 46, 47, 48, 49, 50, 51, 52, 53, 54, 55, 56, 57, 58,
                             59, 60, 61, 62, 63, 64, 65, 66, 67, 68, 69, 70, 71]],
              'geometry': [-2.81102804, -2.32727976, -3.26733672, -0.12371685, -2.32727976, -3.26733672, 1.21993874,
                           0.0, -3.26733672, -0.12371685, 2.32727976, -3.26733672, -2.81102804, 2.32727976, -3.26733672,
                           -4.15468364, 0.0, -3.26733672, 1.21375609, -4.64385085, -3.26733672, -0.17645855,
                           -6.93684965, -3.26733672, -2.75828635, -6.93684965, -3.26733672, -4.14850099, -4.64385085,
                           -3.26733672, -6.82962953, 0.0, -3.26733672, -8.12031742, -2.3504606, -3.26733672,
                           -6.82940352, -4.58638906, -3.26733672, -8.12031742, 2.3504606, -3.26733672, -6.82940352,
                           4.58638906, -3.26733672, -4.14850099, 4.64385085, -3.26733672, -2.75828635, 6.93684965,
                           -3.26733672, -0.17645855, 6.93684965, -3.26733672, 1.21375609, 4.64385085, -3.26733672,
                           3.89465863, 4.58638906, -3.26733672, 5.18557252, 2.3504606, -3.26733672, 3.89488463, 0.0,
                           -3.26733672, 5.18557252, -2.3504606, -3.26733672, 3.89465863, -4.58638906, -3.26733672,
                           0.84958395, -8.70675598, -3.26733672, -3.78432885, -8.70675598, -3.26733672, -7.84916611,
                           -6.35992109, -3.26733672, -10.16612251, -2.34683489, -3.26733672, -10.16612251, 2.34683489,
                           -3.26733672, -7.84916611, 6.35992109, -3.26733672, -3.78432885, 8.70675598, -3.26733672,
                           0.84958395, 8.70675598, -3.26733672, 4.91442121, 6.35992109, -3.26733672, 7.23137761,
                           2.34683489, -3.26733672, 7.23137761, -2.34683489, -3.26733672, 4.91442121, -6.35992109,
                           -3.26733672, 0.12371685, -2.32727976, 3.26733672, 2.81102804, -2.32727976, 3.26733672,
                           4.15468364, 0.0, 3.26733672, 2.81102804, 2.32727976, 3.26733672, 0.12371685, 2.32727976,
                           3.26733672, -1.21993874, 0.0, 3.26733672, 4.14850099, -4.64385085, 3.26733672, 2.75828635,
                           -6.93684965, 3.26733672, 0.17645855, -6.93684965, 3.26733672, -1.21375609, -4.64385085,
                           3.26733672, -3.89488463, 0.0, 3.26733672, -5.18557252, -2.3504606, 3.26733672, -3.89465863,
                           -4.58638906, 3.26733672, -5.18557252, 2.3504606, 3.26733672, -3.89465863, 4.58638906,
                           3.26733672, -1.21375609, 4.64385085, 3.26733672, 0.17645855, 6.93684965, 3.26733672,
                           2.75828635, 6.93684965, 3.26733672, 4.14850099, 4.64385085, 3.26733672, 6.82940352,
                           4.58638906, 3.26733672, 8.12031742, 2.3504606, 3.26733672, 6.82962953, 0.0, 3.26733672,
                           8.12031742, -2.3504606, 3.26733672, 6.82940352, -4.58638906, 3.26733672, 3.78432885,
                           -8.70675598, 3.26733672, -0.84958395, -8.70675598, 3.26733672, -4.91442121, -6.35992109,
                           3.26733672, -7.23137761, -2.34683489, 3.26733672, -7.23137761, 2.34683489, 3.26733672,
                           -4.91442121, 6.35992109, 3.26733672, -0.84958395, 8.70675598, 3.26733672, 3.78432885,
                           8.70675598, 3.26733672, 7.84916611, 6.35992109, 3.26733672, 10.16612251, 2.34683489,
                           3.26733672, 10.16612251, -2.34683489, 3.26733672, 7.84916611, -6.35992109, 3.26733672],
              'id': 10,
              'identifiers': {'molecular_formula': 'C48H24',
                              'molecule_hash': 'c1dab0bff2b2c78f2e4529631a3bee8a50d4ce93'},
              'masses': [12.0, 12.0, 12.0, 12.0, 12.0, 12.0, 12.0, 12.0, 12.0, 12.0, 12.0, 12.0, 12.0, 12.0, 12.0, 12.0,
                         12.0, 12.0, 12.0, 12.0, 12.0, 12.0, 12.0, 12.0, 1.00782503223, 1.00782503223, 1.00782503223,
                         1.00782503223, 1.00782503223, 1.00782503223, 1.00782503223, 1.00782503223, 1.00782503223,
                         1.00782503223, 1.00782503223, 1.00782503223, 12.0, 12.0, 12.0, 12.0, 12.0, 12.0, 12.0, 12.0,
                         12.0, 12.0, 12.0, 12.0, 12.0, 12.0, 12.0, 12.0, 12.0, 12.0, 12.0, 12.0, 12.0, 12.0, 12.0, 12.0,
                         1.00782503223, 1.00782503223, 1.00782503223, 1.00782503223, 1.00782503223, 1.00782503223,
                         1.00782503223, 1.00782503223, 1.00782503223, 1.00782503223, 1.00782503223, 1.00782503223],
              'molecular_charge': 0.0,
              'molecular_multiplicity': 1,
              'name': 'C48H24 ([1],[0])',
              'provenance': {'creator': 'QCElemental',
                             'routine': 'qcelemental.molparse.from_schema',
                             'version': '0.29.0'},
              'real': [False, False, False, False, False, False, False, False, False, False, False, False, False, False,
                       False, False, False, False, False, False, False, False, False, False, False, False, False, False,
                       False, False, False, False, False, False, False, False, True, True, True, True, True, True, True,
                       True, True, True, True, True, True, True, True, True, True, True, True, True, True, True, True,
                       True, True, True, True, True, True, True, True, True, True, True, True, True],
              'schema_name': 'qcschema_molecule',
              'schema_version': 2,
              'symbols': ['C', 'C', 'C', 'C', 'C', 'C', 'C', 'C', 'C', 'C', 'C', 'C', 'C', 'C', 'C', 'C', 'C', 'C', 'C',
                          'C', 'C', 'C', 'C', 'C', 'H', 'H', 'H', 'H', 'H', 'H', 'H', 'H', 'H', 'H', 'H', 'H', 'C', 'C',
                          'C', 'C', 'C', 'C', 'C', 'C', 'C', 'C', 'C', 'C', 'C', 'C', 'C', 'C', 'C', 'C', 'C', 'C', 'C',
                          'C', 'C', 'C', 'H', 'H', 'H', 'H', 'H', 'H', 'H', 'H', 'H', 'H', 'H', 'H'],
              'validated': True},
 'protocols': {},
 'provenance': {'creator': 'QCElemental', 'routine': 'qcelemental.models.results', 'version': '0.29.0'},
 'schema_name': 'qcschema_input',
 'schema_version': 1}
--------------------------------------------------------------------------

Scratch directory: /tmp/tmp6y07_kvq_psi_scratch/
   => Libint2 <=

    Primary   basis highest AM E, G, H:  6, 6, 3
    Auxiliary basis highest AM E, G, H:  7, 7, 4
    Onebody   basis highest AM E, G, H:  -, -, -
    Solid Harmonics ordering:            Gaussian

*** tstart() called on atl1-1-03-004-6-1.pace.gatech.edu
*** at Sat Jun 13 11:17:35 2026

   => Loading Basis Set <=

    Name: AUG-CC-PVTZ
    Role: ORBITAL
    Keyword: BASIS
    atoms 1-24, 37-60  entry C          line   239 file /storage/home/hcoda1/5/vlita3/.conda/envs/p4_qcml/share/psi4/basis/aug-cc-pvtz.gbs 
    atoms 25-36, 61-72 entry H          line    40 file /storage/home/hcoda1/5/vlita3/.conda/envs/p4_qcml/share/psi4/basis/aug-cc-pvtz.gbs 

   => PBE-D3: Empirical Dispersion <=

    Grimme's -D3 (zero-damping) Dispersion Correction
    Grimme S.; Antony J.; Ehrlich S.; Krieg H. (2010), J. Chem. Phys., 132: 154104

        s6 =       1.000000
        s8 =       0.722000
       sr6 =       1.217000
    alpha6 =      14.000000
       sr8 =       1.000000


         ---------------------------------------------------------
                                   SCF
               by Justin Turney, Rob Parrish, Andy Simmonett
                          and Daniel G. A. Smith
                              RKS Reference
                       10 Threads, 256000 MiB Core
         ---------------------------------------------------------

  ==> Geometry <==

    Molecular point group: cs
    Full point group: Cs

    Geometry (in Bohr), charge = 0, multiplicity = 1:

       Center              X                  Y                   Z               Mass       
    ------------   -----------------  -----------------  -----------------  -----------------
      Gh(C)          -2.811028040000    -2.327279760000    -3.267336720000    12.000000000000
      Gh(C)          -0.123716850000    -2.327279760000    -3.267336720000    12.000000000000
      Gh(C)           1.219938740000     0.000000000000    -3.267336720000    12.000000000000
      Gh(C)          -0.123716850000     2.327279760000    -3.267336720000    12.000000000000
      Gh(C)          -2.811028040000     2.327279760000    -3.267336720000    12.000000000000
      Gh(C)          -4.154683640000     0.000000000000    -3.267336720000    12.000000000000
      Gh(C)           1.213756090000    -4.643850850000    -3.267336720000    12.000000000000
      Gh(C)          -0.176458550000    -6.936849650000    -3.267336720000    12.000000000000
      Gh(C)          -2.758286350000    -6.936849650000    -3.267336720000    12.000000000000
      Gh(C)          -4.148500990000    -4.643850850000    -3.267336720000    12.000000000000
      Gh(C)          -6.829629530000     0.000000000000    -3.267336720000    12.000000000000
      Gh(C)          -8.120317420000    -2.350460600000    -3.267336720000    12.000000000000
      Gh(C)          -6.829403520000    -4.586389060000    -3.267336720000    12.000000000000
      Gh(C)          -8.120317420000     2.350460600000    -3.267336720000    12.000000000000
      Gh(C)          -6.829403520000     4.586389060000    -3.267336720000    12.000000000000
      Gh(C)          -4.148500990000     4.643850850000    -3.267336720000    12.000000000000
      Gh(C)          -2.758286350000     6.936849650000    -3.267336720000    12.000000000000
      Gh(C)          -0.176458550000     6.936849650000    -3.267336720000    12.000000000000
      Gh(C)           1.213756090000     4.643850850000    -3.267336720000    12.000000000000
      Gh(C)           3.894658630000     4.586389060000    -3.267336720000    12.000000000000
      Gh(C)           5.185572520000     2.350460600000    -3.267336720000    12.000000000000
      Gh(C)           3.894884630000     0.000000000000    -3.267336720000    12.000000000000
      Gh(C)           5.185572520000    -2.350460600000    -3.267336720000    12.000000000000
      Gh(C)           3.894658630000    -4.586389060000    -3.267336720000    12.000000000000
      Gh(H)           0.849583950000    -8.706755980000    -3.267336720000     1.007825032230
      Gh(H)          -3.784328850000    -8.706755980000    -3.267336720000     1.007825032230
      Gh(H)          -7.849166110000    -6.359921090000    -3.267336720000     1.007825032230
      Gh(H)         -10.166122510000    -2.346834890000    -3.267336720000     1.007825032230
      Gh(H)         -10.166122510000     2.346834890000    -3.267336720000     1.007825032230
      Gh(H)          -7.849166110000     6.359921090000    -3.267336720000     1.007825032230
      Gh(H)          -3.784328850000     8.706755980000    -3.267336720000     1.007825032230
      Gh(H)           0.849583950000     8.706755980000    -3.267336720000     1.007825032230
      Gh(H)           4.914421210000     6.359921090000    -3.267336720000     1.007825032230
      Gh(H)           7.231377610000     2.346834890000    -3.267336720000     1.007825032230
      Gh(H)           7.231377610000    -2.346834890000    -3.267336720000     1.007825032230
      Gh(H)           4.914421210000    -6.359921090000    -3.267336720000     1.007825032230
         C            0.123716850000    -2.327279760000     3.267336720000    12.000000000000
         C            2.811028040000    -2.327279760000     3.267336720000    12.000000000000
         C            4.154683640000     0.000000000000     3.267336720000    12.000000000000
         C            2.811028040000     2.327279760000     3.267336720000    12.000000000000
         C            0.123716850000     2.327279760000     3.267336720000    12.000000000000
         C           -1.219938740000     0.000000000000     3.267336720000    12.000000000000
         C            4.148500990000    -4.643850850000     3.267336720000    12.000000000000
         C            2.758286350000    -6.936849650000     3.267336720000    12.000000000000
         C            0.176458550000    -6.936849650000     3.267336720000    12.000000000000
         C           -1.213756090000    -4.643850850000     3.267336720000    12.000000000000
         C           -3.894884630000     0.000000000000     3.267336720000    12.000000000000
         C           -5.185572520000    -2.350460600000     3.267336720000    12.000000000000
         C           -3.894658630000    -4.586389060000     3.267336720000    12.000000000000
         C           -5.185572520000     2.350460600000     3.267336720000    12.000000000000
         C           -3.894658630000     4.586389060000     3.267336720000    12.000000000000
         C           -1.213756090000     4.643850850000     3.267336720000    12.000000000000
         C            0.176458550000     6.936849650000     3.267336720000    12.000000000000
         C            2.758286350000     6.936849650000     3.267336720000    12.000000000000
         C            4.148500990000     4.643850850000     3.267336720000    12.000000000000
         C            6.829403520000     4.586389060000     3.267336720000    12.000000000000
         C            8.120317420000     2.350460600000     3.267336720000    12.000000000000
         C            6.829629530000     0.000000000000     3.267336720000    12.000000000000
         C            8.120317420000    -2.350460600000     3.267336720000    12.000000000000
         C            6.829403520000    -4.586389060000     3.267336720000    12.000000000000
         H            3.784328850000    -8.706755980000     3.267336720000     1.007825032230
         H           -0.849583950000    -8.706755980000     3.267336720000     1.007825032230
         H           -4.914421210000    -6.359921090000     3.267336720000     1.007825032230
         H           -7.231377610000    -2.346834890000     3.267336720000     1.007825032230
         H           -7.231377610000     2.346834890000     3.267336720000     1.007825032230
         H           -4.914421210000     6.359921090000     3.267336720000     1.007825032230
         H           -0.849583950000     8.706755980000     3.267336720000     1.007825032230
         H            3.784328850000     8.706755980000     3.267336720000     1.007825032230
         H            7.849166110000     6.359921090000     3.267336720000     1.007825032230
         H           10.166122510000     2.346834890000     3.267336720000     1.007825032230
         H           10.166122510000    -2.346834890000     3.267336720000     1.007825032230
         H            7.849166110000    -6.359921090000     3.267336720000     1.007825032230

  Running in cs symmetry.

  Rotational constants: A =      0.00378  B =      0.00326  C =      0.00251 [cm^-1]
  Rotational constants: A =    113.23902  B =     97.86670  C =     75.24221 [MHz]
  Nuclear repulsion = 1837.330664984319583

  Charge       = 0
  Multiplicity = 1
  Electrons    = 156
  Nalpha       = 78
  Nbeta        = 78

  ==> Algorithm <==

  SCF Algorithm Type is DF.
  DIIS enabled.
  MOM disabled.
  Fractional occupation disabled.
  Guess Type is SAD.
  Energy threshold   = 1.00e-06
  Density threshold  = 1.00e-06
  Integral threshold = 1.00e-12

  ==> Primary Basis <==

  Basis Set: AUG-CC-PVTZ
    Blend: AUG-CC-PVTZ
    Number of shells: 888
    Number of basis functions: 2760
    Number of Cartesian functions: 3240
    Spherical Harmonics?: true
    Max angular momentum: 3

  ==> DFT Potential <==

   => LibXC <=

    Version 7.0.0
    S. Lehtola, C. Steigemann, M. J.T. Oliveira, and M. A.L. Marques.,  SoftwareX 7, 1–5 (2018) (10.1016/j.softx.2017.11.002)

   => Composite Functional: PBE-D3ZERO2B <= 

    PBE GGA Exchange-Correlation Functional

    J.P. Perdew et. al., Phys. Rev. Lett., 77(18), 3865-3868, 1996


    Deriv               =              1
    GGA                 =           TRUE
    Meta                =          FALSE

    Exchange Hybrid     =          FALSE
    MP2 Hybrid          =          FALSE

   => Exchange Functionals <=

    1.0000     XC_GGA_X_PBE

   => Correlation Functionals <=

    1.0000     XC_GGA_C_PBE

   => LibXC Density Thresholds  <==

    XC_GGA_C_PBE:  1.00E-12 
    XC_GGA_X_PBE:  1.00E-15 

   => Molecular Quadrature <=

    Radial Scheme          =       TREUTLER
    Pruning Scheme         =           NONE
    Nuclear Scheme         =       TREUTLER

    Blocking Scheme        =         OCTREE
    BS radius alpha        =              1
    Pruning alpha          =              1
    Radial Points          =             75
    Spherical Points       =            302
    Total Points           =        1423706
    Total Blocks           =           9482
    Max Points             =            256
    Max Functions          =           2109
    Weights Tolerance      =       1.00E-15

   => Loading Basis Set <=

    Name: (AUG-CC-PVTZ AUX)
    Role: JKFIT
    Keyword: DF_BASIS_SCF
    atoms 1-24, 37-60  entry C          line   162 file /storage/home/hcoda1/5/vlita3/.conda/envs/p4_qcml/share/psi4/basis/aug-cc-pvtz-jkfit.gbs 
    atoms 25-36, 61-72 entry H          line    70 file /storage/home/hcoda1/5/vlita3/.conda/envs/p4_qcml/share/psi4/basis/aug-cc-pvtz-jkfit.gbs 

  ==> Integral Setup <==

  ==> DiskDFJK: Density-Fitted J/K Matrices <==

    J tasked:                  Yes
    K tasked:                   No
    wK tasked:                  No
    OpenMP threads:             10
    Integrals threads:          10
    Memory [MiB]:           147036
    Algorithm:                Disk
    Integral Cache:           NONE
    Schwarz Cutoff:          1E-12
    Fitting Condition:       1E-10

   => Auxiliary Basis Set <=

  Basis Set: (AUG-CC-PVTZ AUX)
    Blend: AUG-CC-PVTZ-JKFIT
    Number of shells: 1776
    Number of basis functions: 6096
    Number of Cartesian functions: 7608
    Spherical Harmonics?: true
    Max angular momentum: 4

  Cached 50.0% of DFT collocation blocks in 28.297 [GiB].

  Minimum eigenvalue in the overlap matrix is 1.2243416004E-10.
  Reciprocal condition number of the overlap matrix is 3.5504774292E-12.
    Using canonical orthogonalization.
  Overall, 29 of 2760 possible MOs eliminated.


  ==> Pre-Iterations <==

  SCF Guess: Superposition of Atomic Densities via on-the-fly atomic UHF (no occupation information).

   -------------------------
    Irrep   Nso     Nmo    
   -------------------------
     A'      1436    1421 
     A"      1324    1310 
   -------------------------
    Total    2760    2731
   -------------------------

  ==> Iterations <==

                           Total Energy        Delta E     RMS |[F,P]|

   @DF-RKS iter SAD:  -921.32162699224398   -9.21322e+02   0.00000e+00 
   @DF-RKS iter   1:  -919.11454482108672    2.20708e+00   9.62872e-04 ADIIS/DIIS
   @DF-RKS iter   2:  -905.22446970261785    1.38901e+01   2.42712e-03 ADIIS/DIIS
   @DF-RKS iter   3:  -919.63695484578682   -1.44125e+01   8.10932e-04 ADIIS/DIIS
   @DF-RKS iter   4:  -920.67135892899967   -1.03440e+00   4.22889e-04 ADIIS/DIIS
   @DF-RKS iter   5:  -921.01746443004447   -3.46106e-01   1.36991e-04 ADIIS/DIIS
   @DF-RKS iter   6:  -921.04330087453286   -2.58364e-02   6.70556e-05 DIIS
   @DF-RKS iter   7:  -921.05081630496966   -7.51543e-03   7.75648e-06 DIIS
   @DF-RKS iter   8:  -921.05091928476952   -1.02980e-04   2.37958e-06 DIIS
   @DF-RKS iter   9:  -921.05092439911334   -5.11434e-06   1.68850e-06 DIIS
   @DF-RKS iter  10:  -921.05092989688342   -5.49777e-06   5.23129e-07 DIIS
   @DF-RKS iter  11:  -921.05093040501004   -5.08127e-07   2.08957e-07 DIIS
  Energy and wave function converged.


  ==> Post-Iterations <==

   Electrons on quadrature grid:
      Ntotal   =  156.0003208237 ; deviation = 3.208e-04 

    Orbital Energies [Eh]
    ---------------------

    Doubly Occupied:                                                      

       1Ap    -9.904171     2Ap    -9.904038     1App   -9.904035  
       3Ap    -9.903729     2App   -9.903723     4Ap    -9.903632  
       5Ap    -9.903374     3App   -9.903364     6Ap    -9.903346  
       7Ap    -9.903338     4App   -9.903333     8Ap    -9.903313  
       9Ap    -9.894373     5App   -9.894370     6App   -9.894360  
       7App   -9.894351    10Ap    -9.894343    11Ap    -9.894335  
      12Ap    -9.893819     8App   -9.893806    13Ap    -9.893803  
       9App   -9.893796    14Ap    -9.893792    10App   -9.893779  
      15Ap    -0.833050    11App   -0.798372    16Ap    -0.798371  
      17Ap    -0.753796    12App   -0.753789    18Ap    -0.737834  
      13App   -0.709028    19Ap    -0.694457    14App   -0.678116  
      20Ap    -0.678115    21Ap    -0.648289    15App   -0.648286  
      22Ap    -0.579146    16App   -0.579145    17App   -0.574035  
      23Ap    -0.574035    24Ap    -0.569308    18App   -0.507996  
      25Ap    -0.502462    19App   -0.489448    26Ap    -0.487657  
      20App   -0.487656    27Ap    -0.468498    28Ap    -0.429250  
      21App   -0.429246    22App   -0.412548    29Ap    -0.412541  
      23App   -0.408305    30Ap    -0.408303    31Ap    -0.391793  
      32Ap    -0.383489    24App   -0.377227    33Ap    -0.377224  
      25App   -0.373718    34Ap    -0.358324    26App   -0.358318  
      27App   -0.352826    35Ap    -0.352824    28App   -0.332373  
      36Ap    -0.331299    37Ap    -0.318820    29App   -0.318818  
      30App   -0.318653    38Ap    -0.303745    31App   -0.303738  
      39Ap    -0.289883    32App   -0.277672    40Ap    -0.277671  
      33App   -0.248948    41Ap    -0.248869    34App   -0.232878  
      42Ap    -0.232873    43Ap    -0.192762    35App   -0.192756  

    Virtual:                                                              

      36App   -0.085557    44Ap    -0.085555    45Ap    -0.054900  
      37App   -0.054895    46Ap    -0.037487    38App   -0.021044  
      47Ap    -0.019142    48Ap    -0.012023    39App   -0.012014  
      40App   -0.000122    49Ap    -0.000101    50Ap     0.004748  
      51Ap     0.010435    52Ap     0.012171    41App    0.014559  
      42App    0.015188    53Ap     0.015351    54Ap     0.015860  
      55Ap     0.031276    43App    0.031529    56Ap     0.032475  
      44App    0.032477    57Ap     0.034594    45App    0.034641  
      58Ap     0.035140    46App    0.038986    59Ap     0.042057  
      47App    0.048083    60Ap     0.048341    61Ap     0.048896  
      48App    0.051366    62Ap     0.051710    49App    0.057381  
      63Ap     0.057996    50App    0.058305    64Ap     0.058743  
      65Ap     0.062130    51App    0.062177    66Ap     0.062842  
      52App    0.066616    53App    0.066692    67Ap     0.067228  
      68Ap     0.068143    69Ap     0.069262    54App    0.070131  
      70Ap     0.073690    55App    0.073834    71Ap     0.074338  
      72Ap     0.078610    56App    0.079449    57App    0.081383  
      73Ap     0.082963    74Ap     0.085095    58App    0.086233  
      75Ap     0.088033    59App    0.090579    76Ap     0.091859  
      60App    0.092224    61App    0.093652    77Ap     0.094003  
      78Ap     0.095965    79Ap     0.098648    62App    0.102155  
      63App    0.104179    64App    0.104800    80Ap     0.105604  
      81Ap     0.106356    65App    0.107508    82Ap     0.108776  
      83Ap     0.109680    66App    0.110146    84Ap     0.114897  
      67App    0.116053    85Ap     0.120912    68App    0.121627  
      86Ap     0.122688    69App    0.124747    87Ap     0.125365  
      88Ap     0.127630    70App    0.128639    89Ap     0.129866  
      71App    0.130437    90Ap     0.132417    91Ap     0.133166  
      72App    0.134991    92Ap     0.137304    73App    0.137408  
      74App    0.138061    93Ap     0.139290    75App    0.140411  
      94Ap     0.142186    76App    0.144242    95Ap     0.146745  
      96Ap     0.149862    97Ap     0.154257    77App    0.154751  
      78App    0.155474    98Ap     0.155627    99Ap     0.157150  
      79App    0.158112    80App    0.158713   100Ap     0.160305  
     101Ap     0.161494    81App    0.162026   102Ap     0.163861  
     103Ap     0.167300    82App    0.167414   104Ap     0.168702  
     105Ap     0.169623    83App    0.171358    84App    0.172305  
     106Ap     0.172564   107Ap     0.174135    85App    0.174261  
     108Ap     0.175054   109Ap     0.176955    86App    0.177144  
     110Ap     0.178401    87App    0.179259   111Ap     0.180106  
      88App    0.181273   112Ap     0.182773    89App    0.183589  
     113Ap     0.185105    90App    0.186309   114Ap     0.186534  
      91App    0.189262   115Ap     0.190098   116Ap     0.191122  
      92App    0.192587   117Ap     0.193074    93App    0.194583  
     118Ap     0.194898    94App    0.196802    95App    0.197249  
     119Ap     0.198472   120Ap     0.198707    96App    0.201291  
     121Ap     0.203237    97App    0.204126    98App    0.205460  
     122Ap     0.206472   123Ap     0.207586    99App    0.209896  
     124Ap     0.209970   125Ap     0.210768   126Ap     0.212780  
     100App    0.213200   127Ap     0.214434   101App    0.215283  
     102App    0.216753   128Ap     0.217391   103App    0.219433  
     129Ap     0.220091   104App    0.221089   130Ap     0.223581  
     105App    0.224093   131Ap     0.226831   106App    0.227467  
     107App    0.228698   132Ap     0.228905   133Ap     0.231136  
     108App    0.232121   134Ap     0.232708   135Ap     0.233784  
     109App    0.234446   110App    0.235593   136Ap     0.236990  
     111App    0.238190   137Ap     0.239768   138Ap     0.241010  
     112App    0.244205   139Ap     0.244396   140Ap     0.245295  
     141Ap     0.246334   113App    0.247754   114App    0.248033  
     142Ap     0.249090   115App    0.249725   143Ap     0.253450  
     116App    0.253463   117App    0.254770   144Ap     0.254898  
     145Ap     0.257284   118App    0.257401   119App    0.259002  
     146Ap     0.259268   147Ap     0.261111   120App    0.263725  
     148Ap     0.263941   121App    0.264383   149Ap     0.265366  
     122App    0.266575   150Ap     0.268371   123App    0.269486  
     151Ap     0.270592   124App    0.271590   152Ap     0.272585  
     153Ap     0.274119   125App    0.275529   126App    0.276816  
     154Ap     0.277126   127App    0.280918   155Ap     0.281395  
     156Ap     0.283306   128App    0.283544   157Ap     0.283859  
     158Ap     0.286690   129App    0.287519   159Ap     0.288601  
     130App    0.290802   131App    0.292804   160Ap     0.293102  
     132App    0.294317   161Ap     0.295188   162Ap     0.296044  
     133App    0.296490   134App    0.300005   163Ap     0.301625  
     164Ap     0.302001   135App    0.304093   165Ap     0.305745  
     136App    0.308010   166Ap     0.308705   137App    0.310851  
     167Ap     0.312602   138App    0.313146   168Ap     0.313942  
     169Ap     0.315444   139App    0.315474   140App    0.318421  
     141App    0.319803   170Ap     0.321504   171Ap     0.324212  
     172Ap     0.326057   142App    0.326653   143App    0.328096  
     173Ap     0.330252   144App    0.331821   174Ap     0.331964  
     145App    0.334073   175Ap     0.335757   176Ap     0.337091  
     146App    0.337896   147App    0.342108   177Ap     0.343889  
     178Ap     0.345813   148App    0.346015   149App    0.347609  
     179Ap     0.349842   180Ap     0.350353   181Ap     0.352150  
     150App    0.352525   182Ap     0.352546   151App    0.355874  
     183Ap     0.356803   184Ap     0.357987   152App    0.360807  
     153App    0.364603   185Ap     0.364858   186Ap     0.366097  
     154App    0.369720   187Ap     0.369940   188Ap     0.371526  
     155App    0.372154   189Ap     0.372730   156App    0.374274  
     190Ap     0.377779   157App    0.377819   158App    0.378807  
     191Ap     0.380372   192Ap     0.381396   159App    0.383517  
     193Ap     0.385019   160App    0.385845   161App    0.386717  
     194Ap     0.387412   195Ap     0.392426   162App    0.394801  
     196Ap     0.395086   197Ap     0.397087   198Ap     0.398107  
     163App    0.398816   199Ap     0.401378   164App    0.401480  
     165App    0.404607   200Ap     0.407576   166App    0.407777  
     201Ap     0.408836   202Ap     0.411115   167App    0.413414  
     203Ap     0.413681   204Ap     0.414317   168App    0.415311  
     169App    0.416807   205Ap     0.418196   170App    0.418635  
     171App    0.420759   206Ap     0.421564   207Ap     0.422361  
     172App    0.422685   208Ap     0.426487   209Ap     0.426708  
     173App    0.427744   210Ap     0.427946   174App    0.429933  
     211Ap     0.431274   175App    0.432579   176App    0.435022  
     212Ap     0.436162   213Ap     0.437702   177App    0.437783  
     178App    0.440347   214Ap     0.441306   215Ap     0.442517  
     179App    0.444087   216Ap     0.445063   180App    0.446363  
     217Ap     0.447269   181App    0.447895   218Ap     0.449935  
     219Ap     0.452411   182App    0.452927   220Ap     0.454947  
     183App    0.456090   221Ap     0.456531   222Ap     0.458673  
     184App    0.459210   185App    0.462248   186App    0.463244  
     223Ap     0.463944   187App    0.464913   224Ap     0.465131  
     225Ap     0.467117   188App    0.468100   226Ap     0.468514  
     227Ap     0.470960   228Ap     0.471403   189App    0.472287  
     229Ap     0.472960   190App    0.474282   191App    0.476630  
     192App    0.478386   230Ap     0.478891   193App    0.482619  
     231Ap     0.484887   194App    0.485850   195App    0.488037  
     232Ap     0.488155   233Ap     0.489132   196App    0.489136  
     234Ap     0.490271   197App    0.492458   235Ap     0.494666  
     198App    0.496097   236Ap     0.497567   199App    0.498593  
     237Ap     0.499317   200App    0.501407   238Ap     0.505244  
     239Ap     0.507565   201App    0.507943   240Ap     0.508640  
     202App    0.509472   241Ap     0.513140   203App    0.515444  
     242Ap     0.515976   204App    0.516315   243Ap     0.516974  
     244Ap     0.520467   205App    0.521113   245Ap     0.522180  
     206App    0.524659   207App    0.527800   246Ap     0.529252  
     208App    0.529416   247Ap     0.531498   209App    0.533896  
     248Ap     0.533898   210App    0.536087   249Ap     0.538738  
     211App    0.539261   250Ap     0.541260   212App    0.542376  
     251Ap     0.542875   252Ap     0.545989   253Ap     0.548723  
     213App    0.552088   254Ap     0.553387   214App    0.553522  
     255Ap     0.554748   215App    0.554816   256Ap     0.557564  
     216App    0.558615   217App    0.558838   257Ap     0.561531  
     218App    0.562206   258Ap     0.563316   219App    0.566181  
     259Ap     0.566352   220App    0.570245   260Ap     0.573024  
     221App    0.573271   261Ap     0.573958   262Ap     0.576665  
     222App    0.577132   263Ap     0.578217   223App    0.581320  
     264Ap     0.582663   224App    0.585048   265Ap     0.585454  
     225App    0.587013   226App    0.588914   266Ap     0.589003  
     267Ap     0.589347   227App    0.590902   268Ap     0.592866  
     228App    0.593433   269Ap     0.596645   270Ap     0.601234  
     229App    0.602099   230App    0.604780   271Ap     0.605053  
     231App    0.605825   272Ap     0.607879   273Ap     0.611255  
     232App    0.612217   274Ap     0.615239   233App    0.615952  
     234App    0.617103   275Ap     0.617765   235App    0.618336  
     276Ap     0.620606   236App    0.622769   277Ap     0.626456  
     237App    0.627047   278Ap     0.628829   238App    0.629706  
     279Ap     0.633353   239App    0.633419   280Ap     0.635918  
     240App    0.637155   281Ap     0.639681   282Ap     0.641806  
     241App    0.642579   283Ap     0.644901   284Ap     0.646045  
     242App    0.648206   285Ap     0.649798   243App    0.651403  
     244App    0.652085   286Ap     0.652400   245App    0.655229  
     287Ap     0.655975   246App    0.656543   288Ap     0.660374  
     289Ap     0.661171   247App    0.662853   290Ap     0.663106  
     248App    0.664606   249App    0.665479   291Ap     0.666137  
     292Ap     0.670200   293Ap     0.671739   294Ap     0.674964  
     250App    0.675669   295Ap     0.678076   251App    0.678196  
     296Ap     0.682109   252App    0.682433   297Ap     0.683717  
     253App    0.684138   298Ap     0.685009   299Ap     0.688252  
     254App    0.688823   255App    0.690035   256App    0.693135  
     300Ap     0.694924   301Ap     0.696631   257App    0.699092  
     258App    0.699676   259App    0.702371   302Ap     0.703149  
     260App    0.705301   303Ap     0.705964   261App    0.707533  
     304Ap     0.708057   305Ap     0.709155   306Ap     0.712520  
     307Ap     0.714185   262App    0.715133   308Ap     0.715916  
     263App    0.716647   264App    0.718311   309Ap     0.721017  
     265App    0.722656   310Ap     0.724869   266App    0.725637  
     311Ap     0.727396   312Ap     0.727892   267App    0.730954  
     313Ap     0.734166   268App    0.734303   269App    0.734845  
     314Ap     0.736898   270App    0.737931   271App    0.740017  
     315Ap     0.740184   316Ap     0.743182   272App    0.744903  
     317Ap     0.746864   318Ap     0.747014   273App    0.748812  
     319Ap     0.749184   320Ap     0.753965   321Ap     0.755673  
     274App    0.757059   322Ap     0.757677   323Ap     0.759303  
     275App    0.761173   324Ap     0.763218   276App    0.763866  
     277App    0.765033   325Ap     0.767588   278App    0.769315  
     326Ap     0.770806   279App    0.771185   280App    0.773289  
     327Ap     0.773895   328Ap     0.774739   281App    0.777662  
     329Ap     0.777876   330Ap     0.780756   282App    0.782627  
     331Ap     0.782664   332Ap     0.785951   333Ap     0.787312  
     283App    0.788236   284App    0.790512   334Ap     0.791346  
     285App    0.792407   335Ap     0.795443   286App    0.799500  
     336Ap     0.799540   337Ap     0.801884   287App    0.805074  
     288App    0.805529   338Ap     0.809455   289App    0.809544  
     339Ap     0.809839   290App    0.811231   340Ap     0.811532  
     291App    0.812545   341Ap     0.814839   292App    0.814954  
     342Ap     0.816305   293App    0.817191   343Ap     0.821081  
     294App    0.821134   344Ap     0.823096   295App    0.823393  
     345Ap     0.826690   346Ap     0.827178   296App    0.827900  
     297App    0.831211   347Ap     0.832858   298App    0.833208  
     299App    0.833545   348Ap     0.834803   300App    0.836903  
     301App    0.838839   349Ap     0.839894   350Ap     0.841606  
     351Ap     0.842763   302App    0.843564   352Ap     0.847488  
     303App    0.848234   304App    0.850761   353Ap     0.850987  
     305App    0.852311   354Ap     0.856073   355Ap     0.858598  
     306App    0.858818   356Ap     0.861339   357Ap     0.861786  
     307App    0.862891   308App    0.867301   358Ap     0.867960  
     309App    0.870832   359Ap     0.871199   310App    0.873272  
     360Ap     0.873434   311App    0.875345   361Ap     0.875515  
     362Ap     0.879068   312App    0.879494   313App    0.881908  
     363Ap     0.882507   364Ap     0.883849   314App    0.885116  
     365Ap     0.885880   315App    0.887430   366Ap     0.890515  
     316App    0.891021   367Ap     0.894780   368Ap     0.896155  
     317App    0.898017   369Ap     0.899257   370Ap     0.902912  
     318App    0.904975   319App    0.907118   371Ap     0.907895  
     320App    0.908127   321App    0.911215   372Ap     0.914778  
     373Ap     0.918415   322App    0.919520   374Ap     0.919715  
     323App    0.920336   324App    0.921856   375Ap     0.924076  
     376Ap     0.928490   325App    0.929856   377Ap     0.930943  
     326App    0.931344   327App    0.932181   378Ap     0.932593  
     328App    0.937827   329App    0.939017   379Ap     0.940475  
     380Ap     0.944334   330App    0.945033   381Ap     0.945309  
     331App    0.948125   332App    0.949874   382Ap     0.950840  
     383Ap     0.952905   333App    0.954252   384Ap     0.956784  
     334App    0.958946   385Ap     0.959271   335App    0.959337  
     386Ap     0.962931   336App    0.964038   337App    0.967138  
     387Ap     0.967569   338App    0.967828   388Ap     0.971071  
     389Ap     0.973952   339App    0.976013   390Ap     0.978462  
     391Ap     0.979573   340App    0.979603   341App    0.980994  
     342App    0.981650   392Ap     0.983591   343App    0.987372  
     344App    0.988074   393Ap     0.989050   394Ap     0.989663  
     345App    0.992363   395Ap     0.994686   346App    0.996899  
     396Ap     0.999068   347App    1.000310   397Ap     1.001929  
     348App    1.003476   349App    1.006190   398Ap     1.006371  
     399Ap     1.009473   400Ap     1.010430   350App    1.013926  
     351App    1.014568   401Ap     1.014728   402Ap     1.015461  
     352App    1.016757   403Ap     1.017430   404Ap     1.021665  
     353App    1.023700   354App    1.025800   405Ap     1.028006  
     355App    1.029980   356App    1.030320   406Ap     1.030866  
     407Ap     1.032602   357App    1.034667   408Ap     1.038276  
     358App    1.038480   409Ap     1.041326   410Ap     1.042251  
     359App    1.042818   411Ap     1.044430   360App    1.047344  
     412Ap     1.047600   413Ap     1.048778   361App    1.053922  
     414Ap     1.054973   362App    1.057076   415Ap     1.057539  
     416Ap     1.058479   363App    1.058870   417Ap     1.064209  
     418Ap     1.065315   364App    1.066535   419Ap     1.066664  
     420Ap     1.068149   365App    1.068228   421Ap     1.072428  
     366App    1.074924   422Ap     1.075732   367App    1.076520  
     368App    1.079897   369App    1.080223   423Ap     1.081143  
     424Ap     1.082797   370App    1.086700   425Ap     1.088577  
     371App    1.090997   426Ap     1.093718   427Ap     1.096950  
     372App    1.097379   373App    1.100518   428Ap     1.100561  
     374App    1.103256   429Ap     1.103820   375App    1.109495  
     376App    1.110816   430Ap     1.111795   431Ap     1.113276  
     432Ap     1.117108   433Ap     1.119271   377App    1.119316  
     378App    1.121533   434Ap     1.121646   379App    1.125963  
     435Ap     1.126571   380App    1.128195   436Ap     1.131681  
     437Ap     1.133242   381App    1.133530   438Ap     1.136029  
     382App    1.136628   383App    1.139656   439Ap     1.140098  
     440Ap     1.141495   384App    1.142505   385App    1.146868  
     441Ap     1.148790   386App    1.148890   442Ap     1.149505  
     387App    1.153093   443Ap     1.153559   444Ap     1.158148  
     388App    1.159754   445Ap     1.160759   446Ap     1.163703  
     447Ap     1.164006   389App    1.167820   448Ap     1.172260  
     390App    1.173908   449Ap     1.176287   391App    1.177269  
     392App    1.178293   450Ap     1.180115   451Ap     1.181239  
     393App    1.181603   394App    1.184541   395App    1.185866  
     452Ap     1.187283   453Ap     1.190696   396App    1.192876  
     454Ap     1.195433   397App    1.195868   455Ap     1.197015  
     456Ap     1.200362   398App    1.201977   399App    1.203906  
     457Ap     1.204039   458Ap     1.207374   400App    1.208082  
     459Ap     1.212449   401App    1.214274   460Ap     1.214895  
     461Ap     1.219206   402App    1.221230   462Ap     1.222630  
     403App    1.222739   463Ap     1.225902   404App    1.228132  
     464Ap     1.230377   465Ap     1.232956   405App    1.233944  
     466Ap     1.234901   467Ap     1.236155   406App    1.238533  
     468Ap     1.242789   407App    1.245532   408App    1.247030  
     409App    1.247662   469Ap     1.248510   410App    1.249650  
     470Ap     1.250923   471Ap     1.252467   411App    1.252702  
     412App    1.257887   413App    1.259962   472Ap     1.260812  
     473Ap     1.262229   414App    1.263765   474Ap     1.265098  
     415App    1.265185   475Ap     1.266285   416App    1.267038  
     476Ap     1.271433   417App    1.274692   477Ap     1.275391  
     478Ap     1.277709   418App    1.278075   419App    1.280267  
     479Ap     1.281824   420App    1.281906   480Ap     1.284519  
     421App    1.286718   481Ap     1.288612   422App    1.289034  
     482Ap     1.291040   423App    1.291419   483Ap     1.293335  
     424App    1.297992   484Ap     1.299243   485Ap     1.304134  
     425App    1.304756   426App    1.306178   486Ap     1.308693  
     427App    1.310089   487Ap     1.313235   428App    1.315151  
     488Ap     1.315608   429App    1.315972   430App    1.321925  
     489Ap     1.324338   431App    1.324742   490Ap     1.324897  
     491Ap     1.326267   492Ap     1.327199   432App    1.329759  
     433App    1.332964   493Ap     1.334059   494Ap     1.335439  
     434App    1.336414   435App    1.338243   495Ap     1.339633  
     436App    1.342158   496Ap     1.344574   437App    1.345622  
     497Ap     1.347398   438App    1.347674   439App    1.351317  
     498Ap     1.352994   440App    1.355592   499Ap     1.356309  
     500Ap     1.358413   501Ap     1.359243   502Ap     1.362163  
     441App    1.365362   442App    1.368756   503Ap     1.369427  
     504Ap     1.370427   443App    1.371364   444App    1.374976  
     505Ap     1.377306   445App    1.379645   506Ap     1.380725  
     446App    1.381872   507Ap     1.383233   447App    1.384852  
     508Ap     1.385031   448App    1.388279   509Ap     1.389599  
     449App    1.392171   450App    1.392862   510Ap     1.394120  
     451App    1.398723   452App    1.400443   511Ap     1.401488  
     453App    1.401917   512Ap     1.402600   513Ap     1.403758  
     514Ap     1.408235   515Ap     1.408797   454App    1.410008  
     516Ap     1.413124   455App    1.413262   456App    1.416179  
     517Ap     1.416430   457App    1.417243   518Ap     1.419417  
     519Ap     1.421898   458App    1.425762   459App    1.428006  
     520Ap     1.428477   521Ap     1.432231   460App    1.433369  
     522Ap     1.433772   461App    1.435307   523Ap     1.436478  
     462App    1.436757   463App    1.438943   464App    1.441488  
     524Ap     1.441901   525Ap     1.443780   526Ap     1.445290  
     465App    1.446425   466App    1.448098   527Ap     1.449045  
     528Ap     1.452845   467App    1.454152   468App    1.456254  
     529Ap     1.457046   530Ap     1.462261   469App    1.462493  
     470App    1.465121   531Ap     1.465683   471App    1.467721  
     532Ap     1.467906   533Ap     1.471852   472App    1.472530  
     473App    1.474830   534Ap     1.475744   535Ap     1.481689  
     474App    1.482089   536Ap     1.484686   537Ap     1.486653  
     475App    1.487009   538Ap     1.490715   476App    1.492599  
     539Ap     1.493066   477App    1.493893   478App    1.495045  
     540Ap     1.495220   541Ap     1.499259   479App    1.499524  
     542Ap     1.500551   480App    1.503547   543Ap     1.505884  
     481App    1.506125   482App    1.509135   544Ap     1.512591  
     483App    1.513672   545Ap     1.513998   484App    1.514769  
     546Ap     1.516635   485App    1.517277   486App    1.520294  
     547Ap     1.520803   548Ap     1.524113   487App    1.526060  
     488App    1.527743   549Ap     1.527895   550Ap     1.531900  
     551Ap     1.533142   489App    1.533782   552Ap     1.540555  
     490App    1.541100   491App    1.542964   553Ap     1.543034  
     554Ap     1.544605   492App    1.549208   555Ap     1.550992  
     556Ap     1.554322   493App    1.557306   494App    1.559550  
     557Ap     1.560050   558Ap     1.563143   559Ap     1.564605  
     495App    1.564791   560Ap     1.567150   496App    1.568293  
     497App    1.571782   561Ap     1.572570   562Ap     1.575557  
     498App    1.577344   499App    1.577817   563Ap     1.578280  
     564Ap     1.578832   500App    1.580803   565Ap     1.586895  
     566Ap     1.589106   501App    1.589479   502App    1.595861  
     503App    1.595946   504App    1.597906   567Ap     1.598731  
     568Ap     1.599212   569Ap     1.601650   505App    1.603645  
     506App    1.605786   570Ap     1.605878   571Ap     1.608144  
     507App    1.608830   572Ap     1.610063   508App    1.614458  
     573Ap     1.614485   574Ap     1.616080   575Ap     1.619360  
     509App    1.619387   510App    1.622604   576Ap     1.627694  
     511App    1.628092   577Ap     1.630221   512App    1.632927  
     513App    1.634406   578Ap     1.635308   579Ap     1.640565  
     514App    1.640877   580Ap     1.641718   515App    1.644110  
     581Ap     1.644907   582Ap     1.645112   516App    1.647047  
     517App    1.648661   583Ap     1.652317   518App    1.652382  
     584Ap     1.655267   585Ap     1.656746   519App    1.657349  
     520App    1.659246   586Ap     1.660467   521App    1.662181  
     587Ap     1.666362   522App    1.668190   588Ap     1.672622  
     523App    1.674056   589Ap     1.675158   590Ap     1.678600  
     524App    1.680244   591Ap     1.680816   525App    1.681121  
     526App    1.682664   592Ap     1.684873   593Ap     1.686781  
     527App    1.687383   594Ap     1.688913   528App    1.691428  
     595Ap     1.693411   529App    1.695151   596Ap     1.695569  
     597Ap     1.696609   598Ap     1.698602   530App    1.699033  
     531App    1.703753   599Ap     1.705177   532App    1.707424  
     600Ap     1.708723   533App    1.712403   534App    1.715036  
     535App    1.717408   601Ap     1.718046   602Ap     1.720268  
     536App    1.722593   603Ap     1.723433   604Ap     1.724399  
     537App    1.728733   605Ap     1.730911   538App    1.732460  
     606Ap     1.735133   539App    1.736380   607Ap     1.742068  
     608Ap     1.745548   540App    1.746785   609Ap     1.746885  
     610Ap     1.748813   541App    1.749294   542App    1.752950  
     611Ap     1.754659   612Ap     1.758570   543App    1.759706  
     613Ap     1.760731   544App    1.762191   614Ap     1.763108  
     615Ap     1.765451   545App    1.768256   616Ap     1.768608  
     546App    1.770701   617Ap     1.776043   547App    1.779020  
     618Ap     1.780727   548App    1.781640   549App    1.783909  
     619Ap     1.783915   620Ap     1.788398   550App    1.788593  
     551App    1.789530   621Ap     1.791815   622Ap     1.796294  
     623Ap     1.798759   552App    1.800791   553App    1.803104  
     624Ap     1.804905   554App    1.805814   555App    1.807320  
     625Ap     1.808416   626Ap     1.812600   556App    1.813501  
     557App    1.816565   558App    1.819493   627Ap     1.822200  
     559App    1.823941   560App    1.824968   628Ap     1.827423  
     629Ap     1.829008   561App    1.829810   630Ap     1.831524  
     562App    1.835389   631Ap     1.835651   632Ap     1.839298  
     563App    1.840747   633Ap     1.843384   564App    1.843854  
     634Ap     1.846930   565App    1.849874   566App    1.852864  
     635Ap     1.853964   567App    1.858694   568App    1.860352  
     636Ap     1.861274   569App    1.862938   637Ap     1.864946  
     570App    1.867112   638Ap     1.870227   571App    1.875154  
     639Ap     1.876138   640Ap     1.876374   572App    1.879379  
     641Ap     1.880306   573App    1.882678   574App    1.884009  
     642Ap     1.885256   575App    1.890312   576App    1.893886  
     643Ap     1.895287   644Ap     1.897119   645Ap     1.898645  
     577App    1.899207   646Ap     1.901188   578App    1.901946  
     647Ap     1.905512   579App    1.907049   648Ap     1.907343  
     580App    1.912100   581App    1.914861   649Ap     1.915545  
     650Ap     1.917628   582App    1.919081   651Ap     1.919148  
     583App    1.924330   652Ap     1.925550   584App    1.926416  
     653Ap     1.928692   585App    1.931014   654Ap     1.931701  
     586App    1.932513   587App    1.934267   655Ap     1.934694  
     656Ap     1.936126   657Ap     1.941203   588App    1.942336  
     589App    1.942564   658Ap     1.944108   590App    1.944445  
     659Ap     1.950943   660Ap     1.954355   591App    1.956805  
     661Ap     1.958382   592App    1.960656   662Ap     1.962013  
     593App    1.964569   594App    1.966666   663Ap     1.968259  
     595App    1.971259   664Ap     1.971704   596App    1.973282  
     665Ap     1.973548   666Ap     1.978795   597App    1.979245  
     667Ap     1.980118   598App    1.980536   599App    1.987106  
     600App    1.990127   668Ap     1.990280   669Ap     1.993622  
     601App    1.997596   670Ap     1.997820   671Ap     2.000267  
     672Ap     2.001924   602App    2.005217   673Ap     2.008802  
     603App    2.010793   674Ap     2.014011   604App    2.014207  
     675Ap     2.016281   605App    2.017447   606App    2.021983  
     676Ap     2.022262   677Ap     2.026671   678Ap     2.028985  
     679Ap     2.030527   607App    2.033908   680Ap     2.033986  
     608App    2.035020   609App    2.040890   681Ap     2.042251  
     682Ap     2.045437   610App    2.048259   683Ap     2.049169  
     611App    2.053967   684Ap     2.054157   612App    2.054759  
     613App    2.057016   614App    2.060223   685Ap     2.060733  
     686Ap     2.066606   615App    2.067445   616App    2.068957  
     687Ap     2.073204   617App    2.074132   688Ap     2.078734  
     618App    2.079807   689Ap     2.080884   619App    2.083645  
     690Ap     2.086998   620App    2.091288   621App    2.096209  
     691Ap     2.096467   692Ap     2.099262   622App    2.099564  
     693Ap     2.101599   623App    2.101600   694Ap     2.106438  
     624App    2.106891   625App    2.111363   695Ap     2.113363  
     626App    2.119354   696Ap     2.119783   627App    2.123291  
     697Ap     2.123737   698Ap     2.130258   628App    2.131684  
     629App    2.131804   699Ap     2.135214   630App    2.136946  
     700Ap     2.138052   701Ap     2.145280   631App    2.146563  
     702Ap     2.150314   632App    2.151243   703Ap     2.159732  
     633App    2.162778   704Ap     2.163401   634App    2.164611  
     635App    2.165539   705Ap     2.166632   706Ap     2.173622  
     636App    2.173699   637App    2.175584   707Ap     2.177328  
     638App    2.180891   708Ap     2.183214   639App    2.187162  
     709Ap     2.187455   710Ap     2.188172   640App    2.196465  
     711Ap     2.199654   641App    2.201729   712Ap     2.202777  
     642App    2.207738   643App    2.212153   713Ap     2.213324  
     714Ap     2.218047   644App    2.224049   715Ap     2.224954  
     716Ap     2.226438   645App    2.228657   717Ap     2.232793  
     646App    2.233336   718Ap     2.234874   719Ap     2.237810  
     647App    2.239013   648App    2.241789   649App    2.245295  
     720Ap     2.247277   650App    2.254582   651App    2.257220  
     721Ap     2.258262   722Ap     2.260678   652App    2.264772  
     723Ap     2.269165   724Ap     2.273651   653App    2.277431  
     725Ap     2.278409   654App    2.283367   655App    2.284665  
     656App    2.285578   726Ap     2.286190   657App    2.289428  
     727Ap     2.289664   658App    2.292856   728Ap     2.293450  
     729Ap     2.301261   730Ap     2.303210   659App    2.305512  
     731Ap     2.307125   660App    2.309993   732Ap     2.312848  
     661App    2.314148   662App    2.317408   733Ap     2.318987  
     663App    2.322899   734Ap     2.327898   664App    2.328362  
     665App    2.329521   735Ap     2.332178   736Ap     2.336385  
     737Ap     2.339839   666App    2.341042   738Ap     2.345049  
     667App    2.348447   739Ap     2.354189   740Ap     2.355177  
     668App    2.359120   669App    2.360236   741Ap     2.367984  
     670App    2.369824   742Ap     2.371879   671App    2.372475  
     743Ap     2.377431   744Ap     2.380637   672App    2.381057  
     745Ap     2.381280   746Ap     2.386734   673App    2.389610  
     747Ap     2.389794   748Ap     2.396879   674App    2.397087  
     675App    2.399820   676App    2.401274   749Ap     2.405860  
     750Ap     2.410981   751Ap     2.411724   677App    2.412516  
     678App    2.415804   679App    2.419064   752Ap     2.421931  
     753Ap     2.424169   680App    2.426801   754Ap     2.430632  
     681App    2.431955   755Ap     2.432430   682App    2.437128  
     683App    2.443643   756Ap     2.444525   757Ap     2.447955  
     684App    2.449537   758Ap     2.454005   685App    2.457623  
     686App    2.459806   759Ap     2.461664   760Ap     2.463865  
     687App    2.465675   761Ap     2.469627   688App    2.471455  
     762Ap     2.473917   763Ap     2.475198   764Ap     2.477909  
     689App    2.479079   690App    2.482063   765Ap     2.483709  
     691App    2.486476   766Ap     2.488234   767Ap     2.493873  
     768Ap     2.496294   692App    2.499046   693App    2.502638  
     769Ap     2.504429   694App    2.506778   770Ap     2.507240  
     695App    2.513510   696App    2.514885   771Ap     2.517721  
     697App    2.521301   772Ap     2.521779   773Ap     2.524065  
     698App    2.530465   774Ap     2.531783   699App    2.534880  
     775Ap     2.537653   700App    2.538593   701App    2.544052  
     776Ap     2.544166   702App    2.548626   777Ap     2.549588  
     703App    2.553328   778Ap     2.555219   704App    2.558066  
     779Ap     2.563802   705App    2.567084   780Ap     2.568536  
     706App    2.571435   707App    2.571668   781Ap     2.572818  
     708App    2.580727   782Ap     2.582140   783Ap     2.582455  
     709App    2.585454   784Ap     2.591002   710App    2.595239  
     785Ap     2.595505   711App    2.599003   712App    2.603364  
     786Ap     2.605100   787Ap     2.607037   713App    2.610052  
     788Ap     2.613677   714App    2.618692   715App    2.619990  
     789Ap     2.623843   716App    2.624681   790Ap     2.625802  
     717App    2.634071   791Ap     2.635649   792Ap     2.641066  
     718App    2.642576   793Ap     2.643764   719App    2.644170  
     794Ap     2.647881   795Ap     2.652769   720App    2.654278  
     796Ap     2.659662   721App    2.661570   797Ap     2.661923  
     722App    2.667331   798Ap     2.670035   799Ap     2.671361  
     723App    2.672538   800Ap     2.678555   724App    2.679812  
     725App    2.683628   726App    2.685953   801Ap     2.687730  
     802Ap     2.693025   727App    2.695054   803Ap     2.699175  
     728App    2.700193   804Ap     2.705378   729App    2.708297  
     805Ap     2.712037   730App    2.714008   806Ap     2.715081  
     807Ap     2.716657   808Ap     2.719227   731App    2.722352  
     732App    2.727550   733App    2.729105   809Ap     2.731418  
     734App    2.736033   735App    2.737596   810Ap     2.737668  
     736App    2.746562   811Ap     2.750426   812Ap     2.754689  
     737App    2.755502   813Ap     2.756609   738App    2.759298  
     814Ap     2.762733   739App    2.767046   815Ap     2.769244  
     740App    2.772263   741App    2.777417   816Ap     2.779600  
     817Ap     2.786649   742App    2.787268   818Ap     2.792033  
     743App    2.794821   819Ap     2.795320   820Ap     2.800881  
     744App    2.802024   745App    2.809693   746App    2.815086  
     821Ap     2.817100   747App    2.825126   748App    2.827861  
     822Ap     2.829129   749App    2.831366   750App    2.838075  
     823Ap     2.842665   824Ap     2.844610   751App    2.848631  
     825Ap     2.853041   752App    2.857296   826Ap     2.869033  
     827Ap     2.872996   753App    2.874808   828Ap     2.880610  
     754App    2.888542   829Ap     2.888793   830Ap     2.890086  
     755App    2.898531   756App    2.901263   831Ap     2.901405  
     757App    2.906956   832Ap     2.908887   758App    2.912346  
     833Ap     2.914693   759App    2.919352   834Ap     2.921420  
     835Ap     2.931258   760App    2.931981   761App    2.932728  
     836Ap     2.933799   837Ap     2.938158   838Ap     2.945946  
     762App    2.949009   763App    2.956881   839Ap     2.957114  
     764App    2.962637   840Ap     2.964484   765App    2.965881  
     766App    2.971004   841Ap     2.976001   842Ap     2.978373  
     767App    2.979578   768App    2.984474   843Ap     2.986922  
     769App    2.994635   844Ap     2.995281   770App    2.998085  
     845Ap     3.008199   846Ap     3.013619   771App    3.016418  
     847Ap     3.016552   772App    3.021651   848Ap     3.024455  
     849Ap     3.027235   773App    3.032344   774App    3.037644  
     850Ap     3.038318   851Ap     3.042935   775App    3.044217  
     776App    3.051882   852Ap     3.054123   853Ap     3.062707  
     777App    3.064091   854Ap     3.064608   778App    3.068709  
     855Ap     3.071579   779App    3.074849   856Ap     3.082487  
     780App    3.084336   857Ap     3.089053   858Ap     3.091943  
     781App    3.092680   782App    3.101126   783App    3.104215  
     859Ap     3.108780   860Ap     3.115199   861Ap     3.118218  
     784App    3.119128   862Ap     3.124963   785App    3.126205  
     863Ap     3.129741   786App    3.136130   787App    3.144701  
     864Ap     3.149813   788App    3.152306   865Ap     3.157501  
     866Ap     3.159723   867Ap     3.163564   789App    3.166047  
     790App    3.167679   868Ap     3.168624   869Ap     3.170395  
     791App    3.172771   792App    3.177702   870Ap     3.179376  
     793App    3.182804   871Ap     3.183294   872Ap     3.191520  
     794App    3.193460   795App    3.197294   873Ap     3.198156  
     796App    3.203758   874Ap     3.205872   875Ap     3.211434  
     797App    3.218337   876Ap     3.220102   798App    3.221211  
     877Ap     3.224347   799App    3.228543   878Ap     3.229921  
     800App    3.235482   879Ap     3.241726   801App    3.242268  
     880Ap     3.246216   802App    3.250168   881Ap     3.254539  
     803App    3.255218   882Ap     3.257139   804App    3.261950  
     883Ap     3.264536   884Ap     3.270413   885Ap     3.274106  
     886Ap     3.275793   805App    3.278229   887Ap     3.285971  
     806App    3.287879   807App    3.289864   888Ap     3.291248  
     808App    3.293955   889Ap     3.298120   890Ap     3.299864  
     891Ap     3.303920   809App    3.308789   810App    3.310635  
     892Ap     3.310893   811App    3.316713   893Ap     3.319635  
     894Ap     3.323162   812App    3.324989   895Ap     3.327373  
     896Ap     3.336793   813App    3.337092   897Ap     3.340597  
     814App    3.343012   898Ap     3.345861   899Ap     3.347041  
     815App    3.350059   816App    3.351445   900Ap     3.356339  
     817App    3.359243   818App    3.362507   901Ap     3.363764  
     819App    3.366111   902Ap     3.370755   820App    3.372712  
     903Ap     3.374985   904Ap     3.379525   821App    3.383651  
     822App    3.386706   905Ap     3.391036   823App    3.391588  
     906Ap     3.391789   824App    3.392603   907Ap     3.394772  
     825App    3.403310   826App    3.411354   908Ap     3.412539  
     827App    3.414554   909Ap     3.416591   910Ap     3.424370  
     828App    3.427232   911Ap     3.429042   829App    3.429724  
     912Ap     3.430246   830App    3.433337   913Ap     3.441772  
     831App    3.443052   914Ap     3.444337   832App    3.446740  
     833App    3.452928   915Ap     3.456080   834App    3.457833  
     916Ap     3.461141   917Ap     3.463314   835App    3.465242  
     918Ap     3.471221   836App    3.473761   837App    3.475472  
     919Ap     3.477185   920Ap     3.486102   838App    3.489625  
     839App    3.493270   840App    3.495980   921Ap     3.496166  
     922Ap     3.499364   923Ap     3.505273   841App    3.506898  
     842App    3.510236   924Ap     3.511097   925Ap     3.520322  
     926Ap     3.525678   927Ap     3.527566   843App    3.530169  
     928Ap     3.534750   844App    3.534994   929Ap     3.542021  
     845App    3.544683   846App    3.545857   930Ap     3.547237  
     931Ap     3.555667   847App    3.556920   932Ap     3.560870  
     848App    3.562120   933Ap     3.565881   934Ap     3.570490  
     849App    3.573853   935Ap     3.581061   850App    3.581087  
     851App    3.582924   936Ap     3.585717   852App    3.592433  
     937Ap     3.593938   853App    3.595037   854App    3.595462  
     938Ap     3.602810   939Ap     3.606934   855App    3.607980  
     856App    3.612893   857App    3.620100   940Ap     3.620691  
     858App    3.622956   941Ap     3.626427   859App    3.629497  
     942Ap     3.634519   943Ap     3.643498   860App    3.646663  
     944Ap     3.649204   945Ap     3.657380   861App    3.661160  
     946Ap     3.661394   862App    3.669496   947Ap     3.673035  
     863App    3.681508   948Ap     3.682240   949Ap     3.685570  
     864App    3.688471   950Ap     3.691238   951Ap     3.695912  
     865App    3.697640   866App    3.698849   952Ap     3.698936  
     953Ap     3.707875   867App    3.709469   868App    3.714802  
     954Ap     3.719756   869App    3.722325   955Ap     3.722949  
     956Ap     3.724949   870App    3.728376   957Ap     3.737051  
     958Ap     3.738006   871App    3.738131   872App    3.740040  
     873App    3.750997   959Ap     3.751572   874App    3.754608  
     960Ap     3.758425   875App    3.763054   876App    3.766382  
     961Ap     3.770750   962Ap     3.776692   877App    3.778253  
     963Ap     3.781492   878App    3.785156   964Ap     3.787236  
     965Ap     3.789614   879App    3.790634   880App    3.794826  
     966Ap     3.797819   967Ap     3.799630   881App    3.804808  
     968Ap     3.805358   882App    3.806756   969Ap     3.809560  
     883App    3.811706   884App    3.816188   970Ap     3.817363  
     885App    3.819546   971Ap     3.821272   972Ap     3.827160  
     973Ap     3.834022   886App    3.835355   887App    3.837508  
     888App    3.838324   974Ap     3.839911   889App    3.848946  
     975Ap     3.851920   890App    3.857419   891App    3.864268  
     976Ap     3.867973   892App    3.871125   977Ap     3.872516  
     893App    3.883475   978Ap     3.884830   979Ap     3.893551  
     980Ap     3.897732   894App    3.899556   895App    3.907312  
     981Ap     3.908857   896App    3.913384   982Ap     3.915183  
     897App    3.920541   898App    3.924536   983Ap     3.926134  
     984Ap     3.932166   899App    3.942909   985Ap     3.945907  
     900App    3.947732   986Ap     3.948719   901App    3.956304  
     902App    3.965579   987Ap     3.967190   988Ap     3.970434  
     989Ap     3.973396   903App    3.977184   990Ap     3.984024  
     904App    3.984923   905App    3.992213   991Ap     3.995749  
     992Ap     3.998182   906App    4.003442   993Ap     4.004794  
     994Ap     4.009897   995Ap     4.013341   907App    4.017645  
     908App    4.020866   996Ap     4.021006   909App    4.023575  
     997Ap     4.023731   910App    4.030704   998Ap     4.034109  
     999Ap     4.037872   911App    4.040853   912App    4.042413  
    1000Ap     4.046683   913App    4.052354   914App    4.054805  
    1001Ap     4.054984   915App    4.061323  1002Ap     4.062865  
    1003Ap     4.069349   916App    4.071301  1004Ap     4.072314  
     917App    4.076489  1005Ap     4.077087   918App    4.078450  
     919App    4.086833   920App    4.090153  1006Ap     4.090608  
     921App    4.092473  1007Ap     4.094889   922App    4.101351  
    1008Ap     4.103385   923App    4.104918  1009Ap     4.107503  
     924App    4.110804  1010Ap     4.111631   925App    4.117237  
    1011Ap     4.121469   926App    4.123338   927App    4.128473  
    1012Ap     4.130918   928App    4.131541   929App    4.133156  
    1013Ap     4.134851   930App    4.139117  1014Ap     4.140254  
    1015Ap     4.146430   931App    4.147338  1016Ap     4.150217  
     932App    4.154468  1017Ap     4.155785   933App    4.158918  
    1018Ap     4.162642   934App    4.165765  1019Ap     4.167274  
    1020Ap     4.172412   935App    4.176709  1021Ap     4.179201  
     936App    4.182462  1022Ap     4.183377  1023Ap     4.185927  
    1024Ap     4.187302   937App    4.190270  1025Ap     4.193113  
     938App    4.194606   939App    4.197574  1026Ap     4.199153  
    1027Ap     4.201920   940App    4.207808  1028Ap     4.209024  
     941App    4.209252  1029Ap     4.214660   942App    4.216418  
    1030Ap     4.219926   943App    4.220986  1031Ap     4.222109  
     944App    4.222200  1032Ap     4.226962   945App    4.228550  
    1033Ap     4.230573   946App    4.234731  1034Ap     4.237469  
     947App    4.239235  1035Ap     4.239424   948App    4.248698  
     949App    4.251256  1036Ap     4.254423  1037Ap     4.255448  
    1038Ap     4.260437   950App    4.262253  1039Ap     4.266751  
    1040Ap     4.269213   951App    4.270493   952App    4.272939  
     953App    4.275337  1041Ap     4.276768   954App    4.284879  
    1042Ap     4.286029  1043Ap     4.287832   955App    4.288369  
    1044Ap     4.292821   956App    4.300270  1045Ap     4.301806  
     957App    4.303437   958App    4.308187  1046Ap     4.311536  
    1047Ap     4.312701   959App    4.312799   960App    4.313345  
    1048Ap     4.317767  1049Ap     4.325689   961App    4.326537  
    1050Ap     4.331244   962App    4.332302  1051Ap     4.334500  
     963App    4.335857   964App    4.342936  1052Ap     4.342975  
     965App    4.348934  1053Ap     4.350522  1054Ap     4.352479  
     966App    4.354688   967App    4.356294  1055Ap     4.356729  
     968App    4.360688  1056Ap     4.361478  1057Ap     4.365425  
     969App    4.367450   970App    4.371255  1058Ap     4.373668  
     971App    4.375962  1059Ap     4.376095  1060Ap     4.382364  
     972App    4.389364  1061Ap     4.390242   973App    4.397185  
    1062Ap     4.397720  1063Ap     4.401568   974App    4.404863  
    1064Ap     4.410053   975App    4.410397  1065Ap     4.414378  
     976App    4.416032  1066Ap     4.417880   977App    4.418278  
    1067Ap     4.419428  1068Ap     4.425662  1069Ap     4.427631  
     978App    4.431693  1070Ap     4.435436   979App    4.436904  
     980App    4.439668  1071Ap     4.444356   981App    4.445169  
    1072Ap     4.447659  1073Ap     4.451795   982App    4.451982  
     983App    4.457851  1074Ap     4.457909   984App    4.461850  
    1075Ap     4.462171  1076Ap     4.466775   985App    4.470448  
    1077Ap     4.472142   986App    4.472344  1078Ap     4.478080  
     987App    4.483662  1079Ap     4.483984   988App    4.488987  
    1080Ap     4.492809   989App    4.493935  1081Ap     4.494267  
    1082Ap     4.497638   990App    4.498701  1083Ap     4.498988  
     991App    4.499357  1084Ap     4.504272  1085Ap     4.510572  
     992App    4.515412   993App    4.516780  1086Ap     4.519960  
    1087Ap     4.523837   994App    4.524837  1088Ap     4.529965  
     995App    4.533300   996App    4.536943  1089Ap     4.539606  
     997App    4.543718  1090Ap     4.549514  1091Ap     4.551390  
     998App    4.552626  1092Ap     4.555963   999App    4.557578  
    1093Ap     4.558347  1000App    4.560539  1094Ap     4.566568  
    1001App    4.569257  1095Ap     4.571857  1096Ap     4.576334  
    1002App    4.578221  1003App    4.580818  1097Ap     4.581527  
    1004App    4.582949  1098Ap     4.586125  1005App    4.589079  
    1006App    4.596540  1099Ap     4.598575  1007App    4.599498  
    1100Ap     4.605593  1008App    4.607573  1101Ap     4.617014  
    1009App    4.618143  1102Ap     4.619951  1010App    4.623830  
    1103Ap     4.623929  1104Ap     4.627014  1011App    4.631810  
    1012App    4.634121  1105Ap     4.636169  1013App    4.639213  
    1106Ap     4.642676  1014App    4.644025  1015App    4.651571  
    1107Ap     4.652057  1016App    4.655437  1108Ap     4.656876  
    1017App    4.661889  1109Ap     4.665749  1110Ap     4.669053  
    1018App    4.671998  1111Ap     4.677121  1112Ap     4.680138  
    1019App    4.682433  1020App    4.682830  1021App    4.690294  
    1113Ap     4.690339  1114Ap     4.692993  1022App    4.694092  
    1115Ap     4.696872  1023App    4.699210  1024App    4.702553  
    1116Ap     4.708272  1025App    4.708323  1117Ap     4.711994  
    1026App    4.715221  1118Ap     4.720783  1027App    4.722811  
    1119Ap     4.724840  1028App    4.726317  1029App    4.728997  
    1120Ap     4.735939  1121Ap     4.738938  1122Ap     4.744943  
    1030App    4.746073  1123Ap     4.749090  1124Ap     4.753940  
    1031App    4.754581  1032App    4.759882  1125Ap     4.764257  
    1126Ap     4.767605  1033App    4.768803  1127Ap     4.774424  
    1034App    4.775132  1035App    4.779209  1128Ap     4.781342  
    1036App    4.783704  1129Ap     4.787655  1037App    4.788543  
    1038App    4.791846  1130Ap     4.794897  1039App    4.799075  
    1131Ap     4.802459  1132Ap     4.806790  1040App    4.810760  
    1133Ap     4.812336  1041App    4.813271  1134Ap     4.814205  
    1042App    4.814631  1043App    4.819956  1135Ap     4.824521  
    1044App    4.826169  1136Ap     4.827082  1045App    4.827365  
    1137Ap     4.831476  1138Ap     4.835676  1139Ap     4.839863  
    1046App    4.840771  1047App    4.847099  1140Ap     4.847806  
    1048App    4.850061  1141Ap     4.852564  1049App    4.856137  
    1142Ap     4.857458  1050App    4.859652  1143Ap     4.862400  
    1144Ap     4.869043  1145Ap     4.873254  1051App    4.878531  
    1146Ap     4.881565  1147Ap     4.884774  1052App    4.885006  
    1053App    4.891460  1054App    4.892744  1148Ap     4.893706  
    1149Ap     4.900443  1055App    4.906499  1056App    4.910029  
    1150Ap     4.912133  1151Ap     4.917224  1057App    4.919942  
    1152Ap     4.920897  1153Ap     4.925183  1058App    4.927955  
    1154Ap     4.928773  1059App    4.932955  1060App    4.937706  
    1155Ap     4.938795  1061App    4.942407  1156Ap     4.942411  
    1062App    4.944563  1063App    4.954576  1157Ap     4.960693  
    1064App    4.966794  1158Ap     4.968085  1065App    4.969719  
    1159Ap     4.970205  1066App    4.975235  1160Ap     4.982818  
    1067App    4.990028  1161Ap     4.990845  1068App    5.002501  
    1069App    5.005417  1162Ap     5.005421  1070App    5.009792  
    1071App    5.011659  1163Ap     5.014338  1164Ap     5.015217  
    1165Ap     5.021005  1072App    5.023194  1166Ap     5.025975  
    1073App    5.030233  1167Ap     5.034622  1074App    5.038014  
    1168Ap     5.038096  1075App    5.046164  1169Ap     5.048437  
    1076App    5.059693  1170Ap     5.059812  1171Ap     5.063611  
    1077App    5.066080  1078App    5.066664  1172Ap     5.067726  
    1173Ap     5.073354  1174Ap     5.080748  1079App    5.083659  
    1175Ap     5.087578  1080App    5.090105  1081App    5.094444  
    1176Ap     5.096835  1082App    5.100570  1177Ap     5.100961  
    1083App    5.106260  1178Ap     5.106771  1084App    5.121771  
    1179Ap     5.122670  1180Ap     5.125067  1085App    5.140857  
    1086App    5.143436  1181Ap     5.143717  1182Ap     5.148943  
    1087App    5.157890  1088App    5.163920  1089App    5.166826  
    1183Ap     5.169169  1184Ap     5.174631  1090App    5.178847  
    1091App    5.183784  1185Ap     5.189860  1092App    5.190748  
    1186Ap     5.192913  1093App    5.197701  1187Ap     5.199623  
    1188Ap     5.204066  1189Ap     5.208102  1094App    5.211264  
    1095App    5.212546  1190Ap     5.214670  1096App    5.215141  
    1097App    5.223005  1191Ap     5.225695  1192Ap     5.229033  
    1098App    5.231310  1193Ap     5.236433  1194Ap     5.239837  
    1195Ap     5.246271  1099App    5.247789  1196Ap     5.249296  
    1100App    5.253002  1197Ap     5.258188  1101App    5.261885  
    1102App    5.266537  1198Ap     5.269491  1199Ap     5.278507  
    1103App    5.280841  1200Ap     5.287942  1104App    5.290774  
    1201Ap     5.296235  1105App    5.300346  1202Ap     5.307651  
    1106App    5.309459  1203Ap     5.315548  1107App    5.327377  
    1108App    5.336794  1204Ap     5.347959  1205Ap     5.351626  
    1109App    5.351726  1206Ap     5.352859  1207Ap     5.358442  
    1110App    5.361887  1111App    5.364121  1208Ap     5.365852  
    1112App    5.370551  1209Ap     5.376259  1113App    5.380721  
    1210Ap     5.388268  1114App    5.388866  1115App    5.395443  
    1211Ap     5.400278  1116App    5.404341  1212Ap     5.408509  
    1117App    5.412491  1213Ap     5.417080  1118App    5.428739  
    1214Ap     5.433662  1215Ap     5.433929  1119App    5.435325  
    1216Ap     5.451645  1217Ap     5.455266  1120App    5.455825  
    1121App    5.457675  1122App    5.461533  1218Ap     5.469719  
    1219Ap     5.472589  1123App    5.475248  1124App    5.481244  
    1220Ap     5.486053  1125App    5.491268  1221Ap     5.496709  
    1126App    5.499354  1222Ap     5.514432  1223Ap     5.514934  
    1224Ap     5.515943  1127App    5.518029  1128App    5.523650  
    1225Ap     5.527178  1129App    5.528339  1226Ap     5.535292  
    1130App    5.541826  1227Ap     5.545020  1228Ap     5.546705  
    1131App    5.547493  1229Ap     5.553454  1230Ap     5.554860  
    1132App    5.559606  1133App    5.562506  1134App    5.565566  
    1231Ap     5.573128  1135App    5.573613  1232Ap     5.579261  
    1136App    5.587344  1137App    5.592844  1233Ap     5.599847  
    1234Ap     5.602109  1138App    5.608465  1235Ap     5.615890  
    1139App    5.617845  1236Ap     5.619710  1237Ap     5.625450  
    1140App    5.626559  1141App    5.634337  1238Ap     5.640792  
    1142App    5.649440  1239Ap     5.649989  1240Ap     5.653374  
    1143App    5.656017  1241Ap     5.663617  1242Ap     5.665771  
    1243Ap     5.668423  1144App    5.669581  1145App    5.673114  
    1146App    5.680552  1244Ap     5.684051  1245Ap     5.686057  
    1147App    5.693782  1246Ap     5.697650  1148App    5.704690  
    1247Ap     5.705723  1149App    5.720911  1150App    5.731425  
    1151App    5.736485  1248Ap     5.737451  1152App    5.744140  
    1249Ap     5.746816  1153App    5.754900  1154App    5.756864  
    1250Ap     5.758568  1155App    5.770011  1251Ap     5.770825  
    1252Ap     5.774858  1253Ap     5.776026  1254Ap     5.785369  
    1156App    5.791534  1157App    5.797144  1158App    5.799533  
    1255Ap     5.799651  1256Ap     5.823297  1159App    5.826492  
    1257Ap     5.828019  1160App    5.834178  1161App    5.839007  
    1258Ap     5.839934  1162App    5.851411  1259Ap     5.855863  
    1163App    5.860100  1260Ap     5.875877  1261Ap     5.898440  
    1164App    5.899494  1165App    5.913195  1262Ap     5.913370  
    1263Ap     5.931185  1166App    5.934520  1264Ap     5.938729  
    1265Ap     5.947602  1167App    5.948256  1168App    5.958668  
    1266Ap     5.969608  1169App    5.972090  1267Ap     5.976599  
    1170App    5.980302  1268Ap     5.985924  1269Ap     5.990948  
    1171App    5.995566  1270Ap     6.001699  1271Ap     6.017733  
    1172App    6.023196  1272Ap     6.025726  1173App    6.030528  
    1174App    6.033227  1273Ap     6.034963  1175App    6.039225  
    1274Ap     6.042513  1176App    6.049184  1177App    6.058297  
    1275Ap     6.060401  1276Ap     6.067104  1178App    6.067597  
    1179App    6.075029  1277Ap     6.077074  1180App    6.090012  
    1181App    6.093978  1278Ap     6.097470  1279Ap     6.104788  
    1182App    6.107645  1183App    6.109453  1280Ap     6.115498  
    1184App    6.122874  1281Ap     6.126384  1185App    6.128805  
    1282Ap     6.133083  1283Ap     6.137054  1186App    6.141349  
    1284Ap     6.144539  1285Ap     6.160201  1187App    6.160990  
    1188App    6.165942  1286Ap     6.175775  1189App    6.180120  
    1287Ap     6.184462  1190App    6.189537  1191App    6.195414  
    1288Ap     6.198904  1289Ap     6.203510  1192App    6.204482  
    1193App    6.207402  1290Ap     6.212210  1291Ap     6.222326  
    1194App    6.224997  1292Ap     6.232757  1195App    6.233133  
    1196App    6.253251  1293Ap     6.254976  1197App    6.258713  
    1294Ap     6.323734  1198App    6.324318  1295Ap     6.331878  
    1296Ap     6.335337  1199App    6.335780  1200App    6.338186  
    1297Ap     6.340784  1201App    6.347495  1202App    6.356594  
    1298Ap     6.360175  1299Ap     6.364698  1203App    6.370594  
    1300Ap     6.373641  1204App    6.385215  1301Ap     6.422394  
    1205App    6.426954  1302Ap     6.439222  1303Ap     6.447479  
    1304Ap     6.454198  1206App    6.454373  1305Ap     6.471369  
    1207App    6.473620  1306Ap     6.499624  1307Ap     6.505453  
    1208App    6.506187  1209App    6.508678  1308Ap     6.513901  
    1210App    6.515745  1211App    6.522447  1309Ap     6.529414  
    1212App    6.532255  1213App    6.540981  1310Ap     6.575103  
    1214App    6.590569  1311Ap     6.599222  1215App    6.614709  
    1312Ap     6.636178  1313Ap     6.644589  1314Ap     6.654290  
    1216App    6.654391  1217App    6.660106  1315Ap     6.660539  
    1218App    6.673655  1316Ap     6.688392  1219App    6.702088  
    1317Ap     6.742688  1318Ap     6.756385  1220App    6.759469  
    1319Ap     6.770606  1221App    6.771739  1222App    6.775699  
    1223App    6.794646  1320Ap     6.800572  1321Ap     6.805034  
    1224App    6.859078  1322Ap     6.859897  1225App    6.866061  
    1323Ap     6.891031  1324Ap     6.943613  1226App    6.949312  
    1325Ap     7.043058  1227App    7.045548  1326Ap     7.049244  
    1327Ap     7.078253  1228App    7.078283  1229App    7.115645  
    1230App    7.127346  1328Ap     7.177798  1231App    7.199982  
    1232App    7.201686  1329Ap     7.218047  1330Ap     7.232993  
    1233App    7.244669  1234App    7.247822  1331Ap     7.252622  
    1235App    7.268881  1332Ap     7.269062  1333Ap     7.286180  
    1236App    7.333888  1334Ap     7.424926  1335Ap     7.428075  
    1237App    7.440632  1238App    7.445440  1336Ap     7.456153  
    1239App    7.458474  1240App    7.480749  1337Ap     7.480755  
    1241App    7.486741  1338Ap     7.488576  1339Ap     7.496474  
    1340Ap     7.511941  1341Ap     7.530755  1242App    7.536630  
    1342Ap     7.554311  1243App    7.557153  1343Ap     7.563121  
    1244App    7.572866  1344Ap     7.629051  1245App    7.632487  
    1246App    7.643185  1345Ap     7.728836  1247App    7.734623  
    1248App    7.743536  1346Ap     7.754874  1249App    7.764599  
    1347Ap     7.796241  1250App    7.810000  1348Ap     7.827777  
    1251App    7.828161  1349Ap     7.848393  1252App    7.850573  
    1253App    7.877453  1350Ap     7.905955  1254App    7.915246  
    1351Ap     7.917701  1352Ap     7.988344  1353Ap     8.005289  
    1354Ap     8.010542  1255App    8.012328  1355Ap     8.028315  
    1256App    8.033554  1356Ap     8.177360  1257App    8.182522  
    1357Ap     8.228919  1358Ap     8.234261  1258App    8.236065  
    1259App    8.242060  1359Ap     8.249604  1360Ap     8.296784  
    1260App    8.307434  1361Ap     8.378976  1261App    8.391712  
    1362Ap     8.483966  1363Ap     8.493928  1262App    8.494991  
    1263App    8.498251  1364Ap     8.500430  1365Ap     8.532433  
    1264App    8.544075  1265App    8.599470  1266App    8.889265  
    1366Ap     8.889361  1267App    8.932871  1367Ap     9.071104  
    1268App    9.085086  1368Ap     9.092159  1269App    9.100962  
    1369Ap     9.188770  1370Ap     9.461169  1270App    9.478295  
    1371Ap     9.689830  1372Ap     9.693943  1271App    9.694443  
    1272App    9.711148  1373Ap     9.880084  1374Ap     9.911219  
    1273App    9.917554  1274App    9.932214  1375Ap     9.970535  
    1275App   10.007397  1376Ap    10.008564  1377Ap    10.229104  
    1276App   10.236148  1378Ap    10.300502  1277App   10.318807  
    1379Ap    10.387265  1278App   10.393940  1380Ap    10.509427  
    1279App   10.534018  1381Ap    10.983480  1280App   10.998917  
    1281App   11.127166  1382Ap    11.128846  1282App   11.341528  
    1383Ap    11.353484  1283App   11.363469  1384Ap    11.396091  
    1385Ap    11.425794  1284App   11.426420  1386Ap    11.806355  
    1285App   11.825677  1387Ap    11.929456  1286App   12.003332  
    1388Ap    12.061939  1389Ap    12.074037  1287App   12.078640  
    1288App   12.117488  1390Ap    12.342979  1391Ap    12.461668  
    1289App   12.472587  1392Ap    12.685684  1393Ap    12.715214  
    1290App   12.719680  1394Ap    14.892114  1395Ap    15.699513  
    1291App   15.704996  1396Ap    16.887255  1292App   16.954922  
    1397Ap    17.299490  1293App   17.352920  1398Ap    18.014302  
    1294App   18.022034  1399Ap    19.600403  1295App   19.609066  
    1400Ap    20.148338  1296App   20.461936  1401Ap    20.753365  
    1297App   20.844453  1402Ap    20.976791  1298App   21.076526  
    1403Ap    21.559031  1404Ap    21.666230  1405Ap    22.442146  
    1299App   22.475386  1406Ap    22.903425  1407Ap    23.074227  
    1300App   23.173036  1408Ap    49.893872  1409Ap    51.253578  
    1301App   51.261961  1410Ap    53.684286  1302App   53.825776  
    1411Ap    54.537920  1303App   54.576250  1412Ap    55.728334  
    1304App   55.737122  1413Ap    58.806588  1414Ap    58.939331  
    1305App   58.949745  1306App   59.743878  1415Ap    60.476971  
    1307App   60.614389  1416Ap    60.792372  1308App   60.998187  
    1417Ap    61.937868  1418Ap    62.568946  1419Ap    63.686491  
    1309App   63.748653  1420Ap    64.538090  1421Ap    64.870183  
    1310App   65.069282  

    Final Occupation by Irrep:
             Ap   App 
    DOCC [    43,   35 ]
    NA   [    43,   35 ]
    NB   [    43,   35 ]

  @DF-RKS Final Energy:  -921.05093040501004

   => Energetics <=

    Nuclear Repulsion Energy =           1837.3306649843195828
    One-Electron Energy =               -4896.2438258989586757
    Two-Electron Energy =                2271.7255364492693843
    DFT Exchange-Correlation Energy =    -133.8418031325283550
    Empirical Dispersion Energy =          -0.0215028071120971
    VV10 Nonlocal Energy =                  0.0000000000000000
    Total Energy =                       -921.0509304050100354

Computation Completed


Properties will be evaluated at   0.000000,   0.000000,   0.000000 [a0]

Properties computed using the SCF density matrix


 Multipole Moments:

 ------------------------------------------------------------------------------------
     Multipole            Electronic (a.u.)      Nuclear  (a.u.)        Total (a.u.)
 ------------------------------------------------------------------------------------

 L = 1.  Multiply by 2.5417464519 to convert [e a0] to [Debye]
 Dipole X            :       -228.9100670          228.9101020            0.0000349
 Dipole Y            :          0.0000000           -0.0000000           -0.0000000
 Dipole Z            :       -509.7035079          509.7045283            0.0010204
 Magnitude           :                                                    0.0010210

 ------------------------------------------------------------------------------------

*** tstop() called on atl1-1-03-004-6-1.pace.gatech.edu at Sat Jun 13 11:58:47 2026
Module time:
	user time   =   12998.97 seconds =     216.65 minutes
	system time =    1187.61 seconds =      19.79 minutes
	total time  =       2472 seconds =      41.20 minutes
Total time:
	user time   =   12998.97 seconds =     216.65 minutes
	system time =    1187.61 seconds =      19.79 minutes
	total time  =       2472 seconds =      41.20 minutes

    Psi4 stopped on: Saturday, 13 June 2026 11:58AM
    Psi4 wall time for execution: 0:41:21.08

*** Psi4 exiting successfully. Buy a developer a beer!
