
    -----------------------------------------------------------------------
          Psi4: An Open-Source Ab Initio Electronic Structure Package
                               Psi4 1.9.1 release

                         Git: Rev {} zzzzzzz 


    D. G. A. Smith, L. A. Burns, A. C. Simmonett, R. M. Parrish,
    M. C. Schieber, R. Galvelis, P. Kraus, H. Kruse, R. Di Remigio,
    A. Alenaizan, A. M. James, S. Lehtola, J. P. Misiewicz, M. Scheurer,
    R. A. Shaw, J. B. Schriber, Y. Xie, Z. L. Glick, D. A. Sirianni,
    J. S. O'Brien, J. M. Waldrop, A. Kumar, E. G. Hohenstein,
    B. P. Pritchard, B. R. Brooks, H. F. Schaefer III, A. Yu. Sokolov,
    K. Patkowski, A. E. DePrince III, U. Bozkaya, R. A. King,
    F. A. Evangelista, J. M. Turney, T. D. Crawford, C. D. Sherrill,
    J. Chem. Phys. 152(18) 184108 (2020). https://doi.org/10.1063/5.0006002

                            Additional Code Authors
    E. T. Seidl, C. L. Janssen, E. F. Valeev, M. L. Leininger,
    J. F. Gonthier, R. M. Richard, H. R. McAlexander, M. Saitow, X. Wang,
    P. Verma, M. H. Lechner, A. Jiang, S. Behnle, A. G. Heide,
    M. F. Herbst, and D. L. Poole

             Previous Authors, Complete List of Code Contributors,
                       and Citations for Specific Modules
    https://github.com/psi4/psi4/blob/master/codemeta.json
    https://github.com/psi4/psi4/graphs/contributors
    http://psicode.org/psi4manual/master/introduction.html#citing-psifour

    -----------------------------------------------------------------------


    Psi4 started on: Saturday, 13 June 2026 12:08PM

    Process ID: 145505
    Host:       atl1-1-02-003-28-1.pace.gatech.edu
    PSIDATADIR: /storage/home/hcoda1/5/vlita3/.conda/envs/p4_qcml/share/psi4
    Memory:     250.0 GiB
    Threads:    10
    
  ==> Input QCSchema <==

--------------------------------------------------------------------------
{'driver': 'energy',
 'extras': {},
 'id': '231',
 'keywords': {},
 'model': {'basis': 'aug-cc-pvtz', 'method': 'wb97x-d'},
 'molecule': {'extras': {},
              'fix_com': True,
              'fix_orientation': True,
              'fragment_charges': [0.0, 0.0],
              'fragment_multiplicities': [1, 1],
              'fragments': [[0, 1, 2, 3, 4, 5, 6, 7, 8, 9, 10, 11, 12, 13, 14, 15, 16, 17, 18, 19, 20, 21, 22, 23, 24,
                             25, 26, 27, 28, 29, 30, 31, 32, 33, 34, 35],
                            [36, 37, 38, 39, 40, 41, 42, 43, 44, 45, 46, 47, 48, 49, 50, 51, 52, 53, 54, 55, 56, 57, 58,
                             59, 60, 61, 62, 63, 64, 65, 66, 67, 68, 69, 70, 71]],
              'geometry': [-2.81102804, -2.32727976, -3.26733672, -0.12371685, -2.32727976, -3.26733672, 1.21993874,
                           0.0, -3.26733672, -0.12371685, 2.32727976, -3.26733672, -2.81102804, 2.32727976, -3.26733672,
                           -4.15468364, 0.0, -3.26733672, 1.21375609, -4.64385085, -3.26733672, -0.17645855,
                           -6.93684965, -3.26733672, -2.75828635, -6.93684965, -3.26733672, -4.14850099, -4.64385085,
                           -3.26733672, -6.82962953, 0.0, -3.26733672, -8.12031742, -2.3504606, -3.26733672,
                           -6.82940352, -4.58638906, -3.26733672, -8.12031742, 2.3504606, -3.26733672, -6.82940352,
                           4.58638906, -3.26733672, -4.14850099, 4.64385085, -3.26733672, -2.75828635, 6.93684965,
                           -3.26733672, -0.17645855, 6.93684965, -3.26733672, 1.21375609, 4.64385085, -3.26733672,
                           3.89465863, 4.58638906, -3.26733672, 5.18557252, 2.3504606, -3.26733672, 3.89488463, 0.0,
                           -3.26733672, 5.18557252, -2.3504606, -3.26733672, 3.89465863, -4.58638906, -3.26733672,
                           0.84958395, -8.70675598, -3.26733672, -3.78432885, -8.70675598, -3.26733672, -7.84916611,
                           -6.35992109, -3.26733672, -10.16612251, -2.34683489, -3.26733672, -10.16612251, 2.34683489,
                           -3.26733672, -7.84916611, 6.35992109, -3.26733672, -3.78432885, 8.70675598, -3.26733672,
                           0.84958395, 8.70675598, -3.26733672, 4.91442121, 6.35992109, -3.26733672, 7.23137761,
                           2.34683489, -3.26733672, 7.23137761, -2.34683489, -3.26733672, 4.91442121, -6.35992109,
                           -3.26733672, 0.12371685, -2.32727976, 3.26733672, 2.81102804, -2.32727976, 3.26733672,
                           4.15468364, 0.0, 3.26733672, 2.81102804, 2.32727976, 3.26733672, 0.12371685, 2.32727976,
                           3.26733672, -1.21993874, 0.0, 3.26733672, 4.14850099, -4.64385085, 3.26733672, 2.75828635,
                           -6.93684965, 3.26733672, 0.17645855, -6.93684965, 3.26733672, -1.21375609, -4.64385085,
                           3.26733672, -3.89488463, 0.0, 3.26733672, -5.18557252, -2.3504606, 3.26733672, -3.89465863,
                           -4.58638906, 3.26733672, -5.18557252, 2.3504606, 3.26733672, -3.89465863, 4.58638906,
                           3.26733672, -1.21375609, 4.64385085, 3.26733672, 0.17645855, 6.93684965, 3.26733672,
                           2.75828635, 6.93684965, 3.26733672, 4.14850099, 4.64385085, 3.26733672, 6.82940352,
                           4.58638906, 3.26733672, 8.12031742, 2.3504606, 3.26733672, 6.82962953, 0.0, 3.26733672,
                           8.12031742, -2.3504606, 3.26733672, 6.82940352, -4.58638906, 3.26733672, 3.78432885,
                           -8.70675598, 3.26733672, -0.84958395, -8.70675598, 3.26733672, -4.91442121, -6.35992109,
                           3.26733672, -7.23137761, -2.34683489, 3.26733672, -7.23137761, 2.34683489, 3.26733672,
                           -4.91442121, 6.35992109, 3.26733672, -0.84958395, 8.70675598, 3.26733672, 3.78432885,
                           8.70675598, 3.26733672, 7.84916611, 6.35992109, 3.26733672, 10.16612251, 2.34683489,
                           3.26733672, 10.16612251, -2.34683489, 3.26733672, 7.84916611, -6.35992109, 3.26733672],
              'id': 2,
              'identifiers': {'molecular_formula': 'C48H24',
                              'molecule_hash': '5e8f6cf798e5af2fc45ad63c8cba340f6c4842b2'},
              'molecular_charge': 0.0,
              'molecular_multiplicity': 1,
              'name': 'C48H24',
              'provenance': {'creator': 'QCElemental',
                             'routine': 'qcelemental.molparse.from_string',
                             'version': '0.29.0'},
              'schema_name': 'qcschema_molecule',
              'schema_version': 2,
              'symbols': ['C', 'C', 'C', 'C', 'C', 'C', 'C', 'C', 'C', 'C', 'C', 'C', 'C', 'C', 'C', 'C', 'C', 'C', 'C',
                          'C', 'C', 'C', 'C', 'C', 'H', 'H', 'H', 'H', 'H', 'H', 'H', 'H', 'H', 'H', 'H', 'H', 'C', 'C',
                          'C', 'C', 'C', 'C', 'C', 'C', 'C', 'C', 'C', 'C', 'C', 'C', 'C', 'C', 'C', 'C', 'C', 'C', 'C',
                          'C', 'C', 'C', 'H', 'H', 'H', 'H', 'H', 'H', 'H', 'H', 'H', 'H', 'H', 'H'],
              'validated': True},
 'protocols': {},
 'provenance': {'creator': 'QCElemental', 'routine': 'qcelemental.models.results', 'version': '0.29.0'},
 'schema_name': 'qcschema_input',
 'schema_version': 1}
--------------------------------------------------------------------------

Scratch directory: /tmp/tmp1sl264fq_psi_scratch/
   => Libint2 <=

    Primary   basis highest AM E, G, H:  6, 6, 3
    Auxiliary basis highest AM E, G, H:  7, 7, 4
    Onebody   basis highest AM E, G, H:  -, -, -
    Solid Harmonics ordering:            Gaussian

*** tstart() called on atl1-1-02-003-28-1.pace.gatech.edu
*** at Sat Jun 13 12:08:42 2026

   => Loading Basis Set <=

    Name: AUG-CC-PVTZ
    Role: ORBITAL
    Keyword: BASIS
    atoms 1-24, 37-60  entry C          line   239 file /storage/home/hcoda1/5/vlita3/.conda/envs/p4_qcml/share/psi4/basis/aug-cc-pvtz.gbs 
    atoms 25-36, 61-72 entry H          line    40 file /storage/home/hcoda1/5/vlita3/.conda/envs/p4_qcml/share/psi4/basis/aug-cc-pvtz.gbs 

   => WB97X-D: Empirical Dispersion <=

    Chai and Head-Gordon Dispersion Correction
    Chai, J.-D.; Head-Gordon, M. (2010), J. Chem. Phys., 132: 6615-6620

        s6 =       1.000000


         ---------------------------------------------------------
                                   SCF
               by Justin Turney, Rob Parrish, Andy Simmonett
                          and Daniel G. A. Smith
                              RKS Reference
                       10 Threads, 256000 MiB Core
         ---------------------------------------------------------

  ==> Geometry <==

    Molecular point group: c2h
    Full point group: C2h

    Geometry (in Bohr), charge = 0, multiplicity = 1:

       Center              X                  Y                   Z               Mass       
    ------------   -----------------  -----------------  -----------------  -----------------
         C           -2.811028040000    -2.327279760000    -3.267336720000    12.000000000000
         C           -0.123716850000    -2.327279760000    -3.267336720000    12.000000000000
         C            1.219938740000     0.000000000000    -3.267336720000    12.000000000000
         C           -0.123716850000     2.327279760000    -3.267336720000    12.000000000000
         C           -2.811028040000     2.327279760000    -3.267336720000    12.000000000000
         C           -4.154683640000     0.000000000000    -3.267336720000    12.000000000000
         C            1.213756090000    -4.643850850000    -3.267336720000    12.000000000000
         C           -0.176458550000    -6.936849650000    -3.267336720000    12.000000000000
         C           -2.758286350000    -6.936849650000    -3.267336720000    12.000000000000
         C           -4.148500990000    -4.643850850000    -3.267336720000    12.000000000000
         C           -6.829629530000     0.000000000000    -3.267336720000    12.000000000000
         C           -8.120317420000    -2.350460600000    -3.267336720000    12.000000000000
         C           -6.829403520000    -4.586389060000    -3.267336720000    12.000000000000
         C           -8.120317420000     2.350460600000    -3.267336720000    12.000000000000
         C           -6.829403520000     4.586389060000    -3.267336720000    12.000000000000
         C           -4.148500990000     4.643850850000    -3.267336720000    12.000000000000
         C           -2.758286350000     6.936849650000    -3.267336720000    12.000000000000
         C           -0.176458550000     6.936849650000    -3.267336720000    12.000000000000
         C            1.213756090000     4.643850850000    -3.267336720000    12.000000000000
         C            3.894658630000     4.586389060000    -3.267336720000    12.000000000000
         C            5.185572520000     2.350460600000    -3.267336720000    12.000000000000
         C            3.894884630000     0.000000000000    -3.267336720000    12.000000000000
         C            5.185572520000    -2.350460600000    -3.267336720000    12.000000000000
         C            3.894658630000    -4.586389060000    -3.267336720000    12.000000000000
         H            0.849583950000    -8.706755980000    -3.267336720000     1.007825032230
         H           -3.784328850000    -8.706755980000    -3.267336720000     1.007825032230
         H           -7.849166110000    -6.359921090000    -3.267336720000     1.007825032230
         H          -10.166122510000    -2.346834890000    -3.267336720000     1.007825032230
         H          -10.166122510000     2.346834890000    -3.267336720000     1.007825032230
         H           -7.849166110000     6.359921090000    -3.267336720000     1.007825032230
         H           -3.784328850000     8.706755980000    -3.267336720000     1.007825032230
         H            0.849583950000     8.706755980000    -3.267336720000     1.007825032230
         H            4.914421210000     6.359921090000    -3.267336720000     1.007825032230
         H            7.231377610000     2.346834890000    -3.267336720000     1.007825032230
         H            7.231377610000    -2.346834890000    -3.267336720000     1.007825032230
         H            4.914421210000    -6.359921090000    -3.267336720000     1.007825032230
         C            0.123716850000    -2.327279760000     3.267336720000    12.000000000000
         C            2.811028040000    -2.327279760000     3.267336720000    12.000000000000
         C            4.154683640000     0.000000000000     3.267336720000    12.000000000000
         C            2.811028040000     2.327279760000     3.267336720000    12.000000000000
         C            0.123716850000     2.327279760000     3.267336720000    12.000000000000
         C           -1.219938740000     0.000000000000     3.267336720000    12.000000000000
         C            4.148500990000    -4.643850850000     3.267336720000    12.000000000000
         C            2.758286350000    -6.936849650000     3.267336720000    12.000000000000
         C            0.176458550000    -6.936849650000     3.267336720000    12.000000000000
         C           -1.213756090000    -4.643850850000     3.267336720000    12.000000000000
         C           -3.894884630000     0.000000000000     3.267336720000    12.000000000000
         C           -5.185572520000    -2.350460600000     3.267336720000    12.000000000000
         C           -3.894658630000    -4.586389060000     3.267336720000    12.000000000000
         C           -5.185572520000     2.350460600000     3.267336720000    12.000000000000
         C           -3.894658630000     4.586389060000     3.267336720000    12.000000000000
         C           -1.213756090000     4.643850850000     3.267336720000    12.000000000000
         C            0.176458550000     6.936849650000     3.267336720000    12.000000000000
         C            2.758286350000     6.936849650000     3.267336720000    12.000000000000
         C            4.148500990000     4.643850850000     3.267336720000    12.000000000000
         C            6.829403520000     4.586389060000     3.267336720000    12.000000000000
         C            8.120317420000     2.350460600000     3.267336720000    12.000000000000
         C            6.829629530000     0.000000000000     3.267336720000    12.000000000000
         C            8.120317420000    -2.350460600000     3.267336720000    12.000000000000
         C            6.829403520000    -4.586389060000     3.267336720000    12.000000000000
         H            3.784328850000    -8.706755980000     3.267336720000     1.007825032230
         H           -0.849583950000    -8.706755980000     3.267336720000     1.007825032230
         H           -4.914421210000    -6.359921090000     3.267336720000     1.007825032230
         H           -7.231377610000    -2.346834890000     3.267336720000     1.007825032230
         H           -7.231377610000     2.346834890000     3.267336720000     1.007825032230
         H           -4.914421210000     6.359921090000     3.267336720000     1.007825032230
         H           -0.849583950000     8.706755980000     3.267336720000     1.007825032230
         H            3.784328850000     8.706755980000     3.267336720000     1.007825032230
         H            7.849166110000     6.359921090000     3.267336720000     1.007825032230
         H           10.166122510000     2.346834890000     3.267336720000     1.007825032230
         H           10.166122510000    -2.346834890000     3.267336720000     1.007825032230
         H            7.849166110000    -6.359921090000     3.267336720000     1.007825032230

  Running in c2h symmetry.

  Rotational constants: A =      0.00378  B =      0.00326  C =      0.00251 [cm^-1]
  Rotational constants: A =    113.23902  B =     97.86670  C =     75.24221 [MHz]
  Nuclear repulsion = 6088.170067665134411

  Charge       = 0
  Multiplicity = 1
  Electrons    = 312
  Nalpha       = 156
  Nbeta        = 156

  ==> Algorithm <==

  SCF Algorithm Type is DF.
  DIIS enabled.
  MOM disabled.
  Fractional occupation disabled.
  Guess Type is SAD.
  Energy threshold   = 1.00e-06
  Density threshold  = 1.00e-06
  Integral threshold = 1.00e-12

  ==> Primary Basis <==

  Basis Set: AUG-CC-PVTZ
    Blend: AUG-CC-PVTZ
    Number of shells: 888
    Number of basis functions: 2760
    Number of Cartesian functions: 3240
    Spherical Harmonics?: true
    Max angular momentum: 3

  ==> DFT Potential <==

   => LibXC <=

    Version 7.0.0
    S. Lehtola, C. Steigemann, M. J.T. Oliveira, and M. A.L. Marques.,  SoftwareX 7, 1–5 (2018) (10.1016/j.softx.2017.11.002)

   => Composite Functional: WB97X-D <= 

    wB97X-D Hyb-GGA Exchange-Correlation Functional

    J.-D. Chai and M. Head-Gordon.,  Phys. Chem. Chem. Phys. 10, 6615-6620 (2008) (10.1039/B810189B)

    Deriv               =              1
    GGA                 =           TRUE
    Meta                =          FALSE

    Exchange Hybrid     =           TRUE
    MP2 Hybrid          =          FALSE

   => Exchange-Correlation Functionals <=

    1.0000   wB97X-D range-separated functional

   => Exact (HF) Exchange <=

    0.7780            HF,LR [omega = 0.2000]
    0.2220               HF 

   => LibXC Density Thresholds  <==

    XC_HYB_GGA_XC_WB97X_D:  1.00E-14 

   => Molecular Quadrature <=

    Radial Scheme          =       TREUTLER
    Pruning Scheme         =           NONE
    Nuclear Scheme         =       TREUTLER

    Blocking Scheme        =         OCTREE
    BS radius alpha        =              1
    Pruning alpha          =              1
    Radial Points          =             75
    Spherical Points       =            302
    Total Points           =        1423706
    Total Blocks           =           9482
    Max Points             =            256
    Max Functions          =           2109
    Weights Tolerance      =       1.00E-15

   => Loading Basis Set <=

    Name: (AUG-CC-PVTZ AUX)
    Role: JKFIT
    Keyword: DF_BASIS_SCF
    atoms 1-24, 37-60  entry C          line   162 file /storage/home/hcoda1/5/vlita3/.conda/envs/p4_qcml/share/psi4/basis/aug-cc-pvtz-jkfit.gbs 
    atoms 25-36, 61-72 entry H          line    70 file /storage/home/hcoda1/5/vlita3/.conda/envs/p4_qcml/share/psi4/basis/aug-cc-pvtz-jkfit.gbs 

  ==> Integral Setup <==

  ==> DiskDFJK: Density-Fitted J/K Matrices <==

    J tasked:                  Yes
    K tasked:                  Yes
    wK tasked:                 Yes
    Omega:               2.000E-01
    OpenMP threads:             10
    Integrals threads:          10
    Memory [MiB]:           147036
    Algorithm:                Disk
    Integral Cache:           NONE
    Schwarz Cutoff:          1E-12
    Fitting Condition:       1E-10

   => Auxiliary Basis Set <=

  Basis Set: (AUG-CC-PVTZ AUX)
    Blend: AUG-CC-PVTZ-JKFIT
    Number of shells: 1776
    Number of basis functions: 6096
    Number of Cartesian functions: 7608
    Spherical Harmonics?: true
    Max angular momentum: 4

  Cached 50.0% of DFT collocation blocks in 28.297 [GiB].

  Minimum eigenvalue in the overlap matrix is 1.3049964763E-10.
  Reciprocal condition number of the overlap matrix is 4.3273072668E-12.
    Using canonical orthogonalization.
  Overall, 31 of 2760 possible MOs eliminated.


  ==> Pre-Iterations <==

  SCF Guess: Superposition of Atomic Densities via on-the-fly atomic UHF (no occupation information).

   -------------------------
    Irrep   Nso     Nmo    
   -------------------------
     Ag       718     710 
     Bg       662     655 
     Au       662     654 
     Bu       718     710 
   -------------------------
    Total    2760    2729
   -------------------------

  ==> Iterations <==

                           Total Energy        Delta E     RMS |[F,P]|

   @DF-RKS iter SAD: -1846.37905676626656   -1.84638e+03   0.00000e+00 
   @DF-RKS iter   1: -1842.22309951207853    4.15596e+00   1.23500e-03 ADIIS/DIIS
   @DF-RKS iter   2: -1842.92552857650594   -7.02429e-01   9.31356e-04 ADIIS/DIIS
   @DF-RKS iter   3: -1843.67121661157239   -7.45688e-01   3.02108e-04 ADIIS/DIIS
   @DF-RKS iter   4: -1843.74799236809872   -7.67758e-02   9.29114e-05 DIIS
   @DF-RKS iter   5: -1843.75572847260696   -7.73610e-03   2.71637e-05 DIIS
   @DF-RKS iter   6: -1843.75637050941305   -6.42037e-04   7.66924e-06 DIIS
   @DF-RKS iter   7: -1843.75643143638626   -6.09270e-05   1.36483e-06 DIIS
   @DF-RKS iter   8: -1843.75643639810005   -4.96171e-06   9.39434e-07 DIIS
   @DF-RKS iter   9: -1843.75643814965133   -1.75155e-06   3.93883e-07 DIIS
   @DF-RKS iter  10: -1843.75643865146958   -5.01818e-07   1.66769e-07 DIIS
  Energy and wave function converged.


  ==> Post-Iterations <==

   Electrons on quadrature grid:
      Ntotal   =  312.0005662890 ; deviation = 5.663e-04 

    Orbital Energies [Eh]
    ---------------------

    Doubly Occupied:                                                      

       1Ag   -10.300866     1Bu   -10.300865     2Ag   -10.300419  
       2Bu   -10.300418     1Au   -10.300295     1Bg   -10.300295  
       3Bu   -10.300183     3Ag   -10.300183     2Bg   -10.299754  
       2Au   -10.299754     4Bu   -10.299745     4Ag   -10.299745  
       5Bu   -10.299302     5Ag   -10.299301     3Au   -10.299293  
       3Bg   -10.299292     6Ag   -10.298888     6Bu   -10.298888  
       4Bg   -10.298715     4Au   -10.298714     7Bu   -10.298697  
       7Ag   -10.298697     8Ag   -10.298188     8Bu   -10.298188  
       5Bg   -10.292741     5Au   -10.292741     9Bu   -10.292721  
       9Ag   -10.292721    10Ag   -10.291875    10Bu   -10.291875  
       6Au   -10.291874     6Bg   -10.291874    11Bu   -10.291500  
      11Ag   -10.291498     7Bg   -10.291498     7Au   -10.291498  
      12Bu   -10.290616    12Ag   -10.290616     8Bg   -10.290608  
       8Au   -10.290608     9Au   -10.289915     9Bg   -10.289914  
      13Ag   -10.289901    13Bu   -10.289901    10Au   -10.288779  
      10Bg   -10.288778    14Ag   -10.288774    14Bu   -10.288774  
      15Ag    -1.011027    15Bu    -1.006833    11Au    -0.973511  
      16Bu    -0.972866    16Ag    -0.970222    11Bg    -0.969632  
      17Ag    -0.924743    12Bg    -0.924684    17Bu    -0.922474  
      12Au    -0.922302    18Ag    -0.907638    18Bu    -0.905511  
      13Au    -0.875639    13Bg    -0.874101    19Bu    -0.860237  
      19Ag    -0.858965    14Au    -0.842854    20Ag    -0.841640  
      20Bu    -0.841572    14Bg    -0.840619    21Ag    -0.809678  
      15Au    -0.808891    15Bg    -0.808591    21Bu    -0.808124  
      16Bg    -0.729653    22Ag    -0.729237    22Bu    -0.729215  
      16Au    -0.728880    23Ag    -0.725829    17Au    -0.725723  
      23Bu    -0.725309    17Bg    -0.725224    24Ag    -0.718347  
      24Bu    -0.717950    18Au    -0.653455    18Bg    -0.653172  
      25Bu    -0.645535    25Ag    -0.645366    19Au    -0.629775  
      26Ag    -0.629248    26Bu    -0.628610    19Bg    -0.628486  
      20Au    -0.627019    20Bg    -0.626770    27Bu    -0.605231  
      27Ag    -0.605095    28Ag    -0.562501    21Au    -0.561980  
      21Bg    -0.561472    28Bu    -0.561409    22Bg    -0.544551  
      29Ag    -0.544538    29Bu    -0.544423    22Au    -0.544384  
      23Bg    -0.541299    30Bu    -0.541024    23Au    -0.540877  
      30Ag    -0.540791    31Ag    -0.536999    32Ag    -0.511768  
      31Bu    -0.511348    32Bu    -0.506129    24Au    -0.504247  
      33Ag    -0.504181    24Bg    -0.503704    33Bu    -0.503528  
      25Au    -0.499922    25Bg    -0.499864    26Au    -0.491173  
      34Bu    -0.484661    26Bg    -0.484177    34Ag    -0.484016  
      27Au    -0.484006    35Bu    -0.483829    35Ag    -0.465244  
      27Bg    -0.460967    36Bu    -0.455135    36Ag    -0.454785  
      28Au    -0.454759    28Bg    -0.454616    29Bg    -0.439704  
      29Au    -0.439472    30Au    -0.439287    37Ag    -0.439077  
      37Bu    -0.438998    30Bg    -0.438681    38Ag    -0.427033  
      31Bg    -0.425135    38Bu    -0.408380    31Au    -0.406870  
      39Ag    -0.405139    32Bg    -0.392682    32Au    -0.392508  
      40Ag    -0.392469    39Bu    -0.392331    40Bu    -0.388915  
      33Au    -0.356531    41Bu    -0.347477    33Bg    -0.342999  
      41Ag    -0.338808    34Au    -0.332476    42Ag    -0.323285  
      42Bu    -0.322329    34Bg    -0.316130    43Ag    -0.273225  
      35Au    -0.267251    35Bg    -0.262999    43Bu    -0.258598  

    Virtual:                                                              

      36Au    -0.004363    44Ag    -0.004078    36Bg     0.002902  
      44Bu     0.003596    37Au     0.026941    45Bu     0.027348  
      45Ag     0.027349    37Bg     0.033870    46Ag     0.034059  
      46Bu     0.037526    38Bg     0.040539    39Bg     0.042175  
      47Ag     0.042587    47Bu     0.042685    48Ag     0.043761  
      48Bu     0.044115    38Au     0.044823    39Au     0.046876  
      49Bu     0.053164    40Au     0.054580    49Ag     0.057853  
      50Ag     0.057941    40Bg     0.058475    51Ag     0.064816  
      41Bg     0.066412    50Bu     0.066565    41Au     0.074715  
      52Ag     0.074784    51Bu     0.074827    52Bu     0.078119  
      42Au     0.078132    53Bu     0.081272    54Bu     0.083538  
      43Au     0.083900    44Au     0.089366    42Bg     0.091465  
      45Au     0.091778    43Bg     0.093035    55Bu     0.093812  
      53Ag     0.094886    54Ag     0.095882    44Bg     0.096610  
      45Bg     0.098945    55Ag     0.099841    56Ag     0.101849  
      46Bg     0.102656    47Bg     0.103399    57Ag     0.103555  
      56Bu     0.103579    57Bu     0.112424    58Ag     0.112452  
      46Au     0.113300    58Bu     0.114247    48Bg     0.115041  
      47Au     0.115363    59Ag     0.115538    60Ag     0.120498  
      59Bu     0.121265    48Au     0.122092    49Au     0.122941  
      60Bu     0.124177    50Au     0.125993    61Ag     0.128134  
      61Bu     0.128625    49Bg     0.129357    51Au     0.130455  
      62Bu     0.132692    50Bg     0.140777    63Bu     0.141160  
      62Ag     0.142754    63Ag     0.144996    52Au     0.147992  
      64Bu     0.148041    51Bg     0.152612    64Ag     0.152638  
      53Au     0.153308    65Bu     0.154125    65Ag     0.155232  
      52Bg     0.156431    66Ag     0.157685    53Bg     0.159094  
      66Bu     0.160664    54Au     0.160712    67Bu     0.162202  
      54Bg     0.162346    67Ag     0.165603    68Ag     0.167359  
      55Bg     0.167959    69Ag     0.168257    70Ag     0.173842  
      56Bg     0.174218    71Ag     0.175004    55Au     0.175644  
      68Bu     0.177209    69Bu     0.178895    56Au     0.181798  
      57Au     0.182570    70Bu     0.184925    71Bu     0.186526  
      57Bg     0.187843    72Ag     0.189391    58Bg     0.193440  
      58Au     0.193564    72Bu     0.194122    59Au     0.196880  
      73Ag     0.197043    73Bu     0.197999    74Bu     0.200378  
      59Bg     0.201106    60Au     0.203346    75Bu     0.205710  
      60Bg     0.205869    61Au     0.206433    62Au     0.207175  
      74Ag     0.208049    61Bg     0.212959    75Ag     0.214033  
      76Bu     0.214944    77Bu     0.216818    76Ag     0.218477  
      63Au     0.219129    62Bg     0.221431    77Ag     0.221716  
      78Bu     0.223522    78Ag     0.224173    63Bg     0.224227  
      79Bu     0.227213    64Bg     0.227369    80Bu     0.229549  
      64Au     0.230097    65Au     0.232891    79Ag     0.233109  
      80Ag     0.233493    65Bg     0.234608    81Ag     0.239060  
      66Bg     0.239110    66Au     0.240241    82Ag     0.240512  
      81Bu     0.241271    67Bg     0.241275    82Bu     0.243671  
      83Ag     0.243736    83Bu     0.246094    67Au     0.246162  
      68Bg     0.246176    68Au     0.248341    84Bu     0.250543  
      84Ag     0.252093    69Bg     0.253457    85Ag     0.253876  
      85Bu     0.253950    86Ag     0.254060    69Au     0.254874  
      86Bu     0.257639    87Ag     0.258731    70Bg     0.259690  
      70Au     0.259725    88Ag     0.260265    71Au     0.261179  
      71Bg     0.261984    87Bu     0.263355    72Au     0.263670  
      89Ag     0.265215    88Bu     0.265366    72Bg     0.266900  
      89Bu     0.267068    90Ag     0.270763    73Bg     0.271345  
      73Au     0.272696    74Au     0.273745    90Bu     0.274176  
      75Au     0.275279    74Bg     0.276051    91Bu     0.277754  
      91Ag     0.278598    75Bg     0.282354    92Ag     0.284238  
      76Au     0.288322    93Ag     0.289213    76Bg     0.290342  
      92Bu     0.290680    77Au     0.291927    77Bg     0.292635  
      94Ag     0.294752    93Bu     0.295804    95Ag     0.296643  
      94Bu     0.297366    96Ag     0.298065    78Au     0.298319  
      78Bg     0.301969    97Ag     0.302913    79Au     0.303942  
      79Bg     0.304055    80Bg     0.304861    98Ag     0.305585  
      95Bu     0.306494    80Au     0.307711    99Ag     0.310430  
      96Bu     0.312314    97Bu     0.313630    81Au     0.314159  
     100Ag     0.315659    98Bu     0.316261    81Bg     0.317796  
      82Au     0.319524    82Bg     0.321107    83Au     0.322894  
      99Bu     0.326006   100Bu     0.327139   101Ag     0.327521  
      84Au     0.327752    83Bg     0.329187   101Bu     0.330492  
     102Ag     0.331446   102Bu     0.332150   103Ag     0.332309  
      84Bg     0.336200    85Bg     0.337333   104Ag     0.338921  
      85Au     0.341250   103Bu     0.341571    86Au     0.342645  
     104Bu     0.343149   105Ag     0.344554   105Bu     0.345093  
      86Bg     0.347636    87Au     0.347958   106Bu     0.348650  
     107Bu     0.349139   106Ag     0.349783    88Au     0.350773  
      89Au     0.353677    87Bg     0.353695   107Ag     0.354769  
     108Bu     0.355387    88Bg     0.357151    90Au     0.358423  
     108Ag     0.360472    89Bg     0.361557   109Bu     0.362541  
      91Au     0.362752   109Ag     0.363818   110Ag     0.366133  
      90Bg     0.366989   110Bu     0.368273    92Au     0.368821  
     111Ag     0.370222    91Bg     0.372189   111Bu     0.376577  
      93Au     0.377738    92Bg     0.378394   112Bu     0.379015  
     113Bu     0.379561   112Ag     0.379680    93Bg     0.382689  
     113Ag     0.383080    94Au     0.383683   114Bu     0.385860  
     114Ag     0.389237    95Au     0.389559    94Bg     0.389675  
     115Bu     0.390756   115Ag     0.392934    96Au     0.393009  
     116Bu     0.394534    95Bg     0.394778   116Ag     0.397862  
      97Au     0.399367   117Bu     0.401334   117Ag     0.403464  
      96Bg     0.405396    98Au     0.405397   118Ag     0.409927  
     118Bu     0.411779    97Bg     0.415645    98Bg     0.416264  
     119Ag     0.416410    99Au     0.416720   119Bu     0.417221  
     120Ag     0.419497    99Bg     0.419680   120Bu     0.421433  
     100Bg     0.422299   121Ag     0.423521   121Bu     0.425534  
     101Bg     0.425813   100Au     0.429299   102Bg     0.430969  
     122Bu     0.433922   101Au     0.435792   122Ag     0.436145  
     123Bu     0.438068   123Ag     0.440341   124Bu     0.440499  
     102Au     0.442647   124Ag     0.447129   103Au     0.449402  
     103Bg     0.450151   125Bu     0.451277   125Ag     0.454278  
     104Bg     0.456289   105Bg     0.457967   126Ag     0.457973  
     127Ag     0.461766   126Bu     0.465770   106Bg     0.465920  
     104Au     0.466345   128Ag     0.466437   127Bu     0.467693  
     128Bu     0.469273   105Au     0.471923   107Bg     0.471963  
     129Ag     0.472877   106Au     0.473646   130Ag     0.476767  
     129Bu     0.479963   107Au     0.480003   108Bg     0.480525  
     109Bg     0.480601   131Ag     0.481197   108Au     0.483890  
     132Ag     0.484216   130Bu     0.484356   133Ag     0.488366  
     110Bg     0.490604   131Bu     0.493353   134Ag     0.493857  
     109Au     0.494452   132Bu     0.494942   111Bg     0.495617  
     135Ag     0.495873   110Au     0.496357   133Bu     0.497200  
     111Au     0.498237   136Ag     0.500463   134Bu     0.502146  
     112Au     0.502381   137Ag     0.505910   112Bg     0.506134  
     135Bu     0.506520   113Au     0.507701   138Ag     0.510141  
     113Bg     0.510266   139Ag     0.511136   136Bu     0.512273  
     114Au     0.513145   114Bg     0.516473   115Au     0.517159  
     115Bg     0.517604   137Bu     0.517707   140Ag     0.518010  
     116Au     0.520104   138Bu     0.521377   116Bg     0.521704  
     139Bu     0.521871   141Ag     0.522399   140Bu     0.526022  
     117Bg     0.526060   117Au     0.527518   141Bu     0.529141  
     118Au     0.531169   142Ag     0.531267   118Bg     0.531567  
     142Bu     0.532749   143Ag     0.533473   119Au     0.534439  
     119Bg     0.535814   143Bu     0.537687   120Au     0.537723  
     144Ag     0.538528   120Bg     0.539630   145Ag     0.541539  
     144Bu     0.541551   121Au     0.542386   145Bu     0.545400  
     121Bg     0.546136   146Ag     0.546260   147Ag     0.548283  
     146Bu     0.549258   122Bg     0.549957   147Bu     0.551267  
     122Au     0.555501   123Bg     0.555827   123Au     0.558822  
     148Bu     0.559690   124Bg     0.560223   148Ag     0.560486  
     149Ag     0.562098   149Bu     0.563301   150Ag     0.565684  
     125Bg     0.566904   124Au     0.567216   150Bu     0.568263  
     125Au     0.568799   151Ag     0.569567   126Au     0.571540  
     152Ag     0.571629   126Bg     0.574450   127Bg     0.577058  
     151Bu     0.577648   127Au     0.579582   128Au     0.582597  
     153Ag     0.583755   152Bu     0.587759   128Bg     0.588258  
     153Bu     0.589177   129Au     0.589854   154Bu     0.591258  
     154Ag     0.591472   129Bg     0.591735   155Ag     0.593337  
     155Bu     0.598995   156Ag     0.599178   130Au     0.600944  
     130Bg     0.601192   131Bg     0.603728   156Bu     0.605009  
     131Au     0.606619   157Bu     0.608057   132Bg     0.611708  
     132Au     0.612873   157Ag     0.614271   158Ag     0.617386  
     133Au     0.619772   158Bu     0.620048   133Bg     0.620926  
     134Bg     0.626346   134Au     0.627495   159Bu     0.630686  
     135Au     0.631283   159Ag     0.631932   135Bg     0.634236  
     136Au     0.636076   160Ag     0.637789   160Bu     0.637938  
     161Bu     0.642086   136Bg     0.642225   161Ag     0.644866  
     137Au     0.645553   137Bg     0.648946   162Ag     0.653753  
     138Au     0.654654   162Bu     0.656037   163Ag     0.658309  
     139Au     0.659297   138Bg     0.660097   163Bu     0.661061  
     164Ag     0.666170   164Bu     0.666406   139Bg     0.668188  
     140Au     0.669507   165Bu     0.671450   141Au     0.675636  
     165Ag     0.678946   166Bu     0.679341   142Au     0.679403  
     166Ag     0.679807   167Bu     0.682005   167Ag     0.683680  
     168Ag     0.686183   140Bg     0.687011   141Bg     0.689774  
     142Bg     0.691373   143Au     0.691583   168Bu     0.691986  
     169Ag     0.693411   143Bg     0.695725   170Ag     0.696120  
     144Au     0.699846   169Bu     0.700881   145Au     0.701928  
     144Bg     0.704046   145Bg     0.708007   171Ag     0.708530  
     170Bu     0.710166   146Au     0.710227   146Bg     0.711399  
     147Au     0.714132   172Ag     0.715438   147Bg     0.717057  
     171Bu     0.717696   172Bu     0.719089   173Ag     0.719485  
     148Bg     0.720334   148Au     0.721141   173Bu     0.724610  
     149Au     0.728153   174Ag     0.728304   174Bu     0.730988  
     149Bg     0.733037   175Ag     0.733278   175Bu     0.734338  
     176Ag     0.735997   150Bg     0.739674   176Bu     0.739833  
     150Au     0.742600   177Bu     0.743486   177Ag     0.746378  
     151Au     0.747723   151Bg     0.748870   178Ag     0.751621  
     152Au     0.753340   152Bg     0.753708   178Bu     0.755715  
     153Bg     0.758349   179Bu     0.758640   179Ag     0.759454  
     153Au     0.761545   180Ag     0.763476   181Ag     0.764998  
     180Bu     0.766897   154Bg     0.770109   154Au     0.770632  
     155Au     0.773360   181Bu     0.774404   182Ag     0.774644  
     155Bg     0.774883   156Bg     0.776462   156Au     0.776803  
     182Bu     0.780617   183Ag     0.781682   184Ag     0.783616  
     157Au     0.784642   183Bu     0.787196   157Bg     0.789061  
     184Bu     0.789450   185Ag     0.792100   158Au     0.792832  
     158Bg     0.795032   185Bu     0.796967   186Ag     0.797453  
     186Bu     0.798592   159Au     0.799011   160Au     0.801753  
     159Bg     0.803262   187Bu     0.804578   160Bg     0.804899  
     187Ag     0.806273   161Bg     0.806341   188Ag     0.811093  
     188Bu     0.812306   161Au     0.813983   189Bu     0.814336  
     189Ag     0.816675   162Au     0.816854   162Bg     0.818584  
     190Ag     0.823438   163Bg     0.823741   191Ag     0.825694  
     190Bu     0.828045   163Au     0.828277   164Bg     0.832891  
     192Ag     0.833425   165Bg     0.837068   164Au     0.838866  
     193Ag     0.839410   191Bu     0.841965   165Au     0.845297  
     192Bu     0.845527   166Au     0.848060   193Bu     0.848640  
     194Ag     0.849831   166Bg     0.850646   194Bu     0.853624  
     167Au     0.854075   195Ag     0.856647   167Bg     0.858327  
     195Bu     0.859066   168Bg     0.859973   196Ag     0.860573  
     196Bu     0.862500   168Au     0.863594   169Bg     0.865273  
     197Ag     0.866447   198Ag     0.869767   169Au     0.870068  
     170Bg     0.870192   197Bu     0.871473   170Au     0.873438  
     199Ag     0.875479   198Bu     0.877750   171Au     0.878921  
     200Ag     0.879360   171Bg     0.883229   172Au     0.884152  
     201Ag     0.884424   202Ag     0.885563   173Au     0.887209  
     199Bu     0.887720   172Bg     0.887812   200Bu     0.888516  
     201Bu     0.891169   173Bg     0.893378   202Bu     0.893415  
     174Bg     0.895152   174Au     0.896607   203Ag     0.898918  
     203Bu     0.901259   175Au     0.901767   204Ag     0.901847  
     205Ag     0.904037   204Bu     0.905749   175Bg     0.905793  
     176Au     0.906112   206Ag     0.907655   205Bu     0.909050  
     176Bg     0.910391   207Ag     0.912108   206Bu     0.912912  
     177Au     0.913526   177Bg     0.915263   207Bu     0.916140  
     178Au     0.916622   208Ag     0.917373   179Au     0.920595  
     208Bu     0.921018   178Bg     0.922249   180Au     0.924454  
     209Ag     0.924665   209Bu     0.926735   179Bg     0.927004  
     210Ag     0.930823   181Au     0.931039   180Bg     0.931407  
     210Bu     0.933742   211Ag     0.933758   211Bu     0.934499  
     212Ag     0.935280   182Au     0.936454   212Bu     0.937675  
     181Bg     0.938866   213Bu     0.940777   213Ag     0.941673  
     182Bg     0.942221   183Au     0.944417   214Bu     0.945308  
     183Bg     0.946788   214Ag     0.949596   184Au     0.950745  
     185Au     0.953750   184Bg     0.955944   215Bu     0.956865  
     215Ag     0.957000   185Bg     0.960779   216Ag     0.961921  
     186Au     0.963656   216Bu     0.964349   217Ag     0.966138  
     186Bg     0.967215   187Bg     0.968237   187Au     0.968799  
     188Bg     0.972893   218Ag     0.975013   217Bu     0.976361  
     189Bg     0.977479   218Bu     0.978064   219Ag     0.978242  
     188Au     0.978844   220Ag     0.983878   190Bg     0.987214  
     219Bu     0.987788   220Bu     0.990520   189Au     0.991074  
     221Ag     0.992101   190Au     0.996053   191Au     0.997300  
     221Bu     0.998895   191Bg     1.002778   222Ag     1.005302  
     192Bg     1.006614   222Bu     1.007088   192Au     1.008510  
     223Ag     1.010635   193Au     1.010931   223Bu     1.012285  
     224Ag     1.012987   193Bg     1.013111   225Ag     1.016295  
     194Au     1.022660   194Bg     1.025885   195Au     1.026318  
     224Bu     1.026888   195Bg     1.027321   226Ag     1.030466  
     225Bu     1.031418   227Ag     1.039098   226Bu     1.040778  
     196Au     1.042174   196Bg     1.042313   228Ag     1.044881  
     197Bg     1.045537   197Au     1.045776   198Bg     1.046263  
     198Au     1.047353   227Bu     1.049401   229Ag     1.049937  
     230Ag     1.053430   228Bu     1.053954   199Au     1.056749  
     199Bg     1.057216   200Au     1.058220   229Bu     1.058231  
     200Bg     1.061148   231Ag     1.062724   230Bu     1.064903  
     232Ag     1.065289   233Ag     1.066344   201Au     1.068849  
     201Bg     1.069653   231Bu     1.072646   202Au     1.072780  
     202Bg     1.074510   232Bu     1.078970   203Au     1.079377  
     233Bu     1.083478   234Ag     1.085800   203Bg     1.087175  
     204Au     1.087613   234Bu     1.088977   235Ag     1.091607  
     204Bg     1.092987   235Bu     1.094828   236Ag     1.096597  
     205Au     1.098812   205Bg     1.099797   237Ag     1.101317  
     236Bu     1.101810   206Au     1.103679   237Bu     1.107488  
     207Au     1.108208   206Bg     1.109068   238Ag     1.109856  
     207Bg     1.110980   208Au     1.116978   238Bu     1.118032  
     208Bg     1.118627   239Ag     1.118969   240Ag     1.120291  
     239Bu     1.120480   209Au     1.123390   209Bg     1.123807  
     240Bu     1.127529   210Bg     1.128961   210Au     1.129149  
     211Bg     1.133989   241Bu     1.134719   241Ag     1.136616  
     212Bg     1.136732   242Ag     1.137000   211Au     1.139155  
     242Bu     1.140810   212Au     1.142255   243Bu     1.142825  
     243Ag     1.149602   244Bu     1.150329   213Au     1.153563  
     244Ag     1.153620   213Bg     1.153739   214Bg     1.157155  
     245Bu     1.158589   245Ag     1.160494   214Au     1.162685  
     246Bu     1.163356   246Ag     1.167806   215Au     1.168062  
     247Bu     1.170018   247Ag     1.170557   215Bg     1.172009  
     248Bu     1.173897   216Bg     1.174644   216Au     1.179251  
     249Bu     1.180435   248Ag     1.182514   217Bg     1.184229  
     249Ag     1.186000   217Au     1.186125   250Bu     1.189323  
     218Bg     1.189848   218Au     1.191728   250Ag     1.192853  
     251Bu     1.197348   251Ag     1.197705   219Bg     1.198805  
     220Bg     1.200309   252Bu     1.203430   219Au     1.203552  
     252Ag     1.203805   220Au     1.210356   253Ag     1.211441  
     253Bu     1.212461   221Au     1.213678   254Bu     1.214339  
     255Bu     1.218622   221Bg     1.219384   254Ag     1.220071  
     222Au     1.221101   222Bg     1.223642   255Ag     1.224918  
     256Bu     1.226636   257Bu     1.230052   223Bg     1.230492  
     256Ag     1.231133   223Au     1.233522   257Ag     1.239362  
     224Bg     1.239713   258Ag     1.241088   258Bu     1.243459  
     259Ag     1.245659   225Bg     1.245681   224Au     1.246191  
     225Au     1.248257   260Ag     1.248345   259Bu     1.252325  
     226Bg     1.253451   261Ag     1.257164   260Bu     1.257912  
     226Au     1.259063   227Bg     1.259741   261Bu     1.262108  
     262Bu     1.263376   227Au     1.268601   262Ag     1.270295  
     263Ag     1.271843   228Bg     1.272019   229Bg     1.273185  
     263Bu     1.273870   228Au     1.273985   264Ag     1.276376  
     229Au     1.279118   264Bu     1.281816   230Bg     1.282009  
     230Au     1.284063   231Bg     1.286935   265Ag     1.291454  
     265Bu     1.292881   231Au     1.295581   266Bu     1.296327  
     266Ag     1.298926   232Bg     1.300481   232Au     1.300678  
     267Bu     1.306349   268Bu     1.310371   233Au     1.311021  
     267Ag     1.311636   233Bg     1.311833   234Bg     1.315475  
     268Ag     1.317370   269Ag     1.319650   234Au     1.320324  
     235Bg     1.320808   270Ag     1.321607   269Bu     1.322404  
     236Bg     1.328251   235Au     1.330384   270Bu     1.332313  
     236Au     1.335846   237Bg     1.336720   271Bu     1.337827  
     271Ag     1.338439   272Bu     1.339977   237Au     1.344866  
     238Bg     1.344921   238Au     1.347171   272Ag     1.347242  
     273Bu     1.347412   273Ag     1.348253   239Bg     1.351659  
     274Bu     1.353130   274Ag     1.356246   239Au     1.359434  
     240Bg     1.359620   275Bu     1.359751   276Bu     1.364239  
     241Bg     1.364948   275Ag     1.367783   242Bg     1.371337  
     276Ag     1.373162   277Bu     1.373333   240Au     1.375155  
     277Ag     1.377485   243Bg     1.380431   241Au     1.380567  
     242Au     1.383767   278Ag     1.384210   278Bu     1.385031  
     243Au     1.391923   279Bu     1.393612   244Au     1.394628  
     279Ag     1.395781   244Bg     1.397098   245Bg     1.397763  
     246Bg     1.401152   280Bu     1.406226   280Ag     1.407193  
     245Au     1.408655   281Ag     1.410101   247Bg     1.411782  
     281Bu     1.413282   282Bu     1.416286   246Au     1.416534  
     282Ag     1.416902   248Bg     1.417320   283Ag     1.421096  
     247Au     1.421632   283Bu     1.423289   284Bu     1.426032  
     248Au     1.426636   284Ag     1.429684   249Bg     1.433819  
     250Bg     1.435603   285Ag     1.435783   249Au     1.435783  
     250Au     1.439370   285Bu     1.439873   286Ag     1.442235  
     251Au     1.442685   251Bg     1.444286   286Bu     1.444638  
     287Ag     1.450687   287Bu     1.450703   252Bg     1.450891  
     288Ag     1.452525   252Au     1.453280   288Bu     1.460339  
     253Au     1.460536   253Bg     1.462678   254Bg     1.463583  
     289Bu     1.464480   289Ag     1.465606   255Bg     1.467178  
     254Au     1.467240   255Au     1.470417   290Bu     1.472002  
     256Bg     1.472813   290Ag     1.473591   257Bg     1.474983  
     291Ag     1.476890   291Bu     1.480431   292Ag     1.482320  
     292Bu     1.483160   256Au     1.484924   257Au     1.485721  
     258Bg     1.486294   293Ag     1.492055   259Bg     1.492137  
     258Au     1.495195   294Ag     1.495898   259Au     1.498479  
     293Bu     1.498656   294Bu     1.501279   260Au     1.503865  
     260Bg     1.505256   295Ag     1.505992   296Ag     1.511834  
     295Bu     1.513014   261Bg     1.515936   296Bu     1.517863  
     261Au     1.520262   262Bg     1.521381   297Bu     1.523865  
     262Au     1.524837   263Bg     1.525985   297Ag     1.526965  
     298Bu     1.527920   298Ag     1.529358   263Au     1.529854  
     264Au     1.531412   299Bu     1.534393   299Ag     1.534562  
     300Ag     1.540317   265Au     1.542078   264Bg     1.542199  
     300Bu     1.543271   266Au     1.544687   301Bu     1.546966  
     301Ag     1.548745   265Bg     1.551722   302Ag     1.553264  
     302Bu     1.553283   267Au     1.554860   266Bg     1.556302  
     303Ag     1.556640   267Bg     1.557425   303Bu     1.559269  
     268Au     1.561962   304Ag     1.562549   268Bg     1.562895  
     304Bu     1.565105   269Au     1.568001   269Bg     1.570653  
     305Ag     1.572992   306Ag     1.574735   270Bg     1.574822  
     270Au     1.578218   305Bu     1.578393   307Ag     1.578637  
     271Au     1.582372   306Bu     1.586542   271Bg     1.587082  
     308Ag     1.587434   272Bg     1.589043   309Ag     1.590280  
     307Bu     1.590930   272Au     1.591926   273Bg     1.597118  
     273Au     1.597466   274Bg     1.598956   274Au     1.599055  
     310Ag     1.601136   308Bu     1.601190   309Bu     1.601942  
     311Ag     1.604908   310Bu     1.605728   275Bg     1.606561  
     275Au     1.606985   311Bu     1.612642   312Ag     1.612933  
     276Au     1.613830   277Au     1.616752   276Bg     1.619870  
     313Ag     1.620062   312Bu     1.620571   314Ag     1.622745  
     313Bu     1.622994   278Au     1.625437   315Ag     1.628394  
     277Bg     1.630474   278Bg     1.631765   279Au     1.633292  
     316Ag     1.634115   314Bu     1.635409   280Au     1.642548  
     279Bg     1.642692   315Bu     1.643758   317Ag     1.644128  
     280Bg     1.648479   281Au     1.649549   316Bu     1.649974  
     282Au     1.652210   317Bu     1.652672   318Ag     1.652677  
     318Bu     1.653679   281Bg     1.654328   282Bg     1.659095  
     319Ag     1.661623   283Bg     1.661932   283Au     1.662619  
     319Bu     1.666887   284Bg     1.667276   320Ag     1.668231  
     320Bu     1.669813   284Au     1.672486   321Bu     1.677922  
     321Ag     1.677942   285Bg     1.679202   285Au     1.679271  
     286Au     1.682635   322Ag     1.684145   322Bu     1.684936  
     323Ag     1.688535   286Bg     1.691791   323Bu     1.693243  
     287Bg     1.694237   287Au     1.695746   324Ag     1.696822  
     288Bg     1.699728   324Bu     1.703836   289Bg     1.703990  
     325Ag     1.705188   288Au     1.708144   325Bu     1.708195  
     289Au     1.709551   326Bu     1.710421   290Bg     1.711604  
     326Ag     1.715439   327Ag     1.719813   290Au     1.720259  
     327Bu     1.721099   291Au     1.723376   328Ag     1.723518  
     328Bu     1.726427   291Bg     1.726953   292Au     1.730695  
     329Bu     1.730705   329Ag     1.731206   292Bg     1.733003  
     330Bu     1.733084   330Ag     1.734821   331Ag     1.740526  
     293Bg     1.740598   293Au     1.742427   331Bu     1.742800  
     332Ag     1.747250   294Au     1.748941   294Bg     1.749207  
     295Bg     1.750563   333Ag     1.751773   295Au     1.752233  
     332Bu     1.756396   296Bg     1.760101   333Bu     1.763786  
     334Ag     1.766135   334Bu     1.766759   296Au     1.771297  
     335Ag     1.772324   335Bu     1.775397   297Bg     1.775581  
     297Au     1.776950   298Bg     1.781218   336Bu     1.781982  
     298Au     1.782192   299Au     1.785372   299Bg     1.787573  
     336Ag     1.788130   300Au     1.788215   337Ag     1.790232  
     301Au     1.792036   338Ag     1.794424   337Bu     1.796630  
     300Bg     1.800813   339Ag     1.801518   338Bu     1.804104  
     301Bg     1.804919   340Ag     1.806737   339Bu     1.806918  
     302Bg     1.813024   340Bu     1.814415   303Bg     1.815441  
     341Ag     1.815577   302Au     1.815688   303Au     1.818180  
     304Bg     1.818994   342Ag     1.819234   341Bu     1.823535  
     342Bu     1.824860   304Au     1.829256   305Bg     1.830309  
     343Ag     1.830926   344Ag     1.832640   343Bu     1.833235  
     305Au     1.840287   306Bg     1.840723   307Bg     1.843259  
     344Bu     1.845423   345Ag     1.847198   306Au     1.850043  
     345Bu     1.856505   307Au     1.856511   346Ag     1.856556  
     346Bu     1.860455   308Bg     1.862015   308Au     1.864834  
     347Ag     1.868232   347Bu     1.873510   309Bg     1.874552  
     348Ag     1.876605   309Au     1.877463   310Bg     1.880289  
     311Bg     1.881288   348Bu     1.884449   312Bg     1.891121  
     349Bu     1.891990   310Au     1.893679   349Ag     1.894614  
     350Ag     1.901975   350Bu     1.902246   311Au     1.903252  
     312Au     1.906990   351Bu     1.907353   351Ag     1.910699  
     352Bu     1.915143   313Bg     1.916035   352Ag     1.917465  
     314Bg     1.918404   353Bu     1.928155   313Au     1.929067  
     353Ag     1.933776   315Bg     1.935740   314Au     1.939048  
     315Au     1.946616   354Ag     1.949795   316Bg     1.951147  
     355Ag     1.952312   316Au     1.953405   354Bu     1.953609  
     355Bu     1.958001   356Bu     1.958998   317Au     1.960007  
     317Bg     1.967867   356Ag     1.967922   318Au     1.969581  
     318Bg     1.970353   357Bu     1.972958   319Au     1.973943  
     319Bg     1.975511   357Ag     1.975945   320Bg     1.984500  
     320Au     1.985612   358Bu     1.994984   321Au     1.995513  
     358Ag     1.998255   359Ag     2.004381   321Bg     2.006682  
     322Au     2.007020   360Ag     2.010407   359Bu     2.010458  
     323Au     2.012395   322Bg     2.014188   324Au     2.018333  
     360Bu     2.021176   361Ag     2.021764   323Bg     2.023503  
     361Bu     2.024378   362Ag     2.025785   324Bg     2.026705  
     362Bu     2.028250   325Au     2.032069   325Bg     2.036167  
     363Ag     2.036869   364Ag     2.039464   363Bu     2.040208  
     326Au     2.041039   326Bg     2.046143   365Ag     2.049645  
     327Au     2.051511   364Bu     2.056053   327Bg     2.059354  
     365Bu     2.059741   366Ag     2.061444   328Bg     2.063498  
     366Bu     2.063527   328Au     2.068079   367Ag     2.069001  
     329Au     2.073264   368Ag     2.075773   367Bu     2.076796  
     329Bg     2.078183   369Ag     2.080737   330Au     2.082075  
     368Bu     2.082244   369Bu     2.086647   330Bg     2.087624  
     331Au     2.097172   370Ag     2.097852   370Bu     2.098754  
     331Bg     2.099259   332Au     2.100605   332Bg     2.103836  
     371Ag     2.105218   333Au     2.107515   372Ag     2.109888  
     371Bu     2.111897   333Bg     2.115281   373Ag     2.115708  
     372Bu     2.117702   374Ag     2.119734   373Bu     2.124220  
     334Bg     2.124457   334Au     2.127221   374Bu     2.128232  
     375Ag     2.131644   375Bu     2.131856   335Bg     2.133215  
     335Au     2.133628   336Au     2.138752   376Ag     2.139488  
     336Bg     2.140204   337Au     2.145065   338Au     2.146684  
     377Ag     2.149600   337Bg     2.150588   376Bu     2.151504  
     377Bu     2.153391   378Ag     2.155110   338Bg     2.158859  
     339Au     2.162588   340Au     2.164384   378Bu     2.169762  
     339Bg     2.169784   341Au     2.170382   379Ag     2.174788  
     340Bg     2.182573   380Ag     2.182945   379Bu     2.183546  
     380Bu     2.186148   342Au     2.186408   341Bg     2.189692  
     342Bg     2.192717   343Au     2.194226   381Ag     2.194955  
     382Ag     2.198831   343Bg     2.200914   381Bu     2.201624  
     344Au     2.203594   344Bg     2.205008   383Ag     2.208121  
     384Ag     2.212075   345Bg     2.215440   382Bu     2.219041  
     346Bg     2.224300   345Au     2.225684   346Au     2.226560  
     385Ag     2.231275   383Bu     2.233317   347Au     2.233532  
     347Bg     2.236699   384Bu     2.237387   385Bu     2.240020  
     386Ag     2.246045   348Bg     2.248171   386Bu     2.251295  
     348Au     2.254408   387Ag     2.254801   388Ag     2.259057  
     349Au     2.259833   349Bg     2.260908   389Ag     2.265088  
     350Bg     2.267487   350Au     2.268936   387Bu     2.269026  
     388Bu     2.272953   390Ag     2.276636   351Bg     2.279040  
     389Bu     2.281991   391Ag     2.287860   390Bu     2.291821  
     352Bg     2.297654   351Au     2.299769   392Ag     2.300649  
     393Ag     2.302136   391Bu     2.303163   352Au     2.304961  
     353Bg     2.305820   353Au     2.312519   392Bu     2.316035  
     354Bg     2.317322   394Ag     2.319335   393Bu     2.323253  
     354Au     2.325117   355Au     2.327833   395Ag     2.329422  
     355Bg     2.333784   394Bu     2.335193   356Au     2.336071  
     395Bu     2.340297   396Ag     2.342347   356Bg     2.342986  
     357Au     2.347768   357Bg     2.349141   396Bu     2.353275  
     397Ag     2.353299   358Au     2.359651   358Bg     2.363839  
     398Ag     2.364065   397Bu     2.364359   399Ag     2.366230  
     359Au     2.368018   360Au     2.369466   359Bg     2.373704  
     398Bu     2.377762   400Ag     2.378537   360Bg     2.379431  
     399Bu     2.385961   361Au     2.386100   401Ag     2.391165  
     361Bg     2.393669   402Ag     2.396294   400Bu     2.399385  
     362Bg     2.400976   401Bu     2.404010   363Bg     2.405885  
     403Ag     2.406904   362Au     2.408270   402Bu     2.409448  
     364Bg     2.410499   363Au     2.414313   403Bu     2.414634  
     404Ag     2.416781   404Bu     2.417892   364Au     2.420726  
     405Ag     2.425482   365Au     2.432601   366Au     2.437997  
     365Bg     2.438262   405Bu     2.438802   406Ag     2.442636  
     366Bg     2.448202   367Au     2.449262   407Ag     2.449499  
     406Bu     2.454372   367Bg     2.460616   408Ag     2.462500  
     368Bg     2.464192   368Au     2.466172   407Bu     2.472250  
     409Ag     2.472723   369Bg     2.475554   408Bu     2.477738  
     410Ag     2.491349   369Au     2.493063   370Bg     2.494195  
     409Bu     2.495403   411Ag     2.496527   370Au     2.496665  
     410Bu     2.501451   371Au     2.509123   412Ag     2.509387  
     371Bg     2.510914   372Au     2.516196   372Bg     2.516987  
     411Bu     2.518697   413Ag     2.523062   412Bu     2.530691  
     414Ag     2.531364   373Bg     2.535362   373Au     2.536066  
     413Bu     2.538277   414Bu     2.541043   415Ag     2.541171  
     374Bg     2.542478   416Ag     2.547507   375Bg     2.549870  
     374Au     2.553402   375Au     2.555573   376Bg     2.557349  
     415Bu     2.563507   417Ag     2.566622   418Ag     2.567294  
     416Bu     2.571049   376Au     2.571152   377Bg     2.571171  
     417Bu     2.575635   418Bu     2.586968   378Bg     2.590836  
     377Au     2.592732   419Ag     2.593279   419Bu     2.597470  
     420Ag     2.602638   378Au     2.604158   379Bg     2.609028  
     420Bu     2.614850   379Au     2.615271   421Ag     2.615449  
     380Bg     2.619526   422Ag     2.622393   421Bu     2.632955  
     380Au     2.633186   381Bg     2.634781   422Bu     2.637141  
     423Ag     2.639303   382Bg     2.639730   381Au     2.641266  
     423Bu     2.642667   382Au     2.645137   424Bu     2.646735  
     383Bg     2.648561   424Ag     2.649862   425Ag     2.657016  
     425Bu     2.662812   426Bu     2.667116   383Au     2.667752  
     426Ag     2.671648   384Bg     2.675195   427Ag     2.682094  
     384Au     2.682389   385Bg     2.686314   386Bg     2.686788  
     385Au     2.688839   427Bu     2.693423   428Ag     2.704089  
     428Bu     2.704777   386Au     2.705464   387Bg     2.706359  
     388Bg     2.714045   429Bu     2.715500   387Au     2.717473  
     429Ag     2.718372   430Bu     2.720728   430Ag     2.724318  
     388Au     2.726154   389Au     2.727574   389Bg     2.730424  
     431Ag     2.736763   431Bu     2.742803   390Bg     2.751080  
     390Au     2.751085   391Au     2.751337   432Ag     2.752180  
     433Ag     2.753305   391Bg     2.754642   434Ag     2.762487  
     392Bg     2.762701   392Au     2.763863   432Bu     2.769023  
     433Bu     2.770870   435Ag     2.771157   393Bg     2.772338  
     434Bu     2.779827   394Bg     2.780755   393Au     2.788129  
     395Bg     2.793146   436Ag     2.794674   394Au     2.796103  
     396Bg     2.804768   435Bu     2.807441   395Au     2.812458  
     437Ag     2.813357   436Bu     2.818564   438Ag     2.821766  
     396Au     2.824602   397Bg     2.830901   397Au     2.837416  
     398Bg     2.838254   439Ag     2.842169   437Bu     2.848392  
     399Bg     2.848471   438Bu     2.852694   440Ag     2.854700  
     398Au     2.855814   439Bu     2.861583   440Bu     2.869913  
     399Au     2.874502   441Ag     2.888523   400Au     2.890726  
     400Bg     2.895810   442Ag     2.900811   401Bg     2.907603  
     441Bu     2.911334   442Bu     2.924667   401Au     2.927165  
     402Bg     2.927986   443Ag     2.929462   402Au     2.959845  
     443Bu     2.963038   403Bg     2.963225   404Bg     2.970921  
     403Au     2.981273   444Bu     3.007902   444Ag     3.008443  
     445Bu     3.011521   404Au     3.022539   405Bg     3.027178  
     445Ag     3.030430   405Au     3.039140   406Bg     3.040223  
     446Bu     3.045438   406Au     3.051359   407Au     3.061255  
     446Ag     3.064312   447Bu     3.073452   407Bg     3.074340  
     448Bu     3.082339   447Ag     3.083927   408Au     3.084684  
     409Au     3.094323   448Ag     3.097951   408Bg     3.100806  
     449Bu     3.105816   449Ag     3.110942   409Bg     3.111741  
     410Au     3.115013   450Ag     3.119059   451Ag     3.127765  
     410Bg     3.129018   411Bg     3.131214   411Au     3.132591  
     450Bu     3.135976   452Ag     3.140122   451Bu     3.143099  
     412Au     3.143364   412Bg     3.150072   452Bu     3.152013  
     453Ag     3.161449   413Au     3.161935   453Bu     3.164541  
     454Bu     3.169073   454Ag     3.170062   413Bg     3.174947  
     414Bg     3.177910   455Ag     3.181356   414Au     3.181755  
     415Au     3.185044   456Ag     3.185180   457Ag     3.200301  
     455Bu     3.200994   415Bg     3.209899   416Bg     3.219600  
     458Ag     3.221596   456Bu     3.221675   416Au     3.223837  
     457Bu     3.224584   417Au     3.224968   459Ag     3.226588  
     417Bg     3.233420   458Bu     3.239197   418Au     3.243672  
     459Bu     3.244036   418Bg     3.247428   460Bu     3.254850  
     419Au     3.258394   460Ag     3.261538   419Bg     3.263189  
     420Au     3.263886   461Bu     3.269269   461Ag     3.276695  
     421Au     3.278628   420Bg     3.279124   462Bu     3.281483  
     421Bg     3.283642   462Ag     3.286078   422Au     3.296708  
     463Bu     3.300663   463Ag     3.302226   422Bg     3.307690  
     464Ag     3.310147   465Ag     3.314567   466Ag     3.318307  
     464Bu     3.320232   423Au     3.322728   423Bg     3.327538  
     467Ag     3.331156   465Bu     3.331547   466Bu     3.339922  
     424Au     3.341087   424Bg     3.346935   468Ag     3.348039  
     467Bu     3.348316   425Au     3.348428   425Bg     3.351549  
     468Bu     3.353401   426Bg     3.355704   469Ag     3.355997  
     469Bu     3.357974   470Bu     3.367084   470Ag     3.367087  
     426Au     3.369739   471Ag     3.370808   427Bg     3.376835  
     471Bu     3.379017   472Ag     3.379132   427Au     3.381316  
     472Bu     3.387680   428Au     3.387684   428Bg     3.392988  
     473Bu     3.396043   473Ag     3.396764   429Au     3.400316  
     429Bg     3.400937   430Bg     3.404866   474Bu     3.407061  
     430Au     3.411639   431Au     3.413631   431Bg     3.414541  
     474Ag     3.415519   475Bu     3.416148   432Au     3.420133  
     475Ag     3.422918   476Ag     3.429985   432Bg     3.430006  
     477Ag     3.432542   476Bu     3.432793   433Bg     3.433847  
     477Bu     3.436115   433Au     3.439807   478Bu     3.440874  
     478Ag     3.443683   434Bg     3.448926   479Bu     3.449893  
     479Ag     3.454650   435Bg     3.456060   434Au     3.459860  
     436Bg     3.460989   480Ag     3.461221   480Bu     3.466134  
     481Ag     3.467161   435Au     3.468866   481Bu     3.470067  
     482Ag     3.473153   436Au     3.473566   437Bg     3.475920  
     437Au     3.481635   483Ag     3.482572   482Bu     3.484251  
     438Au     3.487473   438Bg     3.489713   483Bu     3.491254  
     439Bg     3.492273   484Ag     3.496004   439Au     3.497542  
     485Ag     3.499572   484Bu     3.501110   486Ag     3.502669  
     485Bu     3.502927   440Bg     3.508838   487Ag     3.508874  
     440Au     3.510862   441Bg     3.517209   486Bu     3.518461  
     441Au     3.520032   487Bu     3.528639   442Au     3.530189  
     488Ag     3.531665   442Bg     3.535729   488Bu     3.538592  
     443Bg     3.539147   489Ag     3.542203   444Bg     3.544372  
     443Au     3.545791   489Bu     3.546900   490Ag     3.547925  
     444Au     3.550506   445Bg     3.554300   491Ag     3.557043  
     445Au     3.558803   446Bg     3.562725   490Bu     3.563551  
     492Ag     3.565185   491Bu     3.571717   447Bg     3.571944  
     446Au     3.572308   493Ag     3.574426   447Au     3.579292  
     494Ag     3.581496   448Au     3.584972   492Bu     3.586651  
     493Bu     3.587409   448Bg     3.588608   449Bg     3.592956  
     495Ag     3.594179   449Au     3.599956   450Bg     3.602047  
     494Bu     3.603644   496Ag     3.605642   451Bg     3.606773  
     495Bu     3.611557   450Au     3.612147   451Au     3.618602  
     497Ag     3.618998   496Bu     3.619628   452Bg     3.620058  
     497Bu     3.623683   452Au     3.624568   498Bu     3.625709  
     453Bg     3.627186   498Ag     3.629600   453Au     3.635434  
     499Ag     3.636797   454Bg     3.640934   454Au     3.642134  
     500Ag     3.645532   499Bu     3.647837   455Au     3.651035  
     456Au     3.657009   501Ag     3.660633   500Bu     3.660914  
     455Bg     3.661752   501Bu     3.665435   502Ag     3.665980  
     457Au     3.667746   456Bg     3.670765   502Bu     3.671286  
     503Ag     3.673990   503Bu     3.674660   458Au     3.675014  
     457Bg     3.681264   504Bu     3.681878   458Bg     3.684547  
     504Ag     3.685507   459Au     3.689574   505Ag     3.695732  
     460Au     3.697122   459Bg     3.698487   506Ag     3.698525  
     505Bu     3.698981   460Bg     3.705790   506Bu     3.707028  
     507Ag     3.711212   507Bu     3.711231   461Bg     3.712327  
     508Ag     3.714756   461Au     3.716248   462Bg     3.720691  
     508Bu     3.721714   462Au     3.724060   509Ag     3.725636  
     463Bg     3.728101   510Ag     3.728242   509Bu     3.733506  
     510Bu     3.739788   463Au     3.739817   464Bg     3.741519  
     511Ag     3.744818   464Au     3.745062   511Bu     3.745180  
     465Bg     3.746558   512Ag     3.748155   512Bu     3.749778  
     465Au     3.756185   466Bg     3.757434   467Bg     3.762706  
     513Ag     3.764419   466Au     3.765575   514Ag     3.766412  
     467Au     3.767282   513Bu     3.773979   514Bu     3.782076  
     468Bg     3.784544   469Bg     3.788010   515Ag     3.788062  
     516Ag     3.792398   515Bu     3.793505   468Au     3.798651  
     516Bu     3.799223   470Bg     3.803935   517Bu     3.807316  
     517Ag     3.809438   471Bg     3.812821   469Au     3.812872  
     518Bu     3.819265   470Au     3.819860   518Ag     3.821137  
     472Bg     3.821539   519Ag     3.823210   471Au     3.828527  
     519Bu     3.831249   520Ag     3.831985   472Au     3.833546  
     520Bu     3.836681   521Ag     3.838564   521Bu     3.841399  
     522Ag     3.844954   473Au     3.846255   473Bg     3.847776  
     522Bu     3.850771   474Bg     3.853029   474Au     3.853514  
     523Ag     3.855669   475Bg     3.860811   523Bu     3.861462  
     524Ag     3.865223   476Bg     3.866206   475Au     3.869215  
     524Bu     3.872849   477Bg     3.873437   476Au     3.876160  
     525Ag     3.880187   525Bu     3.882847   478Bg     3.883765  
     526Ag     3.884492   477Au     3.886647   479Bg     3.888234  
     527Ag     3.889106   526Bu     3.889182   478Au     3.890132  
     527Bu     3.894311   528Ag     3.900981   529Ag     3.902704  
     528Bu     3.904446   479Au     3.906163   480Au     3.907488  
     529Bu     3.909265   530Bu     3.909814   480Bg     3.911625  
     530Ag     3.912150   481Bg     3.916687   531Bu     3.921662  
     482Bg     3.923224   531Ag     3.924264   481Au     3.924662  
     482Au     3.929153   532Bu     3.930125   483Bg     3.932431  
     483Au     3.933681   532Ag     3.934673   533Bu     3.937867  
     484Bg     3.944165   533Ag     3.944474   534Bu     3.946287  
     485Bg     3.947303   535Bu     3.948509   486Bg     3.952484  
     484Au     3.952715   536Bu     3.954354   485Au     3.957340  
     534Ag     3.958674   486Au     3.961825   487Bg     3.962470  
     535Ag     3.963041   487Au     3.968558   536Ag     3.969605  
     537Bu     3.971258   488Au     3.974511   538Bu     3.979254  
     488Bg     3.980327   537Ag     3.982252   539Bu     3.982829  
     489Bg     3.990767   538Ag     3.991877   489Au     3.996057  
     490Bg     3.996559   539Ag     3.999717   540Bu     4.001775  
     491Bg     4.003135   540Ag     4.003394   490Au     4.005399  
     491Au     4.007246   541Ag     4.007671   492Bg     4.010687  
     541Bu     4.016022   542Ag     4.017544   492Au     4.021006  
     543Ag     4.028268   493Bg     4.030205   542Bu     4.033943  
     493Au     4.035203   494Bg     4.035503   543Bu     4.038061  
     495Bg     4.044545   494Au     4.044955   544Ag     4.045616  
     545Ag     4.050960   495Au     4.051365   544Bu     4.051600  
     545Bu     4.054369   546Ag     4.055918   496Bg     4.056697  
     546Bu     4.057185   496Au     4.061181   497Bg     4.064523  
     547Ag     4.070332   547Bu     4.074070   498Bg     4.076797  
     497Au     4.077818   548Bu     4.078825   548Ag     4.081321  
     549Ag     4.083776   499Bg     4.084186   498Au     4.087687  
     499Au     4.091567   500Bg     4.093612   550Ag     4.094780  
     549Bu     4.100418   500Au     4.101233   551Ag     4.102698  
     552Ag     4.106566   501Au     4.112010   550Bu     4.114237  
     501Bg     4.116074   551Bu     4.123386   502Au     4.125881  
     553Ag     4.127211   502Bg     4.128709   552Bu     4.131613  
     503Au     4.133031   503Bg     4.136550   554Ag     4.141437  
     504Au     4.145011   553Bu     4.145957   554Bu     4.148577  
     504Bg     4.152861   555Ag     4.153388   555Bu     4.155155  
     505Au     4.158308   506Au     4.160574   556Ag     4.162510  
     556Bu     4.164342   557Ag     4.166262   505Bg     4.167229  
     507Au     4.171479   506Bg     4.172013   558Ag     4.172674  
     557Bu     4.176720   559Ag     4.177037   508Au     4.182005  
     507Bg     4.184901   509Au     4.185128   508Bg     4.185935  
     509Bg     4.186408   558Bu     4.189135   560Ag     4.194063  
     559Bu     4.194474   510Au     4.198095   561Ag     4.204057  
     560Bu     4.204260   510Bg     4.206952   561Bu     4.208529  
     511Au     4.210545   562Ag     4.212503   562Bu     4.212653  
     511Bg     4.213308   563Ag     4.215864   512Bg     4.219033  
     512Au     4.223580   564Ag     4.226153   513Au     4.228347  
     565Ag     4.229455   563Bu     4.233832   514Au     4.234828  
     513Bg     4.236098   564Bu     4.237292   514Bg     4.239641  
     565Bu     4.241301   515Bg     4.245511   566Ag     4.245675  
     515Au     4.247209   516Au     4.251400   566Bu     4.253222  
     567Ag     4.254419   516Bg     4.255551   567Bu     4.259313  
     517Bg     4.260024   518Bg     4.264953   517Au     4.265927  
     568Ag     4.268614   568Bu     4.270122   569Ag     4.273187  
     518Au     4.277053   519Bg     4.280852   570Ag     4.282363  
     569Bu     4.282888   520Bg     4.285511   519Au     4.285906  
     570Bu     4.289724   521Bg     4.291796   520Au     4.296142  
     571Bu     4.296191   571Ag     4.299676   522Bg     4.300073  
     572Bu     4.304954   521Au     4.306679   572Ag     4.307212  
     523Bg     4.308689   573Ag     4.310510   573Bu     4.314126  
     522Au     4.314881   524Bg     4.316802   523Au     4.324140  
     574Bu     4.324525   575Bu     4.328487   574Ag     4.331335  
     525Bg     4.336358   575Ag     4.337886   576Bu     4.338686  
     526Bg     4.339996   524Au     4.343398   576Ag     4.348665  
     577Ag     4.351877   577Bu     4.352731   525Au     4.359979  
     578Bu     4.360857   526Au     4.363021   527Bg     4.363952  
     578Ag     4.367626   528Bg     4.371342   579Bu     4.372304  
     527Au     4.375903   528Au     4.377236   529Bg     4.378742  
     579Ag     4.379141   580Bu     4.381556   529Au     4.383399  
     530Au     4.385939   530Bg     4.386957   580Ag     4.390299  
     581Bu     4.390632   531Bg     4.393174   532Bg     4.395927  
     581Ag     4.396900   582Ag     4.400226   531Au     4.403111  
     533Bg     4.404744   583Ag     4.406369   582Bu     4.408547  
     584Ag     4.409724   583Bu     4.411899   532Au     4.414465  
     585Ag     4.415503   534Bg     4.416130   533Au     4.420146  
     584Bu     4.424850   534Au     4.427992   585Bu     4.433093  
     586Ag     4.435446   535Bg     4.438181   587Ag     4.440335  
     535Au     4.443071   586Bu     4.444031   536Bg     4.446746  
     536Au     4.449818   587Bu     4.453201   588Ag     4.453771  
     537Bg     4.455946   538Bg     4.457912   589Ag     4.459420  
     537Au     4.461633   588Bu     4.465489   589Bu     4.471068  
     590Ag     4.471355   539Bg     4.478439   591Ag     4.480734  
     538Au     4.482254   590Bu     4.485239   591Bu     4.488036  
     539Au     4.494558   592Bu     4.497044   540Bg     4.497261  
     592Ag     4.499217   541Bg     4.501001   540Au     4.501067  
     593Ag     4.508079   593Bu     4.511471   541Au     4.512334  
     542Bg     4.514244   594Bu     4.518614   594Ag     4.521076  
     595Bu     4.527186   542Au     4.527521   543Bg     4.527666  
     595Ag     4.531251   543Au     4.533555   544Bg     4.534723  
     596Bu     4.535675   596Ag     4.536541   545Bg     4.538332  
     597Ag     4.541309   544Au     4.542903   597Bu     4.544031  
     545Au     4.547800   546Bg     4.549866   546Au     4.551357  
     547Au     4.555012   598Ag     4.557632   598Bu     4.558907  
     548Au     4.559711   599Ag     4.563384   547Bg     4.564379  
     599Bu     4.565839   548Bg     4.572763   600Bu     4.574999  
     601Bu     4.578895   600Ag     4.579188   549Au     4.580846  
     549Bg     4.584073   550Bg     4.587002   601Ag     4.587491  
     550Au     4.587697   551Bg     4.592346   602Bu     4.600247  
     602Ag     4.601448   551Au     4.603022   552Bg     4.603218  
     603Bu     4.605511   603Ag     4.608689   552Au     4.622460  
     604Bu     4.628548   604Ag     4.630095   605Ag     4.633993  
     553Au     4.641601   606Ag     4.641893   553Bg     4.644110  
     605Bu     4.645659   554Bg     4.646023   555Bg     4.649853  
     554Au     4.651851   606Bu     4.652848   607Bu     4.655495  
     556Bg     4.658172   555Au     4.659087   607Ag     4.659563  
     608Ag     4.666406   608Bu     4.667916   609Bu     4.676248  
     609Ag     4.676375   557Bg     4.677984   558Bg     4.680062  
     556Au     4.680489   610Bu     4.680956   610Ag     4.686730  
     557Au     4.693748   559Bg     4.698590   558Au     4.700103  
     611Bu     4.700700   611Ag     4.701780   560Bg     4.705918  
     559Au     4.711640   612Ag     4.713234   561Bg     4.717785  
     612Bu     4.717895   613Ag     4.719170   560Au     4.720995  
     613Bu     4.726288   561Au     4.729540   614Bu     4.730374  
     562Bg     4.731335   614Ag     4.732245   563Bg     4.741121  
     615Bu     4.745503   615Ag     4.750403   562Au     4.753252  
     616Ag     4.758693   564Bg     4.759183   616Bu     4.759280  
     617Ag     4.762883   563Au     4.763922   618Ag     4.765135  
     617Bu     4.771352   565Bg     4.771646   564Au     4.775773  
     566Bg     4.777476   565Au     4.780637   566Au     4.786527  
     618Bu     4.786608   567Bg     4.795549   619Ag     4.803835  
     567Au     4.807452   619Bu     4.810008   568Au     4.810324  
     568Bg     4.814029   620Ag     4.818176   569Bg     4.820123  
     569Au     4.825271   620Bu     4.827213   570Au     4.829712  
     621Bu     4.838911   570Bg     4.841839   571Bg     4.846196  
     621Ag     4.846256   571Au     4.852825   622Bu     4.854146  
     622Ag     4.863092   572Au     4.866405   623Bu     4.869541  
     572Bg     4.871716   573Au     4.871981   573Bg     4.872478  
     623Ag     4.872957   624Bu     4.875089   624Ag     4.876599  
     625Ag     4.878304   574Bg     4.879298   574Au     4.882298  
     575Bg     4.888173   626Ag     4.892598   625Bu     4.894526  
     576Bg     4.895805   627Ag     4.902743   575Au     4.909854  
     577Bg     4.912078   628Ag     4.914463   629Ag     4.915752  
     626Bu     4.916167   627Bu     4.919150   576Au     4.920330  
     628Bu     4.922455   577Au     4.927963   629Bu     4.929238  
     578Bg     4.930379   579Bg     4.944860   578Au     4.945798  
     630Bu     4.951080   630Ag     4.951148   579Au     4.963501  
     631Bu     4.963775   631Ag     4.968775   580Bg     4.973408  
     580Au     4.973581   632Bu     4.982310   581Bg     4.984110  
     633Bu     4.988506   632Ag     4.989185   581Au     4.991560  
     633Ag     4.992110   582Bg     4.997021   634Ag     4.998674  
     635Ag     5.000210   634Bu     5.005420   582Au     5.006161  
     583Bg     5.007925   635Bu     5.012167   584Bg     5.014939  
     583Au     5.017130   636Ag     5.020260   585Bg     5.020724  
     636Bu     5.023840   637Ag     5.027792   584Au     5.028801  
     586Bg     5.034680   637Bu     5.038959   585Au     5.040629  
     638Ag     5.042562   638Bu     5.046197   587Bg     5.046410  
     639Ag     5.047509   586Au     5.056146   588Bg     5.062239  
     639Bu     5.063024   640Ag     5.064535   640Bu     5.068978  
     587Au     5.072820   641Ag     5.073846   641Bu     5.076687  
     588Au     5.080251   589Bg     5.086082   589Au     5.095661  
     642Ag     5.104922   642Bu     5.105416   643Ag     5.108779  
     590Bg     5.111065   590Au     5.112863   643Bu     5.116040  
     591Au     5.117623   591Bg     5.117733   644Ag     5.121773  
     592Bg     5.124047   593Bg     5.131988   592Au     5.133134  
     644Bu     5.140427   593Au     5.146100   645Bu     5.149150  
     594Bg     5.150445   645Ag     5.165634   594Au     5.170107  
     646Bu     5.176805   646Ag     5.178782   595Bg     5.184408  
     647Bu     5.186218   595Au     5.194897   647Ag     5.202893  
     596Bg     5.205456   648Ag     5.207348   648Bu     5.210130  
     596Au     5.213093   649Ag     5.215383   649Bu     5.216484  
     597Au     5.221405   650Bu     5.222380   597Bg     5.222511  
     598Bg     5.227406   650Ag     5.228481   598Au     5.232166  
     651Ag     5.234397   599Bg     5.235801   651Bu     5.236092  
     599Au     5.253082   652Bu     5.257694   652Ag     5.259034  
     653Ag     5.270177   600Bg     5.274320   653Bu     5.281679  
     600Au     5.294031   654Ag     5.294690   654Bu     5.294701  
     601Bg     5.308589   655Bu     5.341364   655Ag     5.341416  
     601Au     5.348288   602Bg     5.348441   603Bg     5.352185  
     602Au     5.360696   656Ag     5.369444   603Au     5.379663  
     657Ag     5.382694   656Bu     5.383710   604Bg     5.385214  
     657Bu     5.387605   605Bg     5.392274   604Au     5.400963  
     658Bu     5.405841   659Bu     5.417866   658Ag     5.421198  
     605Au     5.422269   660Bu     5.423080   606Bg     5.426275  
     659Ag     5.427396   607Bg     5.431137   660Ag     5.432875  
     606Au     5.433963   661Ag     5.486512   607Au     5.495673  
     661Bu     5.501470   608Bg     5.502222   609Bg     5.521568  
     608Au     5.526965   662Ag     5.532212   662Bu     5.535000  
     610Bg     5.543564   663Ag     5.544829   663Bu     5.548949  
     611Bg     5.549608   609Au     5.551432   610Au     5.556574  
     664Bu     5.560745   664Ag     5.565712   611Au     5.576351  
     612Bg     5.576791   613Bg     5.589895   612Au     5.593324  
     665Bu     5.593986   665Ag     5.597265   666Ag     5.630574  
     614Bg     5.637216   666Bu     5.638997   613Au     5.640658  
     667Ag     5.644578   667Bu     5.646906   614Au     5.653859  
     615Bg     5.664800   615Au     5.666747   616Bg     5.675792  
     668Ag     5.710543   668Bu     5.724483   669Bu     5.728321  
     669Ag     5.736098   617Bg     5.739871   616Au     5.743852  
     670Bu     5.779465   617Au     5.785681   670Ag     5.790789  
     618Bg     5.800353   671Bu     5.805490   671Ag     5.806124  
     672Ag     5.858579   672Bu     5.858949   618Au     5.862112  
     619Bg     5.862155   619Au     5.915879   620Au     5.917692  
     673Bu     5.921746   620Bg     5.922363   673Ag     5.928303  
     621Bg     5.936517   621Au     5.949420   622Bg     5.949691  
     674Ag     5.957162   674Bu     5.965331   623Bg     6.005019  
     675Bu     6.016594   675Ag     6.024185   622Au     6.037521  
     676Bu     6.192330   623Au     6.199681   677Bu     6.208931  
     676Ag     6.212591   624Bg     6.224796   677Ag     6.232993  
     624Au     6.283038   625Bg     6.286461   625Au     6.288055  
     678Bu     6.289039   626Bg     6.291820   678Ag     6.293763  
     679Bu     6.301419   626Au     6.304124   679Ag     6.309081  
     627Au     6.310163   627Bg     6.314257   680Bu     6.317719  
     628Bg     6.325322   680Ag     6.329137   681Bu     6.336040  
     681Ag     6.341763   629Bg     6.344778   630Bg     6.376373  
     682Ag     6.382403   631Bg     6.385382   628Au     6.387143  
     682Bu     6.393542   683Ag     6.398901   632Bg     6.402798  
     683Bu     6.404629   629Au     6.407936   630Au     6.412164  
     631Au     6.418891   684Ag     6.420506   684Bu     6.426374  
     633Bg     6.432921   632Au     6.433597   633Au     6.504279  
     685Bu     6.510959   685Ag     6.516969   686Ag     6.526803  
     634Au     6.532803   686Bu     6.535030   634Bg     6.538485  
     687Bu     6.547263   635Bg     6.547301   687Ag     6.550529  
     636Bg     6.570943   635Au     6.572006   688Bu     6.574845  
     688Ag     6.577287   636Au     6.671393   689Ag     6.677325  
     689Bu     6.677450   637Bg     6.689286   690Ag     6.697292  
     690Bu     6.704359   638Bg     6.706437   637Au     6.710941  
     691Ag     6.728135   639Bg     6.735084   691Bu     6.738151  
     638Au     6.746098   692Ag     6.775065   692Bu     6.780776  
     639Au     6.781959   640Bg     6.791042   693Ag     6.795660  
     640Au     6.803764   693Bu     6.804290   641Bg     6.829673  
     641Au     6.835511   694Bu     6.839625   694Ag     6.855316  
     642Bg     6.875872   695Bu     6.951608   642Au     6.958696  
     643Bg     6.960579   695Ag     6.961321   696Ag     6.967958  
     644Bg     6.985705   696Bu     6.986717   643Au     6.988740  
     645Bg     7.317606   644Au     7.320061   697Ag    15.140141  
     697Bu    15.230750   646Bg    15.948016   698Bu    15.960805  
     698Ag    16.068399   645Au    16.070528   699Bu    17.161260  
     699Ag    17.242552   647Bg    17.247990   646Au    17.288417  
     700Bu    17.617688   700Ag    17.625448   648Bg    17.671252  
     647Au    17.676899   649Bg    18.318707   701Ag    18.326251  
     701Bu    18.350163   648Au    18.375657   649Au    19.866237  
     702Bu    19.901406   702Ag    19.970150   650Bg    20.028141  
     703Bu    20.225518   703Ag    20.659475   651Bg    20.757165  
     650Au    20.840391   704Ag    21.072654   704Bu    21.104633  
     652Bg    21.149587   651Au    21.210048   705Ag    21.235985  
     653Bg    21.282627   705Bu    21.372464   652Au    21.561846  
     706Bu    21.870976   706Ag    21.883262   707Bu    21.955176  
     707Ag    22.223485   708Bu    22.728971   653Au    22.812544  
     708Ag    22.826599   654Bg    22.854512   709Bu    23.253267  
     709Ag    23.308596   710Bu    23.374345   710Ag    23.470553  
     654Au    23.486278   655Bg    23.527464  

    Final Occupation by Irrep:
             Ag    Bg    Au    Bu 
    DOCC [    43,   35,   35,   43 ]
    NA   [    43,   35,   35,   43 ]
    NB   [    43,   35,   35,   43 ]

  @DF-RKS Final Energy: -1843.75643865146958

   => Energetics <=

    Nuclear Repulsion Energy =           6088.1700676651344111
    One-Electron Energy =              -14620.9583541155661806
    Two-Electron Energy =                6875.0096917676919475
    DFT Exchange-Correlation Energy =    -185.8787998896610816
    Empirical Dispersion Energy =          -0.0990440790687015
    VV10 Nonlocal Energy =                  0.0000000000000000
    Total Energy =                      -1843.7564386514695798

Computation Completed


Properties will be evaluated at   0.000000,   0.000000,   0.000000 [a0]

Properties computed using the SCF density matrix


 Multipole Moments:

 ------------------------------------------------------------------------------------
     Multipole            Electronic (a.u.)      Nuclear  (a.u.)        Total (a.u.)
 ------------------------------------------------------------------------------------

 L = 1.  Multiply by 2.5417464519 to convert [e a0] to [Debye]
 Dipole X            :          0.0000000            0.0000000            0.0000000
 Dipole Y            :          0.0000000           -0.0000000           -0.0000000
 Dipole Z            :          0.0000000           -0.0000000           -0.0000000
 Magnitude           :                                                    0.0000000

 ------------------------------------------------------------------------------------

*** tstop() called on atl1-1-02-003-28-1.pace.gatech.edu at Sat Jun 13 14:32:41 2026
Module time:
	user time   =   51503.71 seconds =     858.40 minutes
	system time =    4058.86 seconds =      67.65 minutes
	total time  =       8639 seconds =     143.98 minutes
Total time:
	user time   =   51503.71 seconds =     858.40 minutes
	system time =    4058.86 seconds =      67.65 minutes
	total time  =       8639 seconds =     143.98 minutes

    Psi4 stopped on: Saturday, 13 June 2026 02:32PM
    Psi4 wall time for execution: 2:24:13.64

*** Psi4 exiting successfully. Buy a developer a beer!
