
    -----------------------------------------------------------------------
          Psi4: An Open-Source Ab Initio Electronic Structure Package
                               Psi4 1.9.1 release

                         Git: Rev {} zzzzzzz 


    D. G. A. Smith, L. A. Burns, A. C. Simmonett, R. M. Parrish,
    M. C. Schieber, R. Galvelis, P. Kraus, H. Kruse, R. Di Remigio,
    A. Alenaizan, A. M. James, S. Lehtola, J. P. Misiewicz, M. Scheurer,
    R. A. Shaw, J. B. Schriber, Y. Xie, Z. L. Glick, D. A. Sirianni,
    J. S. O'Brien, J. M. Waldrop, A. Kumar, E. G. Hohenstein,
    B. P. Pritchard, B. R. Brooks, H. F. Schaefer III, A. Yu. Sokolov,
    K. Patkowski, A. E. DePrince III, U. Bozkaya, R. A. King,
    F. A. Evangelista, J. M. Turney, T. D. Crawford, C. D. Sherrill,
    J. Chem. Phys. 152(18) 184108 (2020). https://doi.org/10.1063/5.0006002

                            Additional Code Authors
    E. T. Seidl, C. L. Janssen, E. F. Valeev, M. L. Leininger,
    J. F. Gonthier, R. M. Richard, H. R. McAlexander, M. Saitow, X. Wang,
    P. Verma, M. H. Lechner, A. Jiang, S. Behnle, A. G. Heide,
    M. F. Herbst, and D. L. Poole

             Previous Authors, Complete List of Code Contributors,
                       and Citations for Specific Modules
    https://github.com/psi4/psi4/blob/master/codemeta.json
    https://github.com/psi4/psi4/graphs/contributors
    http://psicode.org/psi4manual/master/introduction.html#citing-psifour

    -----------------------------------------------------------------------


    Psi4 started on: Saturday, 13 June 2026 12:58PM

    Process ID: 1289730
    Host:       atl1-1-03-004-6-2.pace.gatech.edu
    PSIDATADIR: /storage/home/hcoda1/5/vlita3/.conda/envs/p4_qcml/share/psi4
    Memory:     250.0 GiB
    Threads:    10
    
  ==> Input QCSchema <==

--------------------------------------------------------------------------
{'driver': 'energy',
 'extras': {},
 'id': '246',
 'keywords': {},
 'model': {'basis': 'aug-cc-pvtz', 'method': 'wb97x-v'},
 'molecule': {'extras': {},
              'fix_com': True,
              'fix_orientation': True,
              'fragment_charges': [0.0, 0.0],
              'fragment_multiplicities': [1, 1],
              'fragments': [[0, 1, 2, 3, 4, 5, 6, 7, 8, 9, 10, 11, 12, 13, 14],
                            [15, 16, 17, 18, 19, 20, 21, 22, 23, 24, 25, 26, 27, 28, 29, 30, 31, 32, 33, 34, 35, 36, 37,
                             38, 39, 40, 41, 42, 43, 44, 45, 46, 47, 48, 49, 50, 51, 52, 53, 54, 55, 56, 57, 58, 59, 60,
                             61, 62, 63, 64, 65, 66, 67, 68, 69, 70, 71, 72, 73, 74, 75, 76, 77, 78, 79, 80, 81, 82, 83,
                             84, 85, 86]],
              'geometry': [-4.21408926, -0.28723837, 4.89628039, -1.79523982, -1.39650761, 4.99454615, 0.24755412,
                           0.2891281, 5.03989958, -2.26011245, 3.62260498, 4.98698725, 1.49477337, -3.70764266,
                           4.95864135, -4.39928242, 2.25255354, 4.90194957, 0.14172946, 2.81947138, 5.05312766,
                           -0.98265759, -3.88905637, 4.94352354, 2.3583782, -1.24532952, 5.0417893, -6.38349485,
                           -1.67240762, 4.84336806, -2.52278438, 5.65972975, 4.97375916, 2.79301521, -5.28367425,
                           4.88305231, 4.17440501, -0.66140414, 4.90761875, -7.96519562, -0.73321374, 4.3180242,
                           -6.25499348, -3.50544196, 4.31424474, 11.7540965, -2.40373163, -0.19464179, 12.01109925,
                           0.16251645, -0.12661165, 9.86437037, 1.80657818, -0.31180481, 7.41339559, 0.69163976,
                           -0.57447674, 7.14694421, -1.98232271, -0.66329387, 9.3239087, -3.57536183, -0.45353427,
                           4.71108723, -3.08214331, -0.90706854, 9.01399362, -6.20397087, -0.50077742, 6.6253798,
                           -7.32646819, -0.72754456, 4.43707694, -5.7504366, -0.94486306, 6.28333937, -10.01365874,
                           -0.73699319, 3.93440979, -11.06812592, -0.89950964, 1.70453297, -9.53744776, -1.06580553,
                           1.98988161, -6.8502572, -1.09415143, -0.17763426, -5.27989479, -1.26233705, 0.09637603,
                           -2.60026315, -1.26422678, 2.53601246, -1.50233227, -1.12627677, 5.24776945, 2.2638919,
                           -0.77667744, 2.80246384, 1.16407129, -1.01856238, 0.63305825, 2.7344337, -1.15651239,
                           -1.80279872, 1.63650282, -1.33414664, -2.07491929, -1.02990074, -1.34926445, -2.62293986,
                           -6.37593595, -1.31902884, -4.79990436, -4.80179408, -1.37005144, -4.52967352, -2.1335008,
                           -1.44375076, -0.72565483, -10.5824663, -1.15840211, -2.8931707, -9.0631265, -1.26044733,
                           -7.27166613, -5.89972496, -1.3889487, -9.39193884, -4.31424474, -1.4324124, -9.16517171,
                           -1.67618707, -1.46642747, -6.70285857, -0.56124866, -1.45130966, -3.98732212, 3.21064469,
                           -1.35115418, -6.430738, 2.11082408, -1.44186103, -5.39138864, -10.11003477, -1.29257267,
                           -7.48142573, -8.6001436, -1.34737473, -8.61904086, 3.69819403, -1.42863295, -11.06056701,
                           2.52845356, -1.46453775, -11.32323894, -0.03779452, -1.47776583, -8.3110155, 6.32680307,
                           -1.36627199, -5.9167325, 7.44930039, -1.28123431, -3.71709129, 5.87704825, -1.27745486,
                           -1.27367541, 6.97686886, -1.09415143, 0.90328909, 5.4102859, -1.048798, 3.34103579,
                           6.50632705, -0.82203086, 5.51044138, 4.93218519, -0.65195551, 7.9708648, 6.02822634,
                           -0.40629112, 10.08546833, 4.44274612, -0.23810549, 8.17306549, 8.72864497, -0.31936372,
                           3.59803854, 9.1935176, -0.69541921, 6.08680785, 10.23853615, -0.45920345, -0.99588567,
                           9.66405941, -0.98454731, 1.42863295, 10.70907795, -0.7955747, -5.58036125, 10.13649094,
                           -1.18107883, -3.23143167, 11.19284784, -1.04312882, 13.40760686, -3.61315635, -0.04535343,
                           13.87058976, 1.01100348, 0.06991987, 10.67317316, -7.40772641, -0.34204043, 7.94629836,
                           -11.20985538, -0.59526373, 3.71331184, -13.11280958, -0.88817128, -0.93919388, -12.62714997,
                           -1.12249732, -11.26843689, -5.1570626, -1.44186103, -5.59169961, -12.15471844, -1.2585576,
                           -9.3598135, -9.43351282, -1.36060281, -12.72163628, 3.739768, -1.47020693, -13.19406781,
                           -0.88817128, -1.49288364, -9.97964367, 7.52866888, -1.35871308, 11.95062802, 5.28556397,
                           -0.0434637, 10.04200463, 9.56012447, -0.13228083, 6.28144964, 12.28321982, -0.37983495,
                           1.6346131, 12.75376162, -0.7086473, -7.25276887, 11.32890812, -1.20753499, -3.0160029,
                           13.23564178, -0.9618706],
              'id': 1,
              'identifiers': {'molecular_formula': 'C59H23N5',
                              'molecule_hash': '12e9da1e1b8452b6fe71b82a8f2ee95d42c696b3'},
              'molecular_charge': 0.0,
              'molecular_multiplicity': 1,
              'name': 'C59H23N5',
              'provenance': {'creator': 'QCElemental',
                             'routine': 'qcelemental.molparse.from_string',
                             'version': '0.29.0'},
              'schema_name': 'qcschema_molecule',
              'schema_version': 2,
              'symbols': ['C', 'C', 'C', 'C', 'C', 'N', 'N', 'N', 'N', 'N', 'H', 'H', 'H', 'H', 'H', 'C', 'C', 'C', 'C',
                          'C', 'C', 'C', 'C', 'C', 'C', 'C', 'C', 'C', 'C', 'C', 'C', 'C', 'C', 'C', 'C', 'C', 'C', 'C',
                          'C', 'C', 'C', 'C', 'C', 'C', 'C', 'C', 'C', 'C', 'C', 'C', 'C', 'C', 'C', 'C', 'C', 'C', 'C',
                          'C', 'C', 'C', 'C', 'C', 'C', 'C', 'C', 'C', 'C', 'C', 'C', 'H', 'H', 'H', 'H', 'H', 'H', 'H',
                          'H', 'H', 'H', 'H', 'H', 'H', 'H', 'H', 'H', 'H', 'H'],
              'validated': True},
 'protocols': {},
 'provenance': {'creator': 'QCElemental', 'routine': 'qcelemental.models.results', 'version': '0.29.0'},
 'schema_name': 'qcschema_input',
 'schema_version': 1}
--------------------------------------------------------------------------

Scratch directory: /tmp/tmpz6_7zcpi_psi_scratch/
   => Libint2 <=

    Primary   basis highest AM E, G, H:  6, 6, 3
    Auxiliary basis highest AM E, G, H:  7, 7, 4
    Onebody   basis highest AM E, G, H:  -, -, -
    Solid Harmonics ordering:            Gaussian

*** tstart() called on atl1-1-03-004-6-2.pace.gatech.edu
*** at Sat Jun 13 12:58:17 2026

   => Loading Basis Set <=

    Name: AUG-CC-PVTZ
    Role: ORBITAL
    Keyword: BASIS
    atoms 1-5, 16-69   entry C          line   239 file /storage/home/hcoda1/5/vlita3/.conda/envs/p4_qcml/share/psi4/basis/aug-cc-pvtz.gbs 
    atoms 6-10         entry N          line   285 file /storage/home/hcoda1/5/vlita3/.conda/envs/p4_qcml/share/psi4/basis/aug-cc-pvtz.gbs 
    atoms 11-15, 70-87 entry H          line    40 file /storage/home/hcoda1/5/vlita3/.conda/envs/p4_qcml/share/psi4/basis/aug-cc-pvtz.gbs 


         ---------------------------------------------------------
                                   SCF
               by Justin Turney, Rob Parrish, Andy Simmonett
                          and Daniel G. A. Smith
                              RKS Reference
                       10 Threads, 256000 MiB Core
         ---------------------------------------------------------

  ==> Geometry <==

    Molecular point group: c1
    Full point group: C1

    Geometry (in Bohr), charge = 0, multiplicity = 1:

       Center              X                  Y                   Z               Mass       
    ------------   -----------------  -----------------  -----------------  -----------------
         C           -4.214089260000    -0.287238370000     4.896280390000    12.000000000000
         C           -1.795239820000    -1.396507610000     4.994546150000    12.000000000000
         C            0.247554120000     0.289128100000     5.039899580000    12.000000000000
         C           -2.260112450000     3.622604980000     4.986987250000    12.000000000000
         C            1.494773370000    -3.707642660000     4.958641350000    12.000000000000
         N           -4.399282420000     2.252553540000     4.901949570000    14.003074004430
         N            0.141729460000     2.819471380000     5.053127660000    14.003074004430
         N           -0.982657590000    -3.889056370000     4.943523540000    14.003074004430
         N            2.358378200000    -1.245329520000     5.041789300000    14.003074004430
         N           -6.383494850000    -1.672407620000     4.843368060000    14.003074004430
         H           -2.522784380000     5.659729750000     4.973759160000     1.007825032230
         H            2.793015210000    -5.283674250000     4.883052310000     1.007825032230
         H            4.174405010000    -0.661404140000     4.907618750000     1.007825032230
         H           -7.965195620000    -0.733213740000     4.318024200000     1.007825032230
         H           -6.254993480000    -3.505441960000     4.314244740000     1.007825032230
         C           11.754096500000    -2.403731630000    -0.194641790000    12.000000000000
         C           12.011099250000     0.162516450000    -0.126611650000    12.000000000000
         C            9.864370370000     1.806578180000    -0.311804810000    12.000000000000
         C            7.413395590000     0.691639760000    -0.574476740000    12.000000000000
         C            7.146944210000    -1.982322710000    -0.663293870000    12.000000000000
         C            9.323908700000    -3.575361830000    -0.453534270000    12.000000000000
         C            4.711087230000    -3.082143310000    -0.907068540000    12.000000000000
         C            9.013993620000    -6.203970870000    -0.500777420000    12.000000000000
         C            6.625379800000    -7.326468190000    -0.727544560000    12.000000000000
         C            4.437076940000    -5.750436600000    -0.944863060000    12.000000000000
         C            6.283339370000   -10.013658740000    -0.736993190000    12.000000000000
         C            3.934409790000   -11.068125920000    -0.899509640000    12.000000000000
         C            1.704532970000    -9.537447760000    -1.065805530000    12.000000000000
         C            1.989881610000    -6.850257200000    -1.094151430000    12.000000000000
         C           -0.177634260000    -5.279894790000    -1.262337050000    12.000000000000
         C            0.096376030000    -2.600263150000    -1.264226780000    12.000000000000
         C            2.536012460000    -1.502332270000    -1.126276770000    12.000000000000
         C            5.247769450000     2.263891900000    -0.776677440000    12.000000000000
         C            2.802463840000     1.164071290000    -1.018562380000    12.000000000000
         C            0.633058250000     2.734433700000    -1.156512390000    12.000000000000
         C           -1.802798720000     1.636502820000    -1.334146640000    12.000000000000
         C           -2.074919290000    -1.029900740000    -1.349264450000    12.000000000000
         C           -2.622939860000    -6.375935950000    -1.319028840000    12.000000000000
         C           -4.799904360000    -4.801794080000    -1.370051440000    12.000000000000
         C           -4.529673520000    -2.133500800000    -1.443750760000    12.000000000000
         C           -0.725654830000   -10.582466300000    -1.158402110000    12.000000000000
         C           -2.893170700000    -9.063126500000    -1.260447330000    12.000000000000
         C           -7.271666130000    -5.899724960000    -1.388948700000    12.000000000000
         C           -9.391938840000    -4.314244740000    -1.432412400000    12.000000000000
         C           -9.165171710000    -1.676187070000    -1.466427470000    12.000000000000
         C           -6.702858570000    -0.561248660000    -1.451309660000    12.000000000000
         C           -3.987322120000     3.210644690000    -1.351154180000    12.000000000000
         C           -6.430738000000     2.110824080000    -1.441861030000    12.000000000000
         C           -5.391388640000   -10.110034770000    -1.292572670000    12.000000000000
         C           -7.481425730000    -8.600143600000    -1.347374730000    12.000000000000
         C           -8.619040860000     3.698194030000    -1.428632950000    12.000000000000
         C          -11.060567010000     2.528453560000    -1.464537750000    12.000000000000
         C          -11.323238940000    -0.037794520000    -1.477765830000    12.000000000000
         C           -8.311015500000     6.326803070000    -1.366271990000    12.000000000000
         C           -5.916732500000     7.449300390000    -1.281234310000    12.000000000000
         C           -3.717091290000     5.877048250000    -1.277454860000    12.000000000000
         C           -1.273675410000     6.976868860000    -1.094151430000    12.000000000000
         C            0.903289090000     5.410285900000    -1.048798000000    12.000000000000
         C            3.341035790000     6.506327050000    -0.822030860000    12.000000000000
         C            5.510441380000     4.932185190000    -0.651955510000    12.000000000000
         C            7.970864800000     6.028226340000    -0.406291120000    12.000000000000
         C           10.085468330000     4.442746120000    -0.238105490000    12.000000000000
         C            8.173065490000     8.728644970000    -0.319363720000    12.000000000000
         C            3.598038540000     9.193517600000    -0.695419210000    12.000000000000
         C            6.086807850000    10.238536150000    -0.459203450000    12.000000000000
         C           -0.995885670000     9.664059410000    -0.984547310000    12.000000000000
         C            1.428632950000    10.709077950000    -0.795574700000    12.000000000000
         C           -5.580361250000    10.136490940000    -1.181078830000    12.000000000000
         C           -3.231431670000    11.192847840000    -1.043128820000    12.000000000000
         H           13.407606860000    -3.613156350000    -0.045353430000     1.007825032230
         H           13.870589760000     1.011003480000     0.069919870000     1.007825032230
         H           10.673173160000    -7.407726410000    -0.342040430000     1.007825032230
         H            7.946298360000   -11.209855380000    -0.595263730000     1.007825032230
         H            3.713311840000   -13.112809580000    -0.888171280000     1.007825032230
         H           -0.939193880000   -12.627149970000    -1.122497320000     1.007825032230
         H          -11.268436890000    -5.157062600000    -1.441861030000     1.007825032230
         H           -5.591699610000   -12.154718440000    -1.258557600000     1.007825032230
         H           -9.359813500000    -9.433512820000    -1.360602810000     1.007825032230
         H          -12.721636280000     3.739768000000    -1.470206930000     1.007825032230
         H          -13.194067810000    -0.888171280000    -1.492883640000     1.007825032230
         H           -9.979643670000     7.528668880000    -1.358713080000     1.007825032230
         H           11.950628020000     5.285563970000    -0.043463700000     1.007825032230
         H           10.042004630000     9.560124470000    -0.132280830000     1.007825032230
         H            6.281449640000    12.283219820000    -0.379834950000     1.007825032230
         H            1.634613100000    12.753761620000    -0.708647300000     1.007825032230
         H           -7.252768870000    11.328908120000    -1.207534990000     1.007825032230
         H           -3.016002900000    13.235641780000    -0.961870600000     1.007825032230

  Running in c1 symmetry.

  Rotational constants: A =      0.00187  B =      0.00184  C =      0.00106 [cm^-1]
  Rotational constants: A =     56.02922  B =     55.09335  C =     31.77172 [MHz]
  Nuclear repulsion = 9204.830048001262185

  Charge       = 0
  Multiplicity = 1
  Electrons    = 412
  Nalpha       = 206
  Nbeta        = 206

  ==> Algorithm <==

  SCF Algorithm Type is DF.
  DIIS enabled.
  MOM disabled.
  Fractional occupation disabled.
  Guess Type is SAD.
  Energy threshold   = 1.00e-06
  Density threshold  = 1.00e-06
  Integral threshold = 1.00e-12

  ==> Primary Basis <==

  Basis Set: AUG-CC-PVTZ
    Blend: AUG-CC-PVTZ
    Number of shells: 1103
    Number of basis functions: 3473
    Number of Cartesian functions: 4095
    Spherical Harmonics?: true
    Max angular momentum: 3

  ==> DFT Potential <==

   => LibXC <=

    Version 7.0.0
    S. Lehtola, C. Steigemann, M. J.T. Oliveira, and M. A.L. Marques.,  SoftwareX 7, 1–5 (2018) (10.1016/j.softx.2017.11.002)

   => Composite Functional: WB97X-V <= 

    wB97X-V Hyb-GGA Exchange-Correlation Functional

    N. Mardirossian and M. Head-Gordon.,  Phys. Chem. Chem. Phys. 16, 9904-9924 (2014) (10.1039/C3CP54374A)

    Deriv               =              1
    GGA                 =           TRUE
    Meta                =          FALSE

    Exchange Hybrid     =           TRUE
    MP2 Hybrid          =          FALSE

   => Exchange-Correlation Functionals <=

    1.0000   wB97X-V range-separated functional

   => Exact (HF) Exchange <=

    0.8330            HF,LR [omega = 0.3000]
    0.1670               HF 

   => LibXC Density Thresholds  <==

    XC_HYB_GGA_XC_WB97X_V:  1.00E-14 

   => VV10 Non-Local Parameters <=

    VV10 B              =     6.0000E+00
    VV10 C              =     1.0000E-02

   => Molecular Quadrature <=

    Radial Scheme          =       TREUTLER
    Pruning Scheme         =           NONE
    Nuclear Scheme         =       TREUTLER

    Blocking Scheme        =         OCTREE
    BS radius alpha        =              1
    Pruning alpha          =              1
    Radial Points          =             75
    Spherical Points       =            302
    Total Points           =        1715496
    Total Blocks           =          11517
    Max Points             =            256
    Max Functions          =           2168
    Weights Tolerance      =       1.00E-15

   => Loading Basis Set <=

    Name: (AUG-CC-PVTZ AUX)
    Role: JKFIT
    Keyword: DF_BASIS_SCF
    atoms 1-5, 16-69   entry C          line   162 file /storage/home/hcoda1/5/vlita3/.conda/envs/p4_qcml/share/psi4/basis/aug-cc-pvtz-jkfit.gbs 
    atoms 6-10         entry N          line   224 file /storage/home/hcoda1/5/vlita3/.conda/envs/p4_qcml/share/psi4/basis/aug-cc-pvtz-jkfit.gbs 
    atoms 11-15, 70-87 entry H          line    70 file /storage/home/hcoda1/5/vlita3/.conda/envs/p4_qcml/share/psi4/basis/aug-cc-pvtz-jkfit.gbs 

  ==> Integral Setup <==

  ==> DiskDFJK: Density-Fitted J/K Matrices <==

    J tasked:                  Yes
    K tasked:                  Yes
    wK tasked:                 Yes
    Omega:               3.000E-01
    OpenMP threads:             10
    Integrals threads:          10
    Memory [MiB]:           172800
    Algorithm:                Disk
    Integral Cache:           NONE
    Schwarz Cutoff:          1E-12
    Fitting Condition:       1E-10

   => Auxiliary Basis Set <=

  Basis Set: (AUG-CC-PVTZ AUX)
    Blend: AUG-CC-PVTZ-JKFIT
    Number of shells: 2242
    Number of basis functions: 7714
    Number of Cartesian functions: 9649
    Spherical Harmonics?: true
    Max angular momentum: 4

  Minimum eigenvalue in the overlap matrix is 6.5964717033E-12.
  Reciprocal condition number of the overlap matrix is 1.9686718001E-13.
    Using canonical orthogonalization.
  Overall, 56 of 3473 possible MOs eliminated.


  ==> Pre-Iterations <==

  SCF Guess: Superposition of Atomic Densities via on-the-fly atomic UHF (no occupation information).

   -------------------------
    Irrep   Nso     Nmo    
   -------------------------
     A       3473    3417 
   -------------------------
    Total    3473    3417
   -------------------------

  ==> Iterations <==

                           Total Energy        Delta E     RMS |[F,P]|

   @DF-RKS iter SAD: -2541.36536910817586   -2.54137e+03   0.00000e+00 
   @DF-RKS iter   1: -2534.96998973965856    6.39538e+00   4.93059e-04 ADIIS/DIIS
   @DF-RKS iter   2: -2535.97914816800085   -1.00916e+00   2.89814e-04 ADIIS/DIIS
   @DF-RKS iter   3: -2536.40432918529450   -4.25181e-01   7.26884e-05 DIIS
   @DF-RKS iter   4: -2536.42793700085394   -2.36078e-02   3.11944e-05 DIIS
   @DF-RKS iter   5: -2536.43313531659669   -5.19832e-03   1.12882e-05 DIIS
   @DF-RKS iter   6: -2536.43390874355327   -7.73427e-04   3.19956e-06 DIIS
   @DF-RKS iter   7: -2536.43400849750014   -9.97539e-05   1.17305e-06 DIIS
   @DF-RKS iter   8: -2536.43403502846559   -2.65310e-05   6.57204e-07 DIIS
   @DF-RKS iter   9: -2536.43404687051043   -1.18420e-05   2.87887e-07 DIIS
   @DF-RKS iter  10: -2536.43404896368384   -2.09317e-06   1.42936e-07 DIIS
   @DF-RKS iter  11: -2536.43404926898575   -3.05302e-07   5.24527e-08 DIIS
  Energy and wave function converged.


  ==> Post-Iterations <==

   Electrons on quadrature grid:
      Ntotal   =  412.0000040506 ; deviation = 4.051e-06 

    Orbital Energies [Eh]
    ---------------------

    Doubly Occupied:                                                      

       1A    -14.471055     2A    -14.424474     3A    -14.407950  
       4A    -14.402208     5A    -14.396088     6A    -10.358154  
       7A    -10.344813     8A    -10.340663     9A    -10.330299  
      10A    -10.300767    11A    -10.300434    12A    -10.300146  
      13A    -10.300003    14A    -10.299369    15A    -10.299207  
      16A    -10.299007    17A    -10.298935    18A    -10.298716  
      19A    -10.298682    20A    -10.298280    21A    -10.298059  
      22A    -10.297958    23A    -10.297882    24A    -10.297795  
      25A    -10.297637    26A    -10.297597    27A    -10.297331  
      28A    -10.297223    29A    -10.297125    30A    -10.296985  
      31A    -10.296716    32A    -10.296604    33A    -10.296572  
      34A    -10.296226    35A    -10.295900    36A    -10.295685  
      37A    -10.295642    38A    -10.295571    39A    -10.295371  
      40A    -10.295352    41A    -10.295250    42A    -10.294654  
      43A    -10.294615    44A    -10.294490    45A    -10.294033  
      46A    -10.292112    47A    -10.290976    48A    -10.290721  
      49A    -10.290482    50A    -10.290224    51A    -10.289696  
      52A    -10.289636    53A    -10.289065    54A    -10.289012  
      55A    -10.288957    56A    -10.288335    57A    -10.288239  
      58A    -10.288125    59A    -10.287734    60A    -10.286900  
      61A    -10.286791    62A    -10.286506    63A    -10.286196  
      64A    -10.286060    65A     -1.163953    66A     -1.105967  
      67A     -1.068338    68A     -1.061486    69A     -1.049156  
      70A     -1.047995    71A     -1.024279    72A     -1.023813  
      73A     -1.016761    74A     -1.011250    75A     -0.997987  
      76A     -0.990735    77A     -0.980585    78A     -0.979946  
      79A     -0.978973    80A     -0.961451    81A     -0.961399  
      82A     -0.935975    83A     -0.935500    84A     -0.932223  
      85A     -0.922609    86A     -0.922471    87A     -0.900003  
      88A     -0.888634    89A     -0.885807    90A     -0.883775  
      91A     -0.883197    92A     -0.881481    93A     -0.879075  
      94A     -0.854615    95A     -0.854363    96A     -0.835464  
      97A     -0.835218    98A     -0.787734    99A     -0.787503  
     100A     -0.783537   101A     -0.781561   102A     -0.776288  
     103A     -0.775804   104A     -0.774060   105A     -0.773963  
     106A     -0.765969   107A     -0.758079   108A     -0.740369  
     109A     -0.735249   110A     -0.721774   111A     -0.720393  
     112A     -0.719343   113A     -0.718781   114A     -0.701367  
     115A     -0.701222   116A     -0.688898   117A     -0.673502  
     118A     -0.670761   119A     -0.653738   120A     -0.652674  
     121A     -0.652114   122A     -0.648618   123A     -0.648401  
     124A     -0.640214   125A     -0.629467   126A     -0.628889  
     127A     -0.625691   128A     -0.625140   129A     -0.617424  
     130A     -0.599974   131A     -0.596288   132A     -0.590295  
     133A     -0.588471   134A     -0.584521   135A     -0.584346  
     136A     -0.581841   137A     -0.576963   138A     -0.576681  
     139A     -0.567772   140A     -0.565446   141A     -0.563706  
     142A     -0.563588   143A     -0.560575   144A     -0.555160  
     145A     -0.551650   146A     -0.544968   147A     -0.541842  
     148A     -0.541268   149A     -0.540947   150A     -0.539644  
     151A     -0.533733   152A     -0.532074   153A     -0.531682  
     154A     -0.530166   155A     -0.521995   156A     -0.520468  
     157A     -0.519824   158A     -0.511120   159A     -0.510493  
     160A     -0.510279   161A     -0.509884   162A     -0.509414  
     163A     -0.508252   164A     -0.502875   165A     -0.501538  
     166A     -0.501152   167A     -0.487774   168A     -0.487591  
     169A     -0.485059   170A     -0.480364   171A     -0.477779  
     172A     -0.472571   173A     -0.471196   174A     -0.470451  
     175A     -0.461425   176A     -0.453874   177A     -0.451474  
     178A     -0.446415   179A     -0.437357   180A     -0.436670  
     181A     -0.436595   182A     -0.436408   183A     -0.436241  
     184A     -0.425143   185A     -0.409647   186A     -0.409003  
     187A     -0.407615   188A     -0.407145   189A     -0.405178  
     190A     -0.392083   191A     -0.387516   192A     -0.382570  
     193A     -0.382359   194A     -0.359768   195A     -0.358293  
     196A     -0.352888   197A     -0.349103   198A     -0.348062  
     199A     -0.345732   200A     -0.330416   201A     -0.313615  
     202A     -0.308527   203A     -0.302893   204A     -0.300197  
     205A     -0.251753   206A     -0.251095  

    Virtual:                                                              

     207A     -0.036308   208A     -0.035606   209A      0.010275  
     210A      0.010399   211A      0.021942   212A      0.024047  
     213A      0.025068   214A      0.026837   215A      0.029701  
     216A      0.030062   217A      0.034650   218A      0.036187  
     219A      0.037176   220A      0.037245   221A      0.037767  
     222A      0.038362   223A      0.040159   224A      0.047000  
     225A      0.047991   226A      0.048150   227A      0.049435  
     228A      0.054515   229A      0.056127   230A      0.059212  
     231A      0.059537   232A      0.059802   233A      0.063121  
     234A      0.063839   235A      0.067015   236A      0.067923  
     237A      0.071796   238A      0.073559   239A      0.075414  
     240A      0.076260   241A      0.076770   242A      0.077527  
     243A      0.080744   244A      0.082864   245A      0.083914  
     246A      0.086899   247A      0.087431   248A      0.088906  
     249A      0.089633   250A      0.092565   251A      0.094186  
     252A      0.094588   253A      0.095116   254A      0.095907  
     255A      0.096680   256A      0.097335   257A      0.097753  
     258A      0.099727   259A      0.102312   260A      0.104822  
     261A      0.105990   262A      0.107098   263A      0.107871  
     264A      0.108731   265A      0.109026   266A      0.109718  
     267A      0.109918   268A      0.110618   269A      0.111343  
     270A      0.112355   271A      0.114459   272A      0.115230  
     273A      0.115749   274A      0.116295   275A      0.117235  
     276A      0.117571   277A      0.119391   278A      0.124988  
     279A      0.125912   280A      0.126149   281A      0.127021  
     282A      0.129366   283A      0.129608   284A      0.130326  
     285A      0.132102   286A      0.132739   287A      0.136212  
     288A      0.137434   289A      0.138152   290A      0.138436  
     291A      0.139978   292A      0.140277   293A      0.141759  
     294A      0.144166   295A      0.145780   296A      0.147489  
     297A      0.148525   298A      0.155033   299A      0.155126  
     300A      0.157728   301A      0.158250   302A      0.159522  
     303A      0.160581   304A      0.162341   305A      0.164405  
     306A      0.165948   307A      0.166932   308A      0.166989  
     309A      0.168132   310A      0.169599   311A      0.170263  
     312A      0.170947   313A      0.171642   314A      0.172637  
     315A      0.173422   316A      0.174587   317A      0.175594  
     318A      0.177427   319A      0.179488   320A      0.179900  
     321A      0.180390   322A      0.181129   323A      0.183564  
     324A      0.184609   325A      0.187591   326A      0.188789  
     327A      0.189652   328A      0.194281   329A      0.195197  
     330A      0.195995   331A      0.196219   332A      0.198184  
     333A      0.200625   334A      0.201074   335A      0.201866  
     336A      0.203752   337A      0.204995   338A      0.205581  
     339A      0.206362   340A      0.209161   341A      0.211438  
     342A      0.214048   343A      0.215021   344A      0.215696  
     345A      0.217059   346A      0.217941   347A      0.218036  
     348A      0.219723   349A      0.220149   350A      0.221163  
     351A      0.221488   352A      0.222638   353A      0.223293  
     354A      0.225102   355A      0.226370   356A      0.227545  
     357A      0.227891   358A      0.228468   359A      0.230162  
     360A      0.231862   361A      0.232601   362A      0.233197  
     363A      0.233483   364A      0.234287   365A      0.235025  
     366A      0.235673   367A      0.236086   368A      0.236634  
     369A      0.237462   370A      0.237790   371A      0.238250  
     372A      0.240414   373A      0.241347   374A      0.241922  
     375A      0.245363   376A      0.245942   377A      0.247812  
     378A      0.248696   379A      0.249894   380A      0.250691  
     381A      0.251073   382A      0.252985   383A      0.253557  
     384A      0.255450   385A      0.256847   386A      0.257775  
     387A      0.258551   388A      0.259067   389A      0.259727  
     390A      0.260292   391A      0.261212   392A      0.262950  
     393A      0.263722   394A      0.264078   395A      0.267866  
     396A      0.267992   397A      0.269552   398A      0.270399  
     399A      0.270616   400A      0.272554   401A      0.273012  
     402A      0.273225   403A      0.273932   404A      0.275449  
     405A      0.276336   406A      0.276884   407A      0.277531  
     408A      0.278020   409A      0.280726   410A      0.281794  
     411A      0.282838   412A      0.283017   413A      0.284668  
     414A      0.286179   415A      0.287428   416A      0.288815  
     417A      0.289680   418A      0.290448   419A      0.292773  
     420A      0.293420   421A      0.294040   422A      0.296004  
     423A      0.297378   424A      0.298448   425A      0.301989  
     426A      0.302374   427A      0.302927   428A      0.303974  
     429A      0.304758   430A      0.305103   431A      0.306537  
     432A      0.307389   433A      0.308841   434A      0.309048  
     435A      0.309914   436A      0.310487   437A      0.310868  
     438A      0.312175   439A      0.313235   440A      0.313918  
     441A      0.314667   442A      0.317269   443A      0.318449  
     444A      0.319055   445A      0.319751   446A      0.320229  
     447A      0.321801   448A      0.322283   449A      0.323502  
     450A      0.325412   451A      0.326132   452A      0.327451  
     453A      0.328242   454A      0.330201   455A      0.330718  
     456A      0.332468   457A      0.333243   458A      0.334028  
     459A      0.335464   460A      0.336810   461A      0.339504  
     462A      0.339577   463A      0.340305   464A      0.340795  
     465A      0.341074   466A      0.342754   467A      0.343250  
     468A      0.344282   469A      0.345043   470A      0.345234  
     471A      0.345998   472A      0.347106   473A      0.347560  
     474A      0.348868   475A      0.349630   476A      0.351723  
     477A      0.352423   478A      0.352612   479A      0.352983  
     480A      0.354738   481A      0.356045   482A      0.357459  
     483A      0.357618   484A      0.358332   485A      0.359001  
     486A      0.361284   487A      0.361595   488A      0.362679  
     489A      0.363300   490A      0.363946   491A      0.365034  
     492A      0.365310   493A      0.366533   494A      0.367566  
     495A      0.368448   496A      0.369248   497A      0.370547  
     498A      0.372331   499A      0.374411   500A      0.376199  
     501A      0.376492   502A      0.379087   503A      0.379551  
     504A      0.380795   505A      0.381027   506A      0.381768  
     507A      0.382523   508A      0.383094   509A      0.383625  
     510A      0.384006   511A      0.385002   512A      0.385485  
     513A      0.386977   514A      0.387963   515A      0.388409  
     516A      0.389306   517A      0.391095   518A      0.393150  
     519A      0.394086   520A      0.395009   521A      0.395794  
     522A      0.397135   523A      0.398067   524A      0.399730  
     525A      0.400724   526A      0.401867   527A      0.402602  
     528A      0.404500   529A      0.406096   530A      0.406836  
     531A      0.408384   532A      0.409153   533A      0.410083  
     534A      0.412030   535A      0.412272   536A      0.413348  
     537A      0.414947   538A      0.416142   539A      0.416660  
     540A      0.417934   541A      0.420803   542A      0.422737  
     543A      0.423403   544A      0.425057   545A      0.425676  
     546A      0.426912   547A      0.428342   548A      0.430392  
     549A      0.431902   550A      0.432426   551A      0.433775  
     552A      0.434815   553A      0.435695   554A      0.435771  
     555A      0.436783   556A      0.437207   557A      0.438547  
     558A      0.439137   559A      0.440451   560A      0.442206  
     561A      0.442763   562A      0.443128   563A      0.444599  
     564A      0.445439   565A      0.446245   566A      0.448149  
     567A      0.449447   568A      0.450524   569A      0.451813  
     570A      0.452749   571A      0.453532   572A      0.455031  
     573A      0.455837   574A      0.456403   575A      0.459578  
     576A      0.460162   577A      0.460908   578A      0.462210  
     579A      0.462557   580A      0.463704   581A      0.464551  
     582A      0.465665   583A      0.467871   584A      0.468613  
     585A      0.469933   586A      0.470551   587A      0.473110  
     588A      0.473336   589A      0.474923   590A      0.476016  
     591A      0.476493   592A      0.477203   593A      0.477766  
     594A      0.478125   595A      0.479056   596A      0.480262  
     597A      0.480904   598A      0.481821   599A      0.482816  
     600A      0.483385   601A      0.485181   602A      0.486103  
     603A      0.486600   604A      0.487637   605A      0.488107  
     606A      0.489131   607A      0.489608   608A      0.490613  
     609A      0.491315   610A      0.492722   611A      0.494030  
     612A      0.494965   613A      0.495218   614A      0.496371  
     615A      0.497974   616A      0.498338   617A      0.499290  
     618A      0.499715   619A      0.500347   620A      0.501648  
     621A      0.503599   622A      0.503913   623A      0.504718  
     624A      0.506435   625A      0.506899   626A      0.507166  
     627A      0.507666   628A      0.509073   629A      0.509566  
     630A      0.510980   631A      0.513303   632A      0.514181  
     633A      0.515693   634A      0.516327   635A      0.517724  
     636A      0.518350   637A      0.519976   638A      0.520719  
     639A      0.521108   640A      0.521975   641A      0.522787  
     642A      0.523809   643A      0.524309   644A      0.524552  
     645A      0.524963   646A      0.526847   647A      0.527543  
     648A      0.528655   649A      0.529268   650A      0.529997  
     651A      0.530647   652A      0.532734   653A      0.533747  
     654A      0.534169   655A      0.536502   656A      0.536818  
     657A      0.538191   658A      0.539793   659A      0.540909  
     660A      0.541818   661A      0.542196   662A      0.544607  
     663A      0.544888   664A      0.547182   665A      0.548071  
     666A      0.548473   667A      0.548998   668A      0.550221  
     669A      0.551931   670A      0.553276   671A      0.553553  
     672A      0.555003   673A      0.556863   674A      0.557382  
     675A      0.558616   676A      0.559363   677A      0.560801  
     678A      0.561498   679A      0.562288   680A      0.565048  
     681A      0.566294   682A      0.567181   683A      0.569175  
     684A      0.569999   685A      0.570557   686A      0.571094  
     687A      0.572435   688A      0.573327   689A      0.574286  
     690A      0.576150   691A      0.576568   692A      0.580773  
     693A      0.581253   694A      0.582370   695A      0.584136  
     696A      0.585281   697A      0.585754   698A      0.586333  
     699A      0.588360   700A      0.589635   701A      0.592285  
     702A      0.593251   703A      0.594079   704A      0.596563  
     705A      0.596911   706A      0.597665   707A      0.600988  
     708A      0.601173   709A      0.601786   710A      0.602937  
     711A      0.604127   712A      0.605598   713A      0.606057  
     714A      0.608215   715A      0.610917   716A      0.612362  
     717A      0.613127   718A      0.614269   719A      0.616014  
     720A      0.616373   721A      0.618022   722A      0.619890  
     723A      0.621594   724A      0.622578   725A      0.624629  
     726A      0.626332   727A      0.628396   728A      0.631115  
     729A      0.633063   730A      0.634606   731A      0.638531  
     732A      0.639766   733A      0.640279   734A      0.640950  
     735A      0.643246   736A      0.644861   737A      0.645382  
     738A      0.648119   739A      0.648783   740A      0.649704  
     741A      0.652373   742A      0.653271   743A      0.654733  
     744A      0.656719   745A      0.659787   746A      0.660152  
     747A      0.662889   748A      0.663572   749A      0.666890  
     750A      0.667106   751A      0.669355   752A      0.671057  
     753A      0.672791   754A      0.673314   755A      0.674231  
     756A      0.674856   757A      0.677435   758A      0.679253  
     759A      0.679648   760A      0.680463   761A      0.682043  
     762A      0.683730   763A      0.685318   764A      0.686248  
     765A      0.687420   766A      0.689359   767A      0.690382  
     768A      0.691809   769A      0.694657   770A      0.696166  
     771A      0.697400   772A      0.698559   773A      0.700709  
     774A      0.701969   775A      0.702244   776A      0.704098  
     777A      0.704533   778A      0.707435   779A      0.708647  
     780A      0.709236   781A      0.711625   782A      0.713295  
     783A      0.714229   784A      0.714855   785A      0.716071  
     786A      0.717561   787A      0.718516   788A      0.721371  
     789A      0.721698   790A      0.723167   791A      0.724648  
     792A      0.726523   793A      0.726830   794A      0.729006  
     795A      0.730014   796A      0.731417   797A      0.732922  
     798A      0.733740   799A      0.735658   800A      0.736223  
     801A      0.736337   802A      0.737763   803A      0.739509  
     804A      0.740650   805A      0.741816   806A      0.742955  
     807A      0.743617   808A      0.745800   809A      0.746333  
     810A      0.747545   811A      0.748523   812A      0.748921  
     813A      0.749671   814A      0.751231   815A      0.754277  
     816A      0.755128   817A      0.756158   818A      0.757328  
     819A      0.759589   820A      0.760795   821A      0.761796  
     822A      0.762729   823A      0.763607   824A      0.764116  
     825A      0.765638   826A      0.767126   827A      0.767693  
     828A      0.769528   829A      0.769837   830A      0.771833  
     831A      0.772130   832A      0.773899   833A      0.775846  
     834A      0.776283   835A      0.776710   836A      0.778860  
     837A      0.780064   838A      0.781209   839A      0.781953  
     840A      0.783135   841A      0.784675   842A      0.785689  
     843A      0.787381   844A      0.788817   845A      0.789952  
     846A      0.790826   847A      0.791710   848A      0.793520  
     849A      0.793964   850A      0.794593   851A      0.797352  
     852A      0.798095   853A      0.798932   854A      0.800191  
     855A      0.801181   856A      0.803054   857A      0.804035  
     858A      0.805269   859A      0.807366   860A      0.808255  
     861A      0.808539   862A      0.809761   863A      0.810183  
     864A      0.811258   865A      0.814813   866A      0.815966  
     867A      0.818037   868A      0.819165   869A      0.819937  
     870A      0.820077   871A      0.822183   872A      0.824167  
     873A      0.825437   874A      0.828180   875A      0.829119  
     876A      0.829662   877A      0.830545   878A      0.832661  
     879A      0.833692   880A      0.834899   881A      0.836137  
     882A      0.836614   883A      0.838461   884A      0.839615  
     885A      0.840097   886A      0.840701   887A      0.842851  
     888A      0.842998   889A      0.844064   890A      0.845687  
     891A      0.847946   892A      0.849613   893A      0.851412  
     894A      0.851878   895A      0.853932   896A      0.854695  
     897A      0.855211   898A      0.856743   899A      0.857845  
     900A      0.859441   901A      0.860144   902A      0.861310  
     903A      0.863849   904A      0.864328   905A      0.865116  
     906A      0.866362   907A      0.866831   908A      0.868255  
     909A      0.868966   910A      0.869244   911A      0.871945  
     912A      0.873023   913A      0.874140   914A      0.874317  
     915A      0.876381   916A      0.878420   917A      0.880630  
     918A      0.880830   919A      0.881990   920A      0.882438  
     921A      0.883006   922A      0.883393   923A      0.885381  
     924A      0.885904   925A      0.886862   926A      0.887488  
     927A      0.889301   928A      0.889717   929A      0.891629  
     930A      0.892234   931A      0.892707   932A      0.892843  
     933A      0.893895   934A      0.895685   935A      0.896643  
     936A      0.899512   937A      0.899801   938A      0.900087  
     939A      0.901312   940A      0.901932   941A      0.902351  
     942A      0.903549   943A      0.904986   944A      0.905662  
     945A      0.906364   946A      0.907857   947A      0.909350  
     948A      0.910162   949A      0.911819   950A      0.912395  
     951A      0.913856   952A      0.914712   953A      0.916120  
     954A      0.917312   955A      0.918013   956A      0.919225  
     957A      0.920879   958A      0.921372   959A      0.922783  
     960A      0.924602   961A      0.924963   962A      0.926793  
     963A      0.927897   964A      0.928737   965A      0.929795  
     966A      0.932291   967A      0.933134   968A      0.933904  
     969A      0.935760   970A      0.936981   971A      0.938327  
     972A      0.939259   973A      0.940705   974A      0.943004  
     975A      0.943767   976A      0.945994   977A      0.947246  
     978A      0.947557   979A      0.948077   980A      0.949338  
     981A      0.951017   982A      0.952834   983A      0.954473  
     984A      0.955361   985A      0.956009   986A      0.956972  
     987A      0.958070   988A      0.959598   989A      0.960691  
     990A      0.961426   991A      0.962968   992A      0.964751  
     993A      0.965556   994A      0.967279   995A      0.969748  
     996A      0.971079   997A      0.971855   998A      0.972810  
     999A      0.974201  1000A      0.975210  1001A      0.976884  
    1002A      0.977763  1003A      0.978510  1004A      0.980006  
    1005A      0.980283  1006A      0.982333  1007A      0.983046  
    1008A      0.984545  1009A      0.985773  1010A      0.986916  
    1011A      0.989985  1012A      0.991008  1013A      0.992891  
    1014A      0.993330  1015A      0.993909  1016A      0.996169  
    1017A      0.997023  1018A      0.998989  1019A      1.000657  
    1020A      1.001895  1021A      1.003271  1022A      1.004240  
    1023A      1.005230  1024A      1.006153  1025A      1.007696  
    1026A      1.008048  1027A      1.009152  1028A      1.010200  
    1029A      1.011334  1030A      1.012436  1031A      1.012781  
    1032A      1.013538  1033A      1.015129  1034A      1.018099  
    1035A      1.018203  1036A      1.021263  1037A      1.021598  
    1038A      1.022521  1039A      1.023695  1040A      1.025195  
    1041A      1.026896  1042A      1.027974  1043A      1.029540  
    1044A      1.031216  1045A      1.031759  1046A      1.033181  
    1047A      1.034099  1048A      1.035962  1049A      1.036565  
    1050A      1.037350  1051A      1.037905  1052A      1.039256  
    1053A      1.041101  1054A      1.042520  1055A      1.043499  
    1056A      1.045696  1057A      1.046575  1058A      1.048266  
    1059A      1.048492  1060A      1.050643  1061A      1.052050  
    1062A      1.053096  1063A      1.056100  1064A      1.056815  
    1065A      1.058227  1066A      1.058315  1067A      1.061070  
    1068A      1.061222  1069A      1.063646  1070A      1.063877  
    1071A      1.066483  1072A      1.067607  1073A      1.067667  
    1074A      1.070441  1075A      1.072572  1076A      1.073442  
    1077A      1.073865  1078A      1.076784  1079A      1.077773  
    1080A      1.078924  1081A      1.080021  1082A      1.080710  
    1083A      1.082284  1084A      1.085248  1085A      1.085329  
    1086A      1.085777  1087A      1.087031  1088A      1.088038  
    1089A      1.088592  1090A      1.089806  1091A      1.091302  
    1092A      1.091777  1093A      1.093740  1094A      1.094637  
    1095A      1.095958  1096A      1.097839  1097A      1.099230  
    1098A      1.100204  1099A      1.101691  1100A      1.103248  
    1101A      1.104350  1102A      1.107616  1103A      1.108439  
    1104A      1.109877  1105A      1.111136  1106A      1.112029  
    1107A      1.114887  1108A      1.115435  1109A      1.116759  
    1110A      1.116944  1111A      1.118287  1112A      1.118724  
    1113A      1.119988  1114A      1.121256  1115A      1.123550  
    1116A      1.124455  1117A      1.126303  1118A      1.127896  
    1119A      1.128233  1120A      1.129807  1121A      1.131513  
    1122A      1.133440  1123A      1.133844  1124A      1.135778  
    1125A      1.139060  1126A      1.141066  1127A      1.141107  
    1128A      1.142368  1129A      1.143084  1130A      1.144178  
    1131A      1.145181  1132A      1.146385  1133A      1.146753  
    1134A      1.149328  1135A      1.150318  1136A      1.151960  
    1137A      1.152635  1138A      1.153686  1139A      1.154077  
    1140A      1.155073  1141A      1.155592  1142A      1.157198  
    1143A      1.159292  1144A      1.160732  1145A      1.161686  
    1146A      1.163181  1147A      1.164796  1148A      1.166632  
    1149A      1.167493  1150A      1.169082  1151A      1.169427  
    1152A      1.170066  1153A      1.172510  1154A      1.173087  
    1155A      1.173186  1156A      1.174884  1157A      1.176923  
    1158A      1.177668  1159A      1.178329  1160A      1.180615  
    1161A      1.183192  1162A      1.184277  1163A      1.184680  
    1164A      1.185172  1165A      1.186481  1166A      1.187817  
    1167A      1.189008  1168A      1.189101  1169A      1.190524  
    1170A      1.191219  1171A      1.192289  1172A      1.193598  
    1173A      1.196034  1174A      1.197098  1175A      1.198906  
    1176A      1.200190  1177A      1.200862  1178A      1.203622  
    1179A      1.204498  1180A      1.205737  1181A      1.206867  
    1182A      1.208310  1183A      1.211248  1184A      1.211429  
    1185A      1.212223  1186A      1.212649  1187A      1.213970  
    1188A      1.215873  1189A      1.217173  1190A      1.217853  
    1191A      1.220389  1192A      1.220638  1193A      1.221918  
    1194A      1.224201  1195A      1.224855  1196A      1.226955  
    1197A      1.227556  1198A      1.228914  1199A      1.229347  
    1200A      1.233458  1201A      1.235038  1202A      1.236399  
    1203A      1.238221  1204A      1.240455  1205A      1.242626  
    1206A      1.243391  1207A      1.245964  1208A      1.246547  
    1209A      1.247846  1210A      1.248972  1211A      1.250020  
    1212A      1.252569  1213A      1.253326  1214A      1.254414  
    1215A      1.256190  1216A      1.256437  1217A      1.258371  
    1218A      1.259861  1219A      1.260510  1220A      1.263341  
    1221A      1.264720  1222A      1.265752  1223A      1.266879  
    1224A      1.268648  1225A      1.269627  1226A      1.271041  
    1227A      1.272668  1228A      1.276446  1229A      1.277105  
    1230A      1.279196  1231A      1.279699  1232A      1.281712  
    1233A      1.282451  1234A      1.282978  1235A      1.286048  
    1236A      1.289906  1237A      1.290475  1238A      1.293646  
    1239A      1.295140  1240A      1.295602  1241A      1.296651  
    1242A      1.298161  1243A      1.300220  1244A      1.301875  
    1245A      1.304060  1246A      1.305105  1247A      1.306375  
    1248A      1.307429  1249A      1.309780  1250A      1.311059  
    1251A      1.311814  1252A      1.312094  1253A      1.314995  
    1254A      1.316896  1255A      1.319330  1256A      1.322270  
    1257A      1.322540  1258A      1.325924  1259A      1.327409  
    1260A      1.328557  1261A      1.329461  1262A      1.331952  
    1263A      1.332817  1264A      1.334423  1265A      1.335968  
    1266A      1.338125  1267A      1.339338  1268A      1.340272  
    1269A      1.343095  1270A      1.343816  1271A      1.344678  
    1272A      1.348492  1273A      1.350452  1274A      1.350681  
    1275A      1.352529  1276A      1.353809  1277A      1.354924  
    1278A      1.357274  1279A      1.358064  1280A      1.359756  
    1281A      1.361810  1282A      1.364279  1283A      1.366324  
    1284A      1.368153  1285A      1.369068  1286A      1.371836  
    1287A      1.372776  1288A      1.373580  1289A      1.376923  
    1290A      1.377764  1291A      1.379458  1292A      1.380036  
    1293A      1.380627  1294A      1.382925  1295A      1.383981  
    1296A      1.385093  1297A      1.386060  1298A      1.386414  
    1299A      1.388636  1300A      1.389378  1301A      1.389822  
    1302A      1.395535  1303A      1.396006  1304A      1.397835  
    1305A      1.399474  1306A      1.399499  1307A      1.401797  
    1308A      1.404343  1309A      1.406108  1310A      1.406649  
    1311A      1.408333  1312A      1.408369  1313A      1.410732  
    1314A      1.411484  1315A      1.412370  1316A      1.414052  
    1317A      1.415533  1318A      1.416216  1319A      1.417909  
    1320A      1.419124  1321A      1.420954  1322A      1.422143  
    1323A      1.426047  1324A      1.427993  1325A      1.429758  
    1326A      1.431972  1327A      1.434158  1328A      1.434663  
    1329A      1.436660  1330A      1.437525  1331A      1.439855  
    1332A      1.440086  1333A      1.441924  1334A      1.442573  
    1335A      1.444864  1336A      1.445048  1337A      1.447591  
    1338A      1.449800  1339A      1.451246  1340A      1.451610  
    1341A      1.453173  1342A      1.454206  1343A      1.456244  
    1344A      1.457627  1345A      1.460035  1346A      1.461614  
    1347A      1.463075  1348A      1.463782  1349A      1.466299  
    1350A      1.467662  1351A      1.467720  1352A      1.469164  
    1353A      1.470924  1354A      1.471390  1355A      1.471920  
    1356A      1.474595  1357A      1.475503  1358A      1.476433  
    1359A      1.478236  1360A      1.479891  1361A      1.481967  
    1362A      1.482362  1363A      1.483181  1364A      1.484283  
    1365A      1.484948  1366A      1.486788  1367A      1.488209  
    1368A      1.490076  1369A      1.491035  1370A      1.492885  
    1371A      1.495041  1372A      1.495281  1373A      1.496321  
    1374A      1.498588  1375A      1.500528  1376A      1.501818  
    1377A      1.504173  1378A      1.504861  1379A      1.505576  
    1380A      1.507035  1381A      1.508538  1382A      1.511947  
    1383A      1.512515  1384A      1.513595  1385A      1.514307  
    1386A      1.517208  1387A      1.518770  1388A      1.519190  
    1389A      1.519785  1390A      1.521243  1391A      1.523309  
    1392A      1.524379  1393A      1.524780  1394A      1.525518  
    1395A      1.528102  1396A      1.529265  1397A      1.530324  
    1398A      1.531182  1399A      1.532722  1400A      1.533509  
    1401A      1.535273  1402A      1.535753  1403A      1.537333  
    1404A      1.538454  1405A      1.539011  1406A      1.541138  
    1407A      1.544077  1408A      1.545232  1409A      1.546514  
    1410A      1.547885  1411A      1.550249  1412A      1.550724  
    1413A      1.552916  1414A      1.554202  1415A      1.554562  
    1416A      1.555653  1417A      1.556928  1418A      1.558999  
    1419A      1.560734  1420A      1.561852  1421A      1.562937  
    1422A      1.563737  1423A      1.566519  1424A      1.568354  
    1425A      1.568944  1426A      1.570028  1427A      1.572303  
    1428A      1.573868  1429A      1.574410  1430A      1.576040  
    1431A      1.576978  1432A      1.579740  1433A      1.580684  
    1434A      1.582137  1435A      1.583455  1436A      1.585321  
    1437A      1.586115  1438A      1.587587  1439A      1.589917  
    1440A      1.590733  1441A      1.592371  1442A      1.595005  
    1443A      1.596951  1444A      1.597452  1445A      1.598894  
    1446A      1.600192  1447A      1.600930  1448A      1.603404  
    1449A      1.604966  1450A      1.606456  1451A      1.607574  
    1452A      1.608177  1453A      1.609896  1454A      1.611934  
    1455A      1.613514  1456A      1.616265  1457A      1.617697  
    1458A      1.618834  1459A      1.619492  1460A      1.621596  
    1461A      1.624121  1462A      1.625367  1463A      1.625914  
    1464A      1.627164  1465A      1.629242  1466A      1.632454  
    1467A      1.632541  1468A      1.634742  1469A      1.635318  
    1470A      1.638145  1471A      1.639849  1472A      1.640683  
    1473A      1.642429  1474A      1.644706  1475A      1.645908  
    1476A      1.647359  1477A      1.649043  1478A      1.649855  
    1479A      1.651604  1480A      1.653608  1481A      1.655592  
    1482A      1.655692  1483A      1.657928  1484A      1.658508  
    1485A      1.661630  1486A      1.663598  1487A      1.664930  
    1488A      1.665842  1489A      1.667913  1490A      1.669529  
    1491A      1.670573  1492A      1.672700  1493A      1.674286  
    1494A      1.675238  1495A      1.677240  1496A      1.679343  
    1497A      1.679864  1498A      1.680217  1499A      1.681877  
    1500A      1.684233  1501A      1.685555  1502A      1.687688  
    1503A      1.688240  1504A      1.690215  1505A      1.692829  
    1506A      1.694020  1507A      1.695180  1508A      1.696648  
    1509A      1.701683  1510A      1.703096  1511A      1.703271  
    1512A      1.705826  1513A      1.706917  1514A      1.709635  
    1515A      1.710736  1516A      1.711492  1517A      1.713964  
    1518A      1.714037  1519A      1.715739  1520A      1.719763  
    1521A      1.720280  1522A      1.721620  1523A      1.723096  
    1524A      1.723953  1525A      1.727605  1526A      1.730003  
    1527A      1.733557  1528A      1.734300  1529A      1.735885  
    1530A      1.736233  1531A      1.738507  1532A      1.739610  
    1533A      1.741882  1534A      1.743628  1535A      1.744671  
    1536A      1.745417  1537A      1.748013  1538A      1.749805  
    1539A      1.750809  1540A      1.752424  1541A      1.752740  
    1542A      1.755994  1543A      1.757829  1544A      1.759700  
    1545A      1.760359  1546A      1.761552  1547A      1.763903  
    1548A      1.766104  1549A      1.767816  1550A      1.769856  
    1551A      1.770478  1552A      1.771090  1553A      1.772646  
    1554A      1.774223  1555A      1.776425  1556A      1.776750  
    1557A      1.780663  1558A      1.781505  1559A      1.783785  
    1560A      1.784716  1561A      1.788213  1562A      1.788413  
    1563A      1.789933  1564A      1.790299  1565A      1.792088  
    1566A      1.793884  1567A      1.794734  1568A      1.796000  
    1569A      1.797847  1570A      1.800189  1571A      1.801517  
    1572A      1.802683  1573A      1.804883  1574A      1.806486  
    1575A      1.807430  1576A      1.808731  1577A      1.812355  
    1578A      1.812985  1579A      1.814122  1580A      1.816094  
    1581A      1.817219  1582A      1.818984  1583A      1.820051  
    1584A      1.822979  1585A      1.824513  1586A      1.827900  
    1587A      1.828066  1588A      1.830578  1589A      1.834223  
    1590A      1.834756  1591A      1.838609  1592A      1.839504  
    1593A      1.840690  1594A      1.841833  1595A      1.843232  
    1596A      1.844464  1597A      1.845694  1598A      1.849374  
    1599A      1.851085  1600A      1.852308  1601A      1.853159  
    1602A      1.854618  1603A      1.856531  1604A      1.858412  
    1605A      1.858736  1606A      1.860673  1607A      1.862016  
    1608A      1.862921  1609A      1.865144  1610A      1.867959  
    1611A      1.868209  1612A      1.870486  1613A      1.871509  
    1614A      1.874898  1615A      1.876031  1616A      1.876438  
    1617A      1.879684  1618A      1.881009  1619A      1.884988  
    1620A      1.889565  1621A      1.891755  1622A      1.893704  
    1623A      1.895667  1624A      1.896559  1625A      1.897580  
    1626A      1.899393  1627A      1.903025  1628A      1.903645  
    1629A      1.906478  1630A      1.908445  1631A      1.910416  
    1632A      1.911613  1633A      1.916023  1634A      1.918619  
    1635A      1.919211  1636A      1.920666  1637A      1.922642  
    1638A      1.925605  1639A      1.928828  1640A      1.929798  
    1641A      1.934250  1642A      1.936807  1643A      1.937652  
    1644A      1.939315  1645A      1.940380  1646A      1.941680  
    1647A      1.942080  1648A      1.945901  1649A      1.947096  
    1650A      1.950685  1651A      1.951938  1652A      1.953848  
    1653A      1.955603  1654A      1.957625  1655A      1.959628  
    1656A      1.960776  1657A      1.963306  1658A      1.963373  
    1659A      1.964239  1660A      1.966829  1661A      1.968055  
    1662A      1.970054  1663A      1.974179  1664A      1.975489  
    1665A      1.976278  1666A      1.977454  1667A      1.983332  
    1668A      1.985138  1669A      1.986405  1670A      1.987647  
    1671A      1.989679  1672A      1.990991  1673A      1.991536  
    1674A      1.995575  1675A      1.996664  1676A      1.997687  
    1677A      2.001208  1678A      2.002716  1679A      2.004255  
    1680A      2.005268  1681A      2.006922  1682A      2.008939  
    1683A      2.011973  1684A      2.013407  1685A      2.014333  
    1686A      2.015693  1687A      2.017025  1688A      2.019131  
    1689A      2.019643  1690A      2.021582  1691A      2.023230  
    1692A      2.024842  1693A      2.027161  1694A      2.027767  
    1695A      2.029252  1696A      2.030277  1697A      2.031872  
    1698A      2.032872  1699A      2.035024  1700A      2.037470  
    1701A      2.037872  1702A      2.039429  1703A      2.041968  
    1704A      2.043565  1705A      2.044632  1706A      2.047601  
    1707A      2.050362  1708A      2.051285  1709A      2.053258  
    1710A      2.054309  1711A      2.058034  1712A      2.058706  
    1713A      2.060451  1714A      2.062658  1715A      2.063952  
    1716A      2.067542  1717A      2.067822  1718A      2.069501  
    1719A      2.072393  1720A      2.076966  1721A      2.079509  
    1722A      2.082386  1723A      2.085197  1724A      2.086367  
    1725A      2.087240  1726A      2.089642  1727A      2.091329  
    1728A      2.094283  1729A      2.094900  1730A      2.097423  
    1731A      2.100237  1732A      2.101729  1733A      2.105454  
    1734A      2.106105  1735A      2.108235  1736A      2.109147  
    1737A      2.111365  1738A      2.111895  1739A      2.113752  
    1740A      2.115284  1741A      2.117719  1742A      2.120822  
    1743A      2.121031  1744A      2.123170  1745A      2.124567  
    1746A      2.126314  1747A      2.129516  1748A      2.129668  
    1749A      2.132702  1750A      2.133307  1751A      2.135523  
    1752A      2.137930  1753A      2.138682  1754A      2.140829  
    1755A      2.143514  1756A      2.144505  1757A      2.147222  
    1758A      2.148006  1759A      2.150288  1760A      2.151159  
    1761A      2.152223  1762A      2.153934  1763A      2.155475  
    1764A      2.156647  1765A      2.160294  1766A      2.160737  
    1767A      2.161602  1768A      2.163729  1769A      2.166178  
    1770A      2.167117  1771A      2.169989  1772A      2.172905  
    1773A      2.175038  1774A      2.177931  1775A      2.179201  
    1776A      2.181920  1777A      2.182856  1778A      2.186047  
    1779A      2.187392  1780A      2.188464  1781A      2.189280  
    1782A      2.192646  1783A      2.193824  1784A      2.195193  
    1785A      2.196731  1786A      2.197403  1787A      2.198411  
    1788A      2.200680  1789A      2.201286  1790A      2.202702  
    1791A      2.206430  1792A      2.207987  1793A      2.209703  
    1794A      2.211776  1795A      2.212380  1796A      2.214920  
    1797A      2.217185  1798A      2.219853  1799A      2.221765  
    1800A      2.223488  1801A      2.225399  1802A      2.227906  
    1803A      2.228322  1804A      2.229696  1805A      2.231642  
    1806A      2.233515  1807A      2.234058  1808A      2.235511  
    1809A      2.237625  1810A      2.239194  1811A      2.240840  
    1812A      2.241180  1813A      2.243557  1814A      2.244859  
    1815A      2.248203  1816A      2.249357  1817A      2.251624  
    1818A      2.253153  1819A      2.253803  1820A      2.254896  
    1821A      2.258540  1822A      2.261080  1823A      2.263165  
    1824A      2.263719  1825A      2.267174  1826A      2.269159  
    1827A      2.271593  1828A      2.275162  1829A      2.277566  
    1830A      2.279442  1831A      2.280406  1832A      2.283888  
    1833A      2.284476  1834A      2.285842  1835A      2.288367  
    1836A      2.289232  1837A      2.291295  1838A      2.292810  
    1839A      2.294252  1840A      2.296510  1841A      2.298113  
    1842A      2.299792  1843A      2.300985  1844A      2.303213  
    1845A      2.304894  1846A      2.306028  1847A      2.309507  
    1848A      2.312876  1849A      2.313020  1850A      2.314945  
    1851A      2.318142  1852A      2.320156  1853A      2.320822  
    1854A      2.321046  1855A      2.322869  1856A      2.326148  
    1857A      2.328330  1858A      2.330117  1859A      2.333365  
    1860A      2.335269  1861A      2.337998  1862A      2.339267  
    1863A      2.341023  1864A      2.341684  1865A      2.343581  
    1866A      2.346261  1867A      2.348433  1868A      2.350574  
    1869A      2.351687  1870A      2.353318  1871A      2.355129  
    1872A      2.356445  1873A      2.361615  1874A      2.361889  
    1875A      2.364036  1876A      2.364946  1877A      2.368851  
    1878A      2.370273  1879A      2.373374  1880A      2.376670  
    1881A      2.378180  1882A      2.381036  1883A      2.382954  
    1884A      2.384090  1885A      2.385408  1886A      2.387192  
    1887A      2.390385  1888A      2.391945  1889A      2.392951  
    1890A      2.396612  1891A      2.400351  1892A      2.400971  
    1893A      2.403403  1894A      2.404277  1895A      2.406812  
    1896A      2.408097  1897A      2.410719  1898A      2.411725  
    1899A      2.414566  1900A      2.417586  1901A      2.419153  
    1902A      2.420700  1903A      2.422421  1904A      2.426114  
    1905A      2.427952  1906A      2.430931  1907A      2.433634  
    1908A      2.435009  1909A      2.436018  1910A      2.438509  
    1911A      2.439582  1912A      2.441940  1913A      2.444194  
    1914A      2.445301  1915A      2.449461  1916A      2.449551  
    1917A      2.451356  1918A      2.454132  1919A      2.455176  
    1920A      2.458509  1921A      2.459398  1922A      2.461922  
    1923A      2.464323  1924A      2.467459  1925A      2.470171  
    1926A      2.471414  1927A      2.471698  1928A      2.473730  
    1929A      2.477600  1930A      2.479212  1931A      2.482057  
    1932A      2.482404  1933A      2.484479  1934A      2.487678  
    1935A      2.488430  1936A      2.490702  1937A      2.492041  
    1938A      2.495141  1939A      2.499649  1940A      2.501371  
    1941A      2.504057  1942A      2.506326  1943A      2.507852  
    1944A      2.515265  1945A      2.516080  1946A      2.516859  
    1947A      2.518037  1948A      2.521373  1949A      2.522640  
    1950A      2.524357  1951A      2.527036  1952A      2.529438  
    1953A      2.533669  1954A      2.536832  1955A      2.538493  
    1956A      2.539039  1957A      2.544187  1958A      2.546495  
    1959A      2.549118  1960A      2.550014  1961A      2.554176  
    1962A      2.556487  1963A      2.558262  1964A      2.560349  
    1965A      2.561889  1966A      2.563611  1967A      2.566241  
    1968A      2.567521  1969A      2.569656  1970A      2.574858  
    1971A      2.576768  1972A      2.578382  1973A      2.580145  
    1974A      2.583537  1975A      2.583875  1976A      2.587000  
    1977A      2.588607  1978A      2.590242  1979A      2.595739  
    1980A      2.599472  1981A      2.602943  1982A      2.605335  
    1983A      2.609362  1984A      2.610035  1985A      2.616099  
    1986A      2.617968  1987A      2.622415  1988A      2.624426  
    1989A      2.627303  1990A      2.629321  1991A      2.629780  
    1992A      2.635159  1993A      2.638048  1994A      2.641242  
    1995A      2.645931  1996A      2.649247  1997A      2.651004  
    1998A      2.654227  1999A      2.656239  2000A      2.660674  
    2001A      2.661075  2002A      2.664569  2003A      2.668164  
    2004A      2.669655  2005A      2.677033  2006A      2.677760  
    2007A      2.679406  2008A      2.681416  2009A      2.684843  
    2010A      2.685583  2011A      2.685779  2012A      2.691111  
    2013A      2.692706  2014A      2.697703  2015A      2.699447  
    2016A      2.702555  2017A      2.705874  2018A      2.708401  
    2019A      2.708851  2020A      2.710892  2021A      2.713076  
    2022A      2.718350  2023A      2.719552  2024A      2.722025  
    2025A      2.723573  2026A      2.726729  2027A      2.727654  
    2028A      2.729842  2029A      2.734689  2030A      2.735687  
    2031A      2.737079  2032A      2.740111  2033A      2.741550  
    2034A      2.743451  2035A      2.744136  2036A      2.746951  
    2037A      2.750049  2038A      2.751508  2039A      2.754963  
    2040A      2.756547  2041A      2.759548  2042A      2.760687  
    2043A      2.764645  2044A      2.764822  2045A      2.768480  
    2046A      2.773860  2047A      2.776595  2048A      2.781722  
    2049A      2.784780  2050A      2.785667  2051A      2.790504  
    2052A      2.792992  2053A      2.795497  2054A      2.799515  
    2055A      2.801295  2056A      2.803127  2057A      2.807061  
    2058A      2.810330  2059A      2.814337  2060A      2.815846  
    2061A      2.817462  2062A      2.822656  2063A      2.823194  
    2064A      2.828542  2065A      2.833065  2066A      2.834739  
    2067A      2.839309  2068A      2.841515  2069A      2.845622  
    2070A      2.848826  2071A      2.849828  2072A      2.853561  
    2073A      2.856606  2074A      2.859509  2075A      2.862588  
    2076A      2.868091  2077A      2.872074  2078A      2.874401  
    2079A      2.878074  2080A      2.879911  2081A      2.882815  
    2082A      2.893691  2083A      2.894726  2084A      2.897014  
    2085A      2.900221  2086A      2.904164  2087A      2.911136  
    2088A      2.916894  2089A      2.919491  2090A      2.923177  
    2091A      2.929152  2092A      2.935508  2093A      2.938141  
    2094A      2.941757  2095A      2.943652  2096A      2.949611  
    2097A      2.951514  2098A      2.953740  2099A      2.954748  
    2100A      2.960144  2101A      2.966364  2102A      2.970586  
    2103A      2.975303  2104A      2.978214  2105A      2.982185  
    2106A      2.985186  2107A      2.993259  2108A      3.000248  
    2109A      3.004050  2110A      3.007686  2111A      3.010014  
    2112A      3.011237  2113A      3.013557  2114A      3.017352  
    2115A      3.018353  2116A      3.020658  2117A      3.023323  
    2118A      3.025731  2119A      3.029432  2120A      3.035194  
    2121A      3.036374  2122A      3.038966  2123A      3.041858  
    2124A      3.046113  2125A      3.047649  2126A      3.051647  
    2127A      3.054760  2128A      3.063567  2129A      3.066474  
    2130A      3.068133  2131A      3.070828  2132A      3.073501  
    2133A      3.076511  2134A      3.080077  2135A      3.080704  
    2136A      3.081343  2137A      3.090184  2138A      3.092085  
    2139A      3.093755  2140A      3.095104  2141A      3.097724  
    2142A      3.102014  2143A      3.110878  2144A      3.114207  
    2145A      3.118485  2146A      3.121563  2147A      3.123698  
    2148A      3.127995  2149A      3.131657  2150A      3.134751  
    2151A      3.137315  2152A      3.140116  2153A      3.143842  
    2154A      3.148747  2155A      3.149717  2156A      3.154047  
    2157A      3.158179  2158A      3.165287  2159A      3.165870  
    2160A      3.169971  2161A      3.175523  2162A      3.179239  
    2163A      3.183334  2164A      3.185359  2165A      3.187269  
    2166A      3.188596  2167A      3.195496  2168A      3.197168  
    2169A      3.199247  2170A      3.202204  2171A      3.202698  
    2172A      3.207395  2173A      3.208874  2174A      3.214178  
    2175A      3.214844  2176A      3.222107  2177A      3.227050  
    2178A      3.228326  2179A      3.230378  2180A      3.234127  
    2181A      3.235000  2182A      3.236932  2183A      3.239015  
    2184A      3.243210  2185A      3.246325  2186A      3.250251  
    2187A      3.250439  2188A      3.256511  2189A      3.259030  
    2190A      3.260571  2191A      3.262702  2192A      3.263753  
    2193A      3.268491  2194A      3.271644  2195A      3.271849  
    2196A      3.277730  2197A      3.279856  2198A      3.285829  
    2199A      3.286662  2200A      3.288233  2201A      3.293425  
    2202A      3.297434  2203A      3.300103  2204A      3.301457  
    2205A      3.303585  2206A      3.305301  2207A      3.306269  
    2208A      3.308988  2209A      3.312098  2210A      3.315194  
    2211A      3.318038  2212A      3.320723  2213A      3.323588  
    2214A      3.325376  2215A      3.331034  2216A      3.332636  
    2217A      3.337027  2218A      3.339890  2219A      3.342471  
    2220A      3.343800  2221A      3.350809  2222A      3.353408  
    2223A      3.355268  2224A      3.357161  2225A      3.358619  
    2226A      3.360430  2227A      3.362785  2228A      3.364538  
    2229A      3.368286  2230A      3.369390  2231A      3.371370  
    2232A      3.375482  2233A      3.376535  2234A      3.379468  
    2235A      3.383104  2236A      3.385605  2237A      3.386078  
    2238A      3.388380  2239A      3.389749  2240A      3.393538  
    2241A      3.394480  2242A      3.396923  2243A      3.400470  
    2244A      3.404490  2245A      3.405376  2246A      3.406470  
    2247A      3.408214  2248A      3.409151  2249A      3.410130  
    2250A      3.410758  2251A      3.414248  2252A      3.416707  
    2253A      3.419261  2254A      3.422021  2255A      3.423147  
    2256A      3.425453  2257A      3.428538  2258A      3.433327  
    2259A      3.435410  2260A      3.436582  2261A      3.439776  
    2262A      3.442157  2263A      3.442976  2264A      3.445795  
    2265A      3.446898  2266A      3.449469  2267A      3.450805  
    2268A      3.452847  2269A      3.456343  2270A      3.457311  
    2271A      3.459101  2272A      3.460957  2273A      3.462251  
    2274A      3.464844  2275A      3.465159  2276A      3.467040  
    2277A      3.468127  2278A      3.468786  2279A      3.470377  
    2280A      3.471356  2281A      3.477272  2282A      3.478911  
    2283A      3.480005  2284A      3.481543  2285A      3.482611  
    2286A      3.484189  2287A      3.486180  2288A      3.487766  
    2289A      3.489164  2290A      3.490627  2291A      3.492664  
    2292A      3.496017  2293A      3.499668  2294A      3.500466  
    2295A      3.502564  2296A      3.505856  2297A      3.508120  
    2298A      3.510115  2299A      3.511473  2300A      3.512156  
    2301A      3.513745  2302A      3.516181  2303A      3.517165  
    2304A      3.518833  2305A      3.519503  2306A      3.522688  
    2307A      3.525986  2308A      3.527822  2309A      3.530762  
    2310A      3.531400  2311A      3.534198  2312A      3.534532  
    2313A      3.535856  2314A      3.537490  2315A      3.538550  
    2316A      3.540120  2317A      3.541861  2318A      3.543006  
    2319A      3.544836  2320A      3.546525  2321A      3.549614  
    2322A      3.551633  2323A      3.553929  2324A      3.554518  
    2325A      3.558408  2326A      3.559683  2327A      3.561441  
    2328A      3.561648  2329A      3.564142  2330A      3.566153  
    2331A      3.569587  2332A      3.570557  2333A      3.573198  
    2334A      3.575910  2335A      3.578213  2336A      3.578553  
    2337A      3.579216  2338A      3.580208  2339A      3.582447  
    2340A      3.584391  2341A      3.586579  2342A      3.588499  
    2343A      3.591861  2344A      3.593181  2345A      3.594378  
    2346A      3.596403  2347A      3.596840  2348A      3.598394  
    2349A      3.600073  2350A      3.602331  2351A      3.604882  
    2352A      3.606486  2353A      3.608401  2354A      3.610026  
    2355A      3.611456  2356A      3.612597  2357A      3.614529  
    2358A      3.617136  2359A      3.618671  2360A      3.620434  
    2361A      3.622971  2362A      3.624660  2363A      3.626456  
    2364A      3.628864  2365A      3.631349  2366A      3.632295  
    2367A      3.632954  2368A      3.634028  2369A      3.638423  
    2370A      3.639455  2371A      3.642179  2372A      3.643046  
    2373A      3.643896  2374A      3.645498  2375A      3.647144  
    2376A      3.648633  2377A      3.649330  2378A      3.651806  
    2379A      3.652628  2380A      3.653356  2381A      3.657831  
    2382A      3.659160  2383A      3.659584  2384A      3.661025  
    2385A      3.663900  2386A      3.665400  2387A      3.666415  
    2388A      3.670081  2389A      3.671624  2390A      3.673596  
    2391A      3.675046  2392A      3.677607  2393A      3.679464  
    2394A      3.682639  2395A      3.684636  2396A      3.684970  
    2397A      3.687251  2398A      3.689031  2399A      3.689917  
    2400A      3.692171  2401A      3.693915  2402A      3.695276  
    2403A      3.695717  2404A      3.696922  2405A      3.698078  
    2406A      3.699418  2407A      3.700947  2408A      3.704207  
    2409A      3.705316  2410A      3.707736  2411A      3.708883  
    2412A      3.711539  2413A      3.713879  2414A      3.714027  
    2415A      3.717579  2416A      3.718190  2417A      3.718791  
    2418A      3.722282  2419A      3.724952  2420A      3.728698  
    2421A      3.729576  2422A      3.731784  2423A      3.733240  
    2424A      3.734588  2425A      3.737265  2426A      3.738438  
    2427A      3.739904  2428A      3.742239  2429A      3.743960  
    2430A      3.746269  2431A      3.747583  2432A      3.748898  
    2433A      3.751144  2434A      3.755707  2435A      3.757862  
    2436A      3.758707  2437A      3.759883  2438A      3.760629  
    2439A      3.762667  2440A      3.766405  2441A      3.766845  
    2442A      3.769887  2443A      3.772322  2444A      3.773745  
    2445A      3.774443  2446A      3.777756  2447A      3.780366  
    2448A      3.782840  2449A      3.785852  2450A      3.786340  
    2451A      3.788326  2452A      3.788818  2453A      3.791011  
    2454A      3.795246  2455A      3.796043  2456A      3.799963  
    2457A      3.802554  2458A      3.804555  2459A      3.805727  
    2460A      3.808157  2461A      3.808914  2462A      3.810615  
    2463A      3.813869  2464A      3.814134  2465A      3.814607  
    2466A      3.817698  2467A      3.818134  2468A      3.820200  
    2469A      3.821996  2470A      3.826108  2471A      3.827563  
    2472A      3.827873  2473A      3.832035  2474A      3.832438  
    2475A      3.835230  2476A      3.838825  2477A      3.840220  
    2478A      3.841629  2479A      3.843393  2480A      3.845085  
    2481A      3.846445  2482A      3.848098  2483A      3.851190  
    2484A      3.852635  2485A      3.854732  2486A      3.857152  
    2487A      3.859457  2488A      3.861259  2489A      3.862464  
    2490A      3.864706  2491A      3.868344  2492A      3.870624  
    2493A      3.871415  2494A      3.872784  2495A      3.874244  
    2496A      3.875932  2497A      3.878797  2498A      3.879523  
    2499A      3.881331  2500A      3.881900  2501A      3.882138  
    2502A      3.886429  2503A      3.891946  2504A      3.893626  
    2505A      3.894874  2506A      3.895319  2507A      3.896024  
    2508A      3.899490  2509A      3.900607  2510A      3.901895  
    2511A      3.905922  2512A      3.906746  2513A      3.909641  
    2514A      3.911160  2515A      3.911846  2516A      3.912402  
    2517A      3.914326  2518A      3.916567  2519A      3.917694  
    2520A      3.919965  2521A      3.921840  2522A      3.923728  
    2523A      3.924756  2524A      3.928432  2525A      3.930701  
    2526A      3.933466  2527A      3.936761  2528A      3.938116  
    2529A      3.938707  2530A      3.942621  2531A      3.943839  
    2532A      3.946004  2533A      3.947655  2534A      3.949619  
    2535A      3.951418  2536A      3.952141  2537A      3.952375  
    2538A      3.956773  2539A      3.958607  2540A      3.960592  
    2541A      3.963149  2542A      3.965925  2543A      3.966838  
    2544A      3.970229  2545A      3.972896  2546A      3.973771  
    2547A      3.975213  2548A      3.975994  2549A      3.977001  
    2550A      3.979941  2551A      3.982650  2552A      3.983175  
    2553A      3.988356  2554A      3.989445  2555A      3.993480  
    2556A      3.994780  2557A      3.998077  2558A      3.998309  
    2559A      4.000053  2560A      4.001010  2561A      4.003155  
    2562A      4.005481  2563A      4.006387  2564A      4.009619  
    2565A      4.012732  2566A      4.014367  2567A      4.016640  
    2568A      4.018926  2569A      4.022606  2570A      4.022634  
    2571A      4.025287  2572A      4.026158  2573A      4.026973  
    2574A      4.029428  2575A      4.032281  2576A      4.035622  
    2577A      4.036842  2578A      4.038959  2579A      4.040446  
    2580A      4.042571  2581A      4.044664  2582A      4.046379  
    2583A      4.048246  2584A      4.049963  2585A      4.052563  
    2586A      4.054305  2587A      4.056419  2588A      4.058386  
    2589A      4.061396  2590A      4.062835  2591A      4.065364  
    2592A      4.067311  2593A      4.070959  2594A      4.072202  
    2595A      4.074339  2596A      4.077235  2597A      4.077799  
    2598A      4.078236  2599A      4.081952  2600A      4.083769  
    2601A      4.086636  2602A      4.087196  2603A      4.089873  
    2604A      4.091477  2605A      4.093867  2606A      4.095949  
    2607A      4.099776  2608A      4.100833  2609A      4.103205  
    2610A      4.105744  2611A      4.109253  2612A      4.110990  
    2613A      4.112488  2614A      4.113448  2615A      4.114852  
    2616A      4.116794  2617A      4.118751  2618A      4.120774  
    2619A      4.123783  2620A      4.125480  2621A      4.127008  
    2622A      4.128987  2623A      4.130229  2624A      4.134490  
    2625A      4.135290  2626A      4.139692  2627A      4.140645  
    2628A      4.141790  2629A      4.145065  2630A      4.148683  
    2631A      4.153560  2632A      4.153762  2633A      4.155411  
    2634A      4.157435  2635A      4.160005  2636A      4.161996  
    2637A      4.164430  2638A      4.166071  2639A      4.168873  
    2640A      4.170578  2641A      4.171099  2642A      4.174322  
    2643A      4.175303  2644A      4.176106  2645A      4.180397  
    2646A      4.180815  2647A      4.182086  2648A      4.183982  
    2649A      4.185005  2650A      4.186399  2651A      4.191810  
    2652A      4.194448  2653A      4.197766  2654A      4.198306  
    2655A      4.198717  2656A      4.204452  2657A      4.204908  
    2658A      4.206180  2659A      4.207164  2660A      4.209553  
    2661A      4.212952  2662A      4.214120  2663A      4.215310  
    2664A      4.216768  2665A      4.219809  2666A      4.221708  
    2667A      4.222621  2668A      4.223925  2669A      4.224181  
    2670A      4.228230  2671A      4.230471  2672A      4.232711  
    2673A      4.235032  2674A      4.236292  2675A      4.238216  
    2676A      4.240938  2677A      4.242699  2678A      4.244713  
    2679A      4.247528  2680A      4.248481  2681A      4.249482  
    2682A      4.252058  2683A      4.253164  2684A      4.253793  
    2685A      4.255093  2686A      4.261854  2687A      4.263050  
    2688A      4.264082  2689A      4.267724  2690A      4.269700  
    2691A      4.271304  2692A      4.272130  2693A      4.275184  
    2694A      4.276960  2695A      4.278883  2696A      4.281679  
    2697A      4.282947  2698A      4.284461  2699A      4.285886  
    2700A      4.288263  2701A      4.291432  2702A      4.292266  
    2703A      4.294672  2704A      4.295771  2705A      4.298472  
    2706A      4.299665  2707A      4.302906  2708A      4.304049  
    2709A      4.310499  2710A      4.313174  2711A      4.314442  
    2712A      4.317607  2713A      4.319078  2714A      4.320662  
    2715A      4.324177  2716A      4.325407  2717A      4.327447  
    2718A      4.328807  2719A      4.329831  2720A      4.333261  
    2721A      4.336134  2722A      4.338389  2723A      4.339830  
    2724A      4.341641  2725A      4.342263  2726A      4.344225  
    2727A      4.345969  2728A      4.347068  2729A      4.349238  
    2730A      4.350756  2731A      4.352582  2732A      4.353322  
    2733A      4.356114  2734A      4.357378  2735A      4.359553  
    2736A      4.361652  2737A      4.364195  2738A      4.364352  
    2739A      4.365152  2740A      4.369024  2741A      4.371701  
    2742A      4.373124  2743A      4.374241  2744A      4.376061  
    2745A      4.379236  2746A      4.381443  2747A      4.382578  
    2748A      4.384132  2749A      4.385541  2750A      4.387931  
    2751A      4.390348  2752A      4.391198  2753A      4.394048  
    2754A      4.394565  2755A      4.395264  2756A      4.396839  
    2757A      4.399207  2758A      4.400793  2759A      4.401387  
    2760A      4.404128  2761A      4.405560  2762A      4.407047  
    2763A      4.408135  2764A      4.413792  2765A      4.416139  
    2766A      4.416524  2767A      4.418265  2768A      4.420233  
    2769A      4.423723  2770A      4.425219  2771A      4.426674  
    2772A      4.428696  2773A      4.431884  2774A      4.432277  
    2775A      4.434693  2776A      4.436426  2777A      4.439891  
    2778A      4.442217  2779A      4.443161  2780A      4.444861  
    2781A      4.446045  2782A      4.448276  2783A      4.449212  
    2784A      4.451987  2785A      4.453582  2786A      4.455380  
    2787A      4.456790  2788A      4.460194  2789A      4.460653  
    2790A      4.461324  2791A      4.463159  2792A      4.466617  
    2793A      4.467829  2794A      4.469469  2795A      4.470758  
    2796A      4.471658  2797A      4.474599  2798A      4.475649  
    2799A      4.476993  2800A      4.477825  2801A      4.478887  
    2802A      4.481384  2803A      4.484154  2804A      4.484586  
    2805A      4.485983  2806A      4.488812  2807A      4.489098  
    2808A      4.493083  2809A      4.495620  2810A      4.496597  
    2811A      4.497983  2812A      4.500446  2813A      4.502938  
    2814A      4.504513  2815A      4.508436  2816A      4.509213  
    2817A      4.511998  2818A      4.515690  2819A      4.516337  
    2820A      4.519261  2821A      4.521590  2822A      4.523305  
    2823A      4.524608  2824A      4.527953  2825A      4.528299  
    2826A      4.530174  2827A      4.532350  2828A      4.534790  
    2829A      4.539518  2830A      4.541452  2831A      4.544171  
    2832A      4.545336  2833A      4.546137  2834A      4.549260  
    2835A      4.552511  2836A      4.554745  2837A      4.556543  
    2838A      4.558185  2839A      4.561336  2840A      4.564336  
    2841A      4.564943  2842A      4.568859  2843A      4.569641  
    2844A      4.570041  2845A      4.572056  2846A      4.575727  
    2847A      4.577770  2848A      4.578951  2849A      4.579370  
    2850A      4.582917  2851A      4.585759  2852A      4.585867  
    2853A      4.587775  2854A      4.588958  2855A      4.592226  
    2856A      4.594247  2857A      4.598703  2858A      4.598936  
    2859A      4.601832  2860A      4.605425  2861A      4.610735  
    2862A      4.614093  2863A      4.615684  2864A      4.618205  
    2865A      4.620752  2866A      4.622534  2867A      4.624252  
    2868A      4.628121  2869A      4.630629  2870A      4.633467  
    2871A      4.634955  2872A      4.638892  2873A      4.641243  
    2874A      4.642146  2875A      4.644560  2876A      4.647068  
    2877A      4.647316  2878A      4.649303  2879A      4.650835  
    2880A      4.654268  2881A      4.654680  2882A      4.657698  
    2883A      4.659078  2884A      4.661613  2885A      4.663110  
    2886A      4.665709  2887A      4.669227  2888A      4.669882  
    2889A      4.673258  2890A      4.677179  2891A      4.679046  
    2892A      4.682943  2893A      4.686259  2894A      4.687647  
    2895A      4.691216  2896A      4.692968  2897A      4.696261  
    2898A      4.696948  2899A      4.701059  2900A      4.703330  
    2901A      4.703703  2902A      4.707158  2903A      4.708542  
    2904A      4.710257  2905A      4.711626  2906A      4.713601  
    2907A      4.715906  2908A      4.717069  2909A      4.718269  
    2910A      4.719839  2911A      4.723559  2912A      4.724249  
    2913A      4.725667  2914A      4.727384  2915A      4.728654  
    2916A      4.731048  2917A      4.731878  2918A      4.735365  
    2919A      4.738254  2920A      4.740225  2921A      4.742017  
    2922A      4.744445  2923A      4.747179  2924A      4.748639  
    2925A      4.750250  2926A      4.753779  2927A      4.755561  
    2928A      4.755688  2929A      4.760219  2930A      4.761274  
    2931A      4.762105  2932A      4.767959  2933A      4.770182  
    2934A      4.772197  2935A      4.776633  2936A      4.779950  
    2937A      4.782320  2938A      4.785225  2939A      4.789239  
    2940A      4.790186  2941A      4.794206  2942A      4.794767  
    2943A      4.798508  2944A      4.801222  2945A      4.802673  
    2946A      4.805198  2947A      4.806869  2948A      4.808686  
    2949A      4.809115  2950A      4.810392  2951A      4.814378  
    2952A      4.815129  2953A      4.817283  2954A      4.823280  
    2955A      4.825500  2956A      4.827017  2957A      4.830037  
    2958A      4.831101  2959A      4.835624  2960A      4.838288  
    2961A      4.841415  2962A      4.844679  2963A      4.847829  
    2964A      4.850476  2965A      4.850982  2966A      4.853259  
    2967A      4.855722  2968A      4.860172  2969A      4.861877  
    2970A      4.865014  2971A      4.867004  2972A      4.868966  
    2973A      4.874986  2974A      4.875820  2975A      4.886026  
    2976A      4.889019  2977A      4.890321  2978A      4.899086  
    2979A      4.900365  2980A      4.903681  2981A      4.904698  
    2982A      4.907923  2983A      4.910957  2984A      4.913322  
    2985A      4.914927  2986A      4.919351  2987A      4.924592  
    2988A      4.924930  2989A      4.925541  2990A      4.926946  
    2991A      4.928512  2992A      4.929536  2993A      4.930559  
    2994A      4.934438  2995A      4.936510  2996A      4.938418  
    2997A      4.939443  2998A      4.940424  2999A      4.942495  
    3000A      4.944251  3001A      4.948617  3002A      4.949599  
    3003A      4.951114  3004A      4.952571  3005A      4.955307  
    3006A      4.956937  3007A      4.961658  3008A      4.964126  
    3009A      4.965351  3010A      4.969164  3011A      4.973192  
    3012A      4.975594  3013A      4.978328  3014A      4.980908  
    3015A      4.985007  3016A      4.986644  3017A      4.990268  
    3018A      4.991401  3019A      4.994462  3020A      4.995953  
    3021A      5.003537  3022A      5.005997  3023A      5.013168  
    3024A      5.014862  3025A      5.017028  3026A      5.020132  
    3027A      5.024944  3028A      5.028216  3029A      5.031146  
    3030A      5.034000  3031A      5.036927  3032A      5.040561  
    3033A      5.043518  3034A      5.049228  3035A      5.049611  
    3036A      5.054432  3037A      5.060793  3038A      5.062805  
    3039A      5.069397  3040A      5.074056  3041A      5.075139  
    3042A      5.075584  3043A      5.078846  3044A      5.083708  
    3045A      5.085528  3046A      5.088862  3047A      5.093673  
    3048A      5.097732  3049A      5.102013  3050A      5.104977  
    3051A      5.108952  3052A      5.114303  3053A      5.117241  
    3054A      5.121606  3055A      5.125679  3056A      5.127548  
    3057A      5.129162  3058A      5.130459  3059A      5.133636  
    3060A      5.138487  3061A      5.140252  3062A      5.142743  
    3063A      5.145460  3064A      5.148328  3065A      5.149575  
    3066A      5.152810  3067A      5.155913  3068A      5.156388  
    3069A      5.165279  3070A      5.168404  3071A      5.170543  
    3072A      5.174034  3073A      5.175586  3074A      5.183967  
    3075A      5.185980  3076A      5.189545  3077A      5.192593  
    3078A      5.194299  3079A      5.201978  3080A      5.206642  
    3081A      5.209712  3082A      5.215205  3083A      5.218759  
    3084A      5.222601  3085A      5.226644  3086A      5.228562  
    3087A      5.233662  3088A      5.235174  3089A      5.237702  
    3090A      5.237906  3091A      5.243859  3092A      5.248644  
    3093A      5.253356  3094A      5.255830  3095A      5.256839  
    3096A      5.261442  3097A      5.265845  3098A      5.266923  
    3099A      5.273588  3100A      5.279733  3101A      5.284515  
    3102A      5.285829  3103A      5.293125  3104A      5.294785  
    3105A      5.301770  3106A      5.302768  3107A      5.305671  
    3108A      5.309424  3109A      5.311970  3110A      5.318376  
    3111A      5.322476  3112A      5.323920  3113A      5.325468  
    3114A      5.326690  3115A      5.329288  3116A      5.334530  
    3117A      5.337157  3118A      5.341859  3119A      5.359714  
    3120A      5.361242  3121A      5.369455  3122A      5.374288  
    3123A      5.381650  3124A      5.385574  3125A      5.395278  
    3126A      5.402547  3127A      5.405349  3128A      5.406440  
    3129A      5.409347  3130A      5.411300  3131A      5.411926  
    3132A      5.415810  3133A      5.423819  3134A      5.433899  
    3135A      5.444614  3136A      5.446479  3137A      5.447168  
    3138A      5.448058  3139A      5.449702  3140A      5.454980  
    3141A      5.474423  3142A      5.478802  3143A      5.483271  
    3144A      5.485993  3145A      5.492507  3146A      5.495382  
    3147A      5.497456  3148A      5.499857  3149A      5.500243  
    3150A      5.503574  3151A      5.508534  3152A      5.514476  
    3153A      5.526825  3154A      5.530940  3155A      5.536020  
    3156A      5.539415  3157A      5.554850  3158A      5.556940  
    3159A      5.561278  3160A      5.562712  3161A      5.564795  
    3162A      5.566037  3163A      5.567776  3164A      5.573458  
    3165A      5.577884  3166A      5.580153  3167A      5.587177  
    3168A      5.595042  3169A      5.597018  3170A      5.604747  
    3171A      5.613952  3172A      5.617933  3173A      5.619813  
    3174A      5.631291  3175A      5.633446  3176A      5.639064  
    3177A      5.647546  3178A      5.653110  3179A      5.656116  
    3180A      5.658002  3181A      5.660455  3182A      5.665583  
    3183A      5.668590  3184A      5.671621  3185A      5.674400  
    3186A      5.679130  3187A      5.692108  3188A      5.711064  
    3189A      5.715709  3190A      5.724559  3191A      5.731312  
    3192A      5.741799  3193A      5.749826  3194A      5.768836  
    3195A      5.772321  3196A      5.777996  3197A      5.790368  
    3198A      5.802228  3199A      5.807835  3200A      5.814949  
    3201A      5.823960  3202A      5.826878  3203A      5.842158  
    3204A      5.847702  3205A      5.851068  3206A      5.854107  
    3207A      5.859662  3208A      5.861379  3209A      5.876216  
    3210A      5.916647  3211A      5.926662  3212A      5.928349  
    3213A      5.933336  3214A      5.958188  3215A      5.972829  
    3216A      5.983151  3217A      5.987160  3218A      5.991280  
    3219A      5.998997  3220A      6.014952  3221A      6.022227  
    3222A      6.023713  3223A      6.037934  3224A      6.040596  
    3225A      6.043010  3226A      6.050573  3227A      6.053956  
    3228A      6.076304  3229A      6.083300  3230A      6.103289  
    3231A      6.125060  3232A      6.127394  3233A      6.128214  
    3234A      6.132103  3235A      6.145006  3236A      6.159562  
    3237A      6.160945  3238A      6.164541  3239A      6.185567  
    3240A      6.191395  3241A      6.200463  3242A      6.203431  
    3243A      6.205321  3244A      6.207236  3245A      6.214432  
    3246A      6.239882  3247A      6.245369  3248A      6.250649  
    3249A      6.257198  3250A      6.260065  3251A      6.266460  
    3252A      6.267191  3253A      6.284572  3254A      6.290718  
    3255A      6.295322  3256A      6.305131  3257A      6.310462  
    3258A      6.314881  3259A      6.319070  3260A      6.331412  
    3261A      6.336497  3262A      6.338194  3263A      6.348074  
    3264A      6.353316  3265A      6.359946  3266A      6.367515  
    3267A      6.372246  3268A      6.373546  3269A      6.375073  
    3270A      6.384334  3271A      6.386105  3272A      6.390048  
    3273A      6.392502  3274A      6.396313  3275A      6.397376  
    3276A      6.408784  3277A      6.418138  3278A      6.418710  
    3279A      6.422481  3280A      6.430859  3281A      6.436760  
    3282A      6.437826  3283A      6.441788  3284A      6.458365  
    3285A      6.472435  3286A      6.478284  3287A      6.481212  
    3288A      6.498275  3289A      6.507512  3290A      6.510394  
    3291A      6.517367  3292A      6.553866  3293A      6.557103  
    3294A      6.557960  3295A      6.563146  3296A      6.569375  
    3297A      6.584489  3298A      6.604166  3299A      6.617141  
    3300A      6.620426  3301A      6.624436  3302A      6.626709  
    3303A      6.635857  3304A      6.643429  3305A      6.644189  
    3306A      6.649613  3307A      6.669376  3308A      6.675596  
    3309A      6.686136  3310A      6.689156  3311A      6.690030  
    3312A      6.701264  3313A      6.703758  3314A      6.708893  
    3315A      6.715109  3316A      6.717190  3317A      6.724226  
    3318A      6.747420  3319A      6.749170  3320A      6.757201  
    3321A      6.759845  3322A      6.760638  3323A      6.783377  
    3324A      6.787688  3325A      6.789921  3326A      6.797749  
    3327A      6.832419  3328A      6.844437  3329A      6.847806  
    3330A      6.855412  3331A      6.864307  3332A      6.874806  
    3333A      6.879346  3334A      6.880570  3335A      6.896606  
    3336A      6.902463  3337A      6.906015  3338A      6.912836  
    3339A      6.914851  3340A      6.916602  3341A      6.925266  
    3342A      6.995261  3343A      7.056757  3344A      7.085065  
    3345A      7.102290  3346A      7.131827  3347A      7.134930  
    3348A      7.155554  3349A      7.249293  3350A      7.325493  
    3351A      7.361876  3352A      7.588387  3353A      7.617534  
    3354A     15.205409  3355A     15.241626  3356A     15.361088  
    3357A     15.519891  3358A     16.007205  3359A     16.131947  
    3360A     16.479065  3361A     16.808305  3362A     16.854538  
    3363A     16.865259  3364A     16.949081  3365A     16.982437  
    3366A     17.001688  3367A     17.033422  3368A     17.049926  
    3369A     17.711664  3370A     17.920399  3371A     17.933060  
    3372A     18.488805  3373A     18.502948  3374A     18.620326  
    3375A     18.670388  3376A     18.707964  3377A     19.063776  
    3378A     19.202753  3379A     19.237441  3380A     19.417876  
    3381A     19.543786  3382A     19.661876  3383A     19.789675  
    3384A     20.330533  3385A     20.354595  3386A     20.426931  
    3387A     20.539306  3388A     20.577566  3389A     20.605055  
    3390A     20.915586  3391A     20.978193  3392A     21.099016  
    3393A     21.125622  3394A     21.214130  3395A     21.432693  
    3396A     21.542617  3397A     21.920660  3398A     21.998800  
    3399A     22.002963  3400A     22.119327  3401A     22.151793  
    3402A     22.277375  3403A     22.740806  3404A     22.763324  
    3405A     22.797964  3406A     22.847825  3407A     22.931370  
    3408A     23.003302  3409A     23.112195  3410A     23.179998  
    3411A     23.309622  3412A     23.427833  3413A     23.511513  
    3414A     23.534080  3415A     23.722548  3416A     23.820393  
    3417A     23.866135  

    Final Occupation by Irrep:
              A 
    DOCC [   206 ]
    NA   [   206 ]
    NB   [   206 ]

  @DF-RKS Final Energy: -2536.43404926898575

   => Energetics <=

    Nuclear Repulsion Energy =           9204.8300480012621847
    One-Electron Energy =              -21773.2962637304663076
    Two-Electron Energy =               10283.8398091832259524
    DFT Exchange-Correlation Energy =    -253.2559506611597158
    Empirical Dispersion Energy =           0.0000000000000000
    VV10 Nonlocal Energy =                  1.4483079381510240
    Total Energy =                      -2536.4340492689866551

Computation Completed


Properties will be evaluated at   0.000000,   0.000000,   0.000000 [a0]

Properties computed using the SCF density matrix


 Multipole Moments:

 ------------------------------------------------------------------------------------
     Multipole            Electronic (a.u.)      Nuclear  (a.u.)        Total (a.u.)
 ------------------------------------------------------------------------------------

 L = 1.  Multiply by 2.5417464519 to convert [e a0] to [Debye]
 Dipole X            :         -6.8324434            7.2924530            0.4600096
 Dipole Y            :          3.2540311           -3.6736275           -0.4195964
 Dipole Z            :         -6.2427447            5.9110634           -0.3316813
 Magnitude           :                                                    0.7054662

 ------------------------------------------------------------------------------------

*** tstop() called on atl1-1-03-004-6-2.pace.gatech.edu at Sat Jun 13 18:49:19 2026
Module time:
	user time   =  145060.01 seconds =    2417.67 minutes
	system time =    7199.21 seconds =     119.99 minutes
	total time  =      21062 seconds =     351.03 minutes
Total time:
	user time   =  145060.01 seconds =    2417.67 minutes
	system time =    7199.21 seconds =     119.99 minutes
	total time  =      21062 seconds =     351.03 minutes

    Psi4 stopped on: Saturday, 13 June 2026 06:49PM
    Psi4 wall time for execution: 5:51:23.76

*** Psi4 exiting successfully. Buy a developer a beer!
