
    -----------------------------------------------------------------------
          Psi4: An Open-Source Ab Initio Electronic Structure Package
                               Psi4 1.9.1 release

                         Git: Rev {} zzzzzzz 


    D. G. A. Smith, L. A. Burns, A. C. Simmonett, R. M. Parrish,
    M. C. Schieber, R. Galvelis, P. Kraus, H. Kruse, R. Di Remigio,
    A. Alenaizan, A. M. James, S. Lehtola, J. P. Misiewicz, M. Scheurer,
    R. A. Shaw, J. B. Schriber, Y. Xie, Z. L. Glick, D. A. Sirianni,
    J. S. O'Brien, J. M. Waldrop, A. Kumar, E. G. Hohenstein,
    B. P. Pritchard, B. R. Brooks, H. F. Schaefer III, A. Yu. Sokolov,
    K. Patkowski, A. E. DePrince III, U. Bozkaya, R. A. King,
    F. A. Evangelista, J. M. Turney, T. D. Crawford, C. D. Sherrill,
    J. Chem. Phys. 152(18) 184108 (2020). https://doi.org/10.1063/5.0006002

                            Additional Code Authors
    E. T. Seidl, C. L. Janssen, E. F. Valeev, M. L. Leininger,
    J. F. Gonthier, R. M. Richard, H. R. McAlexander, M. Saitow, X. Wang,
    P. Verma, M. H. Lechner, A. Jiang, S. Behnle, A. G. Heide,
    M. F. Herbst, and D. L. Poole

             Previous Authors, Complete List of Code Contributors,
                       and Citations for Specific Modules
    https://github.com/psi4/psi4/blob/master/codemeta.json
    https://github.com/psi4/psi4/graphs/contributors
    http://psicode.org/psi4manual/master/introduction.html#citing-psifour

    -----------------------------------------------------------------------


    Psi4 started on: Saturday, 13 June 2026 02:53PM

    Process ID: 3133341
    Host:       atl1-1-03-004-7-2.pace.gatech.edu
    PSIDATADIR: /storage/home/hcoda1/5/vlita3/.conda/envs/p4_qcml/share/psi4
    Memory:     250.0 GiB
    Threads:    10
    
  ==> Input QCSchema <==

--------------------------------------------------------------------------
{'driver': 'energy',
 'extras': {},
 'id': '254',
 'keywords': {},
 'model': {'basis': 'aug-cc-pvtz', 'method': 'wb97x-v'},
 'molecule': {'extras': {},
              'fix_com': True,
              'fix_orientation': True,
              'fragment_charges': [0.0, 0.0],
              'fragment_multiplicities': [1, 1],
              'fragments': [[0, 1, 2, 3, 4, 5, 6, 7, 8, 9, 10, 11, 12, 13, 14, 15, 16, 17, 18, 19, 20, 21, 22, 23, 24,
                             25, 26, 27, 28, 29, 30, 31, 32, 33, 34, 35, 36, 37, 38, 39, 40, 41, 42, 43, 44, 45, 46, 47,
                             48, 49, 50, 51, 52, 53, 54, 55],
                            [56, 57, 58, 59, 60, 61, 62, 63, 64, 65, 66, 67, 68, 69, 70, 71, 72, 73, 74, 75, 76, 77, 78,
                             79, 80, 81, 82, 83, 84, 85, 86, 87, 88, 89, 90, 91, 92, 93, 94, 95, 96, 97, 98, 99, 100,
                             101, 102, 103, 104, 105, 106, 107, 108, 109, 110, 111]],
              'geometry': [39.18725066, 24.74029443, 4.00810911, 37.91546498, 22.14947992, 3.77378307, 35.03363264,
                           22.26853266, 4.05535227, 33.7429497, 19.68527705, 3.82102623, 30.85922763, 19.81566815,
                           4.07613925, 29.56287551, 17.23808172, 3.82858513, 26.67726371, 17.37792145, 4.05535227,
                           25.37335269, 14.80600419, 3.78890088, 22.48774089, 14.95907201, 3.99866048, 21.17249151,
                           12.3909342, 3.72653992, 18.28876944, 12.55534038, 3.93818925, 16.9621817, 9.99287175,
                           3.67551731, 14.08034936, 10.16483683, 3.9060639, 12.74809244, 7.60425793, 3.66417896,
                           9.86814983, 7.77811273, 3.92685089, 8.53400318, 5.21564411, 3.71142211, 5.65595029,
                           5.38571946, 4.00621939, 4.34070091, 2.8138022, 3.80590842, 2.28845834, 3.00088509,
                           4.00432966, 38.81875407, 25.57933283, 5.86570989, 41.23760351, 24.59667525, 3.76811389,
                           38.46915474, 26.04798491, 2.57191726, 38.38222733, 21.31233124, 1.93318983, 38.68647324,
                           20.86635588, 5.21186465, 34.56120111, 23.10568134, 5.89594551, 34.26073465, 23.5516567,
                           2.61538096, 34.22860931, 18.8424592, 1.98610216, 34.50072987, 18.40782219, 5.27044616,
                           30.37356801, 20.65281683, 5.91484277, 30.10333718, 21.10257164, 2.63238849, 30.06365293,
                           16.39337414, 1.99744051, 30.30175842, 15.95495768, 5.28556397, 26.17648629, 18.2131804,
                           5.89027633, 25.94216025, 18.67049412, 2.60593233, 25.88168901, 13.96507607, 1.95964599,
                           26.09711779, 13.51532125, 5.24776945, 21.97940457, 15.79433096, 5.83169482, 21.76586551,
                           16.25353441, 2.54546109, 21.67893811, 11.5518958, 1.89728503, 21.89247716, 11.09647181,
                           5.18351876, 17.78610229, 13.3962685, 5.76933386, 17.56878379, 13.8516925, 2.48310013,
                           17.45540022, 9.14816417, 1.84248297, 17.68594681, 8.69651963, 5.1287167, 13.59468975,
                           11.01521359, 5.73909824, 13.3528048, 11.4574095, 2.45286451, 13.21863425, 6.7557709,
                           1.82925489, 13.48697536, 6.31168526, 5.1135989, 9.4032772, 8.63604839, 5.76177496,
                           9.12359773, 9.0631265, 2.47743095, 8.983758, 4.35959817, 1.87271859, 9.29178336, 3.92874061,
                           5.15517287, 5.21186465, 6.2493243, 5.84114345, 4.90005984, 6.66506404, 2.55868917,
                           4.72431531, 1.92563092, 1.9747638, 5.00966396, 1.52500898, 5.28367425, 9.39004912,
                           8.90249978, -3.87960774, 8.09936617, 6.31924416, -4.11393378, 5.21753383, 6.43829691,
                           -3.83236458, 3.94574815, 3.84748239, -4.06669062, 12.27188146, 8.77210867, -4.13661049,
                           13.57012331, 11.35158484, -3.88716664, 16.45384537, 11.20985538, -4.11393378, 17.75964613,
                           13.78177263, -3.84748239, 20.64525792, 13.62870482, -4.05724199, 21.95861758, 16.19684262,
                           -3.78512143, 24.84422937, 16.03243645, -3.99677076, 26.16892739, 18.5967948, -3.73409882,
                           29.05075973, 18.42294, -3.96464541, 30.38301665, 20.98540862, -3.72276047, 33.26295926,
                           20.80966409, -3.98732212, 34.5971059, 23.37213272, -3.77000362, 37.47515879, 23.20205737,
                           -4.0648009, 38.79040818, 25.77397463, -3.86637965, 40.84265075, 25.58878146, -4.0648009,
                           38.12144513, 27.06276784, -5.34414548, 37.91924443, 22.33845253, -5.89972496, 38.23104924,
                           21.92271278, -2.61727068, 34.14735109, 24.23006838, -1.93318983, 33.83932573, 24.65903621,
                           -5.21564411, 33.72783189, 19.95172843, -5.82035647, 34.00751135, 19.52465033, -2.53601246,
                           29.91247484, 21.83389565, -1.8878364, 29.64413373, 22.27609157, -5.17218041, 29.53641934,
                           17.57256324, -5.79767975, 29.78019401, 17.13225705, -2.51144602, 25.67759859, 19.43961265,
                           -1.90106448, 25.44516228, 19.8912572, -5.18729821, 25.34500679, 15.19150832, -5.82791537,
                           25.5623253, 14.73797405, -2.54168164, 21.45217098, 17.03777075, -1.95586654, 21.24052165,
                           17.49130502, -5.24210027, 21.15359425, 12.79344587, -5.89027633, 21.3671333, 12.33424242,
                           -2.6040426, 17.24942007, 14.62270076, -2.02011723, 17.03588102, 15.07245558, -5.30635096,
                           16.9546228, 10.37459643, -5.95074757, 17.18894884, 9.91728271, -2.66451384, 13.06934588,
                           12.19440269, -2.05791175, 12.82935067, 12.63281915, -5.34414548, 12.75754107, 7.93684973,
                           -5.97531401, 13.02777191, 7.48520518, -2.69285973, 8.9043895, 9.74531763, -2.04468367,
                           8.57179771, 5.48209549, -5.95641675, 8.87037443, 5.03612012, -2.67585219, 4.75077148,
                           7.27544558, -1.99177134, 4.44652557, 7.72142095, -5.27044616, 1.8953953, 3.99110158,
                           -3.82858513, 4.31424474, 3.00844399, -5.92618113, 4.66384408, 2.53979191, -2.63238849,
                           8.63037921, 10.17995464, -5.3309174, 38.40679377, 26.6621459, -2.03334531],
              'id': 14,
              'identifiers': {'molecular_formula': 'C36H76',
                              'molecule_hash': '50a7586feb101e20a452f7f17161f8f38cf3c226'},
              'masses': [12.0, 12.0, 12.0, 12.0, 12.0, 12.0, 12.0, 12.0, 12.0, 12.0, 12.0, 12.0, 12.0, 12.0, 12.0, 12.0,
                         12.0, 12.0, 1.00782503223, 1.00782503223, 1.00782503223, 1.00782503223, 1.00782503223,
                         1.00782503223, 1.00782503223, 1.00782503223, 1.00782503223, 1.00782503223, 1.00782503223,
                         1.00782503223, 1.00782503223, 1.00782503223, 1.00782503223, 1.00782503223, 1.00782503223,
                         1.00782503223, 1.00782503223, 1.00782503223, 1.00782503223, 1.00782503223, 1.00782503223,
                         1.00782503223, 1.00782503223, 1.00782503223, 1.00782503223, 1.00782503223, 1.00782503223,
                         1.00782503223, 1.00782503223, 1.00782503223, 1.00782503223, 1.00782503223, 1.00782503223,
                         1.00782503223, 1.00782503223, 1.00782503223, 12.0, 12.0, 12.0, 12.0, 12.0, 12.0, 12.0, 12.0,
                         12.0, 12.0, 12.0, 12.0, 12.0, 12.0, 12.0, 12.0, 12.0, 12.0, 1.00782503223, 1.00782503223,
                         1.00782503223, 1.00782503223, 1.00782503223, 1.00782503223, 1.00782503223, 1.00782503223,
                         1.00782503223, 1.00782503223, 1.00782503223, 1.00782503223, 1.00782503223, 1.00782503223,
                         1.00782503223, 1.00782503223, 1.00782503223, 1.00782503223, 1.00782503223, 1.00782503223,
                         1.00782503223, 1.00782503223, 1.00782503223, 1.00782503223, 1.00782503223, 1.00782503223,
                         1.00782503223, 1.00782503223, 1.00782503223, 1.00782503223, 1.00782503223, 1.00782503223,
                         1.00782503223, 1.00782503223, 1.00782503223, 1.00782503223, 1.00782503223, 1.00782503223],
              'molecular_charge': 0.0,
              'molecular_multiplicity': 1,
              'name': 'C36H76 ([0],[1])',
              'provenance': {'creator': 'QCElemental',
                             'routine': 'qcelemental.molparse.from_schema',
                             'version': '0.29.0'},
              'real': [True, True, True, True, True, True, True, True, True, True, True, True, True, True, True, True,
                       True, True, True, True, True, True, True, True, True, True, True, True, True, True, True, True,
                       True, True, True, True, True, True, True, True, True, True, True, True, True, True, True, True,
                       True, True, True, True, True, True, True, True, False, False, False, False, False, False, False,
                       False, False, False, False, False, False, False, False, False, False, False, False, False, False,
                       False, False, False, False, False, False, False, False, False, False, False, False, False, False,
                       False, False, False, False, False, False, False, False, False, False, False, False, False, False,
                       False, False, False, False, False, False, False],
              'schema_name': 'qcschema_molecule',
              'schema_version': 2,
              'symbols': ['C', 'C', 'C', 'C', 'C', 'C', 'C', 'C', 'C', 'C', 'C', 'C', 'C', 'C', 'C', 'C', 'C', 'C', 'H',
                          'H', 'H', 'H', 'H', 'H', 'H', 'H', 'H', 'H', 'H', 'H', 'H', 'H', 'H', 'H', 'H', 'H', 'H', 'H',
                          'H', 'H', 'H', 'H', 'H', 'H', 'H', 'H', 'H', 'H', 'H', 'H', 'H', 'H', 'H', 'H', 'H', 'H', 'C',
                          'C', 'C', 'C', 'C', 'C', 'C', 'C', 'C', 'C', 'C', 'C', 'C', 'C', 'C', 'C', 'C', 'C', 'H', 'H',
                          'H', 'H', 'H', 'H', 'H', 'H', 'H', 'H', 'H', 'H', 'H', 'H', 'H', 'H', 'H', 'H', 'H', 'H', 'H',
                          'H', 'H', 'H', 'H', 'H', 'H', 'H', 'H', 'H', 'H', 'H', 'H', 'H', 'H', 'H', 'H', 'H'],
              'validated': True},
 'protocols': {},
 'provenance': {'creator': 'QCElemental', 'routine': 'qcelemental.models.results', 'version': '0.29.0'},
 'schema_name': 'qcschema_input',
 'schema_version': 1}
--------------------------------------------------------------------------

Scratch directory: /tmp/tmpq3d9g0to_psi_scratch/
   => Libint2 <=

    Primary   basis highest AM E, G, H:  6, 6, 3
    Auxiliary basis highest AM E, G, H:  7, 7, 4
    Onebody   basis highest AM E, G, H:  -, -, -
    Solid Harmonics ordering:            Gaussian

*** tstart() called on atl1-1-03-004-7-2.pace.gatech.edu
*** at Sat Jun 13 14:53:24 2026

   => Loading Basis Set <=

    Name: AUG-CC-PVTZ
    Role: ORBITAL
    Keyword: BASIS
    atoms 1-18, 57-74   entry C          line   239 file /storage/home/hcoda1/5/vlita3/.conda/envs/p4_qcml/share/psi4/basis/aug-cc-pvtz.gbs 
    atoms 19-56, 75-112 entry H          line    40 file /storage/home/hcoda1/5/vlita3/.conda/envs/p4_qcml/share/psi4/basis/aug-cc-pvtz.gbs 


         ---------------------------------------------------------
                                   SCF
               by Justin Turney, Rob Parrish, Andy Simmonett
                          and Daniel G. A. Smith
                              RKS Reference
                       10 Threads, 256000 MiB Core
         ---------------------------------------------------------

  ==> Geometry <==

    Molecular point group: c1
    Full point group: C1

    Geometry (in Bohr), charge = 0, multiplicity = 1:

       Center              X                  Y                   Z               Mass       
    ------------   -----------------  -----------------  -----------------  -----------------
         C           39.187250660000    24.740294430000     4.008109110000    12.000000000000
         C           37.915464980000    22.149479920000     3.773783070000    12.000000000000
         C           35.033632640000    22.268532660000     4.055352270000    12.000000000000
         C           33.742949700000    19.685277050000     3.821026230000    12.000000000000
         C           30.859227630000    19.815668150000     4.076139250000    12.000000000000
         C           29.562875510000    17.238081720000     3.828585130000    12.000000000000
         C           26.677263710000    17.377921450000     4.055352270000    12.000000000000
         C           25.373352690000    14.806004190000     3.788900880000    12.000000000000
         C           22.487740890000    14.959072010000     3.998660480000    12.000000000000
         C           21.172491510000    12.390934200000     3.726539920000    12.000000000000
         C           18.288769440000    12.555340380000     3.938189250000    12.000000000000
         C           16.962181700000     9.992871750000     3.675517310000    12.000000000000
         C           14.080349360000    10.164836830000     3.906063900000    12.000000000000
         C           12.748092440000     7.604257930000     3.664178960000    12.000000000000
         C            9.868149830000     7.778112730000     3.926850890000    12.000000000000
         C            8.534003180000     5.215644110000     3.711422110000    12.000000000000
         C            5.655950290000     5.385719460000     4.006219390000    12.000000000000
         C            4.340700910000     2.813802200000     3.805908420000    12.000000000000
         H            2.288458340000     3.000885090000     4.004329660000     1.007825032230
         H           38.818754070000    25.579332830000     5.865709890000     1.007825032230
         H           41.237603510000    24.596675250000     3.768113890000     1.007825032230
         H           38.469154740000    26.047984910000     2.571917260000     1.007825032230
         H           38.382227330000    21.312331240000     1.933189830000     1.007825032230
         H           38.686473240000    20.866355880000     5.211864650000     1.007825032230
         H           34.561201110000    23.105681340000     5.895945510000     1.007825032230
         H           34.260734650000    23.551656700000     2.615380960000     1.007825032230
         H           34.228609310000    18.842459200000     1.986102160000     1.007825032230
         H           34.500729870000    18.407822190000     5.270446160000     1.007825032230
         H           30.373568010000    20.652816830000     5.914842770000     1.007825032230
         H           30.103337180000    21.102571640000     2.632388490000     1.007825032230
         H           30.063652930000    16.393374140000     1.997440510000     1.007825032230
         H           30.301758420000    15.954957680000     5.285563970000     1.007825032230
         H           26.176486290000    18.213180400000     5.890276330000     1.007825032230
         H           25.942160250000    18.670494120000     2.605932330000     1.007825032230
         H           25.881689010000    13.965076070000     1.959645990000     1.007825032230
         H           26.097117790000    13.515321250000     5.247769450000     1.007825032230
         H           21.979404570000    15.794330960000     5.831694820000     1.007825032230
         H           21.765865510000    16.253534410000     2.545461090000     1.007825032230
         H           21.678938110000    11.551895800000     1.897285030000     1.007825032230
         H           21.892477160000    11.096471810000     5.183518760000     1.007825032230
         H           17.786102290000    13.396268500000     5.769333860000     1.007825032230
         H           17.568783790000    13.851692500000     2.483100130000     1.007825032230
         H           17.455400220000     9.148164170000     1.842482970000     1.007825032230
         H           17.685946810000     8.696519630000     5.128716700000     1.007825032230
         H           13.594689750000    11.015213590000     5.739098240000     1.007825032230
         H           13.352804800000    11.457409500000     2.452864510000     1.007825032230
         H           13.218634250000     6.755770900000     1.829254890000     1.007825032230
         H           13.486975360000     6.311685260000     5.113598900000     1.007825032230
         H            9.403277200000     8.636048390000     5.761774960000     1.007825032230
         H            9.123597730000     9.063126500000     2.477430950000     1.007825032230
         H            8.983758000000     4.359598170000     1.872718590000     1.007825032230
         H            9.291783360000     3.928740610000     5.155172870000     1.007825032230
         H            5.211864650000     6.249324300000     5.841143450000     1.007825032230
         H            4.900059840000     6.665064040000     2.558689170000     1.007825032230
         H            4.724315310000     1.925630920000     1.974763800000     1.007825032230
         H            5.009663960000     1.525008980000     5.283674250000     1.007825032230
      Gh(C)           9.390049120000     8.902499780000    -3.879607740000    12.000000000000
      Gh(C)           8.099366170000     6.319244160000    -4.113933780000    12.000000000000
      Gh(C)           5.217533830000     6.438296910000    -3.832364580000    12.000000000000
      Gh(C)           3.945748150000     3.847482390000    -4.066690620000    12.000000000000
      Gh(C)          12.271881460000     8.772108670000    -4.136610490000    12.000000000000
      Gh(C)          13.570123310000    11.351584840000    -3.887166640000    12.000000000000
      Gh(C)          16.453845370000    11.209855380000    -4.113933780000    12.000000000000
      Gh(C)          17.759646130000    13.781772630000    -3.847482390000    12.000000000000
      Gh(C)          20.645257920000    13.628704820000    -4.057241990000    12.000000000000
      Gh(C)          21.958617580000    16.196842620000    -3.785121430000    12.000000000000
      Gh(C)          24.844229370000    16.032436450000    -3.996770760000    12.000000000000
      Gh(C)          26.168927390000    18.596794800000    -3.734098820000    12.000000000000
      Gh(C)          29.050759730000    18.422940000000    -3.964645410000    12.000000000000
      Gh(C)          30.383016650000    20.985408620000    -3.722760470000    12.000000000000
      Gh(C)          33.262959260000    20.809664090000    -3.987322120000    12.000000000000
      Gh(C)          34.597105900000    23.372132720000    -3.770003620000    12.000000000000
      Gh(C)          37.475158790000    23.202057370000    -4.064800900000    12.000000000000
      Gh(C)          38.790408180000    25.773974630000    -3.866379650000    12.000000000000
      Gh(H)          40.842650750000    25.588781460000    -4.064800900000     1.007825032230
      Gh(H)          38.121445130000    27.062767840000    -5.344145480000     1.007825032230
      Gh(H)          37.919244430000    22.338452530000    -5.899724960000     1.007825032230
      Gh(H)          38.231049240000    21.922712780000    -2.617270680000     1.007825032230
      Gh(H)          34.147351090000    24.230068380000    -1.933189830000     1.007825032230
      Gh(H)          33.839325730000    24.659036210000    -5.215644110000     1.007825032230
      Gh(H)          33.727831890000    19.951728430000    -5.820356470000     1.007825032230
      Gh(H)          34.007511350000    19.524650330000    -2.536012460000     1.007825032230
      Gh(H)          29.912474840000    21.833895650000    -1.887836400000     1.007825032230
      Gh(H)          29.644133730000    22.276091570000    -5.172180410000     1.007825032230
      Gh(H)          29.536419340000    17.572563240000    -5.797679750000     1.007825032230
      Gh(H)          29.780194010000    17.132257050000    -2.511446020000     1.007825032230
      Gh(H)          25.677598590000    19.439612650000    -1.901064480000     1.007825032230
      Gh(H)          25.445162280000    19.891257200000    -5.187298210000     1.007825032230
      Gh(H)          25.345006790000    15.191508320000    -5.827915370000     1.007825032230
      Gh(H)          25.562325300000    14.737974050000    -2.541681640000     1.007825032230
      Gh(H)          21.452170980000    17.037770750000    -1.955866540000     1.007825032230
      Gh(H)          21.240521650000    17.491305020000    -5.242100270000     1.007825032230
      Gh(H)          21.153594250000    12.793445870000    -5.890276330000     1.007825032230
      Gh(H)          21.367133300000    12.334242420000    -2.604042600000     1.007825032230
      Gh(H)          17.249420070000    14.622700760000    -2.020117230000     1.007825032230
      Gh(H)          17.035881020000    15.072455580000    -5.306350960000     1.007825032230
      Gh(H)          16.954622800000    10.374596430000    -5.950747570000     1.007825032230
      Gh(H)          17.188948840000     9.917282710000    -2.664513840000     1.007825032230
      Gh(H)          13.069345880000    12.194402690000    -2.057911750000     1.007825032230
      Gh(H)          12.829350670000    12.632819150000    -5.344145480000     1.007825032230
      Gh(H)          12.757541070000     7.936849730000    -5.975314010000     1.007825032230
      Gh(H)          13.027771910000     7.485205180000    -2.692859730000     1.007825032230
      Gh(H)           8.904389500000     9.745317630000    -2.044683670000     1.007825032230
      Gh(H)           8.571797710000     5.482095490000    -5.956416750000     1.007825032230
      Gh(H)           8.870374430000     5.036120120000    -2.675852190000     1.007825032230
      Gh(H)           4.750771480000     7.275445580000    -1.991771340000     1.007825032230
      Gh(H)           4.446525570000     7.721420950000    -5.270446160000     1.007825032230
      Gh(H)           1.895395300000     3.991101580000    -3.828585130000     1.007825032230
      Gh(H)           4.314244740000     3.008443990000    -5.926181130000     1.007825032230
      Gh(H)           4.663844080000     2.539791910000    -2.632388490000     1.007825032230
      Gh(H)           8.630379210000    10.179954640000    -5.330917400000     1.007825032230
      Gh(H)          38.406793770000    26.662145900000    -2.033345310000     1.007825032230

  Running in c1 symmetry.

  Rotational constants: A =      0.00674  B =      0.00014  C =      0.00014 [cm^-1]
  Rotational constants: A =    202.03768  B =      4.27015  C =      4.19674 [MHz]
  Nuclear repulsion = 1177.196919444696050

  Charge       = 0
  Multiplicity = 1
  Electrons    = 146
  Nalpha       = 73
  Nbeta        = 73

  ==> Algorithm <==

  SCF Algorithm Type is DF.
  DIIS enabled.
  MOM disabled.
  Fractional occupation disabled.
  Guess Type is SAD.
  Energy threshold   = 1.00e-06
  Density threshold  = 1.00e-06
  Integral threshold = 1.00e-12

  ==> Primary Basis <==

  Basis Set: AUG-CC-PVTZ
    Blend: AUG-CC-PVTZ
    Number of shells: 1188
    Number of basis functions: 3404
    Number of Cartesian functions: 3880
    Spherical Harmonics?: true
    Max angular momentum: 3

  ==> DFT Potential <==

   => LibXC <=

    Version 7.0.0
    S. Lehtola, C. Steigemann, M. J.T. Oliveira, and M. A.L. Marques.,  SoftwareX 7, 1–5 (2018) (10.1016/j.softx.2017.11.002)

   => Composite Functional: WB97X-V <= 

    wB97X-V Hyb-GGA Exchange-Correlation Functional

    N. Mardirossian and M. Head-Gordon.,  Phys. Chem. Chem. Phys. 16, 9904-9924 (2014) (10.1039/C3CP54374A)

    Deriv               =              1
    GGA                 =           TRUE
    Meta                =          FALSE

    Exchange Hybrid     =           TRUE
    MP2 Hybrid          =          FALSE

   => Exchange-Correlation Functionals <=

    1.0000   wB97X-V range-separated functional

   => Exact (HF) Exchange <=

    0.8330            HF,LR [omega = 0.3000]
    0.1670               HF 

   => LibXC Density Thresholds  <==

    XC_HYB_GGA_XC_WB97X_V:  1.00E-14 

   => VV10 Non-Local Parameters <=

    VV10 B              =     6.0000E+00
    VV10 C              =     1.0000E-02

   => Molecular Quadrature <=

    Radial Scheme          =       TREUTLER
    Pruning Scheme         =           NONE
    Nuclear Scheme         =       TREUTLER

    Blocking Scheme        =         OCTREE
    BS radius alpha        =              1
    Pruning alpha          =              1
    Radial Points          =             75
    Spherical Points       =            302
    Total Points           =        2287807
    Total Blocks           =          15476
    Max Points             =            256
    Max Functions          =           1540
    Weights Tolerance      =       1.00E-15

   => Loading Basis Set <=

    Name: (AUG-CC-PVTZ AUX)
    Role: JKFIT
    Keyword: DF_BASIS_SCF
    atoms 1-18, 57-74   entry C          line   162 file /storage/home/hcoda1/5/vlita3/.conda/envs/p4_qcml/share/psi4/basis/aug-cc-pvtz-jkfit.gbs 
    atoms 19-56, 75-112 entry H          line    70 file /storage/home/hcoda1/5/vlita3/.conda/envs/p4_qcml/share/psi4/basis/aug-cc-pvtz-jkfit.gbs 

  ==> Integral Setup <==

  ==> DiskDFJK: Density-Fitted J/K Matrices <==

    J tasked:                  Yes
    K tasked:                  Yes
    wK tasked:                 Yes
    Omega:               3.000E-01
    OpenMP threads:             10
    Integrals threads:          10
    Memory [MiB]:           172368
    Algorithm:                Disk
    Integral Cache:           NONE
    Schwarz Cutoff:          1E-12
    Fitting Condition:       1E-10

   => Auxiliary Basis Set <=

  Basis Set: (AUG-CC-PVTZ AUX)
    Blend: AUG-CC-PVTZ-JKFIT
    Number of shells: 2144
    Number of basis functions: 7240
    Number of Cartesian functions: 8896
    Spherical Harmonics?: true
    Max angular momentum: 4

  Minimum eigenvalue in the overlap matrix is 2.2061596341E-08.
  Reciprocal condition number of the overlap matrix is 6.8411741151E-10.
    Using canonical orthogonalization.
  Overall, 1 of 3404 possible MOs eliminated.


  ==> Pre-Iterations <==

  SCF Guess: Superposition of Atomic Densities via on-the-fly atomic UHF (no occupation information).

   -------------------------
    Irrep   Nso     Nmo    
   -------------------------
     A       3404    3403 
   -------------------------
    Total    3404    3403
   -------------------------

  ==> Iterations <==

                           Total Energy        Delta E     RMS |[F,P]|

   @DF-RKS iter SAD:  -708.09579258964891   -7.08096e+02   0.00000e+00 
   @DF-RKS iter   1:  -707.64567561404169    4.50117e-01   4.45548e-04 ADIIS/DIIS
   @DF-RKS iter   2:  -708.34109996306256   -6.95424e-01   3.09061e-04 ADIIS/DIIS
   @DF-RKS iter   3:  -708.89407935977511   -5.52979e-01   1.90202e-05 DIIS
   @DF-RKS iter   4:  -708.89839527683364   -4.31592e-03   7.03821e-06 DIIS
   @DF-RKS iter   5:  -708.89871240590401   -3.17129e-04   2.45858e-06 DIIS
   @DF-RKS iter   6:  -708.89875142746121   -3.90216e-05   3.33740e-07 DIIS
   @DF-RKS iter   7:  -708.89875250561613   -1.07815e-06   1.15572e-07 DIIS
   @DF-RKS iter   8:  -708.89875261328223   -1.07666e-07   4.08108e-08 DIIS
  Energy and wave function converged.


  ==> Post-Iterations <==

   Electrons on quadrature grid:
      Ntotal   =  146.0011714281 ; deviation = 1.171e-03 

    Orbital Energies [Eh]
    ---------------------

    Doubly Occupied:                                                      

       1A    -10.262495     2A    -10.262481     3A    -10.260626  
       4A    -10.260614     5A    -10.260560     6A    -10.260538  
       7A    -10.260491     8A    -10.260465     9A    -10.260423  
      10A    -10.260393    11A    -10.260349    12A    -10.260313  
      13A    -10.260282    14A    -10.260268    15A    -10.260245  
      16A    -10.260187    17A    -10.255569    18A    -10.255484  
      19A     -0.950241    20A     -0.944655    21A     -0.935306  
      22A     -0.922345    23A     -0.905827    24A     -0.885930  
      25A     -0.862814    26A     -0.836905    27A     -0.808585  
      28A     -0.778789    29A     -0.748843    30A     -0.721565  
      31A     -0.701605    32A     -0.701261    33A     -0.697438  
      34A     -0.694114    35A     -0.689506    36A     -0.689078  
      37A     -0.604741    38A     -0.599246    39A     -0.590205  
      40A     -0.577826    41A     -0.562552    42A     -0.544831  
      43A     -0.544340    44A     -0.543636    45A     -0.534180  
      46A     -0.528527    47A     -0.525317    48A     -0.518010  
      49A     -0.504913    50A     -0.502040    51A     -0.498196  
      52A     -0.484595    53A     -0.480684    54A     -0.466442  
      55A     -0.465612    56A     -0.462747    57A     -0.449061  
      58A     -0.447521    59A     -0.437091    60A     -0.435944  
      61A     -0.430907    62A     -0.428395    63A     -0.426641  
      64A     -0.423437    65A     -0.421255    66A     -0.421130  
      67A     -0.420005    68A     -0.419873    69A     -0.419394  
      70A     -0.418217    71A     -0.418178    72A     -0.401604  
      73A     -0.381170  

    Virtual:                                                              

      74A      0.019532    75A      0.021268    76A      0.026436  
      77A      0.029139    78A      0.030306    79A      0.031301  
      80A      0.033199    81A      0.034277    82A      0.036743  
      83A      0.040288    84A      0.040715    85A      0.043359  
      86A      0.043999    87A      0.045240    88A      0.047936  
      89A      0.049234    90A      0.051877    91A      0.052189  
      92A      0.053299    93A      0.054892    94A      0.058991  
      95A      0.060295    96A      0.061633    97A      0.063733  
      98A      0.064376    99A      0.064673   100A      0.066627  
     101A      0.067938   102A      0.068529   103A      0.069335  
     104A      0.072923   105A      0.073147   106A      0.074956  
     107A      0.077098   108A      0.077370   109A      0.078834  
     110A      0.080040   111A      0.082500   112A      0.083512  
     113A      0.084659   114A      0.086531   115A      0.087653  
     116A      0.088990   117A      0.090268   118A      0.091087  
     119A      0.091739   120A      0.094045   121A      0.095272  
     122A      0.095425   123A      0.096659   124A      0.097453  
     125A      0.099675   126A      0.100151   127A      0.100575  
     128A      0.100781   129A      0.101406   130A      0.102803  
     131A      0.104310   132A      0.105070   133A      0.108378  
     134A      0.109441   135A      0.110446   136A      0.110846  
     137A      0.111505   138A      0.111781   139A      0.114434  
     140A      0.115154   141A      0.116058   142A      0.116156  
     143A      0.116986   144A      0.119242   145A      0.119544  
     146A      0.121385   147A      0.121765   148A      0.122718  
     149A      0.124536   150A      0.125586   151A      0.126907  
     152A      0.127969   153A      0.128365   154A      0.130400  
     155A      0.132324   156A      0.132435   157A      0.133628  
     158A      0.135739   159A      0.135977   160A      0.136870  
     161A      0.137709   162A      0.139480   163A      0.140345  
     164A      0.141835   165A      0.143922   166A      0.145307  
     167A      0.146662   168A      0.149616   169A      0.150057  
     170A      0.150340   171A      0.150784   172A      0.151251  
     173A      0.151516   174A      0.152970   175A      0.153844  
     176A      0.154998   177A      0.155355   178A      0.155740  
     179A      0.158009   180A      0.158376   181A      0.159688  
     182A      0.160499   183A      0.162357   184A      0.163540  
     185A      0.164810   186A      0.167372   187A      0.168976  
     188A      0.170865   189A      0.171077   190A      0.171553  
     191A      0.172674   192A      0.173607   193A      0.174178  
     194A      0.175897   195A      0.175969   196A      0.176625  
     197A      0.177449   198A      0.179101   199A      0.181415  
     200A      0.182618   201A      0.184959   202A      0.185427  
     203A      0.186030   204A      0.187352   205A      0.187511  
     206A      0.187937   207A      0.188623   208A      0.189447  
     209A      0.189718   210A      0.191296   211A      0.192654  
     212A      0.195629   213A      0.197560   214A      0.198866  
     215A      0.199527   216A      0.200062   217A      0.200837  
     218A      0.201371   219A      0.202819   220A      0.203232  
     221A      0.203614   222A      0.204227   223A      0.204575  
     224A      0.205347   225A      0.206359   226A      0.208459  
     227A      0.209426   228A      0.210636   229A      0.212837  
     230A      0.213952   231A      0.214632   232A      0.216718  
     233A      0.216973   234A      0.218939   235A      0.219768  
     236A      0.220161   237A      0.224425   238A      0.224944  
     239A      0.225611   240A      0.227406   241A      0.228013  
     242A      0.229076   243A      0.229757   244A      0.229953  
     245A      0.230267   246A      0.232506   247A      0.232576  
     248A      0.234171   249A      0.236346   250A      0.237719  
     251A      0.239087   252A      0.239292   253A      0.239981  
     254A      0.241499   255A      0.243334   256A      0.245067  
     257A      0.246797   258A      0.247920   259A      0.248730  
     260A      0.252332   261A      0.253903   262A      0.254061  
     263A      0.254816   264A      0.255514   265A      0.256430  
     266A      0.257501   267A      0.257864   268A      0.259058  
     269A      0.260227   270A      0.261400   271A      0.262477  
     272A      0.263066   273A      0.263594   274A      0.264389  
     275A      0.265276   276A      0.266927   277A      0.268541  
     278A      0.268748   279A      0.270347   280A      0.272391  
     281A      0.272911   282A      0.275158   283A      0.275610  
     284A      0.276526   285A      0.279345   286A      0.279545  
     287A      0.280801   288A      0.281196   289A      0.283228  
     290A      0.283514   291A      0.284607   292A      0.287553  
     293A      0.288771   294A      0.289874   295A      0.291538  
     296A      0.291757   297A      0.293723   298A      0.294039  
     299A      0.294599   300A      0.296326   301A      0.297652  
     302A      0.299087   303A      0.301653   304A      0.301979  
     305A      0.302596   306A      0.303136   307A      0.305450  
     308A      0.306916   309A      0.308988   310A      0.309266  
     311A      0.309995   312A      0.310517   313A      0.311390  
     314A      0.313772   315A      0.315419   316A      0.315774  
     317A      0.318258   318A      0.319969   319A      0.320528  
     320A      0.322394   321A      0.323436   322A      0.324337  
     323A      0.324718   324A      0.326369   325A      0.328386  
     326A      0.329033   327A      0.330820   328A      0.331396  
     329A      0.331952   330A      0.333726   331A      0.334474  
     332A      0.335953   333A      0.338121   334A      0.338725  
     335A      0.339283   336A      0.341785   337A      0.342280  
     338A      0.344024   339A      0.344792   340A      0.346556  
     341A      0.346914   342A      0.347423   343A      0.349021  
     344A      0.349663   345A      0.350477   346A      0.351072  
     347A      0.352024   348A      0.353218   349A      0.355677  
     350A      0.356173   351A      0.358014   352A      0.359244  
     353A      0.359922   354A      0.362191   355A      0.363103  
     356A      0.363930   357A      0.364173   358A      0.365840  
     359A      0.366281   360A      0.367104   361A      0.367794  
     362A      0.369521   363A      0.370679   364A      0.371325  
     365A      0.372823   366A      0.373781   367A      0.374153  
     368A      0.374767   369A      0.376958   370A      0.377656  
     371A      0.379066   372A      0.379572   373A      0.380904  
     374A      0.381507   375A      0.382552   376A      0.383113  
     377A      0.384899   378A      0.385708   379A      0.387281  
     380A      0.388657   381A      0.389476   382A      0.389673  
     383A      0.390576   384A      0.391987   385A      0.392200  
     386A      0.393344   387A      0.393450   388A      0.394133  
     389A      0.395876   390A      0.396292   391A      0.397329  
     392A      0.398228   393A      0.399269   394A      0.399354  
     395A      0.401157   396A      0.402118   397A      0.404188  
     398A      0.404468   399A      0.404989   400A      0.405336  
     401A      0.406581   402A      0.406870   403A      0.409188  
     404A      0.409816   405A      0.411805   406A      0.411988  
     407A      0.412486   408A      0.413172   409A      0.413927  
     410A      0.414745   411A      0.415340   412A      0.417045  
     413A      0.417780   414A      0.420348   415A      0.421889  
     416A      0.422671   417A      0.423399   418A      0.424428  
     419A      0.424974   420A      0.426484   421A      0.426831  
     422A      0.428115   423A      0.429400   424A      0.430203  
     425A      0.432665   426A      0.433770   427A      0.434675  
     428A      0.435730   429A      0.437042   430A      0.438544  
     431A      0.439324   432A      0.441291   433A      0.442159  
     434A      0.442686   435A      0.443699   436A      0.444514  
     437A      0.445134   438A      0.447508   439A      0.448462  
     440A      0.448835   441A      0.450482   442A      0.451759  
     443A      0.452914   444A      0.453945   445A      0.454772  
     446A      0.456558   447A      0.457679   448A      0.458472  
     449A      0.461335   450A      0.461777   451A      0.462718  
     452A      0.463834   453A      0.464571   454A      0.467142  
     455A      0.469500   456A      0.470562   457A      0.470684  
     458A      0.471791   459A      0.473881   460A      0.474447  
     461A      0.475279   462A      0.476035   463A      0.477379  
     464A      0.478462   465A      0.478913   466A      0.480261  
     467A      0.481407   468A      0.484222   469A      0.484491  
     470A      0.485012   471A      0.485416   472A      0.485732  
     473A      0.487422   474A      0.487678   475A      0.488600  
     476A      0.489248   477A      0.490776   478A      0.492146  
     479A      0.493007   480A      0.494064   481A      0.495506  
     482A      0.495890   483A      0.497252   484A      0.497788  
     485A      0.498935   486A      0.500170   487A      0.500639  
     488A      0.501938   489A      0.502410   490A      0.506075  
     491A      0.506618   492A      0.508025   493A      0.508435  
     494A      0.508690   495A      0.509681   496A      0.510401  
     497A      0.511954   498A      0.512377   499A      0.513425  
     500A      0.514545   501A      0.515788   502A      0.515915  
     503A      0.517155   504A      0.518230   505A      0.519311  
     506A      0.521485   507A      0.521947   508A      0.523391  
     509A      0.525069   510A      0.525835   511A      0.527573  
     512A      0.527672   513A      0.529198   514A      0.530867  
     515A      0.531221   516A      0.532807   517A      0.534058  
     518A      0.534679   519A      0.535937   520A      0.536937  
     521A      0.537651   522A      0.539203   523A      0.542198  
     524A      0.542671   525A      0.543592   526A      0.544871  
     527A      0.546151   528A      0.547358   529A      0.549455  
     530A      0.551221   531A      0.551959   532A      0.555452  
     533A      0.555918   534A      0.556396   535A      0.558268  
     536A      0.559838   537A      0.561097   538A      0.561949  
     539A      0.563644   540A      0.564260   541A      0.567950  
     542A      0.569021   543A      0.570310   544A      0.571508  
     545A      0.572929   546A      0.573560   547A      0.575394  
     548A      0.576169   549A      0.576432   550A      0.578495  
     551A      0.579241   552A      0.580897   553A      0.581976  
     554A      0.583219   555A      0.584760   556A      0.585733  
     557A      0.586639   558A      0.587377   559A      0.588696  
     560A      0.589723   561A      0.589975   562A      0.590373  
     563A      0.592673   564A      0.594756   565A      0.595139  
     566A      0.596599   567A      0.597439   568A      0.600875  
     569A      0.602800   570A      0.604125   571A      0.605852  
     572A      0.607082   573A      0.609464   574A      0.610132  
     575A      0.612086   576A      0.612291   577A      0.612439  
     578A      0.614035   579A      0.614768   580A      0.615339  
     581A      0.616038   582A      0.617268   583A      0.618052  
     584A      0.618999   585A      0.619579   586A      0.620114  
     587A      0.621203   588A      0.621373   589A      0.622401  
     590A      0.623939   591A      0.625022   592A      0.626918  
     593A      0.627494   594A      0.627953   595A      0.629133  
     596A      0.630231   597A      0.632392   598A      0.633244  
     599A      0.634505   600A      0.636476   601A      0.637286  
     602A      0.638778   603A      0.640064   604A      0.641146  
     605A      0.642597   606A      0.643329   607A      0.645829  
     608A      0.646431   609A      0.647797   610A      0.649447  
     611A      0.651425   612A      0.651844   613A      0.654687  
     614A      0.654709   615A      0.656202   616A      0.657206  
     617A      0.658252   618A      0.660696   619A      0.661465  
     620A      0.664217   621A      0.664754   622A      0.665552  
     623A      0.666175   624A      0.668202   625A      0.668572  
     626A      0.670047   627A      0.672984   628A      0.673385  
     629A      0.675917   630A      0.676708   631A      0.677173  
     632A      0.680551   633A      0.681148   634A      0.682017  
     635A      0.683875   636A      0.685391   637A      0.686538  
     638A      0.686873   639A      0.687931   640A      0.688691  
     641A      0.690159   642A      0.690498   643A      0.692378  
     644A      0.694576   645A      0.694801   646A      0.695620  
     647A      0.697703   648A      0.698163   649A      0.698600  
     650A      0.700408   651A      0.700753   652A      0.702339  
     653A      0.703276   654A      0.704452   655A      0.704740  
     656A      0.706057   657A      0.706555   658A      0.707984  
     659A      0.709416   660A      0.710847   661A      0.711281  
     662A      0.712950   663A      0.713765   664A      0.714534  
     665A      0.715692   666A      0.718756   667A      0.719884  
     668A      0.720334   669A      0.722882   670A      0.723469  
     671A      0.725862   672A      0.727674   673A      0.728724  
     674A      0.729588   675A      0.730407   676A      0.730982  
     677A      0.732816   678A      0.734246   679A      0.735103  
     680A      0.736639   681A      0.737555   682A      0.737772  
     683A      0.739344   684A      0.740665   685A      0.741437  
     686A      0.743526   687A      0.744032   688A      0.746459  
     689A      0.747241   690A      0.747729   691A      0.750035  
     692A      0.753627   693A      0.755019   694A      0.755951  
     695A      0.756216   696A      0.757882   697A      0.759159  
     698A      0.760595   699A      0.761568   700A      0.764622  
     701A      0.765085   702A      0.766007   703A      0.767026  
     704A      0.768224   705A      0.769225   706A      0.770862  
     707A      0.771577   708A      0.772709   709A      0.774212  
     710A      0.775491   711A      0.777697   712A      0.778339  
     713A      0.779258   714A      0.779932   715A      0.781958  
     716A      0.783252   717A      0.784138   718A      0.785593  
     719A      0.786162   720A      0.788406   721A      0.789058  
     722A      0.789653   723A      0.792298   724A      0.793491  
     725A      0.793993   726A      0.796467   727A      0.799089  
     728A      0.799530   729A      0.799574   730A      0.800835  
     731A      0.802568   732A      0.803421   733A      0.805524  
     734A      0.808742   735A      0.809753   736A      0.811378  
     737A      0.812176   738A      0.814379   739A      0.814888  
     740A      0.815838   741A      0.817463   742A      0.818641  
     743A      0.819397   744A      0.820544   745A      0.822771  
     746A      0.823405   747A      0.823952   748A      0.825079  
     749A      0.826021   750A      0.826600   751A      0.828288  
     752A      0.828438   753A      0.829136   754A      0.831328  
     755A      0.832829   756A      0.834274   757A      0.836005  
     758A      0.838398   759A      0.839280   760A      0.839387  
     761A      0.840922   762A      0.841547   763A      0.843065  
     764A      0.843204   765A      0.845757   766A      0.846649  
     767A      0.848207   768A      0.848720   769A      0.849255  
     770A      0.851788   771A      0.853096   772A      0.854156  
     773A      0.856255   774A      0.856499   775A      0.858225  
     776A      0.859988   777A      0.861197   778A      0.862510  
     779A      0.864093   780A      0.866040   781A      0.868056  
     782A      0.870700   783A      0.871561   784A      0.873035  
     785A      0.873628   786A      0.874020   787A      0.875572  
     788A      0.876641   789A      0.877772   790A      0.881419  
     791A      0.881865   792A      0.881963   793A      0.883592  
     794A      0.885232   795A      0.887214   796A      0.888058  
     797A      0.888423   798A      0.889316   799A      0.891194  
     800A      0.891993   801A      0.893451   802A      0.895419  
     803A      0.896267   804A      0.896862   805A      0.898943  
     806A      0.900263   807A      0.900436   808A      0.901562  
     809A      0.902997   810A      0.903664   811A      0.904838  
     812A      0.905877   813A      0.906591   814A      0.907955  
     815A      0.909247   816A      0.910826   817A      0.911756  
     818A      0.913274   819A      0.913794   820A      0.914363  
     821A      0.915221   822A      0.917485   823A      0.918541  
     824A      0.919259   825A      0.921350   826A      0.922004  
     827A      0.923190   828A      0.925033   829A      0.926136  
     830A      0.927709   831A      0.929249   832A      0.930056  
     833A      0.931144   834A      0.932281   835A      0.932419  
     836A      0.934182   837A      0.936740   838A      0.938496  
     839A      0.939251   840A      0.940849   841A      0.943941  
     842A      0.944677   843A      0.947337   844A      0.948312  
     845A      0.950202   846A      0.950670   847A      0.952333  
     848A      0.952564   849A      0.953016   850A      0.954768  
     851A      0.955702   852A      0.957789   853A      0.960305  
     854A      0.961308   855A      0.962083   856A      0.964634  
     857A      0.964844   858A      0.965644   859A      0.966894  
     860A      0.969543   861A      0.971334   862A      0.971526  
     863A      0.973275   864A      0.974635   865A      0.975543  
     866A      0.978148   867A      0.978938   868A      0.980462  
     869A      0.982043   870A      0.983640   871A      0.984192  
     872A      0.987452   873A      0.988200   874A      0.989506  
     875A      0.991135   876A      0.992260   877A      0.994313  
     878A      0.995641   879A      0.996114   880A      1.001487  
     881A      1.002956   882A      1.004914   883A      1.006241  
     884A      1.008769   885A      1.011837   886A      1.012182  
     887A      1.013090   888A      1.015416   889A      1.016439  
     890A      1.017679   891A      1.018543   892A      1.019959  
     893A      1.020470   894A      1.023029   895A      1.023561  
     896A      1.025214   897A      1.025438   898A      1.027366  
     899A      1.028817   900A      1.029707   901A      1.030345  
     902A      1.031877   903A      1.032580   904A      1.034932  
     905A      1.036372   906A      1.038150   907A      1.039759  
     908A      1.040753   909A      1.041533   910A      1.043090  
     911A      1.045236   912A      1.046243   913A      1.047108  
     914A      1.047547   915A      1.049342   916A      1.051032  
     917A      1.052176   918A      1.053428   919A      1.054993  
     920A      1.055932   921A      1.057519   922A      1.059475  
     923A      1.060453   924A      1.062000   925A      1.063247  
     926A      1.064458   927A      1.066035   928A      1.068263  
     929A      1.069396   930A      1.071526   931A      1.072223  
     932A      1.073304   933A      1.074177   934A      1.076021  
     935A      1.077558   936A      1.079700   937A      1.080343  
     938A      1.081189   939A      1.083442   940A      1.084691  
     941A      1.085315   942A      1.087559   943A      1.088628  
     944A      1.089889   945A      1.091642   946A      1.092604  
     947A      1.094745   948A      1.095601   949A      1.096027  
     950A      1.098064   951A      1.100246   952A      1.101563  
     953A      1.102141   954A      1.103676   955A      1.105935  
     956A      1.108060   957A      1.109469   958A      1.109784  
     959A      1.111292   960A      1.111911   961A      1.113505  
     962A      1.115285   963A      1.115828   964A      1.116558  
     965A      1.120595   966A      1.121218   967A      1.122365  
     968A      1.124846   969A      1.126808   970A      1.129486  
     971A      1.130146   972A      1.130894   973A      1.130989  
     974A      1.132608   975A      1.134994   976A      1.135169  
     977A      1.136448   978A      1.138024   979A      1.138333  
     980A      1.139471   981A      1.140742   982A      1.141429  
     983A      1.145772   984A      1.146547   985A      1.147048  
     986A      1.147738   987A      1.149857   988A      1.150084  
     989A      1.151654   990A      1.153088   991A      1.154857  
     992A      1.156120   993A      1.158034   994A      1.159626  
     995A      1.160277   996A      1.162017   997A      1.163729  
     998A      1.164063   999A      1.165212  1000A      1.166246  
    1001A      1.167824  1002A      1.168786  1003A      1.170219  
    1004A      1.171583  1005A      1.174080  1006A      1.174869  
    1007A      1.176612  1008A      1.177616  1009A      1.178153  
    1010A      1.180528  1011A      1.181373  1012A      1.182526  
    1013A      1.184086  1014A      1.186334  1015A      1.186857  
    1016A      1.188172  1017A      1.190005  1018A      1.190299  
    1019A      1.192767  1020A      1.194983  1021A      1.195546  
    1022A      1.197096  1023A      1.198470  1024A      1.199215  
    1025A      1.199764  1026A      1.200850  1027A      1.203099  
    1028A      1.203560  1029A      1.205121  1030A      1.206230  
    1031A      1.208429  1032A      1.209646  1033A      1.210581  
    1034A      1.212340  1035A      1.213256  1036A      1.214581  
    1037A      1.217590  1038A      1.218463  1039A      1.218716  
    1040A      1.220812  1041A      1.221311  1042A      1.222633  
    1043A      1.223704  1044A      1.224497  1045A      1.224858  
    1046A      1.226143  1047A      1.226686  1048A      1.228337  
    1049A      1.229404  1050A      1.230034  1051A      1.231241  
    1052A      1.233791  1053A      1.234396  1054A      1.236224  
    1055A      1.236830  1056A      1.238984  1057A      1.239183  
    1058A      1.240279  1059A      1.240805  1060A      1.243844  
    1061A      1.245395  1062A      1.246887  1063A      1.247834  
    1064A      1.248574  1065A      1.251052  1066A      1.251663  
    1067A      1.252505  1068A      1.254458  1069A      1.254781  
    1070A      1.257036  1071A      1.257650  1072A      1.260736  
    1073A      1.262068  1074A      1.262588  1075A      1.263266  
    1076A      1.265852  1077A      1.266815  1078A      1.267197  
    1079A      1.268740  1080A      1.269621  1081A      1.270754  
    1082A      1.271800  1083A      1.272399  1084A      1.274487  
    1085A      1.277582  1086A      1.277946  1087A      1.278644  
    1088A      1.279259  1089A      1.281263  1090A      1.281847  
    1091A      1.282835  1092A      1.285589  1093A      1.285697  
    1094A      1.286588  1095A      1.289261  1096A      1.290058  
    1097A      1.291717  1098A      1.292129  1099A      1.294618  
    1100A      1.295816  1101A      1.296890  1102A      1.299188  
    1103A      1.299643  1104A      1.302791  1105A      1.304800  
    1106A      1.307080  1107A      1.308722  1108A      1.310524  
    1109A      1.310796  1110A      1.311501  1111A      1.312910  
    1112A      1.313746  1113A      1.314335  1114A      1.316880  
    1115A      1.317658  1116A      1.319500  1117A      1.319742  
    1118A      1.322442  1119A      1.323356  1120A      1.324090  
    1121A      1.325767  1122A      1.326625  1123A      1.327682  
    1124A      1.328576  1125A      1.329435  1126A      1.331118  
    1127A      1.331903  1128A      1.334842  1129A      1.334942  
    1130A      1.337723  1131A      1.338524  1132A      1.338758  
    1133A      1.341125  1134A      1.342431  1135A      1.343422  
    1136A      1.345033  1137A      1.345889  1138A      1.348360  
    1139A      1.349143  1140A      1.350201  1141A      1.352851  
    1142A      1.355273  1143A      1.355879  1144A      1.357424  
    1145A      1.358066  1146A      1.359430  1147A      1.361898  
    1148A      1.362166  1149A      1.363237  1150A      1.363665  
    1151A      1.364641  1152A      1.367694  1153A      1.368549  
    1154A      1.370451  1155A      1.372019  1156A      1.373574  
    1157A      1.374143  1158A      1.375344  1159A      1.376912  
    1160A      1.377739  1161A      1.378826  1162A      1.379485  
    1163A      1.380963  1164A      1.381618  1165A      1.382938  
    1166A      1.383770  1167A      1.384830  1168A      1.385379  
    1169A      1.386593  1170A      1.388318  1171A      1.388523  
    1172A      1.389781  1173A      1.391413  1174A      1.392028  
    1175A      1.393893  1176A      1.394470  1177A      1.396184  
    1178A      1.397699  1179A      1.398322  1180A      1.399928  
    1181A      1.402268  1182A      1.404108  1183A      1.405245  
    1184A      1.406295  1185A      1.407080  1186A      1.409379  
    1187A      1.409659  1188A      1.410433  1189A      1.411988  
    1190A      1.413428  1191A      1.413999  1192A      1.416908  
    1193A      1.417265  1194A      1.418307  1195A      1.419757  
    1196A      1.421346  1197A      1.422748  1198A      1.424378  
    1199A      1.425838  1200A      1.427981  1201A      1.428519  
    1202A      1.432169  1203A      1.434195  1204A      1.435303  
    1205A      1.436019  1206A      1.437559  1207A      1.440090  
    1208A      1.442766  1209A      1.443003  1210A      1.444712  
    1211A      1.446906  1212A      1.448095  1213A      1.450592  
    1214A      1.452366  1215A      1.453888  1216A      1.454266  
    1217A      1.455661  1218A      1.457513  1219A      1.458170  
    1220A      1.459644  1221A      1.461152  1222A      1.462257  
    1223A      1.465619  1224A      1.466682  1225A      1.467401  
    1226A      1.469606  1227A      1.471231  1228A      1.472092  
    1229A      1.472616  1230A      1.475853  1231A      1.477208  
    1232A      1.478810  1233A      1.479599  1234A      1.481751  
    1235A      1.483912  1236A      1.485268  1237A      1.487474  
    1238A      1.488629  1239A      1.489837  1240A      1.492016  
    1241A      1.494042  1242A      1.496115  1243A      1.497671  
    1244A      1.501641  1245A      1.502339  1246A      1.504328  
    1247A      1.505415  1248A      1.507174  1249A      1.508756  
    1250A      1.510061  1251A      1.511044  1252A      1.511735  
    1253A      1.512266  1254A      1.514230  1255A      1.517371  
    1256A      1.519643  1257A      1.521020  1258A      1.521747  
    1259A      1.524589  1260A      1.526614  1261A      1.528431  
    1262A      1.529459  1263A      1.530903  1264A      1.533778  
    1265A      1.534325  1266A      1.535483  1267A      1.536558  
    1268A      1.538358  1269A      1.539238  1270A      1.541451  
    1271A      1.543207  1272A      1.543871  1273A      1.545007  
    1274A      1.546089  1275A      1.548285  1276A      1.549960  
    1277A      1.550689  1278A      1.551358  1279A      1.553236  
    1280A      1.555596  1281A      1.556147  1282A      1.557507  
    1283A      1.558242  1284A      1.559452  1285A      1.560638  
    1286A      1.561719  1287A      1.564295  1288A      1.565134  
    1289A      1.567021  1290A      1.568526  1291A      1.569997  
    1292A      1.570921  1293A      1.571460  1294A      1.572304  
    1295A      1.573390  1296A      1.576589  1297A      1.578579  
    1298A      1.579241  1299A      1.581906  1300A      1.582834  
    1301A      1.584333  1302A      1.585509  1303A      1.587854  
    1304A      1.589346  1305A      1.590932  1306A      1.592794  
    1307A      1.594297  1308A      1.595327  1309A      1.596923  
    1310A      1.597758  1311A      1.599398  1312A      1.599670  
    1313A      1.601661  1314A      1.602668  1315A      1.604237  
    1316A      1.605371  1317A      1.606867  1318A      1.607420  
    1319A      1.607668  1320A      1.610586  1321A      1.611829  
    1322A      1.613612  1323A      1.615460  1324A      1.616128  
    1325A      1.617936  1326A      1.618022  1327A      1.620318  
    1328A      1.621267  1329A      1.621907  1330A      1.624022  
    1331A      1.624520  1332A      1.626121  1333A      1.627150  
    1334A      1.628185  1335A      1.629117  1336A      1.631871  
    1337A      1.632288  1338A      1.633812  1339A      1.635770  
    1340A      1.636968  1341A      1.638670  1342A      1.640800  
    1343A      1.641898  1344A      1.642902  1345A      1.644185  
    1346A      1.645631  1347A      1.646399  1348A      1.647966  
    1349A      1.648541  1350A      1.650793  1351A      1.651759  
    1352A      1.652138  1353A      1.654684  1354A      1.656520  
    1355A      1.657283  1356A      1.659209  1357A      1.660255  
    1358A      1.661098  1359A      1.662569  1360A      1.664248  
    1361A      1.665595  1362A      1.666527  1363A      1.668049  
    1364A      1.669689  1365A      1.670297  1366A      1.671860  
    1367A      1.673325  1368A      1.677146  1369A      1.678248  
    1370A      1.678954  1371A      1.679682  1372A      1.680712  
    1373A      1.682029  1374A      1.683892  1375A      1.684444  
    1376A      1.686534  1377A      1.687202  1378A      1.688287  
    1379A      1.689297  1380A      1.691135  1381A      1.692031  
    1382A      1.693507  1383A      1.696239  1384A      1.696674  
    1385A      1.698282  1386A      1.698552  1387A      1.700091  
    1388A      1.701759  1389A      1.702979  1390A      1.704295  
    1391A      1.705057  1392A      1.705630  1393A      1.706634  
    1394A      1.707520  1395A      1.709500  1396A      1.710878  
    1397A      1.711552  1398A      1.712649  1399A      1.714346  
    1400A      1.714540  1401A      1.715970  1402A      1.717621  
    1403A      1.720569  1404A      1.720803  1405A      1.722979  
    1406A      1.723864  1407A      1.724860  1408A      1.725942  
    1409A      1.728401  1410A      1.729570  1411A      1.730254  
    1412A      1.731173  1413A      1.731660  1414A      1.732741  
    1415A      1.734753  1416A      1.735225  1417A      1.735939  
    1418A      1.736969  1419A      1.739071  1420A      1.740678  
    1421A      1.741437  1422A      1.742984  1423A      1.744160  
    1424A      1.745018  1425A      1.745822  1426A      1.746878  
    1427A      1.750258  1428A      1.750758  1429A      1.752349  
    1430A      1.753422  1431A      1.755199  1432A      1.756076  
    1433A      1.757378  1434A      1.758061  1435A      1.759716  
    1436A      1.760395  1437A      1.761442  1438A      1.762358  
    1439A      1.763553  1440A      1.764964  1441A      1.766845  
    1442A      1.767936  1443A      1.768647  1444A      1.770408  
    1445A      1.773151  1446A      1.774370  1447A      1.776382  
    1448A      1.776771  1449A      1.779652  1450A      1.780906  
    1451A      1.782404  1452A      1.783369  1453A      1.784732  
    1454A      1.785496  1455A      1.787143  1456A      1.788586  
    1457A      1.791092  1458A      1.791779  1459A      1.793587  
    1460A      1.795450  1461A      1.796762  1462A      1.799430  
    1463A      1.799703  1464A      1.803061  1465A      1.804615  
    1466A      1.805430  1467A      1.805968  1468A      1.807560  
    1469A      1.809320  1470A      1.810971  1471A      1.811775  
    1472A      1.812142  1473A      1.814552  1474A      1.815074  
    1475A      1.819553  1476A      1.820179  1477A      1.822447  
    1478A      1.823758  1479A      1.825527  1480A      1.826273  
    1481A      1.827560  1482A      1.827786  1483A      1.829478  
    1484A      1.830200  1485A      1.830989  1486A      1.832612  
    1487A      1.833318  1488A      1.834691  1489A      1.836667  
    1490A      1.837149  1491A      1.838780  1492A      1.841926  
    1493A      1.843186  1494A      1.843584  1495A      1.844617  
    1496A      1.846826  1497A      1.848188  1498A      1.849529  
    1499A      1.851857  1500A      1.853830  1501A      1.854722  
    1502A      1.857988  1503A      1.858759  1504A      1.860873  
    1505A      1.862902  1506A      1.863359  1507A      1.865402  
    1508A      1.867244  1509A      1.869161  1510A      1.870624  
    1511A      1.872779  1512A      1.874669  1513A      1.874921  
    1514A      1.875890  1515A      1.876943  1516A      1.878246  
    1517A      1.879689  1518A      1.880504  1519A      1.881595  
    1520A      1.884318  1521A      1.886236  1522A      1.887522  
    1523A      1.890705  1524A      1.892994  1525A      1.894598  
    1526A      1.895633  1527A      1.897131  1528A      1.898881  
    1529A      1.901252  1530A      1.901827  1531A      1.903492  
    1532A      1.904925  1533A      1.908735  1534A      1.909771  
    1535A      1.910924  1536A      1.912057  1537A      1.913309  
    1538A      1.916755  1539A      1.918273  1540A      1.918663  
    1541A      1.920678  1542A      1.922227  1543A      1.923763  
    1544A      1.926186  1545A      1.927253  1546A      1.928784  
    1547A      1.930379  1548A      1.932601  1549A      1.936581  
    1550A      1.939935  1551A      1.940533  1552A      1.941274  
    1553A      1.943858  1554A      1.945337  1555A      1.947414  
    1556A      1.949466  1557A      1.950882  1558A      1.951707  
    1559A      1.954037  1560A      1.955230  1561A      1.957363  
    1562A      1.959914  1563A      1.960723  1564A      1.961973  
    1565A      1.963019  1566A      1.965854  1567A      1.966401  
    1568A      1.967584  1569A      1.971765  1570A      1.973729  
    1571A      1.974446  1572A      1.975849  1573A      1.977224  
    1574A      1.978100  1575A      1.980067  1576A      1.982228  
    1577A      1.983458  1578A      1.983915  1579A      1.985713  
    1580A      1.987705  1581A      1.990156  1582A      1.991435  
    1583A      1.996032  1584A      1.997047  1585A      1.998037  
    1586A      1.999859  1587A      2.001812  1588A      2.002445  
    1589A      2.004560  1590A      2.005894  1591A      2.006519  
    1592A      2.007178  1593A      2.008859  1594A      2.010790  
    1595A      2.015136  1596A      2.016417  1597A      2.017031  
    1598A      2.018590  1599A      2.020315  1600A      2.023519  
    1601A      2.025358  1602A      2.026017  1603A      2.028374  
    1604A      2.029377  1605A      2.030673  1606A      2.031077  
    1607A      2.031676  1608A      2.033474  1609A      2.034314  
    1610A      2.037921  1611A      2.040658  1612A      2.041229  
    1613A      2.041574  1614A      2.045056  1615A      2.046053  
    1616A      2.048455  1617A      2.051811  1618A      2.053428  
    1619A      2.053927  1620A      2.056968  1621A      2.058815  
    1622A      2.060013  1623A      2.061677  1624A      2.062863  
    1625A      2.063279  1626A      2.064348  1627A      2.067368  
    1628A      2.068444  1629A      2.070289  1630A      2.071012  
    1631A      2.072839  1632A      2.073785  1633A      2.076855  
    1634A      2.077390  1635A      2.078967  1636A      2.081080  
    1637A      2.083157  1638A      2.084442  1639A      2.085155  
    1640A      2.086829  1641A      2.087632  1642A      2.091356  
    1643A      2.092547  1644A      2.093263  1645A      2.096670  
    1646A      2.097966  1647A      2.100035  1648A      2.100443  
    1649A      2.104696  1650A      2.104712  1651A      2.105046  
    1652A      2.105554  1653A      2.108241  1654A      2.110070  
    1655A      2.110502  1656A      2.113760  1657A      2.114869  
    1658A      2.116405  1659A      2.117408  1660A      2.120317  
    1661A      2.121579  1662A      2.122823  1663A      2.123922  
    1664A      2.125903  1665A      2.127796  1666A      2.129000  
    1667A      2.130752  1668A      2.135570  1669A      2.136074  
    1670A      2.137797  1671A      2.138191  1672A      2.140737  
    1673A      2.145243  1674A      2.146118  1675A      2.147753  
    1676A      2.148851  1677A      2.150910  1678A      2.154373  
    1679A      2.156397  1680A      2.158298  1681A      2.159618  
    1682A      2.161973  1683A      2.163582  1684A      2.166916  
    1685A      2.167779  1686A      2.171239  1687A      2.172807  
    1688A      2.175827  1689A      2.176754  1690A      2.180294  
    1691A      2.181915  1692A      2.185245  1693A      2.187046  
    1694A      2.189946  1695A      2.191762  1696A      2.192467  
    1697A      2.193961  1698A      2.196396  1699A      2.198392  
    1700A      2.201703  1701A      2.203718  1702A      2.204957  
    1703A      2.207672  1704A      2.210967  1705A      2.211701  
    1706A      2.213600  1707A      2.215352  1708A      2.219207  
    1709A      2.221332  1710A      2.223032  1711A      2.224013  
    1712A      2.226343  1713A      2.227794  1714A      2.229904  
    1715A      2.233590  1716A      2.234499  1717A      2.235118  
    1718A      2.237692  1719A      2.239127  1720A      2.241188  
    1721A      2.244805  1722A      2.245963  1723A      2.248042  
    1724A      2.251592  1725A      2.252465  1726A      2.254289  
    1727A      2.254818  1728A      2.257263  1729A      2.257993  
    1730A      2.260751  1731A      2.262003  1732A      2.264784  
    1733A      2.266346  1734A      2.267898  1735A      2.271074  
    1736A      2.272232  1737A      2.273158  1738A      2.273535  
    1739A      2.276509  1740A      2.278424  1741A      2.279329  
    1742A      2.280452  1743A      2.282425  1744A      2.284017  
    1745A      2.286504  1746A      2.288492  1747A      2.289539  
    1748A      2.294214  1749A      2.296538  1750A      2.299358  
    1751A      2.301742  1752A      2.303289  1753A      2.304376  
    1754A      2.307728  1755A      2.309042  1756A      2.310087  
    1757A      2.311410  1758A      2.314343  1759A      2.315180  
    1760A      2.317211  1761A      2.318461  1762A      2.322484  
    1763A      2.324128  1764A      2.327471  1765A      2.327526  
    1766A      2.329901  1767A      2.332321  1768A      2.333940  
    1769A      2.335049  1770A      2.336916  1771A      2.340062  
    1772A      2.342514  1773A      2.343115  1774A      2.345796  
    1775A      2.347488  1776A      2.348421  1777A      2.350365  
    1778A      2.354960  1779A      2.355308  1780A      2.357101  
    1781A      2.357647  1782A      2.359539  1783A      2.360903  
    1784A      2.362860  1785A      2.364655  1786A      2.365064  
    1787A      2.366809  1788A      2.367578  1789A      2.368167  
    1790A      2.370043  1791A      2.371230  1792A      2.373235  
    1793A      2.375858  1794A      2.378336  1795A      2.379453  
    1796A      2.383951  1797A      2.384512  1798A      2.385421  
    1799A      2.387240  1800A      2.388373  1801A      2.393266  
    1802A      2.394850  1803A      2.395654  1804A      2.398084  
    1805A      2.402064  1806A      2.402754  1807A      2.403292  
    1808A      2.406999  1809A      2.408012  1810A      2.409845  
    1811A      2.411529  1812A      2.415843  1813A      2.416446  
    1814A      2.417847  1815A      2.418700  1816A      2.420788  
    1817A      2.420958  1818A      2.422212  1819A      2.423293  
    1820A      2.426205  1821A      2.428895  1822A      2.430138  
    1823A      2.431500  1824A      2.433746  1825A      2.435336  
    1826A      2.436450  1827A      2.438473  1828A      2.441039  
    1829A      2.443987  1830A      2.445440  1831A      2.447180  
    1832A      2.449104  1833A      2.450704  1834A      2.454275  
    1835A      2.456718  1836A      2.457531  1837A      2.460803  
    1838A      2.462015  1839A      2.462984  1840A      2.464457  
    1841A      2.467103  1842A      2.468792  1843A      2.471450  
    1844A      2.474160  1845A      2.477911  1846A      2.480250  
    1847A      2.480792  1848A      2.482106  1849A      2.483971  
    1850A      2.486931  1851A      2.487919  1852A      2.490005  
    1853A      2.492260  1854A      2.494980  1855A      2.498789  
    1856A      2.500174  1857A      2.501594  1858A      2.503618  
    1859A      2.505569  1860A      2.507075  1861A      2.511147  
    1862A      2.515284  1863A      2.518665  1864A      2.519998  
    1865A      2.522925  1866A      2.525210  1867A      2.527080  
    1868A      2.530389  1869A      2.531769  1870A      2.537539  
    1871A      2.538884  1872A      2.540768  1873A      2.543014  
    1874A      2.548304  1875A      2.552624  1876A      2.555851  
    1877A      2.556588  1878A      2.557989  1879A      2.560267  
    1880A      2.563054  1881A      2.564322  1882A      2.568099  
    1883A      2.569815  1884A      2.571588  1885A      2.575092  
    1886A      2.575706  1887A      2.579028  1888A      2.579769  
    1889A      2.583291  1890A      2.587212  1891A      2.590356  
    1892A      2.593902  1893A      2.594653  1894A      2.597701  
    1895A      2.600395  1896A      2.601005  1897A      2.601685  
    1898A      2.604088  1899A      2.608032  1900A      2.608910  
    1901A      2.613488  1902A      2.616016  1903A      2.617437  
    1904A      2.622142  1905A      2.624312  1906A      2.627697  
    1907A      2.630517  1908A      2.631975  1909A      2.632459  
    1910A      2.636355  1911A      2.638923  1912A      2.641561  
    1913A      2.643047  1914A      2.647976  1915A      2.649287  
    1916A      2.654281  1917A      2.654862  1918A      2.657434  
    1919A      2.658646  1920A      2.663618  1921A      2.667945  
    1922A      2.675724  1923A      2.677106  1924A      2.681658  
    1925A      2.685286  1926A      2.686526  1927A      2.687788  
    1928A      2.689880  1929A      2.691819  1930A      2.692722  
    1931A      2.697398  1932A      2.698730  1933A      2.703341  
    1934A      2.706615  1935A      2.707719  1936A      2.709954  
    1937A      2.713052  1938A      2.716264  1939A      2.716434  
    1940A      2.718904  1941A      2.722034  1942A      2.727487  
    1943A      2.729874  1944A      2.735098  1945A      2.736628  
    1946A      2.738599  1947A      2.739716  1948A      2.743637  
    1949A      2.745639  1950A      2.750222  1951A      2.752584  
    1952A      2.754551  1953A      2.759309  1954A      2.761439  
    1955A      2.762179  1956A      2.763659  1957A      2.766132  
    1958A      2.769253  1959A      2.772650  1960A      2.776329  
    1961A      2.780107  1962A      2.783051  1963A      2.785687  
    1964A      2.788387  1965A      2.791338  1966A      2.794765  
    1967A      2.800245  1968A      2.802060  1969A      2.806104  
    1970A      2.808816  1971A      2.812014  1972A      2.814287  
    1973A      2.816608  1974A      2.816955  1975A      2.819259  
    1976A      2.819838  1977A      2.823073  1978A      2.824614  
    1979A      2.826716  1980A      2.832133  1981A      2.836117  
    1982A      2.836427  1983A      2.838452  1984A      2.839915  
    1985A      2.843084  1986A      2.846315  1987A      2.848389  
    1988A      2.850418  1989A      2.852916  1990A      2.854417  
    1991A      2.860860  1992A      2.861616  1993A      2.864888  
    1994A      2.869946  1995A      2.872526  1996A      2.873028  
    1997A      2.875023  1998A      2.878930  1999A      2.881682  
    2000A      2.885654  2001A      2.886870  2002A      2.889323  
    2003A      2.895622  2004A      2.897905  2005A      2.899216  
    2006A      2.905332  2007A      2.906594  2008A      2.907002  
    2009A      2.910066  2010A      2.911243  2011A      2.914737  
    2012A      2.916403  2013A      2.918962  2014A      2.923479  
    2015A      2.925227  2016A      2.929722  2017A      2.931269  
    2018A      2.933688  2019A      2.937212  2020A      2.938283  
    2021A      2.940127  2022A      2.944774  2023A      2.947431  
    2024A      2.949748  2025A      2.951720  2026A      2.953029  
    2027A      2.955144  2028A      2.959419  2029A      2.960216  
    2030A      2.964158  2031A      2.969371  2032A      2.977110  
    2033A      2.980764  2034A      2.986652  2035A      2.989723  
    2036A      2.993534  2037A      2.996746  2038A      2.999031  
    2039A      3.002812  2040A      3.005774  2041A      3.012767  
    2042A      3.017100  2043A      3.018420  2044A      3.024542  
    2045A      3.034652  2046A      3.039562  2047A      3.043809  
    2048A      3.046981  2049A      3.052015  2050A      3.057689  
    2051A      3.061978  2052A      3.065101  2053A      3.067982  
    2054A      3.071066  2055A      3.077374  2056A      3.078702  
    2057A      3.081889  2058A      3.084105  2059A      3.087428  
    2060A      3.091485  2061A      3.092952  2062A      3.098225  
    2063A      3.102499  2064A      3.104201  2065A      3.105823  
    2066A      3.107802  2067A      3.110447  2068A      3.116771  
    2069A      3.125420  2070A      3.126641  2071A      3.128195  
    2072A      3.131500  2073A      3.143793  2074A      3.152098  
    2075A      3.155260  2076A      3.160549  2077A      3.163174  
    2078A      3.177794  2079A      3.180357  2080A      3.183009  
    2081A      3.185756  2082A      3.187865  2083A      3.198776  
    2084A      3.202319  2085A      3.207958  2086A      3.212601  
    2087A      3.223126  2088A      3.224477  2089A      3.234394  
    2090A      3.241395  2091A      3.246883  2092A      3.251939  
    2093A      3.260038  2094A      3.266988  2095A      3.272214  
    2096A      3.274338  2097A      3.282482  2098A      3.288698  
    2099A      3.293523  2100A      3.306041  2101A      3.307820  
    2102A      3.313088  2103A      3.317596  2104A      3.323619  
    2105A      3.325564  2106A      3.327467  2107A      3.332803  
    2108A      3.334123  2109A      3.336268  2110A      3.339808  
    2111A      3.342230  2112A      3.349081  2113A      3.355492  
    2114A      3.359256  2115A      3.364255  2116A      3.374190  
    2117A      3.377931  2118A      3.383057  2119A      3.386873  
    2120A      3.390301  2121A      3.393127  2122A      3.395079  
    2123A      3.399575  2124A      3.404440  2125A      3.406903  
    2126A      3.408683  2127A      3.410433  2128A      3.414220  
    2129A      3.416047  2130A      3.420131  2131A      3.420897  
    2132A      3.427844  2133A      3.433066  2134A      3.442277  
    2135A      3.446232  2136A      3.449754  2137A      3.454793  
    2138A      3.455905  2139A      3.459861  2140A      3.462424  
    2141A      3.465809  2142A      3.467913  2143A      3.480127  
    2144A      3.480436  2145A      3.484555  2146A      3.487211  
    2147A      3.488017  2148A      3.491440  2149A      3.496561  
    2150A      3.498326  2151A      3.501935  2152A      3.504744  
    2153A      3.504984  2154A      3.512722  2155A      3.514132  
    2156A      3.516990  2157A      3.522386  2158A      3.524953  
    2159A      3.532387  2160A      3.534410  2161A      3.538714  
    2162A      3.541933  2163A      3.547570  2164A      3.549790  
    2165A      3.551405  2166A      3.557749  2167A      3.558958  
    2168A      3.563613  2169A      3.566485  2170A      3.569156  
    2171A      3.571640  2172A      3.581959  2173A      3.583410  
    2174A      3.587418  2175A      3.589499  2176A      3.594496  
    2177A      3.600071  2178A      3.610260  2179A      3.611948  
    2180A      3.615556  2181A      3.617142  2182A      3.619250  
    2183A      3.621011  2184A      3.623856  2185A      3.634291  
    2186A      3.635598  2187A      3.639241  2188A      3.641389  
    2189A      3.643413  2190A      3.647233  2191A      3.650283  
    2192A      3.652467  2193A      3.654992  2194A      3.659890  
    2195A      3.662364  2196A      3.663343  2197A      3.668694  
    2198A      3.673155  2199A      3.685071  2200A      3.688620  
    2201A      3.690952  2202A      3.691817  2203A      3.692967  
    2204A      3.698426  2205A      3.702214  2206A      3.707115  
    2207A      3.711679  2208A      3.713473  2209A      3.721796  
    2210A      3.724200  2211A      3.729980  2212A      3.732688  
    2213A      3.734211  2214A      3.735729  2215A      3.737768  
    2216A      3.742568  2217A      3.747951  2218A      3.752933  
    2219A      3.757790  2220A      3.761153  2221A      3.762688  
    2222A      3.766674  2223A      3.769517  2224A      3.770606  
    2225A      3.773016  2226A      3.774704  2227A      3.776616  
    2228A      3.781665  2229A      3.785215  2230A      3.788703  
    2231A      3.791254  2232A      3.798481  2233A      3.803844  
    2234A      3.804754  2235A      3.805974  2236A      3.808158  
    2237A      3.810296  2238A      3.814067  2239A      3.815467  
    2240A      3.816424  2241A      3.817743  2242A      3.820986  
    2243A      3.821882  2244A      3.825653  2245A      3.828735  
    2246A      3.833287  2247A      3.834196  2248A      3.836588  
    2249A      3.840628  2250A      3.842252  2251A      3.844136  
    2252A      3.848613  2253A      3.853158  2254A      3.854767  
    2255A      3.859747  2256A      3.863996  2257A      3.864926  
    2258A      3.866684  2259A      3.870193  2260A      3.872441  
    2261A      3.880756  2262A      3.880961  2263A      3.885255  
    2264A      3.888440  2265A      3.893938  2266A      3.898317  
    2267A      3.901338  2268A      3.901918  2269A      3.905998  
    2270A      3.909039  2271A      3.910760  2272A      3.913091  
    2273A      3.917722  2274A      3.921022  2275A      3.922277  
    2276A      3.924993  2277A      3.929239  2278A      3.931213  
    2279A      3.934948  2280A      3.935726  2281A      3.942727  
    2282A      3.947155  2283A      3.948278  2284A      3.950641  
    2285A      3.952218  2286A      3.954036  2287A      3.958221  
    2288A      3.963097  2289A      3.965103  2290A      3.970679  
    2291A      3.972497  2292A      3.975845  2293A      3.981104  
    2294A      3.983107  2295A      3.987548  2296A      3.992375  
    2297A      3.996863  2298A      3.999940  2299A      4.002270  
    2300A      4.003791  2301A      4.009084  2302A      4.014260  
    2303A      4.015814  2304A      4.017415  2305A      4.021598  
    2306A      4.025157  2307A      4.026574  2308A      4.029764  
    2309A      4.030106  2310A      4.032155  2311A      4.037855  
    2312A      4.039035  2313A      4.044454  2314A      4.048735  
    2315A      4.050793  2316A      4.051684  2317A      4.054531  
    2318A      4.060694  2319A      4.063988  2320A      4.070210  
    2321A      4.080781  2322A      4.083310  2323A      4.089263  
    2324A      4.093496  2325A      4.093548  2326A      4.095244  
    2327A      4.100020  2328A      4.104519  2329A      4.105821  
    2330A      4.110834  2331A      4.116868  2332A      4.120725  
    2333A      4.124068  2334A      4.126042  2335A      4.126801  
    2336A      4.132047  2337A      4.139735  2338A      4.144296  
    2339A      4.146320  2340A      4.148500  2341A      4.151437  
    2342A      4.156173  2343A      4.157363  2344A      4.160491  
    2345A      4.163785  2346A      4.166986  2347A      4.169050  
    2348A      4.172112  2349A      4.172748  2350A      4.174878  
    2351A      4.176983  2352A      4.183706  2353A      4.188528  
    2354A      4.192373  2355A      4.195927  2356A      4.197180  
    2357A      4.198264  2358A      4.201289  2359A      4.206101  
    2360A      4.206452  2361A      4.212625  2362A      4.214144  
    2363A      4.214950  2364A      4.217787  2365A      4.221906  
    2366A      4.225490  2367A      4.225833  2368A      4.232052  
    2369A      4.233115  2370A      4.238720  2371A      4.239442  
    2372A      4.242416  2373A      4.243531  2374A      4.245675  
    2375A      4.248505  2376A      4.253808  2377A      4.254166  
    2378A      4.254708  2379A      4.260114  2380A      4.262591  
    2381A      4.266200  2382A      4.269139  2383A      4.274262  
    2384A      4.276217  2385A      4.277752  2386A      4.281400  
    2387A      4.282331  2388A      4.287672  2389A      4.292035  
    2390A      4.294103  2391A      4.295869  2392A      4.300153  
    2393A      4.301229  2394A      4.303805  2395A      4.307040  
    2396A      4.309678  2397A      4.311067  2398A      4.313582  
    2399A      4.319115  2400A      4.320860  2401A      4.322022  
    2402A      4.323085  2403A      4.326096  2404A      4.326475  
    2405A      4.330485  2406A      4.331287  2407A      4.334162  
    2408A      4.337165  2409A      4.338300  2410A      4.341905  
    2411A      4.342196  2412A      4.343653  2413A      4.344776  
    2414A      4.347142  2415A      4.350004  2416A      4.351496  
    2417A      4.354270  2418A      4.355486  2419A      4.360131  
    2420A      4.363291  2421A      4.365256  2422A      4.366608  
    2423A      4.368985  2424A      4.370417  2425A      4.373801  
    2426A      4.374409  2427A      4.375424  2428A      4.378385  
    2429A      4.380535  2430A      4.382158  2431A      4.383069  
    2432A      4.385818  2433A      4.389528  2434A      4.391329  
    2435A      4.392383  2436A      4.393727  2437A      4.396751  
    2438A      4.399035  2439A      4.400530  2440A      4.408260  
    2441A      4.409756  2442A      4.410681  2443A      4.413429  
    2444A      4.416487  2445A      4.418093  2446A      4.419627  
    2447A      4.420137  2448A      4.424034  2449A      4.428806  
    2450A      4.433739  2451A      4.434855  2452A      4.438166  
    2453A      4.439411  2454A      4.440723  2455A      4.444206  
    2456A      4.447321  2457A      4.450329  2458A      4.451409  
    2459A      4.455780  2460A      4.458062  2461A      4.458600  
    2462A      4.461870  2463A      4.463802  2464A      4.465353  
    2465A      4.471012  2466A      4.471564  2467A      4.475675  
    2468A      4.477967  2469A      4.479314  2470A      4.480538  
    2471A      4.482762  2472A      4.484087  2473A      4.487840  
    2474A      4.489052  2475A      4.492653  2476A      4.494458  
    2477A      4.495441  2478A      4.497039  2479A      4.501137  
    2480A      4.502419  2481A      4.504450  2482A      4.508692  
    2483A      4.509756  2484A      4.511752  2485A      4.513888  
    2486A      4.517590  2487A      4.518363  2488A      4.521585  
    2489A      4.524820  2490A      4.525509  2491A      4.529908  
    2492A      4.535726  2493A      4.537978  2494A      4.539034  
    2495A      4.541196  2496A      4.543028  2497A      4.544241  
    2498A      4.546193  2499A      4.547412  2500A      4.549762  
    2501A      4.550703  2502A      4.553740  2503A      4.554007  
    2504A      4.556288  2505A      4.559212  2506A      4.560260  
    2507A      4.563086  2508A      4.564610  2509A      4.567441  
    2510A      4.569277  2511A      4.571919  2512A      4.576704  
    2513A      4.578173  2514A      4.580244  2515A      4.582693  
    2516A      4.587543  2517A      4.592552  2518A      4.599061  
    2519A      4.600919  2520A      4.601207  2521A      4.607303  
    2522A      4.609096  2523A      4.609892  2524A      4.611761  
    2525A      4.614737  2526A      4.615201  2527A      4.616829  
    2528A      4.618592  2529A      4.620395  2530A      4.621840  
    2531A      4.625169  2532A      4.626263  2533A      4.627773  
    2534A      4.629929  2535A      4.633594  2536A      4.637637  
    2537A      4.638788  2538A      4.640712  2539A      4.644460  
    2540A      4.650438  2541A      4.653057  2542A      4.656340  
    2543A      4.658500  2544A      4.660269  2545A      4.664040  
    2546A      4.667324  2547A      4.669931  2548A      4.672285  
    2549A      4.678082  2550A      4.678951  2551A      4.683564  
    2552A      4.684027  2553A      4.689276  2554A      4.692211  
    2555A      4.698216  2556A      4.699528  2557A      4.701686  
    2558A      4.703973  2559A      4.706348  2560A      4.710969  
    2561A      4.712538  2562A      4.714510  2563A      4.716353  
    2564A      4.720312  2565A      4.723735  2566A      4.725794  
    2567A      4.727498  2568A      4.731150  2569A      4.734861  
    2570A      4.735408  2571A      4.738389  2572A      4.741998  
    2573A      4.748034  2574A      4.749700  2575A      4.750668  
    2576A      4.754841  2577A      4.756603  2578A      4.758049  
    2579A      4.760116  2580A      4.762615  2581A      4.765475  
    2582A      4.768913  2583A      4.771648  2584A      4.774411  
    2585A      4.776701  2586A      4.778248  2587A      4.780621  
    2588A      4.783792  2589A      4.787278  2590A      4.790833  
    2591A      4.791737  2592A      4.793161  2593A      4.800091  
    2594A      4.802891  2595A      4.804430  2596A      4.808193  
    2597A      4.808919  2598A      4.815145  2599A      4.818511  
    2600A      4.823024  2601A      4.826284  2602A      4.828523  
    2603A      4.828815  2604A      4.833325  2605A      4.835558  
    2606A      4.838987  2607A      4.843420  2608A      4.848185  
    2609A      4.849635  2610A      4.851630  2611A      4.852696  
    2612A      4.855523  2613A      4.863013  2614A      4.863467  
    2615A      4.867555  2616A      4.869119  2617A      4.871586  
    2618A      4.873080  2619A      4.874133  2620A      4.878439  
    2621A      4.881235  2622A      4.884250  2623A      4.884522  
    2624A      4.889120  2625A      4.889926  2626A      4.892793  
    2627A      4.894915  2628A      4.895758  2629A      4.899801  
    2630A      4.903873  2631A      4.905412  2632A      4.908189  
    2633A      4.910298  2634A      4.913702  2635A      4.915620  
    2636A      4.917026  2637A      4.922701  2638A      4.925157  
    2639A      4.927813  2640A      4.930770  2641A      4.935305  
    2642A      4.937635  2643A      4.941847  2644A      4.942823  
    2645A      4.944160  2646A      4.946475  2647A      4.949704  
    2648A      4.950585  2649A      4.955494  2650A      4.957359  
    2651A      4.958465  2652A      4.960819  2653A      4.964264  
    2654A      4.966028  2655A      4.968126  2656A      4.970090  
    2657A      4.974744  2658A      4.976383  2659A      4.978773  
    2660A      4.979669  2661A      4.980426  2662A      4.983806  
    2663A      4.986954  2664A      4.988406  2665A      4.991750  
    2666A      4.999081  2667A      5.000682  2668A      5.001552  
    2669A      5.003052  2670A      5.003964  2671A      5.009630  
    2672A      5.010205  2673A      5.014493  2674A      5.016631  
    2675A      5.017990  2676A      5.019881  2677A      5.021198  
    2678A      5.025400  2679A      5.027216  2680A      5.027909  
    2681A      5.031267  2682A      5.033506  2683A      5.035716  
    2684A      5.039182  2685A      5.040625  2686A      5.041617  
    2687A      5.044164  2688A      5.044928  2689A      5.048670  
    2690A      5.051362  2691A      5.052267  2692A      5.053375  
    2693A      5.054019  2694A      5.057566  2695A      5.058818  
    2696A      5.062264  2697A      5.063289  2698A      5.065632  
    2699A      5.066012  2700A      5.068100  2701A      5.070584  
    2702A      5.071853  2703A      5.072901  2704A      5.074045  
    2705A      5.076929  2706A      5.078682  2707A      5.080722  
    2708A      5.083180  2709A      5.084323  2710A      5.085701  
    2711A      5.088609  2712A      5.092551  2713A      5.094380  
    2714A      5.095031  2715A      5.096921  2716A      5.097984  
    2717A      5.100631  2718A      5.101422  2719A      5.102469  
    2720A      5.104443  2721A      5.106469  2722A      5.108276  
    2723A      5.109464  2724A      5.112828  2725A      5.113599  
    2726A      5.115003  2727A      5.117324  2728A      5.117580  
    2729A      5.118704  2730A      5.120291  2731A      5.122027  
    2732A      5.125289  2733A      5.126236  2734A      5.128156  
    2735A      5.128814  2736A      5.130052  2737A      5.132186  
    2738A      5.132632  2739A      5.133995  2740A      5.135438  
    2741A      5.136825  2742A      5.138952  2743A      5.142694  
    2744A      5.145146  2745A      5.145854  2746A      5.149682  
    2747A      5.150831  2748A      5.152705  2749A      5.153305  
    2750A      5.156457  2751A      5.158292  2752A      5.160227  
    2753A      5.160374  2754A      5.164230  2755A      5.166341  
    2756A      5.168847  2757A      5.172087  2758A      5.173809  
    2759A      5.175383  2760A      5.176914  2761A      5.179026  
    2762A      5.181001  2763A      5.183179  2764A      5.185754  
    2765A      5.188708  2766A      5.189298  2767A      5.191104  
    2768A      5.192634  2769A      5.193390  2770A      5.195725  
    2771A      5.198842  2772A      5.199562  2773A      5.204063  
    2774A      5.204764  2775A      5.207455  2776A      5.211846  
    2777A      5.212447  2778A      5.214506  2779A      5.214786  
    2780A      5.216355  2781A      5.219108  2782A      5.220805  
    2783A      5.222529  2784A      5.222746  2785A      5.226460  
    2786A      5.227849  2787A      5.232062  2788A      5.234884  
    2789A      5.236280  2790A      5.238001  2791A      5.242447  
    2792A      5.247090  2793A      5.250826  2794A      5.257059  
    2795A      5.262059  2796A      5.264560  2797A      5.267179  
    2798A      5.267786  2799A      5.274970  2800A      5.277701  
    2801A      5.278270  2802A      5.281351  2803A      5.283171  
    2804A      5.288437  2805A      5.292664  2806A      5.301350  
    2807A      5.304786  2808A      5.307788  2809A      5.312103  
    2810A      5.314141  2811A      5.315428  2812A      5.316726  
    2813A      5.318852  2814A      5.322342  2815A      5.324339  
    2816A      5.325440  2817A      5.327716  2818A      5.330647  
    2819A      5.333204  2820A      5.335558  2821A      5.336603  
    2822A      5.341003  2823A      5.341643  2824A      5.343666  
    2825A      5.345315  2826A      5.347750  2827A      5.348549  
    2828A      5.351176  2829A      5.353901  2830A      5.354461  
    2831A      5.356435  2832A      5.358357  2833A      5.359877  
    2834A      5.363471  2835A      5.363967  2836A      5.364589  
    2837A      5.367053  2838A      5.368871  2839A      5.371517  
    2840A      5.374210  2841A      5.375592  2842A      5.377310  
    2843A      5.381573  2844A      5.384553  2845A      5.386435  
    2846A      5.387744  2847A      5.389003  2848A      5.393008  
    2849A      5.393670  2850A      5.396577  2851A      5.399392  
    2852A      5.404774  2853A      5.408445  2854A      5.411734  
    2855A      5.413861  2856A      5.414275  2857A      5.416697  
    2858A      5.417197  2859A      5.420001  2860A      5.424275  
    2861A      5.427591  2862A      5.430083  2863A      5.431019  
    2864A      5.432975  2865A      5.436780  2866A      5.438555  
    2867A      5.440129  2868A      5.442005  2869A      5.444676  
    2870A      5.448207  2871A      5.448641  2872A      5.453624  
    2873A      5.454886  2874A      5.455975  2875A      5.457605  
    2876A      5.459811  2877A      5.462615  2878A      5.463747  
    2879A      5.465096  2880A      5.470610  2881A      5.473078  
    2882A      5.475301  2883A      5.479190  2884A      5.480286  
    2885A      5.480875  2886A      5.483193  2887A      5.484696  
    2888A      5.486355  2889A      5.491329  2890A      5.492139  
    2891A      5.493788  2892A      5.498493  2893A      5.504118  
    2894A      5.509598  2895A      5.512491  2896A      5.512972  
    2897A      5.520065  2898A      5.520634  2899A      5.524658  
    2900A      5.528876  2901A      5.530032  2902A      5.535757  
    2903A      5.536351  2904A      5.541459  2905A      5.544189  
    2906A      5.546460  2907A      5.550661  2908A      5.551666  
    2909A      5.556088  2910A      5.559923  2911A      5.561873  
    2912A      5.567972  2913A      5.570219  2914A      5.572846  
    2915A      5.576618  2916A      5.580874  2917A      5.583712  
    2918A      5.590353  2919A      5.594597  2920A      5.597227  
    2921A      5.598926  2922A      5.606894  2923A      5.609470  
    2924A      5.610692  2925A      5.613838  2926A      5.615440  
    2927A      5.617193  2928A      5.619833  2929A      5.621608  
    2930A      5.621733  2931A      5.622157  2932A      5.626683  
    2933A      5.629557  2934A      5.631794  2935A      5.633149  
    2936A      5.635581  2937A      5.637926  2938A      5.644423  
    2939A      5.647414  2940A      5.648226  2941A      5.651849  
    2942A      5.657002  2943A      5.661354  2944A      5.665253  
    2945A      5.668717  2946A      5.673523  2947A      5.677769  
    2948A      5.680797  2949A      5.681875  2950A      5.684038  
    2951A      5.685864  2952A      5.689621  2953A      5.692214  
    2954A      5.696324  2955A      5.702271  2956A      5.705127  
    2957A      5.708422  2958A      5.711569  2959A      5.713982  
    2960A      5.715707  2961A      5.721614  2962A      5.722593  
    2963A      5.723148  2964A      5.726597  2965A      5.732202  
    2966A      5.734509  2967A      5.736630  2968A      5.738470  
    2969A      5.741418  2970A      5.742738  2971A      5.744490  
    2972A      5.747532  2973A      5.750346  2974A      5.751179  
    2975A      5.756530  2976A      5.757784  2977A      5.760261  
    2978A      5.763834  2979A      5.766427  2980A      5.768270  
    2981A      5.769695  2982A      5.770563  2983A      5.775708  
    2984A      5.776444  2985A      5.778820  2986A      5.782860  
    2987A      5.785431  2988A      5.787168  2989A      5.789443  
    2990A      5.793657  2991A      5.795383  2992A      5.800241  
    2993A      5.804682  2994A      5.805474  2995A      5.808596  
    2996A      5.813307  2997A      5.815961  2998A      5.818146  
    2999A      5.820035  3000A      5.823313  3001A      5.824604  
    3002A      5.829571  3003A      5.831425  3004A      5.834544  
    3005A      5.835223  3006A      5.838948  3007A      5.839813  
    3008A      5.841731  3009A      5.845147  3010A      5.852578  
    3011A      5.854756  3012A      5.857418  3013A      5.858599  
    3014A      5.862827  3015A      5.866102  3016A      5.870473  
    3017A      5.872825  3018A      5.878231  3019A      5.883545  
    3020A      5.885993  3021A      5.888481  3022A      5.891104  
    3023A      5.895084  3024A      5.898720  3025A      5.899445  
    3026A      5.902918  3027A      5.907515  3028A      5.908368  
    3029A      5.909797  3030A      5.918090  3031A      5.918954  
    3032A      5.919709  3033A      5.922352  3034A      5.926080  
    3035A      5.927272  3036A      5.928662  3037A      5.932117  
    3038A      5.933436  3039A      5.937595  3040A      5.945534  
    3041A      5.948507  3042A      5.949975  3043A      5.952379  
    3044A      5.958924  3045A      5.960752  3046A      5.966123  
    3047A      5.967437  3048A      5.973748  3049A      5.979866  
    3050A      5.981366  3051A      5.983618  3052A      5.989008  
    3053A      5.991376  3054A      5.991585  3055A      5.996453  
    3056A      5.999637  3057A      6.002757  3058A      6.007258  
    3059A      6.008789  3060A      6.011529  3061A      6.013394  
    3062A      6.017262  3063A      6.022947  3064A      6.027236  
    3065A      6.028283  3066A      6.031988  3067A      6.032948  
    3068A      6.035539  3069A      6.037806  3070A      6.041893  
    3071A      6.044748  3072A      6.045675  3073A      6.049442  
    3074A      6.052367  3075A      6.055437  3076A      6.059651  
    3077A      6.062385  3078A      6.066814  3079A      6.067917  
    3080A      6.068665  3081A      6.073507  3082A      6.075765  
    3083A      6.077003  3084A      6.077864  3085A      6.082264  
    3086A      6.085331  3087A      6.088240  3088A      6.088652  
    3089A      6.094206  3090A      6.096840  3091A      6.100308  
    3092A      6.101331  3093A      6.102771  3094A      6.104227  
    3095A      6.108621  3096A      6.110091  3097A      6.112924  
    3098A      6.119069  3099A      6.121387  3100A      6.123421  
    3101A      6.125436  3102A      6.128607  3103A      6.130392  
    3104A      6.134987  3105A      6.137840  3106A      6.142870  
    3107A      6.144214  3108A      6.146369  3109A      6.150934  
    3110A      6.156217  3111A      6.158567  3112A      6.160179  
    3113A      6.165112  3114A      6.171134  3115A      6.176054  
    3116A      6.181853  3117A      6.186273  3118A      6.189983  
    3119A      6.191436  3120A      6.203831  3121A      6.208114  
    3122A      6.212641  3123A      6.215971  3124A      6.217829  
    3125A      6.223186  3126A      6.226247  3127A      6.226475  
    3128A      6.235397  3129A      6.238245  3130A      6.245747  
    3131A      6.247464  3132A      6.247699  3133A      6.255941  
    3134A      6.259154  3135A      6.266388  3136A      6.268804  
    3137A      6.280477  3138A      6.283304  3139A      6.285487  
    3140A      6.290732  3141A      6.291885  3142A      6.295711  
    3143A      6.311339  3144A      6.315392  3145A      6.327769  
    3146A      6.335974  3147A      6.338280  3148A      6.342430  
    3149A      6.346886  3150A      6.348723  3151A      6.357930  
    3152A      6.372107  3153A      6.378612  3154A      6.382342  
    3155A      6.402007  3156A      6.413143  3157A      6.419014  
    3158A      6.423763  3159A      6.426549  3160A      6.430631  
    3161A      6.434235  3162A      6.451299  3163A      6.457670  
    3164A      6.463468  3165A      6.468625  3166A      6.474624  
    3167A      6.494275  3168A      6.504639  3169A      6.519097  
    3170A      6.531262  3171A      6.542980  3172A      6.553617  
    3173A      6.555421  3174A      6.563515  3175A      6.564335  
    3176A      6.571547  3177A      6.576857  3178A      6.584670  
    3179A      6.591678  3180A      6.596896  3181A      6.601893  
    3182A      6.603730  3183A      6.607257  3184A      6.613125  
    3185A      6.618101  3186A      6.622356  3187A      6.631267  
    3188A      6.633224  3189A      6.637687  3190A      6.643311  
    3191A      6.653134  3192A      6.661787  3193A      6.677725  
    3194A      6.689717  3195A      6.704598  3196A      6.711419  
    3197A      6.720434  3198A      6.727070  3199A      6.738671  
    3200A      6.744685  3201A      6.751651  3202A      6.765295  
    3203A      6.774741  3204A      6.785101  3205A      6.791931  
    3206A      6.794283  3207A      6.806939  3208A      6.812780  
    3209A      6.816649  3210A      6.821643  3211A      6.823338  
    3212A      6.838863  3213A      6.842964  3214A      6.862891  
    3215A      6.889267  3216A      6.911155  3217A      6.918270  
    3218A      6.925576  3219A      6.938645  3220A      6.942687  
    3221A      6.951032  3222A      6.956623  3223A      6.961707  
    3224A      6.986755  3225A      6.991122  3226A      7.000829  
    3227A      7.014465  3228A      7.034473  3229A      7.036143  
    3230A      7.060945  3231A      7.062904  3232A      7.086300  
    3233A      7.088256  3234A      7.101468  3235A      7.105297  
    3236A      7.125780  3237A      7.127779  3238A      7.155278  
    3239A      7.158887  3240A      7.186447  3241A      7.189630  
    3242A      7.224842  3243A      7.225561  3244A      7.251333  
    3245A      7.255651  3246A      7.267436  3247A      7.273491  
    3248A      7.298503  3249A      7.302524  3250A      7.313920  
    3251A      7.332887  3252A      7.343388  3253A      7.356575  
    3254A      7.382498  3255A      7.385631  3256A      7.393591  
    3257A      7.440244  3258A      7.445323  3259A      7.461345  
    3260A      7.473657  3261A      7.480378  3262A      7.539879  
    3263A      7.586733  3264A      7.618441  3265A      7.625142  
    3266A      7.652320  3267A      7.656745  3268A      7.675250  
    3269A      7.676673  3270A      7.692503  3271A      7.693388  
    3272A      7.702597  3273A      7.708288  3274A      7.720169  
    3275A      7.723938  3276A      7.732534  3277A      7.757072  
    3278A      7.768568  3279A      7.780447  3280A      7.840541  
    3281A      7.861508  3282A      7.867035  3283A      7.875663  
    3284A      7.879036  3285A      7.904815  3286A      7.914778  
    3287A      7.947017  3288A      7.953063  3289A      7.959974  
    3290A      7.963893  3291A      7.974415  3292A      7.983286  
    3293A      7.996917  3294A      7.999030  3295A      8.011061  
    3296A      8.018999  3297A      8.023935  3298A      8.029316  
    3299A      8.034166  3300A      8.044372  3301A      8.054993  
    3302A      8.065662  3303A      8.085459  3304A      8.087595  
    3305A      8.100149  3306A      8.134767  3307A      8.167729  
    3308A      8.191706  3309A      8.212436  3310A      8.219090  
    3311A      8.237011  3312A      8.239104  3313A      8.354899  
    3314A      8.367014  3315A      8.410312  3316A      8.413689  
    3317A      8.509392  3318A      8.536275  3319A      8.557504  
    3320A      8.565384  3321A      8.589310  3322A      8.599071  
    3323A      8.614727  3324A      8.621286  3325A      8.641413  
    3326A      8.645436  3327A      8.669842  3328A      8.671502  
    3329A      8.700247  3330A      8.701034  3331A      8.753182  
    3332A      8.754755  3333A      9.079795  3334A      9.107090  
    3335A      9.195538  3336A      9.288807  3337A      9.353479  
    3338A      9.398035  3339A      9.417898  3340A      9.449541  
    3341A      9.458332  3342A      9.459660  3343A      9.502803  
    3344A      9.504133  3345A      9.556055  3346A      9.713832  
    3347A      9.880072  3348A     10.021163  3349A     10.123408  
    3350A     10.505955  3351A     10.508503  3352A     10.569140  
    3353A     10.574449  3354A     10.604587  3355A     10.620603  
    3356A     10.639949  3357A     10.681345  3358A     10.709581  
    3359A     10.772112  3360A     10.791697  3361A     10.894666  
    3362A     10.907107  3363A     10.914185  3364A     11.016466  
    3365A     11.071432  3366A     11.123494  3367A     11.135770  
    3368A     17.340415  3369A     17.345283  3370A     17.572995  
    3371A     17.613129  3372A     17.688083  3373A     17.725131  
    3374A     17.821624  3375A     17.874939  3376A     17.922177  
    3377A     17.937334  3378A     17.999269  3379A     18.217578  
    3380A     18.239344  3381A     18.283275  3382A     18.697611  
    3383A     19.018270  3384A     19.272579  3385A     19.282274  
    3386A     53.587114  3387A     53.605457  3388A     54.152661  
    3389A     54.237488  3390A     54.373132  3391A     54.514269  
    3392A     54.714287  3393A     54.748445  3394A     54.819757  
    3395A     54.987632  3396A     55.012524  3397A     55.277161  
    3398A     55.295628  3399A     55.403181  3400A     56.215410  
    3401A     56.861071  3402A     57.392511  3403A     57.398468  

    Final Occupation by Irrep:
              A 
    DOCC [    73 ]
    NA   [    73 ]
    NB   [    73 ]

  @DF-RKS Final Energy:  -708.89875261328223

   => Energetics <=

    Nuclear Repulsion Energy =           1177.1969194446960500
    One-Electron Energy =               -3288.6609614007438722
    Two-Electron Energy =                1477.7134612243839911
    DFT Exchange-Correlation Energy =     -75.6949723849484570
    Empirical Dispersion Energy =           0.0000000000000000
    VV10 Nonlocal Energy =                  0.5468005033299899
    Total Energy =                       -708.8987526132822268

Computation Completed


Properties will be evaluated at   0.000000,   0.000000,   0.000000 [a0]

Properties computed using the SCF density matrix


 Multipole Moments:

 ------------------------------------------------------------------------------------
     Multipole            Electronic (a.u.)      Nuclear  (a.u.)        Total (a.u.)
 ------------------------------------------------------------------------------------

 L = 1.  Multiply by 2.5417464519 to convert [e a0] to [Debye]
 Dipole X            :      -3183.4304816         3183.4307411            0.0002595
 Dipole Y            :      -2003.1112796         2003.1115827            0.0003031
 Dipole Z            :       -566.0000315          565.9994308           -0.0006007
 Magnitude           :                                                    0.0007212

 ------------------------------------------------------------------------------------

*** tstop() called on atl1-1-03-004-7-2.pace.gatech.edu at Sat Jun 13 18:15:54 2026
Module time:
	user time   =   83853.55 seconds =    1397.56 minutes
	system time =    4209.45 seconds =      70.16 minutes
	total time  =      12150 seconds =     202.50 minutes
Total time:
	user time   =   83853.55 seconds =    1397.56 minutes
	system time =    4209.45 seconds =      70.16 minutes
	total time  =      12150 seconds =     202.50 minutes

    Psi4 stopped on: Saturday, 13 June 2026 06:16PM
    Psi4 wall time for execution: 3:22:43.44

*** Psi4 exiting successfully. Buy a developer a beer!
