
    -----------------------------------------------------------------------
          Psi4: An Open-Source Ab Initio Electronic Structure Package
                               Psi4 1.9.1 release

                         Git: Rev {} zzzzzzz 


    D. G. A. Smith, L. A. Burns, A. C. Simmonett, R. M. Parrish,
    M. C. Schieber, R. Galvelis, P. Kraus, H. Kruse, R. Di Remigio,
    A. Alenaizan, A. M. James, S. Lehtola, J. P. Misiewicz, M. Scheurer,
    R. A. Shaw, J. B. Schriber, Y. Xie, Z. L. Glick, D. A. Sirianni,
    J. S. O'Brien, J. M. Waldrop, A. Kumar, E. G. Hohenstein,
    B. P. Pritchard, B. R. Brooks, H. F. Schaefer III, A. Yu. Sokolov,
    K. Patkowski, A. E. DePrince III, U. Bozkaya, R. A. King,
    F. A. Evangelista, J. M. Turney, T. D. Crawford, C. D. Sherrill,
    J. Chem. Phys. 152(18) 184108 (2020). https://doi.org/10.1063/5.0006002

                            Additional Code Authors
    E. T. Seidl, C. L. Janssen, E. F. Valeev, M. L. Leininger,
    J. F. Gonthier, R. M. Richard, H. R. McAlexander, M. Saitow, X. Wang,
    P. Verma, M. H. Lechner, A. Jiang, S. Behnle, A. G. Heide,
    M. F. Herbst, and D. L. Poole

             Previous Authors, Complete List of Code Contributors,
                       and Citations for Specific Modules
    https://github.com/psi4/psi4/blob/master/codemeta.json
    https://github.com/psi4/psi4/graphs/contributors
    http://psicode.org/psi4manual/master/introduction.html#citing-psifour

    -----------------------------------------------------------------------


    Psi4 started on: Saturday, 13 June 2026 02:33PM

    Process ID: 253338
    Host:       atl1-1-02-003-28-1.pace.gatech.edu
    PSIDATADIR: /storage/home/hcoda1/5/vlita3/.conda/envs/p4_qcml/share/psi4
    Memory:     250.0 GiB
    Threads:    10
    
  ==> Input QCSchema <==

--------------------------------------------------------------------------
{'driver': 'energy',
 'extras': {},
 'id': '252',
 'keywords': {},
 'model': {'basis': 'aug-cc-pvtz', 'method': 'wb97x-v'},
 'molecule': {'extras': {},
              'fix_com': True,
              'fix_orientation': True,
              'fragment_charges': [0.0, 0.0],
              'fragment_multiplicities': [1, 1],
              'fragments': [[0, 1, 2, 3, 4, 5, 6, 7, 8, 9, 10, 11, 12, 13, 14, 15, 16, 17, 18, 19, 20, 21, 22, 23, 24,
                             25, 26, 27, 28, 29, 30, 31, 32, 33, 34, 35, 36, 37, 38, 39, 40, 41, 42, 43, 44, 45, 46, 47,
                             48, 49, 50, 51, 52, 53, 54, 55, 56, 57, 58, 59, 60, 61, 62, 63, 64, 65, 66, 67, 68, 69, 70,
                             71],
                            [72, 73, 74, 75, 76, 77, 78, 79, 80, 81, 82, 83, 84, 85, 86, 87, 88, 89, 90, 91]],
              'geometry': [-0.27392714, 6.18819166, -1.19323544, -2.46344698, 5.77825337, -2.60449614, -4.6940608,
                           5.39705781, -1.25234985, -4.71896739, 5.33938337, 1.40379628, -2.51326016, 5.65638493,
                           2.81229042, -0.29786241, 6.1264921, 1.46128175, -7.4236946, 4.94664159, -2.11437677,
                           -8.0102089, 2.21933216, -1.3518118, -8.03725088, 2.16388759, 1.30730308, -7.46490952,
                           4.85601033, 2.19433108, -8.21278754, 0.01810099, -2.78449255, -8.41651891, -2.24308601,
                           -1.44718061, -8.44656555, -2.29788807, 1.20944929, -8.27108559, -0.09424159, 2.64331111,
                           -8.82968863, 6.36030791, 0.05739419, 2.39027678, 6.99321499, -1.97848656, 2.35234998,
                           6.89052727, 2.33048585, 4.24147139, 4.87579576, 1.47132186, 4.26509297, 4.93957402,
                           -1.18371122, 5.91295305, 3.35513315, 2.83024282, 7.66850862, 1.97164575, 1.43096487,
                           7.69269711, 2.03631218, -1.22332744, 5.96134893, 3.48626124, -2.58482409, 2.91214355,
                           8.90127146, 0.22748523, 9.87956377, 0.34201964, -2.07607202, 9.16122218, -2.35520346,
                           -1.32189933, 9.13548411, -2.42066358, 1.33912796, 9.83927481, 0.23553924, 2.23913649,
                           8.55002806, -4.47912335, -2.729596, 7.90073706, -6.7005909, -1.42801501, 7.87418641,
                           -6.76523843, 1.20657123, 8.49702124, -4.61078057, 2.62830668, 11.77284258, 0.92596769,
                           0.1150709, -8.31764844, -5.08264518, 1.9809621, -5.66577687, -5.91321761, 1.16915466,
                           -5.63425624, -5.85826437, -1.48990165, -8.26696598, -4.99384695, -2.32929532, -3.49926256,
                           -6.47956853, 2.52781105, -1.27490751, -7.03089613, 1.18478458, -1.24350593, -6.97650981,
                           -1.44679133, -3.43540871, -6.36901955, -2.81856431, -9.87669139, -6.270716, -0.2182029,
                           -2.4529401, 5.84171037, -4.65828828, -2.54030214, 5.62747212, 4.86674397, -7.86022133,
                           5.46728004, -4.05896164, -7.93792687, 5.29540945, 4.15038659, -8.11773431, 0.05695332,
                           -4.83605482, -8.21892915, -0.14041005, 4.69617729, -8.40519945, 8.38335422, 0.10379812,
                           -10.87140543, 6.03249712, 0.03110168, 2.58575005, 7.68646102, -3.90969218, 2.51428061,
                           7.49055311, 4.29570653, 5.92036077, 3.32542665, 4.88460188, 6.00539845, 3.55672913,
                           -4.63769027, 1.57808761, 10.48166831, 0.25357668, 4.86729199, 9.57563912, 0.26070473,
                           10.52462179, 0.60197793, -4.01470426, 10.44833354, 0.39868497, 4.19987852, 8.5531839,
                           -4.43267388, -4.7823677, 7.42214502, -8.39155563, -2.48982755, 7.37512864, -8.50599744,
                           2.1742055, 8.4600204, -4.66543145, 4.68064374, 12.34503276, 2.91199237, 0.16959272,
                           13.42257349, -0.321261, 0.09956022, -8.86591468, -5.52843157, 3.91606055, -8.76902842,
                           -5.35979242, -4.29349555, -3.50574432, -6.49980749, 4.58215122, 0.4449946, -7.48906022,
                           2.20842844, 0.50076797, -7.39238184, -2.44683628, -3.39254972, -6.30418305, -4.87158167,
                           -11.84561594, -5.6407569, -0.22849246, -9.76051103, -8.33473156, -0.2592572, 0.45225115,
                           -0.84580551, -2.67537976, 2.67838443, -1.53842793, -1.2866805, 2.65068104, -1.59445642,
                           1.27425178, 0.39459182, -0.96458424, 2.64450164, -1.86313012, -0.39368286, 1.25325503,
                           -1.83502422, -0.33633346, -1.30877329, 0.51180775, -0.67721548, -5.30584073, 2.77402347,
                           -1.11680357, -6.67834882, 4.65792923, -1.46517081, -7.76197447, -1.67832057, -0.01779464,
                           -6.70601441, -3.49875233, 0.52904962, -7.81566159, 0.39835616, -0.91584254, 5.28048061,
                           2.63210503, -1.41763286, 6.67793308, 4.4946569, -1.81660506, 7.78079614, -1.82246132,
                           -0.32547131, 6.66298535, -3.66775054, 0.16586372, 7.75745803, 4.38153789, -2.03474371,
                           -2.30489896, 4.33176251, -2.13518265, 2.30622176, -3.59287959, 0.00412869, 2.26776584,
                           -3.54227272, 0.1076148, -2.34208877],
              'id': 3,
              'identifiers': {'molecular_formula': 'C54H34N4',
                              'molecule_hash': 'a6e197d77899e18e985cc14db0a8b81cfed912ed'},
              'molecular_charge': 0.0,
              'molecular_multiplicity': 1,
              'name': 'C54H34N4',
              'provenance': {'creator': 'QCElemental',
                             'routine': 'qcelemental.molparse.from_string',
                             'version': '0.29.0'},
              'schema_name': 'qcschema_molecule',
              'schema_version': 2,
              'symbols': ['C', 'C', 'C', 'C', 'C', 'C', 'C', 'C', 'C', 'C', 'C', 'C', 'C', 'C', 'C', 'C', 'C', 'C', 'C',
                          'C', 'C', 'C', 'C', 'C', 'C', 'C', 'C', 'C', 'C', 'C', 'C', 'C', 'C', 'C', 'C', 'C', 'C', 'C',
                          'C', 'C', 'C', 'C', 'H', 'H', 'H', 'H', 'H', 'H', 'H', 'H', 'H', 'H', 'H', 'H', 'H', 'H', 'H',
                          'H', 'H', 'H', 'H', 'H', 'H', 'H', 'H', 'H', 'H', 'H', 'H', 'H', 'H', 'H', 'C', 'C', 'C', 'C',
                          'C', 'C', 'C', 'C', 'N', 'C', 'N', 'C', 'C', 'N', 'C', 'N', 'H', 'H', 'H', 'H'],
              'validated': True},
 'protocols': {},
 'provenance': {'creator': 'QCElemental', 'routine': 'qcelemental.models.results', 'version': '0.29.0'},
 'schema_name': 'qcschema_input',
 'schema_version': 1}
--------------------------------------------------------------------------

Scratch directory: /tmp/tmpf7_38581_psi_scratch/
   => Libint2 <=

    Primary   basis highest AM E, G, H:  6, 6, 3
    Auxiliary basis highest AM E, G, H:  7, 7, 4
    Onebody   basis highest AM E, G, H:  -, -, -
    Solid Harmonics ordering:            Gaussian

*** tstart() called on atl1-1-02-003-28-1.pace.gatech.edu
*** at Sat Jun 13 14:33:02 2026

   => Loading Basis Set <=

    Name: AUG-CC-PVTZ
    Role: ORBITAL
    Keyword: BASIS
    atoms 1-42, 73-80, 82, 84-85, 87 entry C          line   239 file /storage/home/hcoda1/5/vlita3/.conda/envs/p4_qcml/share/psi4/basis/aug-cc-pvtz.gbs 
    atoms 43-72, 89-92               entry H          line    40 file /storage/home/hcoda1/5/vlita3/.conda/envs/p4_qcml/share/psi4/basis/aug-cc-pvtz.gbs 
    atoms 81, 83, 86, 88             entry N          line   285 file /storage/home/hcoda1/5/vlita3/.conda/envs/p4_qcml/share/psi4/basis/aug-cc-pvtz.gbs 


         ---------------------------------------------------------
                                   SCF
               by Justin Turney, Rob Parrish, Andy Simmonett
                          and Daniel G. A. Smith
                              RKS Reference
                       10 Threads, 256000 MiB Core
         ---------------------------------------------------------

  ==> Geometry <==

    Molecular point group: c1
    Full point group: C1

    Geometry (in Bohr), charge = 0, multiplicity = 1:

       Center              X                  Y                   Z               Mass       
    ------------   -----------------  -----------------  -----------------  -----------------
         C           -0.273927140000     6.188191660000    -1.193235440000    12.000000000000
         C           -2.463446980000     5.778253370000    -2.604496140000    12.000000000000
         C           -4.694060800000     5.397057810000    -1.252349850000    12.000000000000
         C           -4.718967390000     5.339383370000     1.403796280000    12.000000000000
         C           -2.513260160000     5.656384930000     2.812290420000    12.000000000000
         C           -0.297862410000     6.126492100000     1.461281750000    12.000000000000
         C           -7.423694600000     4.946641590000    -2.114376770000    12.000000000000
         C           -8.010208900000     2.219332160000    -1.351811800000    12.000000000000
         C           -8.037250880000     2.163887590000     1.307303080000    12.000000000000
         C           -7.464909520000     4.856010330000     2.194331080000    12.000000000000
         C           -8.212787540000     0.018100990000    -2.784492550000    12.000000000000
         C           -8.416518910000    -2.243086010000    -1.447180610000    12.000000000000
         C           -8.446565550000    -2.297888070000     1.209449290000    12.000000000000
         C           -8.271085590000    -0.094241590000     2.643311110000    12.000000000000
         C           -8.829688630000     6.360307910000     0.057394190000    12.000000000000
         C            2.390276780000     6.993214990000    -1.978486560000    12.000000000000
         C            2.352349980000     6.890527270000     2.330485850000    12.000000000000
         C            4.241471390000     4.875795760000     1.471321860000    12.000000000000
         C            4.265092970000     4.939574020000    -1.183711220000    12.000000000000
         C            5.912953050000     3.355133150000     2.830242820000    12.000000000000
         C            7.668508620000     1.971645750000     1.430964870000    12.000000000000
         C            7.692697110000     2.036312180000    -1.223327440000    12.000000000000
         C            5.961348930000     3.486261240000    -2.584824090000    12.000000000000
         C            2.912143550000     8.901271460000     0.227485230000    12.000000000000
         C            9.879563770000     0.342019640000    -2.076072020000    12.000000000000
         C            9.161222180000    -2.355203460000    -1.321899330000    12.000000000000
         C            9.135484110000    -2.420663580000     1.339127960000    12.000000000000
         C            9.839274810000     0.235539240000     2.239136490000    12.000000000000
         C            8.550028060000    -4.479123350000    -2.729596000000    12.000000000000
         C            7.900737060000    -6.700590900000    -1.428015010000    12.000000000000
         C            7.874186410000    -6.765238430000     1.206571230000    12.000000000000
         C            8.497021240000    -4.610780570000     2.628306680000    12.000000000000
         C           11.772842580000     0.925967690000     0.115070900000    12.000000000000
         C           -8.317648440000    -5.082645180000     1.980962100000    12.000000000000
         C           -5.665776870000    -5.913217610000     1.169154660000    12.000000000000
         C           -5.634256240000    -5.858264370000    -1.489901650000    12.000000000000
         C           -8.266965980000    -4.993846950000    -2.329295320000    12.000000000000
         C           -3.499262560000    -6.479568530000     2.527811050000    12.000000000000
         C           -1.274907510000    -7.030896130000     1.184784580000    12.000000000000
         C           -1.243505930000    -6.976509810000    -1.446791330000    12.000000000000
         C           -3.435408710000    -6.369019550000    -2.818564310000    12.000000000000
         C           -9.876691390000    -6.270716000000    -0.218202900000    12.000000000000
         H           -2.452940100000     5.841710370000    -4.658288280000     1.007825032230
         H           -2.540302140000     5.627472120000     4.866743970000     1.007825032230
         H           -7.860221330000     5.467280040000    -4.058961640000     1.007825032230
         H           -7.937926870000     5.295409450000     4.150386590000     1.007825032230
         H           -8.117734310000     0.056953320000    -4.836054820000     1.007825032230
         H           -8.218929150000    -0.140410050000     4.696177290000     1.007825032230
         H           -8.405199450000     8.383354220000     0.103798120000     1.007825032230
         H          -10.871405430000     6.032497120000     0.031101680000     1.007825032230
         H            2.585750050000     7.686461020000    -3.909692180000     1.007825032230
         H            2.514280610000     7.490553110000     4.295706530000     1.007825032230
         H            5.920360770000     3.325426650000     4.884601880000     1.007825032230
         H            6.005398450000     3.556729130000    -4.637690270000     1.007825032230
         H            1.578087610000    10.481668310000     0.253576680000     1.007825032230
         H            4.867291990000     9.575639120000     0.260704730000     1.007825032230
         H           10.524621790000     0.601977930000    -4.014704260000     1.007825032230
         H           10.448333540000     0.398684970000     4.199878520000     1.007825032230
         H            8.553183900000    -4.432673880000    -4.782367700000     1.007825032230
         H            7.422145020000    -8.391555630000    -2.489827550000     1.007825032230
         H            7.375128640000    -8.505997440000     2.174205500000     1.007825032230
         H            8.460020400000    -4.665431450000     4.680643740000     1.007825032230
         H           12.345032760000     2.911992370000     0.169592720000     1.007825032230
         H           13.422573490000    -0.321261000000     0.099560220000     1.007825032230
         H           -8.865914680000    -5.528431570000     3.916060550000     1.007825032230
         H           -8.769028420000    -5.359792420000    -4.293495550000     1.007825032230
         H           -3.505744320000    -6.499807490000     4.582151220000     1.007825032230
         H            0.444994600000    -7.489060220000     2.208428440000     1.007825032230
         H            0.500767970000    -7.392381840000    -2.446836280000     1.007825032230
         H           -3.392549720000    -6.304183050000    -4.871581670000     1.007825032230
         H          -11.845615940000    -5.640756900000    -0.228492460000     1.007825032230
         H           -9.760511030000    -8.334731560000    -0.259257200000     1.007825032230
         C            0.452251150000    -0.845805510000    -2.675379760000    12.000000000000
         C            2.678384430000    -1.538427930000    -1.286680500000    12.000000000000
         C            2.650681040000    -1.594456420000     1.274251780000    12.000000000000
         C            0.394591820000    -0.964584240000     2.644501640000    12.000000000000
         C           -1.863130120000    -0.393682860000     1.253255030000    12.000000000000
         C           -1.835024220000    -0.336333460000    -1.308773290000    12.000000000000
         C            0.511807750000    -0.677215480000    -5.305840730000    12.000000000000
         C            2.774023470000    -1.116803570000    -6.678348820000    12.000000000000
         N            4.657929230000    -1.465170810000    -7.761974470000    14.003074004430
         C           -1.678320570000    -0.017794640000    -6.706014410000    12.000000000000
         N           -3.498752330000     0.529049620000    -7.815661590000    14.003074004430
         C            0.398356160000    -0.915842540000     5.280480610000    12.000000000000
         C            2.632105030000    -1.417632860000     6.677933080000    12.000000000000
         N            4.494656900000    -1.816605060000     7.780796140000    14.003074004430
         C           -1.822461320000    -0.325471310000     6.662985350000    12.000000000000
         N           -3.667750540000     0.165863720000     7.757458030000    14.003074004430
         H            4.381537890000    -2.034743710000    -2.304898960000     1.007825032230
         H            4.331762510000    -2.135182650000     2.306221760000     1.007825032230
         H           -3.592879590000     0.004128690000     2.267765840000     1.007825032230
         H           -3.542272720000     0.107614800000    -2.342088770000     1.007825032230

  Running in c1 symmetry.

  Rotational constants: A =      0.00267  B =      0.00168  C =      0.00146 [cm^-1]
  Rotational constants: A =     80.12542  B =     50.33918  C =     43.84220 [MHz]
  Nuclear repulsion = 8253.987649209337178

  Charge       = 0
  Multiplicity = 1
  Electrons    = 386
  Nalpha       = 193
  Nbeta        = 193

  ==> Algorithm <==

  SCF Algorithm Type is DF.
  DIIS enabled.
  MOM disabled.
  Fractional occupation disabled.
  Guess Type is SAD.
  Energy threshold   = 1.00e-06
  Density threshold  = 1.00e-06
  Integral threshold = 1.00e-12

  ==> Primary Basis <==

  Basis Set: AUG-CC-PVTZ
    Blend: AUG-CC-PVTZ
    Number of shells: 1118
    Number of basis functions: 3450
    Number of Cartesian functions: 4040
    Spherical Harmonics?: true
    Max angular momentum: 3

  ==> DFT Potential <==

   => LibXC <=

    Version 7.0.0
    S. Lehtola, C. Steigemann, M. J.T. Oliveira, and M. A.L. Marques.,  SoftwareX 7, 1–5 (2018) (10.1016/j.softx.2017.11.002)

   => Composite Functional: WB97X-V <= 

    wB97X-V Hyb-GGA Exchange-Correlation Functional

    N. Mardirossian and M. Head-Gordon.,  Phys. Chem. Chem. Phys. 16, 9904-9924 (2014) (10.1039/C3CP54374A)

    Deriv               =              1
    GGA                 =           TRUE
    Meta                =          FALSE

    Exchange Hybrid     =           TRUE
    MP2 Hybrid          =          FALSE

   => Exchange-Correlation Functionals <=

    1.0000   wB97X-V range-separated functional

   => Exact (HF) Exchange <=

    0.8330            HF,LR [omega = 0.3000]
    0.1670               HF 

   => LibXC Density Thresholds  <==

    XC_HYB_GGA_XC_WB97X_V:  1.00E-14 

   => VV10 Non-Local Parameters <=

    VV10 B              =     6.0000E+00
    VV10 C              =     1.0000E-02

   => Molecular Quadrature <=

    Radial Scheme          =       TREUTLER
    Pruning Scheme         =           NONE
    Nuclear Scheme         =       TREUTLER

    Blocking Scheme        =         OCTREE
    BS radius alpha        =              1
    Pruning alpha          =              1
    Radial Points          =             75
    Spherical Points       =            302
    Total Points           =        1810751
    Total Blocks           =          12182
    Max Points             =            256
    Max Functions          =           2258
    Weights Tolerance      =       1.00E-15

   => Loading Basis Set <=

    Name: (AUG-CC-PVTZ AUX)
    Role: JKFIT
    Keyword: DF_BASIS_SCF
    atoms 1-42, 73-80, 82, 84-85, 87 entry C          line   162 file /storage/home/hcoda1/5/vlita3/.conda/envs/p4_qcml/share/psi4/basis/aug-cc-pvtz-jkfit.gbs 
    atoms 43-72, 89-92               entry H          line    70 file /storage/home/hcoda1/5/vlita3/.conda/envs/p4_qcml/share/psi4/basis/aug-cc-pvtz-jkfit.gbs 
    atoms 81, 83, 86, 88             entry N          line   224 file /storage/home/hcoda1/5/vlita3/.conda/envs/p4_qcml/share/psi4/basis/aug-cc-pvtz-jkfit.gbs 

  ==> Integral Setup <==

  ==> DiskDFJK: Density-Fitted J/K Matrices <==

    J tasked:                  Yes
    K tasked:                  Yes
    wK tasked:                 Yes
    Omega:               3.000E-01
    OpenMP threads:             10
    Integrals threads:          10
    Memory [MiB]:           172800
    Algorithm:                Disk
    Integral Cache:           NONE
    Schwarz Cutoff:          1E-12
    Fitting Condition:       1E-10

   => Auxiliary Basis Set <=

  Basis Set: (AUG-CC-PVTZ AUX)
    Blend: AUG-CC-PVTZ-JKFIT
    Number of shells: 2216
    Number of basis functions: 7596
    Number of Cartesian functions: 9468
    Spherical Harmonics?: true
    Max angular momentum: 4

  Minimum eigenvalue in the overlap matrix is 3.2999283483E-10.
  Reciprocal condition number of the overlap matrix is 8.9829939844E-12.
    Using canonical orthogonalization.
  Overall, 31 of 3450 possible MOs eliminated.


  ==> Pre-Iterations <==

  SCF Guess: Superposition of Atomic Densities via on-the-fly atomic UHF (no occupation information).

   -------------------------
    Irrep   Nso     Nmo    
   -------------------------
     A       3450    3419 
   -------------------------
    Total    3450    3419
   -------------------------

  ==> Iterations <==

                           Total Energy        Delta E     RMS |[F,P]|

   @DF-RKS iter SAD: -2299.56359826567314   -2.29956e+03   0.00000e+00 
   @DF-RKS iter   1: -2295.49405283442275    4.06955e+00   5.49811e-04 ADIIS/DIIS
   @DF-RKS iter   2: -2296.13103782986536   -6.36985e-01   4.65625e-04 ADIIS/DIIS
   @DF-RKS iter   3: -2297.20336143312807   -1.07232e+00   1.26420e-04 ADIIS/DIIS
   @DF-RKS iter   4: -2297.27751214838463   -7.41507e-02   4.50057e-05 DIIS
   @DF-RKS iter   5: -2297.28687395137194   -9.36180e-03   1.83086e-05 DIIS
   @DF-RKS iter   6: -2297.28862749787277   -1.75355e-03   4.31706e-06 DIIS
   @DF-RKS iter   7: -2297.28876979859251   -1.42301e-04   1.45792e-06 DIIS
   @DF-RKS iter   8: -2297.28879159664757   -2.17981e-05   5.55791e-07 DIIS
   @DF-RKS iter   9: -2297.28879694665966   -5.35001e-06   2.89397e-07 DIIS
   @DF-RKS iter  10: -2297.28879806595251   -1.11929e-06   1.29036e-07 DIIS
   @DF-RKS iter  11: -2297.28879827821629   -2.12264e-07   4.24278e-08 DIIS
  Energy and wave function converged.


  ==> Post-Iterations <==

   Electrons on quadrature grid:
      Ntotal   =  385.9993882845 ; deviation = -6.117e-04 

    Orbital Energies [Eh]
    ---------------------

    Doubly Occupied:                                                      

       1A    -14.442717     2A    -14.442713     3A    -14.442459  
       4A    -14.442433     5A    -10.376008     6A    -10.375948  
       7A    -10.363243     8A    -10.363201     9A    -10.343531  
      10A    -10.343524    11A    -10.343275    12A    -10.343247  
      13A    -10.319234    14A    -10.318439    15A    -10.317734  
      16A    -10.316945    17A    -10.301737    18A    -10.301699  
      19A    -10.300574    20A    -10.300533    21A    -10.299854  
      22A    -10.299792    23A    -10.298431    24A    -10.298408  
      25A    -10.289824    26A    -10.289787    27A    -10.289771  
      28A    -10.289716    29A    -10.289295    30A    -10.289253  
      31A    -10.289194    32A    -10.289082    33A    -10.288629  
      34A    -10.288544    35A    -10.288150    36A    -10.288135  
      37A    -10.288083    38A    -10.288049    39A    -10.287812  
      40A    -10.287370    41A    -10.287069    42A    -10.286928  
      43A    -10.286904    44A    -10.286886    45A    -10.286842  
      46A    -10.286827    47A    -10.286555    48A    -10.286439  
      49A    -10.286384    50A    -10.285465    51A    -10.284714  
      52A    -10.284520    53A    -10.284384    54A    -10.284127  
      55A    -10.283954    56A    -10.283738    57A    -10.283646  
      58A    -10.283534    59A     -1.083164    60A     -1.077786  
      61A     -1.062238    62A     -1.059347    63A     -1.058961  
      64A     -1.058258    65A     -1.051656    66A     -1.047563  
      67A     -1.043371    68A     -1.004383    69A     -0.996181  
      70A     -0.989660    71A     -0.974634    72A     -0.955944  
      73A     -0.953213    74A     -0.936433    75A     -0.929227  
      76A     -0.915852    77A     -0.911532    78A     -0.903235  
      79A     -0.892724    80A     -0.885121    81A     -0.875926  
      82A     -0.874955    83A     -0.868795    84A     -0.855720  
      85A     -0.852088    86A     -0.839040    87A     -0.838041  
      88A     -0.828641    89A     -0.820217    90A     -0.802981  
      91A     -0.797185    92A     -0.781551    93A     -0.765827  
      94A     -0.760040    95A     -0.750772    96A     -0.740583  
      97A     -0.740359    98A     -0.736390    99A     -0.717285  
     100A     -0.714489   101A     -0.711799   102A     -0.710077  
     103A     -0.703149   104A     -0.698402   105A     -0.698138  
     106A     -0.691665   107A     -0.687386   108A     -0.664602  
     109A     -0.661883   110A     -0.648135   111A     -0.645303  
     112A     -0.644356   113A     -0.638026   114A     -0.630984  
     115A     -0.623342   116A     -0.611681   117A     -0.608403  
     118A     -0.594950   119A     -0.593006   120A     -0.591162  
     121A     -0.584614   122A     -0.580924   123A     -0.576821  
     124A     -0.575279   125A     -0.569843   126A     -0.568612  
     127A     -0.567416   128A     -0.566923   129A     -0.564804  
     130A     -0.553529   131A     -0.546293   132A     -0.545505  
     133A     -0.540226   134A     -0.535222   135A     -0.531800  
     136A     -0.531405   137A     -0.531151   138A     -0.528462  
     139A     -0.525379   140A     -0.524544   141A     -0.523559  
     142A     -0.521835   143A     -0.512508   144A     -0.510833  
     145A     -0.510714   146A     -0.507789   147A     -0.506973  
     148A     -0.505056   149A     -0.501274   150A     -0.499153  
     151A     -0.496368   152A     -0.489089   153A     -0.488135  
     154A     -0.484020   155A     -0.479144   156A     -0.478804  
     157A     -0.478536   158A     -0.476313   159A     -0.474431  
     160A     -0.471725   161A     -0.471189   162A     -0.467305  
     163A     -0.466353   164A     -0.463633   165A     -0.461506  
     166A     -0.461157   167A     -0.460584   168A     -0.460546  
     169A     -0.450380   170A     -0.448923   171A     -0.448039  
     172A     -0.444576   173A     -0.442188   174A     -0.440605  
     175A     -0.434203   176A     -0.433054   177A     -0.431398  
     178A     -0.428944   179A     -0.428222   180A     -0.422427  
     181A     -0.421715   182A     -0.391809   183A     -0.355992  
     184A     -0.351493   185A     -0.349889   186A     -0.348226  
     187A     -0.345517   188A     -0.345410   189A     -0.343535  
     190A     -0.331464   191A     -0.325680   192A     -0.315691  
     193A     -0.299472  

    Virtual:                                                              

     194A     -0.101042   195A      0.022334   196A      0.025577  
     197A      0.026503   198A      0.029560   199A      0.030362  
     200A      0.031667   201A      0.033021   202A      0.033788  
     203A      0.034463   204A      0.035521   205A      0.035777  
     206A      0.037817   207A      0.040901   208A      0.042421  
     209A      0.044308   210A      0.045002   211A      0.046563  
     212A      0.048173   213A      0.050381   214A      0.052167  
     215A      0.052278   216A      0.056657   217A      0.057037  
     218A      0.057748   219A      0.058274   220A      0.060856  
     221A      0.061696   222A      0.061931   223A      0.063419  
     224A      0.064436   225A      0.064848   226A      0.068629  
     227A      0.071763   228A      0.072797   229A      0.072837  
     230A      0.073410   231A      0.074093   232A      0.076803  
     233A      0.078525   234A      0.081324   235A      0.083105  
     236A      0.083448   237A      0.083621   238A      0.084907  
     239A      0.088907   240A      0.090603   241A      0.090632  
     242A      0.091582   243A      0.091986   244A      0.092146  
     245A      0.096723   246A      0.096772   247A      0.098398  
     248A      0.099098   249A      0.100102   250A      0.101184  
     251A      0.101677   252A      0.102806   253A      0.103813  
     254A      0.106410   255A      0.107224   256A      0.107456  
     257A      0.108967   258A      0.110932   259A      0.112053  
     260A      0.112406   261A      0.112452   262A      0.115149  
     263A      0.116213   264A      0.117053   265A      0.117609  
     266A      0.120444   267A      0.120841   268A      0.121903  
     269A      0.124785   270A      0.125827   271A      0.126775  
     272A      0.128275   273A      0.129075   274A      0.130463  
     275A      0.131252   276A      0.133006   277A      0.134063  
     278A      0.134442   279A      0.136714   280A      0.137113  
     281A      0.138444   282A      0.139364   283A      0.140177  
     284A      0.142223   285A      0.143415   286A      0.144010  
     287A      0.144938   288A      0.145711   289A      0.148060  
     290A      0.152299   291A      0.153445   292A      0.155517  
     293A      0.156908   294A      0.157066   295A      0.157633  
     296A      0.158446   297A      0.158910   298A      0.160628  
     299A      0.162121   300A      0.162251   301A      0.162359  
     302A      0.163411   303A      0.164597   304A      0.165321  
     305A      0.168660   306A      0.168895   307A      0.171246  
     308A      0.172593   309A      0.174837   310A      0.175863  
     311A      0.176718   312A      0.179095   313A      0.179181  
     314A      0.179879   315A      0.182219   316A      0.183946  
     317A      0.186149   318A      0.186716   319A      0.186935  
     320A      0.188648   321A      0.191276   322A      0.192870  
     323A      0.193655   324A      0.194694   325A      0.195334  
     326A      0.195966   327A      0.197716   328A      0.198394  
     329A      0.199000   330A      0.200505   331A      0.201469  
     332A      0.202168   333A      0.204819   334A      0.205301  
     335A      0.207332   336A      0.208317   337A      0.209521  
     338A      0.210774   339A      0.211221   340A      0.212051  
     341A      0.213946   342A      0.214599   343A      0.215466  
     344A      0.217159   345A      0.218466   346A      0.220140  
     347A      0.220890   348A      0.223169   349A      0.224295  
     350A      0.224452   351A      0.225247   352A      0.225819  
     353A      0.226147   354A      0.227193   355A      0.227704  
     356A      0.228276   357A      0.228599   358A      0.230761  
     359A      0.231553   360A      0.232678   361A      0.233332  
     362A      0.234097   363A      0.234974   364A      0.236097  
     365A      0.236351   366A      0.237077   367A      0.237752  
     368A      0.237935   369A      0.239084   370A      0.241103  
     371A      0.241682   372A      0.241784   373A      0.243302  
     374A      0.243989   375A      0.244945   376A      0.245608  
     377A      0.247099   378A      0.247981   379A      0.248534  
     380A      0.251115   381A      0.251362   382A      0.252095  
     383A      0.252784   384A      0.254031   385A      0.254394  
     386A      0.255790   387A      0.257450   388A      0.257582  
     389A      0.257985   390A      0.258782   391A      0.259291  
     392A      0.259955   393A      0.261330   394A      0.261529  
     395A      0.263180   396A      0.263685   397A      0.263860  
     398A      0.265495   399A      0.266663   400A      0.267080  
     401A      0.267887   402A      0.268728   403A      0.268982  
     404A      0.269228   405A      0.270280   406A      0.270664  
     407A      0.271857   408A      0.272506   409A      0.272677  
     410A      0.273270   411A      0.274140   412A      0.276555  
     413A      0.277628   414A      0.278297   415A      0.280148  
     416A      0.280421   417A      0.280871   418A      0.282985  
     419A      0.283071   420A      0.284435   421A      0.285070  
     422A      0.285649   423A      0.286745   424A      0.287752  
     425A      0.288878   426A      0.289278   427A      0.289675  
     428A      0.290609   429A      0.291225   430A      0.292626  
     431A      0.293794   432A      0.294386   433A      0.296707  
     434A      0.298534   435A      0.298647   436A      0.299732  
     437A      0.301567   438A      0.302458   439A      0.304000  
     440A      0.304430   441A      0.305167   442A      0.306491  
     443A      0.309900   444A      0.310650   445A      0.310788  
     446A      0.312690   447A      0.312845   448A      0.315236  
     449A      0.315504   450A      0.317852   451A      0.318393  
     452A      0.319558   453A      0.319875   454A      0.321709  
     455A      0.322452   456A      0.323948   457A      0.324460  
     458A      0.324857   459A      0.326416   460A      0.327557  
     461A      0.328855   462A      0.330577   463A      0.331403  
     464A      0.331440   465A      0.332701   466A      0.333398  
     467A      0.333676   468A      0.333953   469A      0.335064  
     470A      0.336480   471A      0.337730   472A      0.339054  
     473A      0.339698   474A      0.339908   475A      0.342877  
     476A      0.343504   477A      0.344422   478A      0.344872  
     479A      0.345540   480A      0.348179   481A      0.349277  
     482A      0.349843   483A      0.351135   484A      0.353738  
     485A      0.354488   486A      0.355934   487A      0.357303  
     488A      0.358801   489A      0.360141   490A      0.361739  
     491A      0.362802   492A      0.363522   493A      0.365451  
     494A      0.365995   495A      0.367927   496A      0.369997  
     497A      0.372388   498A      0.373208   499A      0.373906  
     500A      0.376257   501A      0.377688   502A      0.377808  
     503A      0.378393   504A      0.379022   505A      0.380019  
     506A      0.383416   507A      0.383653   508A      0.387659  
     509A      0.388049   510A      0.388526   511A      0.388818  
     512A      0.390622   513A      0.391845   514A      0.392483  
     515A      0.393122   516A      0.394172   517A      0.395655  
     518A      0.396754   519A      0.398434   520A      0.398846  
     521A      0.399530   522A      0.400561   523A      0.402567  
     524A      0.403326   525A      0.403873   526A      0.404998  
     527A      0.407918   528A      0.408889   529A      0.409699  
     530A      0.412629   531A      0.413340   532A      0.413944  
     533A      0.415421   534A      0.415811   535A      0.416375  
     536A      0.418737   537A      0.420061   538A      0.422418  
     539A      0.424029   540A      0.425570   541A      0.426385  
     542A      0.428289   543A      0.429535   544A      0.430972  
     545A      0.432173   546A      0.433103   547A      0.434472  
     548A      0.436575   549A      0.436998   550A      0.438381  
     551A      0.439510   552A      0.441167   553A      0.443810  
     554A      0.445032   555A      0.446659   556A      0.446727  
     557A      0.447071   558A      0.449175   559A      0.449693  
     560A      0.451807   561A      0.452332   562A      0.453887  
     563A      0.454511   564A      0.456866   565A      0.458095  
     566A      0.458803   567A      0.460115   568A      0.460765  
     569A      0.462483   570A      0.462956   571A      0.464201  
     572A      0.464387   573A      0.468717   574A      0.469544  
     575A      0.470598   576A      0.471293   577A      0.472290  
     578A      0.473422   579A      0.474599   580A      0.475147  
     581A      0.476365   582A      0.476788   583A      0.477410  
     584A      0.479061   585A      0.481632   586A      0.482439  
     587A      0.482785   588A      0.484052   589A      0.485733  
     590A      0.486866   591A      0.487042   592A      0.487946  
     593A      0.489560   594A      0.489811   595A      0.490368  
     596A      0.492194   597A      0.492734   598A      0.493153  
     599A      0.494473   600A      0.494885   601A      0.497896  
     602A      0.498026   603A      0.498816   604A      0.499398  
     605A      0.500548   606A      0.502174   607A      0.502919  
     608A      0.504035   609A      0.504531   610A      0.504989  
     611A      0.505612   612A      0.506775   613A      0.508963  
     614A      0.509785   615A      0.510626   616A      0.511095  
     617A      0.511933   618A      0.512570   619A      0.512813  
     620A      0.514621   621A      0.515312   622A      0.516439  
     623A      0.518081   624A      0.520223   625A      0.521096  
     626A      0.522941   627A      0.523662   628A      0.526596  
     629A      0.526888   630A      0.528056   631A      0.528969  
     632A      0.529494   633A      0.529601   634A      0.532305  
     635A      0.533073   636A      0.533743   637A      0.535093  
     638A      0.536388   639A      0.536763   640A      0.537111  
     641A      0.538936   642A      0.539564   643A      0.540800  
     644A      0.541357   645A      0.541930   646A      0.543197  
     647A      0.544616   648A      0.545555   649A      0.546082  
     650A      0.548040   651A      0.548550   652A      0.549312  
     653A      0.550153   654A      0.551330   655A      0.551853  
     656A      0.552100   657A      0.552996   658A      0.553500  
     659A      0.555401   660A      0.555982   661A      0.557608  
     662A      0.558081   663A      0.558983   664A      0.559733  
     665A      0.560906   666A      0.562111   667A      0.564022  
     668A      0.564249   669A      0.565313   670A      0.566125  
     671A      0.569498   672A      0.570074   673A      0.570974  
     674A      0.572005   675A      0.573665   676A      0.574139  
     677A      0.574267   678A      0.576730   679A      0.576906  
     680A      0.578724   681A      0.579673   682A      0.580855  
     683A      0.581415   684A      0.583066   685A      0.584026  
     686A      0.585519   687A      0.585649   688A      0.588774  
     689A      0.589335   690A      0.589811   691A      0.590765  
     692A      0.594660   693A      0.595401   694A      0.595977  
     695A      0.598047   696A      0.598347   697A      0.599767  
     698A      0.601707   699A      0.601842   700A      0.602370  
     701A      0.603630   702A      0.605623   703A      0.606269  
     704A      0.608475   705A      0.609758   706A      0.610512  
     707A      0.611072   708A      0.612069   709A      0.614910  
     710A      0.615896   711A      0.616283   712A      0.617986  
     713A      0.618370   714A      0.620588   715A      0.621734  
     716A      0.623036   717A      0.624497   718A      0.625544  
     719A      0.628372   720A      0.628919   721A      0.631882  
     722A      0.632146   723A      0.632869   724A      0.634706  
     725A      0.636100   726A      0.638761   727A      0.639030  
     728A      0.639255   729A      0.640136   730A      0.641888  
     731A      0.642880   732A      0.644166   733A      0.647466  
     734A      0.649159   735A      0.649570   736A      0.650107  
     737A      0.651637   738A      0.653559   739A      0.654203  
     740A      0.654943   741A      0.655545   742A      0.657292  
     743A      0.658076   744A      0.660703   745A      0.660848  
     746A      0.661716   747A      0.662406   748A      0.664741  
     749A      0.667413   750A      0.668218   751A      0.669411  
     752A      0.670200   753A      0.671028   754A      0.672519  
     755A      0.673671   756A      0.675495   757A      0.676338  
     758A      0.678539   759A      0.679079   760A      0.679739  
     761A      0.680855   762A      0.681026   763A      0.681857  
     764A      0.684476   765A      0.685899   766A      0.687705  
     767A      0.688294   768A      0.691744   769A      0.691784  
     770A      0.692634   771A      0.693197   772A      0.696408  
     773A      0.697160   774A      0.697709   775A      0.698661  
     776A      0.700556   777A      0.702785   778A      0.703927  
     779A      0.704024   780A      0.707091   781A      0.709065  
     782A      0.709808   783A      0.710159   784A      0.712704  
     785A      0.713012   786A      0.716913   787A      0.717152  
     788A      0.717225   789A      0.720169   790A      0.721226  
     791A      0.723063   792A      0.723142   793A      0.725600  
     794A      0.725780   795A      0.727511   796A      0.730029  
     797A      0.730415   798A      0.732458   799A      0.733758  
     800A      0.734252   801A      0.737746   802A      0.738232  
     803A      0.738606   804A      0.739392   805A      0.741903  
     806A      0.744516   807A      0.744937   808A      0.745842  
     809A      0.747869   810A      0.750749   811A      0.751162  
     812A      0.751787   813A      0.752149   814A      0.753680  
     815A      0.757135   816A      0.757492   817A      0.758281  
     818A      0.761372   819A      0.762889   820A      0.764939  
     821A      0.765149   822A      0.765765   823A      0.767622  
     824A      0.767825   825A      0.768246   826A      0.771680  
     827A      0.772431   828A      0.772540   829A      0.774612  
     830A      0.776797   831A      0.778046   832A      0.778758  
     833A      0.779884   834A      0.782076   835A      0.782635  
     836A      0.783658   837A      0.783830   838A      0.784793  
     839A      0.789700   840A      0.791823   841A      0.792173  
     842A      0.793131   843A      0.793326   844A      0.797405  
     845A      0.798926   846A      0.799685   847A      0.799954  
     848A      0.800328   849A      0.801499   850A      0.802842  
     851A      0.804980   852A      0.806493   853A      0.809398  
     854A      0.810031   855A      0.814807   856A      0.814951  
     857A      0.815114   858A      0.816366   859A      0.816931  
     860A      0.818234   861A      0.820990   862A      0.821965  
     863A      0.822447   864A      0.824058   865A      0.824706  
     866A      0.826389   867A      0.827939   868A      0.828389  
     869A      0.829241   870A      0.829561   871A      0.831246  
     872A      0.832374   873A      0.834110   874A      0.834583  
     875A      0.837634   876A      0.838414   877A      0.838808  
     878A      0.840221   879A      0.842592   880A      0.843208  
     881A      0.844321   882A      0.846238   883A      0.848169  
     884A      0.848190   885A      0.850614   886A      0.850998  
     887A      0.854210   888A      0.855392   889A      0.856660  
     890A      0.858815   891A      0.859872   892A      0.860917  
     893A      0.861689   894A      0.864291   895A      0.864395  
     896A      0.865381   897A      0.865405   898A      0.868057  
     899A      0.869175   900A      0.871505   901A      0.871646  
     902A      0.872476   903A      0.874800   904A      0.875139  
     905A      0.875926   906A      0.877614   907A      0.877990  
     908A      0.880856   909A      0.882976   910A      0.883370  
     911A      0.884591   912A      0.884983   913A      0.886185  
     914A      0.887290   915A      0.887889   916A      0.889388  
     917A      0.889746   918A      0.890209   919A      0.891265  
     920A      0.891855   921A      0.894322   922A      0.894892  
     923A      0.897171   924A      0.898297   925A      0.898466  
     926A      0.900251   927A      0.902174   928A      0.902956  
     929A      0.903334   930A      0.904547   931A      0.905129  
     932A      0.906346   933A      0.907697   934A      0.908228  
     935A      0.908313   936A      0.909687   937A      0.911886  
     938A      0.912254   939A      0.914359   940A      0.915425  
     941A      0.917694   942A      0.918529   943A      0.919106  
     944A      0.920138   945A      0.923528   946A      0.923780  
     947A      0.925066   948A      0.926284   949A      0.926429  
     950A      0.927634   951A      0.928657   952A      0.930301  
     953A      0.932213   954A      0.932753   955A      0.933935  
     956A      0.935028   957A      0.935515   958A      0.936510  
     959A      0.937695   960A      0.938406   961A      0.939084  
     962A      0.939796   963A      0.943292   964A      0.943962  
     965A      0.946213   966A      0.946835   967A      0.948073  
     968A      0.950295   969A      0.951622   970A      0.951889  
     971A      0.952020   972A      0.953128   973A      0.955729  
     974A      0.956140   975A      0.956738   976A      0.958482  
     977A      0.959637   978A      0.960933   979A      0.963283  
     980A      0.963378   981A      0.963755   982A      0.966517  
     983A      0.966746   984A      0.967961   985A      0.970801  
     986A      0.972158   987A      0.972250   988A      0.973689  
     989A      0.973929   990A      0.974495   991A      0.978348  
     992A      0.978485   993A      0.980037   994A      0.980431  
     995A      0.981931   996A      0.982119   997A      0.985743  
     998A      0.986083   999A      0.989046  1000A      0.989349  
    1001A      0.990675  1002A      0.992222  1003A      0.992443  
    1004A      0.993589  1005A      0.995389  1006A      0.995690  
    1007A      0.997323  1008A      0.997394  1009A      0.999745  
    1010A      1.001549  1011A      1.002564  1012A      1.005656  
    1013A      1.006149  1014A      1.008277  1015A      1.008909  
    1016A      1.011880  1017A      1.012298  1018A      1.012597  
    1019A      1.013495  1020A      1.014222  1021A      1.015244  
    1022A      1.017333  1023A      1.017724  1024A      1.019938  
    1025A      1.020769  1026A      1.021984  1027A      1.022243  
    1028A      1.023418  1029A      1.025015  1030A      1.025761  
    1031A      1.030200  1032A      1.031479  1033A      1.032951  
    1034A      1.033223  1035A      1.036713  1036A      1.037061  
    1037A      1.037592  1038A      1.039783  1039A      1.040755  
    1040A      1.042636  1041A      1.043938  1042A      1.044599  
    1043A      1.045762  1044A      1.046919  1045A      1.049196  
    1046A      1.050477  1047A      1.052180  1048A      1.053853  
    1049A      1.055568  1050A      1.055684  1051A      1.058287  
    1052A      1.058863  1053A      1.059570  1054A      1.061398  
    1055A      1.061997  1056A      1.062074  1057A      1.064472  
    1058A      1.066049  1059A      1.067714  1060A      1.071013  
    1061A      1.071403  1062A      1.072143  1063A      1.075182  
    1064A      1.076570  1065A      1.077075  1066A      1.078280  
    1067A      1.080021  1068A      1.081673  1069A      1.082300  
    1070A      1.084140  1071A      1.084938  1072A      1.085915  
    1073A      1.087350  1074A      1.088519  1075A      1.089805  
    1076A      1.090046  1077A      1.092281  1078A      1.094623  
    1079A      1.094801  1080A      1.097076  1081A      1.097492  
    1082A      1.098323  1083A      1.101510  1084A      1.104729  
    1085A      1.105849  1086A      1.107717  1087A      1.108518  
    1088A      1.109244  1089A      1.110482  1090A      1.110909  
    1091A      1.113377  1092A      1.113647  1093A      1.114596  
    1094A      1.116239  1095A      1.118775  1096A      1.120033  
    1097A      1.122011  1098A      1.122897  1099A      1.125215  
    1100A      1.127632  1101A      1.128356  1102A      1.128623  
    1103A      1.131116  1104A      1.131404  1105A      1.133581  
    1106A      1.133952  1107A      1.134577  1108A      1.135870  
    1109A      1.138868  1110A      1.139650  1111A      1.140729  
    1112A      1.141958  1113A      1.144475  1114A      1.144905  
    1115A      1.146958  1116A      1.147940  1117A      1.148741  
    1118A      1.151534  1119A      1.152903  1120A      1.153735  
    1121A      1.154855  1122A      1.155441  1123A      1.156908  
    1124A      1.160495  1125A      1.160786  1126A      1.163645  
    1127A      1.165018  1128A      1.166194  1129A      1.168262  
    1130A      1.168511  1131A      1.171586  1132A      1.172393  
    1133A      1.173979  1134A      1.174388  1135A      1.175438  
    1136A      1.176585  1137A      1.178218  1138A      1.179154  
    1139A      1.182966  1140A      1.184058  1141A      1.184414  
    1142A      1.186080  1143A      1.186467  1144A      1.188968  
    1145A      1.191566  1146A      1.192318  1147A      1.194792  
    1148A      1.196034  1149A      1.198047  1150A      1.200190  
    1151A      1.202906  1152A      1.204162  1153A      1.205140  
    1154A      1.206688  1155A      1.207872  1156A      1.208573  
    1157A      1.211494  1158A      1.213932  1159A      1.215525  
    1160A      1.215716  1161A      1.217060  1162A      1.217529  
    1163A      1.218136  1164A      1.218631  1165A      1.223011  
    1166A      1.225889  1167A      1.226509  1168A      1.227427  
    1169A      1.228861  1170A      1.230426  1171A      1.231161  
    1172A      1.231847  1173A      1.232743  1174A      1.234933  
    1175A      1.237792  1176A      1.239181  1177A      1.240290  
    1178A      1.241783  1179A      1.242913  1180A      1.243080  
    1181A      1.245340  1182A      1.246126  1183A      1.250208  
    1184A      1.250312  1185A      1.253818  1186A      1.254166  
    1187A      1.256642  1188A      1.257154  1189A      1.258618  
    1190A      1.260562  1191A      1.264300  1192A      1.264766  
    1193A      1.265430  1194A      1.267404  1195A      1.267950  
    1196A      1.269950  1197A      1.272224  1198A      1.273106  
    1199A      1.275009  1200A      1.276827  1201A      1.279049  
    1202A      1.279195  1203A      1.280005  1204A      1.281342  
    1205A      1.281946  1206A      1.283563  1207A      1.283807  
    1208A      1.288523  1209A      1.290114  1210A      1.292103  
    1211A      1.292456  1212A      1.294064  1213A      1.294944  
    1214A      1.296815  1215A      1.297616  1216A      1.299044  
    1217A      1.301982  1218A      1.302419  1219A      1.304254  
    1220A      1.305752  1221A      1.306684  1222A      1.307962  
    1223A      1.308902  1224A      1.309534  1225A      1.311328  
    1226A      1.311957  1227A      1.313996  1228A      1.315373  
    1229A      1.316366  1230A      1.318738  1231A      1.318956  
    1232A      1.320504  1233A      1.324921  1234A      1.326626  
    1235A      1.329151  1236A      1.329493  1237A      1.331757  
    1238A      1.332673  1239A      1.333966  1240A      1.336622  
    1241A      1.337363  1242A      1.340041  1243A      1.340456  
    1244A      1.341169  1245A      1.342639  1246A      1.343342  
    1247A      1.343728  1248A      1.347694  1249A      1.349868  
    1250A      1.350505  1251A      1.352475  1252A      1.354401  
    1253A      1.354532  1254A      1.355113  1255A      1.356225  
    1256A      1.357438  1257A      1.358594  1258A      1.359716  
    1259A      1.362394  1260A      1.363226  1261A      1.365669  
    1262A      1.366782  1263A      1.369199  1264A      1.369509  
    1265A      1.370111  1266A      1.370857  1267A      1.371934  
    1268A      1.374191  1269A      1.374857  1270A      1.376712  
    1271A      1.377363  1272A      1.379812  1273A      1.379894  
    1274A      1.383590  1275A      1.383812  1276A      1.385662  
    1277A      1.385831  1278A      1.387848  1279A      1.391208  
    1280A      1.393210  1281A      1.393711  1282A      1.394739  
    1283A      1.395746  1284A      1.399144  1285A      1.399650  
    1286A      1.400300  1287A      1.401488  1288A      1.403705  
    1289A      1.406382  1290A      1.407453  1291A      1.408522  
    1292A      1.411783  1293A      1.412186  1294A      1.414279  
    1295A      1.415531  1296A      1.416883  1297A      1.417702  
    1298A      1.419600  1299A      1.421971  1300A      1.422098  
    1301A      1.423967  1302A      1.424538  1303A      1.427536  
    1304A      1.430083  1305A      1.431478  1306A      1.431778  
    1307A      1.432711  1308A      1.434794  1309A      1.435767  
    1310A      1.437658  1311A      1.439256  1312A      1.440219  
    1313A      1.442755  1314A      1.444317  1315A      1.446381  
    1316A      1.447310  1317A      1.448126  1318A      1.448678  
    1319A      1.451155  1320A      1.451274  1321A      1.454807  
    1322A      1.455050  1323A      1.458201  1324A      1.458836  
    1325A      1.459690  1326A      1.462108  1327A      1.462645  
    1328A      1.463342  1329A      1.466461  1330A      1.467090  
    1331A      1.467843  1332A      1.468187  1333A      1.470459  
    1334A      1.471897  1335A      1.473148  1336A      1.473590  
    1337A      1.474792  1338A      1.476538  1339A      1.476963  
    1340A      1.479469  1341A      1.480980  1342A      1.482881  
    1343A      1.484224  1344A      1.484912  1345A      1.485817  
    1346A      1.487503  1347A      1.487669  1348A      1.490620  
    1349A      1.493279  1350A      1.493904  1351A      1.495657  
    1352A      1.498663  1353A      1.499849  1354A      1.501754  
    1355A      1.503727  1356A      1.504256  1357A      1.505060  
    1358A      1.506462  1359A      1.506958  1360A      1.509183  
    1361A      1.511019  1362A      1.511532  1363A      1.514877  
    1364A      1.515944  1365A      1.516486  1366A      1.516750  
    1367A      1.517687  1368A      1.520549  1369A      1.520726  
    1370A      1.523990  1371A      1.524947  1372A      1.525730  
    1373A      1.526355  1374A      1.528496  1375A      1.529686  
    1376A      1.531113  1377A      1.534041  1378A      1.537100  
    1379A      1.537591  1380A      1.538166  1381A      1.540718  
    1382A      1.541548  1383A      1.544802  1384A      1.547236  
    1385A      1.548316  1386A      1.548550  1387A      1.550503  
    1388A      1.551394  1389A      1.551814  1390A      1.553180  
    1391A      1.555973  1392A      1.557141  1393A      1.557455  
    1394A      1.559215  1395A      1.559402  1396A      1.560751  
    1397A      1.564032  1398A      1.565774  1399A      1.566797  
    1400A      1.568359  1401A      1.568770  1402A      1.570328  
    1403A      1.572096  1404A      1.573279  1405A      1.574953  
    1406A      1.576422  1407A      1.577756  1408A      1.578457  
    1409A      1.578948  1410A      1.582100  1411A      1.583497  
    1412A      1.584497  1413A      1.585596  1414A      1.586165  
    1415A      1.587521  1416A      1.588857  1417A      1.591444  
    1418A      1.591718  1419A      1.592956  1420A      1.593390  
    1421A      1.596616  1422A      1.596814  1423A      1.599588  
    1424A      1.600828  1425A      1.602520  1426A      1.603175  
    1427A      1.603489  1428A      1.605017  1429A      1.607772  
    1430A      1.609309  1431A      1.611810  1432A      1.612202  
    1433A      1.612544  1434A      1.613014  1435A      1.615065  
    1436A      1.616258  1437A      1.616674  1438A      1.617582  
    1439A      1.619718  1440A      1.622083  1441A      1.622958  
    1442A      1.627580  1443A      1.628419  1444A      1.630719  
    1445A      1.632143  1446A      1.633008  1447A      1.635350  
    1448A      1.635752  1449A      1.636355  1450A      1.636591  
    1451A      1.637805  1452A      1.639838  1453A      1.640647  
    1454A      1.642744  1455A      1.643958  1456A      1.646757  
    1457A      1.647673  1458A      1.649091  1459A      1.650896  
    1460A      1.651786  1461A      1.652616  1462A      1.655315  
    1463A      1.656692  1464A      1.656891  1465A      1.658973  
    1466A      1.660916  1467A      1.661975  1468A      1.663161  
    1469A      1.663868  1470A      1.665325  1471A      1.665551  
    1472A      1.667365  1473A      1.667935  1474A      1.669784  
    1475A      1.672627  1476A      1.672799  1477A      1.676112  
    1478A      1.676883  1479A      1.679310  1480A      1.681488  
    1481A      1.682387  1482A      1.683353  1483A      1.685271  
    1484A      1.685793  1485A      1.689331  1486A      1.690528  
    1487A      1.691557  1488A      1.691822  1489A      1.696160  
    1490A      1.696647  1491A      1.697157  1492A      1.698831  
    1493A      1.699678  1494A      1.699997  1495A      1.700986  
    1496A      1.701839  1497A      1.703066  1498A      1.705005  
    1499A      1.705551  1500A      1.708077  1501A      1.708333  
    1502A      1.708884  1503A      1.711341  1504A      1.712345  
    1505A      1.713218  1506A      1.714665  1507A      1.716193  
    1508A      1.720012  1509A      1.720557  1510A      1.721355  
    1511A      1.722346  1512A      1.723353  1513A      1.724115  
    1514A      1.727171  1515A      1.728530  1516A      1.729276  
    1517A      1.732520  1518A      1.732918  1519A      1.734782  
    1520A      1.735521  1521A      1.736142  1522A      1.736676  
    1523A      1.737900  1524A      1.742408  1525A      1.743175  
    1526A      1.744285  1527A      1.744614  1528A      1.747443  
    1529A      1.748319  1530A      1.753225  1531A      1.754495  
    1532A      1.756277  1533A      1.757381  1534A      1.760115  
    1535A      1.762010  1536A      1.762821  1537A      1.763260  
    1538A      1.767455  1539A      1.768389  1540A      1.769863  
    1541A      1.772846  1542A      1.773390  1543A      1.776133  
    1544A      1.776241  1545A      1.778182  1546A      1.778686  
    1547A      1.779699  1548A      1.783452  1549A      1.784356  
    1550A      1.785167  1551A      1.786192  1552A      1.786747  
    1553A      1.788576  1554A      1.789657  1555A      1.791056  
    1556A      1.792284  1557A      1.792996  1558A      1.796021  
    1559A      1.797140  1560A      1.799800  1561A      1.801288  
    1562A      1.802988  1563A      1.804226  1564A      1.804416  
    1565A      1.806613  1566A      1.807612  1567A      1.807802  
    1568A      1.809521  1569A      1.810353  1570A      1.813021  
    1571A      1.814415  1572A      1.815941  1573A      1.818129  
    1574A      1.819356  1575A      1.819987  1576A      1.820617  
    1577A      1.822124  1578A      1.822852  1579A      1.830356  
    1580A      1.831012  1581A      1.831442  1582A      1.831827  
    1583A      1.836131  1584A      1.838832  1585A      1.839279  
    1586A      1.839843  1587A      1.841033  1588A      1.842343  
    1589A      1.845406  1590A      1.846773  1591A      1.848931  
    1592A      1.850606  1593A      1.852064  1594A      1.852591  
    1595A      1.854686  1596A      1.856330  1597A      1.857882  
    1598A      1.860159  1599A      1.861114  1600A      1.861841  
    1601A      1.863412  1602A      1.865403  1603A      1.865989  
    1604A      1.866995  1605A      1.870913  1606A      1.872124  
    1607A      1.873088  1608A      1.875753  1609A      1.876441  
    1610A      1.878630  1611A      1.880152  1612A      1.880874  
    1613A      1.883271  1614A      1.883680  1615A      1.883936  
    1616A      1.885762  1617A      1.886062  1618A      1.888111  
    1619A      1.889159  1620A      1.890683  1621A      1.892365  
    1622A      1.894404  1623A      1.895740  1624A      1.897172  
    1625A      1.900046  1626A      1.900219  1627A      1.901959  
    1628A      1.902631  1629A      1.903849  1630A      1.905855  
    1631A      1.906849  1632A      1.911291  1633A      1.912878  
    1634A      1.913254  1635A      1.914488  1636A      1.915503  
    1637A      1.916023  1638A      1.917913  1639A      1.921669  
    1640A      1.921727  1641A      1.922828  1642A      1.924890  
    1643A      1.926216  1644A      1.927194  1645A      1.928178  
    1646A      1.929381  1647A      1.929912  1648A      1.931420  
    1649A      1.937932  1650A      1.939304  1651A      1.940381  
    1652A      1.941208  1653A      1.941726  1654A      1.943117  
    1655A      1.944453  1656A      1.946114  1657A      1.948363  
    1658A      1.948765  1659A      1.950300  1660A      1.952784  
    1661A      1.953479  1662A      1.953714  1663A      1.955256  
    1664A      1.957302  1665A      1.958885  1666A      1.961761  
    1667A      1.963508  1668A      1.966166  1669A      1.969476  
    1670A      1.970620  1671A      1.971165  1672A      1.971711  
    1673A      1.973511  1674A      1.974319  1675A      1.978091  
    1676A      1.978799  1677A      1.979463  1678A      1.983045  
    1679A      1.983766  1680A      1.984258  1681A      1.985477  
    1682A      1.988545  1683A      1.990684  1684A      1.991594  
    1685A      1.994396  1686A      1.995000  1687A      1.996830  
    1688A      1.998520  1689A      1.999066  1690A      1.999183  
    1691A      2.000850  1692A      2.002788  1693A      2.005853  
    1694A      2.010640  1695A      2.010955  1696A      2.014011  
    1697A      2.014661  1698A      2.015547  1699A      2.018047  
    1700A      2.020497  1701A      2.021267  1702A      2.021922  
    1703A      2.026031  1704A      2.026544  1705A      2.027278  
    1706A      2.029425  1707A      2.030693  1708A      2.032165  
    1709A      2.035544  1710A      2.036297  1711A      2.039644  
    1712A      2.040564  1713A      2.040897  1714A      2.043327  
    1715A      2.044342  1716A      2.046943  1717A      2.048168  
    1718A      2.048947  1719A      2.050117  1720A      2.052768  
    1721A      2.052909  1722A      2.056891  1723A      2.058777  
    1724A      2.059886  1725A      2.062157  1726A      2.063274  
    1727A      2.064070  1728A      2.065064  1729A      2.066198  
    1730A      2.068488  1731A      2.070970  1732A      2.074270  
    1733A      2.075738  1734A      2.075993  1735A      2.080146  
    1736A      2.080674  1737A      2.082349  1738A      2.084313  
    1739A      2.087065  1740A      2.087260  1741A      2.089251  
    1742A      2.091721  1743A      2.091964  1744A      2.093275  
    1745A      2.095654  1746A      2.096445  1747A      2.099598  
    1748A      2.100464  1749A      2.102482  1750A      2.103521  
    1751A      2.104952  1752A      2.107317  1753A      2.107896  
    1754A      2.108954  1755A      2.109556  1756A      2.112761  
    1757A      2.115096  1758A      2.118354  1759A      2.119522  
    1760A      2.121943  1761A      2.122635  1762A      2.124608  
    1763A      2.126663  1764A      2.128219  1765A      2.129287  
    1766A      2.131294  1767A      2.132976  1768A      2.133264  
    1769A      2.136385  1770A      2.138072  1771A      2.139580  
    1772A      2.143929  1773A      2.144675  1774A      2.145955  
    1775A      2.147700  1776A      2.149669  1777A      2.152115  
    1778A      2.154063  1779A      2.154416  1780A      2.159712  
    1781A      2.161073  1782A      2.162599  1783A      2.163559  
    1784A      2.167301  1785A      2.168498  1786A      2.169461  
    1787A      2.173145  1788A      2.174705  1789A      2.174871  
    1790A      2.175958  1791A      2.179694  1792A      2.181191  
    1793A      2.184753  1794A      2.185723  1795A      2.186337  
    1796A      2.188877  1797A      2.190959  1798A      2.191992  
    1799A      2.194761  1800A      2.195503  1801A      2.196947  
    1802A      2.198151  1803A      2.201788  1804A      2.202728  
    1805A      2.204603  1806A      2.206535  1807A      2.207536  
    1808A      2.208273  1809A      2.211562  1810A      2.215077  
    1811A      2.217305  1812A      2.217895  1813A      2.221904  
    1814A      2.222219  1815A      2.222522  1816A      2.227614  
    1817A      2.227763  1818A      2.228336  1819A      2.234691  
    1820A      2.234887  1821A      2.235531  1822A      2.240482  
    1823A      2.241846  1824A      2.243737  1825A      2.244397  
    1826A      2.245148  1827A      2.247899  1828A      2.248539  
    1829A      2.250536  1830A      2.253911  1831A      2.254789  
    1832A      2.259290  1833A      2.260287  1834A      2.262865  
    1835A      2.263401  1836A      2.265044  1837A      2.269852  
    1838A      2.270886  1839A      2.273103  1840A      2.274590  
    1841A      2.276513  1842A      2.277298  1843A      2.278945  
    1844A      2.280990  1845A      2.284386  1846A      2.286295  
    1847A      2.288071  1848A      2.291318  1849A      2.292635  
    1850A      2.294843  1851A      2.297021  1852A      2.299689  
    1853A      2.301754  1854A      2.305575  1855A      2.305943  
    1856A      2.307388  1857A      2.308263  1858A      2.309837  
    1859A      2.310120  1860A      2.310631  1861A      2.315251  
    1862A      2.319384  1863A      2.320774  1864A      2.322535  
    1865A      2.324413  1866A      2.326744  1867A      2.328623  
    1868A      2.329047  1869A      2.330209  1870A      2.335242  
    1871A      2.337322  1872A      2.339867  1873A      2.340665  
    1874A      2.343892  1875A      2.345265  1876A      2.348283  
    1877A      2.348813  1878A      2.350463  1879A      2.353798  
    1880A      2.356717  1881A      2.359262  1882A      2.360106  
    1883A      2.361337  1884A      2.363196  1885A      2.367432  
    1886A      2.368467  1887A      2.371172  1888A      2.371319  
    1889A      2.373584  1890A      2.375737  1891A      2.375899  
    1892A      2.377827  1893A      2.379442  1894A      2.380973  
    1895A      2.386684  1896A      2.388359  1897A      2.388771  
    1898A      2.391600  1899A      2.394170  1900A      2.395113  
    1901A      2.396439  1902A      2.400856  1903A      2.401812  
    1904A      2.404448  1905A      2.406340  1906A      2.406715  
    1907A      2.410080  1908A      2.412796  1909A      2.414915  
    1910A      2.415804  1911A      2.417374  1912A      2.418445  
    1913A      2.419821  1914A      2.420859  1915A      2.421463  
    1916A      2.422302  1917A      2.424828  1918A      2.426735  
    1919A      2.430390  1920A      2.432187  1921A      2.435232  
    1922A      2.435809  1923A      2.437868  1924A      2.439426  
    1925A      2.440892  1926A      2.443317  1927A      2.447814  
    1928A      2.449698  1929A      2.451917  1930A      2.453809  
    1931A      2.454268  1932A      2.456800  1933A      2.458094  
    1934A      2.459715  1935A      2.462682  1936A      2.463661  
    1937A      2.463987  1938A      2.467311  1939A      2.469056  
    1940A      2.469801  1941A      2.471730  1942A      2.473129  
    1943A      2.475522  1944A      2.476405  1945A      2.481434  
    1946A      2.481923  1947A      2.482768  1948A      2.485690  
    1949A      2.490039  1950A      2.490671  1951A      2.491428  
    1952A      2.493646  1953A      2.494050  1954A      2.495082  
    1955A      2.496573  1956A      2.504542  1957A      2.505387  
    1958A      2.508585  1959A      2.511316  1960A      2.512985  
    1961A      2.516855  1962A      2.518077  1963A      2.519676  
    1964A      2.520476  1965A      2.520928  1966A      2.522725  
    1967A      2.525961  1968A      2.528715  1969A      2.531596  
    1970A      2.532363  1971A      2.535801  1972A      2.536502  
    1973A      2.539675  1974A      2.541935  1975A      2.543917  
    1976A      2.544116  1977A      2.546897  1978A      2.548310  
    1979A      2.551824  1980A      2.552943  1981A      2.553772  
    1982A      2.554856  1983A      2.555242  1984A      2.556922  
    1985A      2.561312  1986A      2.562311  1987A      2.567460  
    1988A      2.569832  1989A      2.571064  1990A      2.572641  
    1991A      2.572987  1992A      2.577036  1993A      2.578859  
    1994A      2.580738  1995A      2.582998  1996A      2.583083  
    1997A      2.588769  1998A      2.589173  1999A      2.590279  
    2000A      2.593825  2001A      2.594213  2002A      2.596275  
    2003A      2.597742  2004A      2.599282  2005A      2.603709  
    2006A      2.608520  2007A      2.609495  2008A      2.610982  
    2009A      2.611658  2010A      2.614956  2011A      2.615559  
    2012A      2.618996  2013A      2.621893  2014A      2.623527  
    2015A      2.626405  2016A      2.628012  2017A      2.628856  
    2018A      2.631385  2019A      2.632746  2020A      2.639676  
    2021A      2.640802  2022A      2.643239  2023A      2.644795  
    2024A      2.646950  2025A      2.648581  2026A      2.649575  
    2027A      2.651620  2028A      2.655588  2029A      2.657873  
    2030A      2.658436  2031A      2.668113  2032A      2.668295  
    2033A      2.671014  2034A      2.671604  2035A      2.675652  
    2036A      2.677898  2037A      2.679026  2038A      2.681107  
    2039A      2.683527  2040A      2.689235  2041A      2.690491  
    2042A      2.692001  2043A      2.696923  2044A      2.699491  
    2045A      2.702976  2046A      2.704110  2047A      2.706996  
    2048A      2.709572  2049A      2.712700  2050A      2.713003  
    2051A      2.715461  2052A      2.720003  2053A      2.720607  
    2054A      2.721872  2055A      2.727036  2056A      2.729152  
    2057A      2.733674  2058A      2.735411  2059A      2.737502  
    2060A      2.738671  2061A      2.740580  2062A      2.743881  
    2063A      2.746857  2064A      2.750036  2065A      2.750562  
    2066A      2.753191  2067A      2.760169  2068A      2.760520  
    2069A      2.761838  2070A      2.767542  2071A      2.768646  
    2072A      2.771586  2073A      2.772353  2074A      2.776151  
    2075A      2.780098  2076A      2.781232  2077A      2.784762  
    2078A      2.788312  2079A      2.792605  2080A      2.795739  
    2081A      2.804936  2082A      2.810522  2083A      2.811861  
    2084A      2.815774  2085A      2.817594  2086A      2.818147  
    2087A      2.819316  2088A      2.824297  2089A      2.828064  
    2090A      2.830166  2091A      2.834221  2092A      2.841642  
    2093A      2.845235  2094A      2.846057  2095A      2.856004  
    2096A      2.856275  2097A      2.857354  2098A      2.862462  
    2099A      2.865634  2100A      2.867814  2101A      2.874560  
    2102A      2.875530  2103A      2.878226  2104A      2.884211  
    2105A      2.885875  2106A      2.887251  2107A      2.891171  
    2108A      2.901683  2109A      2.906846  2110A      2.911316  
    2111A      2.911759  2112A      2.917622  2113A      2.921925  
    2114A      2.925372  2115A      2.926547  2116A      2.931705  
    2117A      2.937524  2118A      2.938301  2119A      2.947573  
    2120A      2.953129  2121A      2.954206  2122A      2.960064  
    2123A      2.963651  2124A      2.966248  2125A      2.969070  
    2126A      2.977127  2127A      2.978496  2128A      2.980675  
    2129A      2.986469  2130A      2.989199  2131A      2.993672  
    2132A      2.998388  2133A      3.002934  2134A      3.010152  
    2135A      3.019769  2136A      3.024400  2137A      3.034149  
    2138A      3.036900  2139A      3.040641  2140A      3.045202  
    2141A      3.049162  2142A      3.052576  2143A      3.058500  
    2144A      3.060469  2145A      3.064187  2146A      3.074192  
    2147A      3.081673  2148A      3.084584  2149A      3.085274  
    2150A      3.088403  2151A      3.094869  2152A      3.097673  
    2153A      3.103630  2154A      3.118466  2155A      3.122210  
    2156A      3.123603  2157A      3.130044  2158A      3.134545  
    2159A      3.138373  2160A      3.145785  2161A      3.149228  
    2162A      3.152361  2163A      3.155768  2164A      3.155972  
    2165A      3.163818  2166A      3.168012  2167A      3.168870  
    2168A      3.176235  2169A      3.182000  2170A      3.186589  
    2171A      3.193816  2172A      3.195809  2173A      3.196862  
    2174A      3.213517  2175A      3.214194  2176A      3.215364  
    2177A      3.216084  2178A      3.220250  2179A      3.225091  
    2180A      3.232330  2181A      3.240898  2182A      3.241406  
    2183A      3.243983  2184A      3.248005  2185A      3.248599  
    2186A      3.249757  2187A      3.255114  2188A      3.263691  
    2189A      3.272648  2190A      3.273327  2191A      3.274849  
    2192A      3.281953  2193A      3.283144  2194A      3.283799  
    2195A      3.285056  2196A      3.289598  2197A      3.290802  
    2198A      3.299445  2199A      3.299584  2200A      3.301121  
    2201A      3.302200  2202A      3.308620  2203A      3.310725  
    2204A      3.315812  2205A      3.316731  2206A      3.317250  
    2207A      3.320974  2208A      3.325894  2209A      3.328373  
    2210A      3.331116  2211A      3.334084  2212A      3.336789  
    2213A      3.337654  2214A      3.345328  2215A      3.348111  
    2216A      3.348723  2217A      3.352273  2218A      3.353043  
    2219A      3.358424  2220A      3.359801  2221A      3.361511  
    2222A      3.363004  2223A      3.365208  2224A      3.367546  
    2225A      3.371744  2226A      3.375443  2227A      3.376288  
    2228A      3.383207  2229A      3.384695  2230A      3.388964  
    2231A      3.389467  2232A      3.395580  2233A      3.396125  
    2234A      3.398179  2235A      3.399315  2236A      3.400938  
    2237A      3.402291  2238A      3.407016  2239A      3.409017  
    2240A      3.410832  2241A      3.414507  2242A      3.416057  
    2243A      3.417709  2244A      3.418093  2245A      3.424059  
    2246A      3.425058  2247A      3.427802  2248A      3.428154  
    2249A      3.432120  2250A      3.434246  2251A      3.437605  
    2252A      3.440933  2253A      3.442269  2254A      3.445633  
    2255A      3.446789  2256A      3.448697  2257A      3.451730  
    2258A      3.452227  2259A      3.456680  2260A      3.459586  
    2261A      3.463279  2262A      3.463395  2263A      3.466656  
    2264A      3.466990  2265A      3.469558  2266A      3.471106  
    2267A      3.473984  2268A      3.477089  2269A      3.477729  
    2270A      3.481061  2271A      3.481723  2272A      3.482745  
    2273A      3.485022  2274A      3.485658  2275A      3.489384  
    2276A      3.492487  2277A      3.493877  2278A      3.494082  
    2279A      3.499482  2280A      3.501302  2281A      3.503832  
    2282A      3.504934  2283A      3.508670  2284A      3.511006  
    2285A      3.514583  2286A      3.515354  2287A      3.520642  
    2288A      3.522019  2289A      3.522743  2290A      3.523690  
    2291A      3.526419  2292A      3.528824  2293A      3.530897  
    2294A      3.531261  2295A      3.533592  2296A      3.534870  
    2297A      3.538957  2298A      3.541765  2299A      3.543965  
    2300A      3.546902  2301A      3.547729  2302A      3.548765  
    2303A      3.551493  2304A      3.555228  2305A      3.556000  
    2306A      3.557502  2307A      3.563206  2308A      3.565870  
    2309A      3.570389  2310A      3.570572  2311A      3.570753  
    2312A      3.573306  2313A      3.575753  2314A      3.579396  
    2315A      3.580528  2316A      3.582029  2317A      3.584778  
    2318A      3.585777  2319A      3.587147  2320A      3.588384  
    2321A      3.591379  2322A      3.591952  2323A      3.593102  
    2324A      3.596561  2325A      3.597309  2326A      3.598348  
    2327A      3.599466  2328A      3.600700  2329A      3.604695  
    2330A      3.605701  2331A      3.607086  2332A      3.609070  
    2333A      3.610529  2334A      3.614787  2335A      3.616769  
    2336A      3.617662  2337A      3.620832  2338A      3.622060  
    2339A      3.622444  2340A      3.625398  2341A      3.627000  
    2342A      3.629877  2343A      3.631565  2344A      3.631972  
    2345A      3.634580  2346A      3.635992  2347A      3.637780  
    2348A      3.639068  2349A      3.642907  2350A      3.644104  
    2351A      3.646415  2352A      3.647640  2353A      3.649511  
    2354A      3.650679  2355A      3.653879  2356A      3.655591  
    2357A      3.657342  2358A      3.657926  2359A      3.658673  
    2360A      3.660269  2361A      3.662338  2362A      3.662960  
    2363A      3.664084  2364A      3.666956  2365A      3.668584  
    2366A      3.670494  2367A      3.674884  2368A      3.676039  
    2369A      3.679439  2370A      3.680130  2371A      3.682571  
    2372A      3.683007  2373A      3.684619  2374A      3.685332  
    2375A      3.691130  2376A      3.693003  2377A      3.693216  
    2378A      3.696902  2379A      3.697932  2380A      3.700394  
    2381A      3.701109  2382A      3.702156  2383A      3.703072  
    2384A      3.708519  2385A      3.709744  2386A      3.713003  
    2387A      3.714256  2388A      3.715797  2389A      3.717604  
    2390A      3.721955  2391A      3.722645  2392A      3.723256  
    2393A      3.724074  2394A      3.725967  2395A      3.727566  
    2396A      3.728743  2397A      3.729817  2398A      3.732893  
    2399A      3.735487  2400A      3.736059  2401A      3.743015  
    2402A      3.744650  2403A      3.744920  2404A      3.746580  
    2405A      3.747171  2406A      3.750065  2407A      3.751228  
    2408A      3.752482  2409A      3.755235  2410A      3.758932  
    2411A      3.763237  2412A      3.763477  2413A      3.766144  
    2414A      3.768391  2415A      3.769090  2416A      3.769129  
    2417A      3.769832  2418A      3.772700  2419A      3.774382  
    2420A      3.774621  2421A      3.776253  2422A      3.779765  
    2423A      3.780792  2424A      3.781037  2425A      3.783405  
    2426A      3.785994  2427A      3.786239  2428A      3.790328  
    2429A      3.791213  2430A      3.792214  2431A      3.794011  
    2432A      3.797601  2433A      3.798443  2434A      3.801355  
    2435A      3.802918  2436A      3.803310  2437A      3.807379  
    2438A      3.808607  2439A      3.811648  2440A      3.812065  
    2441A      3.814795  2442A      3.817085  2443A      3.817607  
    2444A      3.821412  2445A      3.821994  2446A      3.822470  
    2447A      3.823753  2448A      3.825189  2449A      3.828180  
    2450A      3.829224  2451A      3.830808  2452A      3.831440  
    2453A      3.835909  2454A      3.837749  2455A      3.839932  
    2456A      3.840917  2457A      3.844389  2458A      3.845650  
    2459A      3.848725  2460A      3.850552  2461A      3.851404  
    2462A      3.852714  2463A      3.855901  2464A      3.857658  
    2465A      3.860649  2466A      3.861740  2467A      3.863325  
    2468A      3.864036  2469A      3.871196  2470A      3.871780  
    2471A      3.871956  2472A      3.873626  2473A      3.874087  
    2474A      3.878343  2475A      3.879694  2476A      3.880104  
    2477A      3.882854  2478A      3.884450  2479A      3.885975  
    2480A      3.889215  2481A      3.890518  2482A      3.892124  
    2483A      3.893021  2484A      3.895003  2485A      3.895483  
    2486A      3.897291  2487A      3.898735  2488A      3.902757  
    2489A      3.904592  2490A      3.905627  2491A      3.907363  
    2492A      3.910547  2493A      3.912989  2494A      3.914619  
    2495A      3.915316  2496A      3.916697  2497A      3.917834  
    2498A      3.919905  2499A      3.921393  2500A      3.923062  
    2501A      3.925324  2502A      3.926622  2503A      3.929012  
    2504A      3.930263  2505A      3.931944  2506A      3.933264  
    2507A      3.933988  2508A      3.936606  2509A      3.938157  
    2510A      3.939763  2511A      3.940013  2512A      3.946829  
    2513A      3.948033  2514A      3.950366  2515A      3.950860  
    2516A      3.952488  2517A      3.952895  2518A      3.956805  
    2519A      3.957932  2520A      3.960247  2521A      3.961603  
    2522A      3.962745  2523A      3.967483  2524A      3.968229  
    2525A      3.969926  2526A      3.972304  2527A      3.974132  
    2528A      3.977491  2529A      3.978126  2530A      3.979437  
    2531A      3.980430  2532A      3.983418  2533A      3.987063  
    2534A      3.988918  2535A      3.990728  2536A      3.992831  
    2537A      3.994002  2538A      3.995674  2539A      3.995871  
    2540A      3.997709  2541A      3.998466  2542A      4.002060  
    2543A      4.005332  2544A      4.005809  2545A      4.010188  
    2546A      4.011014  2547A      4.013363  2548A      4.015894  
    2549A      4.021532  2550A      4.022612  2551A      4.024186  
    2552A      4.025102  2553A      4.027879  2554A      4.028854  
    2555A      4.030228  2556A      4.031449  2557A      4.033212  
    2558A      4.034076  2559A      4.036648  2560A      4.037285  
    2561A      4.039604  2562A      4.043436  2563A      4.044131  
    2564A      4.045745  2565A      4.049859  2566A      4.051700  
    2567A      4.053049  2568A      4.055320  2569A      4.056077  
    2570A      4.058389  2571A      4.065259  2572A      4.065832  
    2573A      4.067204  2574A      4.069155  2575A      4.071338  
    2576A      4.072365  2577A      4.076947  2578A      4.077547  
    2579A      4.079128  2580A      4.080686  2581A      4.084400  
    2582A      4.085880  2583A      4.087852  2584A      4.091069  
    2585A      4.092360  2586A      4.094405  2587A      4.095647  
    2588A      4.097009  2589A      4.097860  2590A      4.102814  
    2591A      4.103072  2592A      4.105533  2593A      4.106176  
    2594A      4.110137  2595A      4.112168  2596A      4.113472  
    2597A      4.114128  2598A      4.116167  2599A      4.117107  
    2600A      4.119374  2601A      4.121320  2602A      4.124035  
    2603A      4.128850  2604A      4.133008  2605A      4.137148  
    2606A      4.137625  2607A      4.138480  2608A      4.139533  
    2609A      4.141603  2610A      4.143261  2611A      4.147020  
    2612A      4.147266  2613A      4.148751  2614A      4.152478  
    2615A      4.155062  2616A      4.155624  2617A      4.158589  
    2618A      4.159858  2619A      4.160479  2620A      4.161635  
    2621A      4.163837  2622A      4.164600  2623A      4.166425  
    2624A      4.168418  2625A      4.173031  2626A      4.173830  
    2627A      4.174631  2628A      4.177684  2629A      4.179826  
    2630A      4.182041  2631A      4.182540  2632A      4.186043  
    2633A      4.188468  2634A      4.188983  2635A      4.192578  
    2636A      4.193662  2637A      4.196108  2638A      4.196688  
    2639A      4.197356  2640A      4.199182  2641A      4.201040  
    2642A      4.201633  2643A      4.204185  2644A      4.206293  
    2645A      4.207689  2646A      4.209009  2647A      4.209277  
    2648A      4.211073  2649A      4.216241  2650A      4.217611  
    2651A      4.218367  2652A      4.222844  2653A      4.224996  
    2654A      4.225902  2655A      4.226953  2656A      4.229746  
    2657A      4.230824  2658A      4.234429  2659A      4.234881  
    2660A      4.241124  2661A      4.242111  2662A      4.245430  
    2663A      4.246007  2664A      4.248497  2665A      4.249086  
    2666A      4.251390  2667A      4.252905  2668A      4.253862  
    2669A      4.257572  2670A      4.260999  2671A      4.262138  
    2672A      4.263835  2673A      4.264407  2674A      4.268079  
    2675A      4.268468  2676A      4.271895  2677A      4.275280  
    2678A      4.276617  2679A      4.278224  2680A      4.283693  
    2681A      4.286088  2682A      4.287269  2683A      4.287356  
    2684A      4.289643  2685A      4.292964  2686A      4.294130  
    2687A      4.294938  2688A      4.297643  2689A      4.300182  
    2690A      4.300554  2691A      4.301978  2692A      4.305426  
    2693A      4.306924  2694A      4.309520  2695A      4.310186  
    2696A      4.311027  2697A      4.312660  2698A      4.313314  
    2699A      4.320003  2700A      4.320884  2701A      4.322852  
    2702A      4.326078  2703A      4.327949  2704A      4.328718  
    2705A      4.332381  2706A      4.333801  2707A      4.335227  
    2708A      4.337106  2709A      4.339118  2710A      4.339545  
    2711A      4.340317  2712A      4.342017  2713A      4.348881  
    2714A      4.349250  2715A      4.352377  2716A      4.352882  
    2717A      4.353905  2718A      4.356511  2719A      4.359169  
    2720A      4.359712  2721A      4.362328  2722A      4.365899  
    2723A      4.367176  2724A      4.369409  2725A      4.370451  
    2726A      4.371279  2727A      4.373930  2728A      4.377646  
    2729A      4.380077  2730A      4.383022  2731A      4.384356  
    2732A      4.385784  2733A      4.387632  2734A      4.388586  
    2735A      4.389220  2736A      4.391634  2737A      4.394863  
    2738A      4.396839  2739A      4.397226  2740A      4.402432  
    2741A      4.403816  2742A      4.406851  2743A      4.409178  
    2744A      4.410607  2745A      4.411054  2746A      4.413231  
    2747A      4.415214  2748A      4.416062  2749A      4.418297  
    2750A      4.421250  2751A      4.422743  2752A      4.424934  
    2753A      4.426070  2754A      4.430029  2755A      4.431536  
    2756A      4.438534  2757A      4.439499  2758A      4.439858  
    2759A      4.443139  2760A      4.443516  2761A      4.444607  
    2762A      4.448739  2763A      4.451819  2764A      4.455087  
    2765A      4.455350  2766A      4.458237  2767A      4.459870  
    2768A      4.461668  2769A      4.462011  2770A      4.462297  
    2771A      4.468070  2772A      4.468340  2773A      4.475007  
    2774A      4.478331  2775A      4.479451  2776A      4.480189  
    2777A      4.481223  2778A      4.481853  2779A      4.484890  
    2780A      4.487057  2781A      4.487859  2782A      4.490416  
    2783A      4.495629  2784A      4.495858  2785A      4.498354  
    2786A      4.499788  2787A      4.499885  2788A      4.502330  
    2789A      4.509728  2790A      4.510807  2791A      4.511320  
    2792A      4.512424  2793A      4.515198  2794A      4.520597  
    2795A      4.523123  2796A      4.524206  2797A      4.526256  
    2798A      4.529040  2799A      4.529949  2800A      4.533682  
    2801A      4.534308  2802A      4.534824  2803A      4.537762  
    2804A      4.540609  2805A      4.543987  2806A      4.548523  
    2807A      4.551681  2808A      4.553633  2809A      4.554852  
    2810A      4.558529  2811A      4.559145  2812A      4.562778  
    2813A      4.566981  2814A      4.567742  2815A      4.569333  
    2816A      4.575261  2817A      4.576703  2818A      4.577643  
    2819A      4.581480  2820A      4.582643  2821A      4.585525  
    2822A      4.586959  2823A      4.588343  2824A      4.588897  
    2825A      4.593176  2826A      4.595445  2827A      4.596140  
    2828A      4.598533  2829A      4.604404  2830A      4.607125  
    2831A      4.607347  2832A      4.608712  2833A      4.614545  
    2834A      4.615067  2835A      4.617693  2836A      4.618971  
    2837A      4.624281  2838A      4.624671  2839A      4.627209  
    2840A      4.630854  2841A      4.631902  2842A      4.632671  
    2843A      4.637080  2844A      4.643780  2845A      4.646995  
    2846A      4.650200  2847A      4.651284  2848A      4.654327  
    2849A      4.656142  2850A      4.656542  2851A      4.657871  
    2852A      4.663335  2853A      4.665367  2854A      4.665777  
    2855A      4.669979  2856A      4.670737  2857A      4.672602  
    2858A      4.679728  2859A      4.684576  2860A      4.687910  
    2861A      4.691005  2862A      4.692625  2863A      4.693524  
    2864A      4.694632  2865A      4.697471  2866A      4.698811  
    2867A      4.701507  2868A      4.701782  2869A      4.709664  
    2870A      4.710001  2871A      4.714634  2872A      4.716916  
    2873A      4.719868  2874A      4.722673  2875A      4.723418  
    2876A      4.724137  2877A      4.729519  2878A      4.733335  
    2879A      4.734624  2880A      4.736890  2881A      4.740248  
    2882A      4.741489  2883A      4.744306  2884A      4.747240  
    2885A      4.747700  2886A      4.748399  2887A      4.750539  
    2888A      4.753251  2889A      4.755873  2890A      4.756644  
    2891A      4.758423  2892A      4.760687  2893A      4.766216  
    2894A      4.767191  2895A      4.770811  2896A      4.775037  
    2897A      4.777568  2898A      4.780568  2899A      4.781686  
    2900A      4.786573  2901A      4.792181  2902A      4.792863  
    2903A      4.793245  2904A      4.797426  2905A      4.798776  
    2906A      4.799604  2907A      4.803955  2908A      4.805498  
    2909A      4.806184  2910A      4.806823  2911A      4.811734  
    2912A      4.811788  2913A      4.813976  2914A      4.816679  
    2915A      4.819893  2916A      4.822596  2917A      4.825830  
    2918A      4.826153  2919A      4.827998  2920A      4.833238  
    2921A      4.835965  2922A      4.836076  2923A      4.841353  
    2924A      4.844980  2925A      4.846222  2926A      4.850487  
    2927A      4.851918  2928A      4.853904  2929A      4.854872  
    2930A      4.862454  2931A      4.863334  2932A      4.864817  
    2933A      4.868693  2934A      4.872109  2935A      4.873421  
    2936A      4.880956  2937A      4.882049  2938A      4.883277  
    2939A      4.884877  2940A      4.886016  2941A      4.891244  
    2942A      4.892451  2943A      4.893588  2944A      4.900291  
    2945A      4.901523  2946A      4.901975  2947A      4.906030  
    2948A      4.908145  2949A      4.911890  2950A      4.916158  
    2951A      4.918407  2952A      4.921046  2953A      4.921829  
    2954A      4.927633  2955A      4.931896  2956A      4.933436  
    2957A      4.934978  2958A      4.938000  2959A      4.942242  
    2960A      4.943175  2961A      4.947135  2962A      4.949191  
    2963A      4.949648  2964A      4.955462  2965A      4.957490  
    2966A      4.959926  2967A      4.963428  2968A      4.970042  
    2969A      4.972400  2970A      4.972986  2971A      4.975189  
    2972A      4.980150  2973A      4.981761  2974A      4.983064  
    2975A      4.985542  2976A      4.986894  2977A      4.991828  
    2978A      4.993897  2979A      4.996618  2980A      4.998783  
    2981A      5.000536  2982A      5.001973  2983A      5.004615  
    2984A      5.008409  2985A      5.012959  2986A      5.013176  
    2987A      5.021473  2988A      5.022336  2989A      5.024471  
    2990A      5.025072  2991A      5.025486  2992A      5.029071  
    2993A      5.030696  2994A      5.032108  2995A      5.038431  
    2996A      5.043123  2997A      5.045641  2998A      5.048917  
    2999A      5.050587  3000A      5.051182  3001A      5.054451  
    3002A      5.059031  3003A      5.060304  3004A      5.065175  
    3005A      5.066294  3006A      5.071990  3007A      5.074103  
    3008A      5.075922  3009A      5.080082  3010A      5.081882  
    3011A      5.084477  3012A      5.086642  3013A      5.093340  
    3014A      5.094089  3015A      5.096757  3016A      5.099868  
    3017A      5.102613  3018A      5.104377  3019A      5.105701  
    3020A      5.112417  3021A      5.112774  3022A      5.118924  
    3023A      5.120082  3024A      5.121852  3025A      5.129034  
    3026A      5.131544  3027A      5.133790  3028A      5.136149  
    3029A      5.138226  3030A      5.138654  3031A      5.139184  
    3032A      5.144848  3033A      5.146130  3034A      5.150873  
    3035A      5.152445  3036A      5.155829  3037A      5.156133  
    3038A      5.159416  3039A      5.163625  3040A      5.167256  
    3041A      5.169124  3042A      5.174887  3043A      5.178165  
    3044A      5.179039  3045A      5.181503  3046A      5.182339  
    3047A      5.188332  3048A      5.188693  3049A      5.192525  
    3050A      5.193229  3051A      5.204260  3052A      5.206053  
    3053A      5.208682  3054A      5.213331  3055A      5.215803  
    3056A      5.217801  3057A      5.223363  3058A      5.224935  
    3059A      5.228778  3060A      5.229165  3061A      5.235077  
    3062A      5.236447  3063A      5.240629  3064A      5.242314  
    3065A      5.244892  3066A      5.249172  3067A      5.250350  
    3068A      5.253809  3069A      5.254990  3070A      5.255341  
    3071A      5.256145  3072A      5.263749  3073A      5.264543  
    3074A      5.274682  3075A      5.275398  3076A      5.277648  
    3077A      5.281402  3078A      5.288719  3079A      5.289360  
    3080A      5.292630  3081A      5.293557  3082A      5.294203  
    3083A      5.299322  3084A      5.303466  3085A      5.303964  
    3086A      5.305014  3087A      5.305487  3088A      5.309170  
    3089A      5.311701  3090A      5.313316  3091A      5.316638  
    3092A      5.320043  3093A      5.328583  3094A      5.330534  
    3095A      5.339202  3096A      5.340260  3097A      5.341797  
    3098A      5.349244  3099A      5.357935  3100A      5.358251  
    3101A      5.359277  3102A      5.360847  3103A      5.363191  
    3104A      5.369800  3105A      5.372162  3106A      5.378992  
    3107A      5.382117  3108A      5.382479  3109A      5.390665  
    3110A      5.391989  3111A      5.393726  3112A      5.401152  
    3113A      5.407767  3114A      5.408472  3115A      5.409378  
    3116A      5.412057  3117A      5.412450  3118A      5.422575  
    3119A      5.423980  3120A      5.427198  3121A      5.428486  
    3122A      5.430350  3123A      5.432287  3124A      5.435391  
    3125A      5.437173  3126A      5.440908  3127A      5.446124  
    3128A      5.451075  3129A      5.453593  3130A      5.457190  
    3131A      5.463091  3132A      5.464948  3133A      5.467559  
    3134A      5.471972  3135A      5.473321  3136A      5.477155  
    3137A      5.481432  3138A      5.481579  3139A      5.483382  
    3140A      5.485056  3141A      5.493976  3142A      5.499349  
    3143A      5.502005  3144A      5.506399  3145A      5.507354  
    3146A      5.511415  3147A      5.513870  3148A      5.514346  
    3149A      5.516460  3150A      5.517453  3151A      5.523295  
    3152A      5.524036  3153A      5.525019  3154A      5.526901  
    3155A      5.536151  3156A      5.537019  3157A      5.540501  
    3158A      5.544500  3159A      5.544882  3160A      5.546765  
    3161A      5.548643  3162A      5.558301  3163A      5.560337  
    3164A      5.567930  3165A      5.570227  3166A      5.574128  
    3167A      5.582099  3168A      5.585016  3169A      5.593502  
    3170A      5.598081  3171A      5.601938  3172A      5.602955  
    3173A      5.614875  3174A      5.616990  3175A      5.619092  
    3176A      5.622424  3177A      5.622922  3178A      5.626512  
    3179A      5.633810  3180A      5.639170  3181A      5.639824  
    3182A      5.641199  3183A      5.645503  3184A      5.646670  
    3185A      5.649180  3186A      5.652885  3187A      5.658933  
    3188A      5.667154  3189A      5.668943  3190A      5.675265  
    3191A      5.677776  3192A      5.690366  3193A      5.691706  
    3194A      5.695410  3195A      5.708802  3196A      5.709351  
    3197A      5.712293  3198A      5.713872  3199A      5.717350  
    3200A      5.727020  3201A      5.733521  3202A      5.735587  
    3203A      5.740149  3204A      5.741326  3205A      5.750479  
    3206A      5.756804  3207A      5.760993  3208A      5.763592  
    3209A      5.767647  3210A      5.774922  3211A      5.777806  
    3212A      5.784003  3213A      5.791655  3214A      5.797628  
    3215A      5.809836  3216A      5.810767  3217A      5.811847  
    3218A      5.814441  3219A      5.826529  3220A      5.826945  
    3221A      5.832033  3222A      5.844096  3223A      5.855266  
    3224A      5.860637  3225A      5.862930  3226A      5.869444  
    3227A      5.873285  3228A      5.881244  3229A      5.890580  
    3230A      5.894557  3231A      5.901845  3232A      5.906398  
    3233A      5.918045  3234A      5.919689  3235A      5.925766  
    3236A      5.933702  3237A      5.937582  3238A      5.942606  
    3239A      5.952377  3240A      5.958826  3241A      5.963267  
    3242A      5.978158  3243A      5.984900  3244A      5.991184  
    3245A      5.994736  3246A      6.004655  3247A      6.014779  
    3248A      6.015524  3249A      6.022416  3250A      6.026139  
    3251A      6.028233  3252A      6.034998  3253A      6.036520  
    3254A      6.043957  3255A      6.047338  3256A      6.052971  
    3257A      6.075705  3258A      6.078962  3259A      6.084012  
    3260A      6.093259  3261A      6.097093  3262A      6.150727  
    3263A      6.157527  3264A      6.158273  3265A      6.180263  
    3266A      6.194517  3267A      6.209882  3268A      6.213888  
    3269A      6.218910  3270A      6.223754  3271A      6.226607  
    3272A      6.259314  3273A      6.263752  3274A      6.284274  
    3275A      6.294776  3276A      6.307250  3277A      6.317292  
    3278A      6.318526  3279A      6.328459  3280A      6.331048  
    3281A      6.338219  3282A      6.340868  3283A      6.345163  
    3284A      6.345515  3285A      6.361735  3286A      6.366922  
    3287A      6.370563  3288A      6.376612  3289A      6.377032  
    3290A      6.377809  3291A      6.382703  3292A      6.383290  
    3293A      6.387965  3294A      6.390124  3295A      6.394367  
    3296A      6.399043  3297A      6.406999  3298A      6.414152  
    3299A      6.427011  3300A      6.436762  3301A      6.452560  
    3302A      6.459218  3303A      6.472696  3304A      6.483315  
    3305A      6.499387  3306A      6.513084  3307A      6.519746  
    3308A      6.528264  3309A      6.536591  3310A      6.543127  
    3311A      6.553447  3312A      6.556633  3313A      6.586130  
    3314A      6.586657  3315A      6.605885  3316A      6.637530  
    3317A      6.670630  3318A      6.676834  3319A      6.683256  
    3320A      6.697483  3321A      6.701558  3322A      6.710861  
    3323A      6.719236  3324A      6.729405  3325A      6.742545  
    3326A      6.758007  3327A      6.759674  3328A      6.768277  
    3329A      6.770744  3330A      6.775637  3331A      6.799672  
    3332A      6.812183  3333A      6.830713  3334A      6.838668  
    3335A      6.840143  3336A      6.848277  3337A      6.853074  
    3338A      6.854030  3339A      6.859418  3340A      6.877778  
    3341A      6.885110  3342A      6.898582  3343A      6.903804  
    3344A      6.904812  3345A      6.907124  3346A      6.935210  
    3347A      6.936366  3348A      6.944269  3349A      6.968826  
    3350A      6.975486  3351A      6.997984  3352A      6.998374  
    3353A      7.060123  3354A      7.071840  3355A      7.082776  
    3356A      7.088923  3357A      7.109033  3358A      7.121787  
    3359A      7.140727  3360A      7.173304  3361A      7.264110  
    3362A     15.786051  3363A     15.846172  3364A     16.075245  
    3365A     16.119418  3366A     16.176080  3367A     16.312449  
    3368A     16.517182  3369A     16.567360  3370A     16.682503  
    3371A     16.810268  3372A     17.117232  3373A     17.684456  
    3374A     17.746160  3375A     18.033944  3376A     18.078360  
    3377A     18.119757  3378A     18.174752  3379A     18.175328  
    3380A     18.264584  3381A     18.306944  3382A     18.354298  
    3383A     18.485628  3384A     18.499646  3385A     18.546317  
    3386A     18.678430  3387A     18.738475  3388A     19.035237  
    3389A     19.451717  3390A     19.873074  3391A     19.934826  
    3392A     20.065154  3393A     20.212705  3394A     20.327406  
    3395A     20.358940  3396A     20.402598  3397A     20.557663  
    3398A     20.608472  3399A     20.810243  3400A     20.858510  
    3401A     21.039528  3402A     21.185791  3403A     21.227083  
    3404A     21.300254  3405A     21.377933  3406A     21.421926  
    3407A     21.443740  3408A     21.551120  3409A     21.570019  
    3410A     21.623259  3411A     21.649898  3412A     21.792395  
    3413A     22.023888  3414A     22.032655  3415A     22.071671  
    3416A     22.115588  3417A     22.392827  3418A     22.922802  
    3419A     23.075366  

    Final Occupation by Irrep:
              A 
    DOCC [   193 ]
    NA   [   193 ]
    NB   [   193 ]

  @DF-RKS Final Energy: -2297.28879827821629

   => Energetics <=

    Nuclear Repulsion Energy =           8253.9876492093371780
    One-Electron Energy =              -19549.9616935622179881
    Two-Electron Energy =                9228.3558255157477106
    DFT Exchange-Correlation Energy =    -231.0273267556391659
    Empirical Dispersion Energy =           0.0000000000000000
    VV10 Nonlocal Energy =                  1.3567473145554259
    Total Energy =                      -2297.2887982782167455

Computation Completed


Properties will be evaluated at   0.000000,   0.000000,   0.000000 [a0]

Properties computed using the SCF density matrix


 Multipole Moments:

 ------------------------------------------------------------------------------------
     Multipole            Electronic (a.u.)      Nuclear  (a.u.)        Total (a.u.)
 ------------------------------------------------------------------------------------

 L = 1.  Multiply by 2.5417464519 to convert [e a0] to [Debye]
 Dipole X            :          7.9411698           -8.0244688           -0.0832990
 Dipole Y            :          1.3994377           -0.9323541            0.4670836
 Dipole Z            :          0.1132206           -0.1046661            0.0085544
 Magnitude           :                                                    0.4745303

 ------------------------------------------------------------------------------------

*** tstop() called on atl1-1-02-003-28-1.pace.gatech.edu at Sat Jun 13 20:11:25 2026
Module time:
	user time   =  137944.96 seconds =    2299.08 minutes
	system time =    7108.86 seconds =     118.48 minutes
	total time  =      20303 seconds =     338.38 minutes
Total time:
	user time   =  137944.96 seconds =    2299.08 minutes
	system time =    7108.86 seconds =     118.48 minutes
	total time  =      20303 seconds =     338.38 minutes

    Psi4 stopped on: Saturday, 13 June 2026 08:11PM
    Psi4 wall time for execution: 5:38:44.51

*** Psi4 exiting successfully. Buy a developer a beer!
