
    -----------------------------------------------------------------------
          Psi4: An Open-Source Ab Initio Electronic Structure Package
                               Psi4 1.9.1 release

                         Git: Rev {} zzzzzzz 


    D. G. A. Smith, L. A. Burns, A. C. Simmonett, R. M. Parrish,
    M. C. Schieber, R. Galvelis, P. Kraus, H. Kruse, R. Di Remigio,
    A. Alenaizan, A. M. James, S. Lehtola, J. P. Misiewicz, M. Scheurer,
    R. A. Shaw, J. B. Schriber, Y. Xie, Z. L. Glick, D. A. Sirianni,
    J. S. O'Brien, J. M. Waldrop, A. Kumar, E. G. Hohenstein,
    B. P. Pritchard, B. R. Brooks, H. F. Schaefer III, A. Yu. Sokolov,
    K. Patkowski, A. E. DePrince III, U. Bozkaya, R. A. King,
    F. A. Evangelista, J. M. Turney, T. D. Crawford, C. D. Sherrill,
    J. Chem. Phys. 152(18) 184108 (2020). https://doi.org/10.1063/5.0006002

                            Additional Code Authors
    E. T. Seidl, C. L. Janssen, E. F. Valeev, M. L. Leininger,
    J. F. Gonthier, R. M. Richard, H. R. McAlexander, M. Saitow, X. Wang,
    P. Verma, M. H. Lechner, A. Jiang, S. Behnle, A. G. Heide,
    M. F. Herbst, and D. L. Poole

             Previous Authors, Complete List of Code Contributors,
                       and Citations for Specific Modules
    https://github.com/psi4/psi4/blob/master/codemeta.json
    https://github.com/psi4/psi4/graphs/contributors
    http://psicode.org/psi4manual/master/introduction.html#citing-psifour

    -----------------------------------------------------------------------


    Psi4 started on: Saturday, 13 June 2026 12:13PM

    Process ID: 1528935
    Host:       atl1-1-02-003-29-1.pace.gatech.edu
    PSIDATADIR: /storage/home/hcoda1/5/vlita3/.conda/envs/p4_qcml/share/psi4
    Memory:     250.0 GiB
    Threads:    10
    
  ==> Input QCSchema <==

--------------------------------------------------------------------------
{'driver': 'energy',
 'extras': {},
 'id': '235',
 'keywords': {},
 'model': {'basis': 'aug-cc-pvtz', 'method': 'wb97x-d'},
 'molecule': {'extras': {},
              'fix_com': True,
              'fix_orientation': True,
              'fragment_charges': [0.0, 0.0],
              'fragment_multiplicities': [1, 1],
              'fragments': [[0, 1, 2, 3, 4, 5, 6, 7, 8, 9, 10, 11, 12, 13, 14, 15, 16, 17, 18, 19, 20, 21, 22, 23, 24,
                             25, 26, 27, 28, 29, 30, 31, 32, 33, 34, 35, 36, 37, 38, 39, 40, 41, 42, 43, 44, 45, 46, 47,
                             48, 49, 50, 51, 52, 53, 54, 55, 56, 57, 58, 59, 60, 61, 62, 63, 64, 65, 66, 67, 68, 69, 70,
                             71],
                            [72, 73, 74, 75, 76, 77, 78, 79, 80, 81, 82, 83, 84, 85, 86, 87, 88, 89, 90, 91]],
              'geometry': [-0.27392714, 6.18819166, -1.19323544, -2.46344698, 5.77825337, -2.60449614, -4.6940608,
                           5.39705781, -1.25234985, -4.71896739, 5.33938337, 1.40379628, -2.51326016, 5.65638493,
                           2.81229042, -0.29786241, 6.1264921, 1.46128175, -7.4236946, 4.94664159, -2.11437677,
                           -8.0102089, 2.21933216, -1.3518118, -8.03725088, 2.16388759, 1.30730308, -7.46490952,
                           4.85601033, 2.19433108, -8.21278754, 0.01810099, -2.78449255, -8.41651891, -2.24308601,
                           -1.44718061, -8.44656555, -2.29788807, 1.20944929, -8.27108559, -0.09424159, 2.64331111,
                           -8.82968863, 6.36030791, 0.05739419, 2.39027678, 6.99321499, -1.97848656, 2.35234998,
                           6.89052727, 2.33048585, 4.24147139, 4.87579576, 1.47132186, 4.26509297, 4.93957402,
                           -1.18371122, 5.91295305, 3.35513315, 2.83024282, 7.66850862, 1.97164575, 1.43096487,
                           7.69269711, 2.03631218, -1.22332744, 5.96134893, 3.48626124, -2.58482409, 2.91214355,
                           8.90127146, 0.22748523, 9.87956377, 0.34201964, -2.07607202, 9.16122218, -2.35520346,
                           -1.32189933, 9.13548411, -2.42066358, 1.33912796, 9.83927481, 0.23553924, 2.23913649,
                           8.55002806, -4.47912335, -2.729596, 7.90073706, -6.7005909, -1.42801501, 7.87418641,
                           -6.76523843, 1.20657123, 8.49702124, -4.61078057, 2.62830668, 11.77284258, 0.92596769,
                           0.1150709, -8.31764844, -5.08264518, 1.9809621, -5.66577687, -5.91321761, 1.16915466,
                           -5.63425624, -5.85826437, -1.48990165, -8.26696598, -4.99384695, -2.32929532, -3.49926256,
                           -6.47956853, 2.52781105, -1.27490751, -7.03089613, 1.18478458, -1.24350593, -6.97650981,
                           -1.44679133, -3.43540871, -6.36901955, -2.81856431, -9.87669139, -6.270716, -0.2182029,
                           -2.4529401, 5.84171037, -4.65828828, -2.54030214, 5.62747212, 4.86674397, -7.86022133,
                           5.46728004, -4.05896164, -7.93792687, 5.29540945, 4.15038659, -8.11773431, 0.05695332,
                           -4.83605482, -8.21892915, -0.14041005, 4.69617729, -8.40519945, 8.38335422, 0.10379812,
                           -10.87140543, 6.03249712, 0.03110168, 2.58575005, 7.68646102, -3.90969218, 2.51428061,
                           7.49055311, 4.29570653, 5.92036077, 3.32542665, 4.88460188, 6.00539845, 3.55672913,
                           -4.63769027, 1.57808761, 10.48166831, 0.25357668, 4.86729199, 9.57563912, 0.26070473,
                           10.52462179, 0.60197793, -4.01470426, 10.44833354, 0.39868497, 4.19987852, 8.5531839,
                           -4.43267388, -4.7823677, 7.42214502, -8.39155563, -2.48982755, 7.37512864, -8.50599744,
                           2.1742055, 8.4600204, -4.66543145, 4.68064374, 12.34503276, 2.91199237, 0.16959272,
                           13.42257349, -0.321261, 0.09956022, -8.86591468, -5.52843157, 3.91606055, -8.76902842,
                           -5.35979242, -4.29349555, -3.50574432, -6.49980749, 4.58215122, 0.4449946, -7.48906022,
                           2.20842844, 0.50076797, -7.39238184, -2.44683628, -3.39254972, -6.30418305, -4.87158167,
                           -11.84561594, -5.6407569, -0.22849246, -9.76051103, -8.33473156, -0.2592572, 0.45225115,
                           -0.84580551, -2.67537976, 2.67838443, -1.53842793, -1.2866805, 2.65068104, -1.59445642,
                           1.27425178, 0.39459182, -0.96458424, 2.64450164, -1.86313012, -0.39368286, 1.25325503,
                           -1.83502422, -0.33633346, -1.30877329, 0.51180775, -0.67721548, -5.30584073, 2.77402347,
                           -1.11680357, -6.67834882, 4.65792923, -1.46517081, -7.76197447, -1.67832057, -0.01779464,
                           -6.70601441, -3.49875233, 0.52904962, -7.81566159, 0.39835616, -0.91584254, 5.28048061,
                           2.63210503, -1.41763286, 6.67793308, 4.4946569, -1.81660506, 7.78079614, -1.82246132,
                           -0.32547131, 6.66298535, -3.66775054, 0.16586372, 7.75745803, 4.38153789, -2.03474371,
                           -2.30489896, 4.33176251, -2.13518265, 2.30622176, -3.59287959, 0.00412869, 2.26776584,
                           -3.54227272, 0.1076148, -2.34208877],
              'id': 11,
              'identifiers': {'molecular_formula': 'C54H34N4',
                              'molecule_hash': '4c8c81f85cb59bc3d701ac2a728348ee32004706'},
              'masses': [12.0, 12.0, 12.0, 12.0, 12.0, 12.0, 12.0, 12.0, 12.0, 12.0, 12.0, 12.0, 12.0, 12.0, 12.0, 12.0,
                         12.0, 12.0, 12.0, 12.0, 12.0, 12.0, 12.0, 12.0, 12.0, 12.0, 12.0, 12.0, 12.0, 12.0, 12.0, 12.0,
                         12.0, 12.0, 12.0, 12.0, 12.0, 12.0, 12.0, 12.0, 12.0, 12.0, 1.00782503223, 1.00782503223,
                         1.00782503223, 1.00782503223, 1.00782503223, 1.00782503223, 1.00782503223, 1.00782503223,
                         1.00782503223, 1.00782503223, 1.00782503223, 1.00782503223, 1.00782503223, 1.00782503223,
                         1.00782503223, 1.00782503223, 1.00782503223, 1.00782503223, 1.00782503223, 1.00782503223,
                         1.00782503223, 1.00782503223, 1.00782503223, 1.00782503223, 1.00782503223, 1.00782503223,
                         1.00782503223, 1.00782503223, 1.00782503223, 1.00782503223, 12.0, 12.0, 12.0, 12.0, 12.0, 12.0,
                         12.0, 12.0, 14.00307400443, 12.0, 14.00307400443, 12.0, 12.0, 14.00307400443, 12.0,
                         14.00307400443, 1.00782503223, 1.00782503223, 1.00782503223, 1.00782503223],
              'molecular_charge': 0.0,
              'molecular_multiplicity': 1,
              'name': 'C54H34N4 ([1],[0])',
              'provenance': {'creator': 'QCElemental',
                             'routine': 'qcelemental.molparse.from_schema',
                             'version': '0.29.0'},
              'real': [False, False, False, False, False, False, False, False, False, False, False, False, False, False,
                       False, False, False, False, False, False, False, False, False, False, False, False, False, False,
                       False, False, False, False, False, False, False, False, False, False, False, False, False, False,
                       False, False, False, False, False, False, False, False, False, False, False, False, False, False,
                       False, False, False, False, False, False, False, False, False, False, False, False, False, False,
                       False, False, True, True, True, True, True, True, True, True, True, True, True, True, True, True,
                       True, True, True, True, True, True],
              'schema_name': 'qcschema_molecule',
              'schema_version': 2,
              'symbols': ['C', 'C', 'C', 'C', 'C', 'C', 'C', 'C', 'C', 'C', 'C', 'C', 'C', 'C', 'C', 'C', 'C', 'C', 'C',
                          'C', 'C', 'C', 'C', 'C', 'C', 'C', 'C', 'C', 'C', 'C', 'C', 'C', 'C', 'C', 'C', 'C', 'C', 'C',
                          'C', 'C', 'C', 'C', 'H', 'H', 'H', 'H', 'H', 'H', 'H', 'H', 'H', 'H', 'H', 'H', 'H', 'H', 'H',
                          'H', 'H', 'H', 'H', 'H', 'H', 'H', 'H', 'H', 'H', 'H', 'H', 'H', 'H', 'H', 'C', 'C', 'C', 'C',
                          'C', 'C', 'C', 'C', 'N', 'C', 'N', 'C', 'C', 'N', 'C', 'N', 'H', 'H', 'H', 'H'],
              'validated': True},
 'protocols': {},
 'provenance': {'creator': 'QCElemental', 'routine': 'qcelemental.models.results', 'version': '0.29.0'},
 'schema_name': 'qcschema_input',
 'schema_version': 1}
--------------------------------------------------------------------------

Scratch directory: /tmp/tmpbf_s0my__psi_scratch/
   => Libint2 <=

    Primary   basis highest AM E, G, H:  6, 6, 3
    Auxiliary basis highest AM E, G, H:  7, 7, 4
    Onebody   basis highest AM E, G, H:  -, -, -
    Solid Harmonics ordering:            Gaussian

*** tstart() called on atl1-1-02-003-29-1.pace.gatech.edu
*** at Sat Jun 13 12:13:36 2026

   => Loading Basis Set <=

    Name: AUG-CC-PVTZ
    Role: ORBITAL
    Keyword: BASIS
    atoms 1-42, 73-80, 82, 84-85, 87 entry C          line   239 file /storage/home/hcoda1/5/vlita3/.conda/envs/p4_qcml/share/psi4/basis/aug-cc-pvtz.gbs 
    atoms 43-72, 89-92               entry H          line    40 file /storage/home/hcoda1/5/vlita3/.conda/envs/p4_qcml/share/psi4/basis/aug-cc-pvtz.gbs 
    atoms 81, 83, 86, 88             entry N          line   285 file /storage/home/hcoda1/5/vlita3/.conda/envs/p4_qcml/share/psi4/basis/aug-cc-pvtz.gbs 

   => WB97X-D: Empirical Dispersion <=

    Chai and Head-Gordon Dispersion Correction
    Chai, J.-D.; Head-Gordon, M. (2010), J. Chem. Phys., 132: 6615-6620

        s6 =       1.000000


         ---------------------------------------------------------
                                   SCF
               by Justin Turney, Rob Parrish, Andy Simmonett
                          and Daniel G. A. Smith
                              RKS Reference
                       10 Threads, 256000 MiB Core
         ---------------------------------------------------------

  ==> Geometry <==

    Molecular point group: c1
    Full point group: C1

    Geometry (in Bohr), charge = 0, multiplicity = 1:

       Center              X                  Y                   Z               Mass       
    ------------   -----------------  -----------------  -----------------  -----------------
      Gh(C)          -0.273927140000     6.188191660000    -1.193235440000    12.000000000000
      Gh(C)          -2.463446980000     5.778253370000    -2.604496140000    12.000000000000
      Gh(C)          -4.694060800000     5.397057810000    -1.252349850000    12.000000000000
      Gh(C)          -4.718967390000     5.339383370000     1.403796280000    12.000000000000
      Gh(C)          -2.513260160000     5.656384930000     2.812290420000    12.000000000000
      Gh(C)          -0.297862410000     6.126492100000     1.461281750000    12.000000000000
      Gh(C)          -7.423694600000     4.946641590000    -2.114376770000    12.000000000000
      Gh(C)          -8.010208900000     2.219332160000    -1.351811800000    12.000000000000
      Gh(C)          -8.037250880000     2.163887590000     1.307303080000    12.000000000000
      Gh(C)          -7.464909520000     4.856010330000     2.194331080000    12.000000000000
      Gh(C)          -8.212787540000     0.018100990000    -2.784492550000    12.000000000000
      Gh(C)          -8.416518910000    -2.243086010000    -1.447180610000    12.000000000000
      Gh(C)          -8.446565550000    -2.297888070000     1.209449290000    12.000000000000
      Gh(C)          -8.271085590000    -0.094241590000     2.643311110000    12.000000000000
      Gh(C)          -8.829688630000     6.360307910000     0.057394190000    12.000000000000
      Gh(C)           2.390276780000     6.993214990000    -1.978486560000    12.000000000000
      Gh(C)           2.352349980000     6.890527270000     2.330485850000    12.000000000000
      Gh(C)           4.241471390000     4.875795760000     1.471321860000    12.000000000000
      Gh(C)           4.265092970000     4.939574020000    -1.183711220000    12.000000000000
      Gh(C)           5.912953050000     3.355133150000     2.830242820000    12.000000000000
      Gh(C)           7.668508620000     1.971645750000     1.430964870000    12.000000000000
      Gh(C)           7.692697110000     2.036312180000    -1.223327440000    12.000000000000
      Gh(C)           5.961348930000     3.486261240000    -2.584824090000    12.000000000000
      Gh(C)           2.912143550000     8.901271460000     0.227485230000    12.000000000000
      Gh(C)           9.879563770000     0.342019640000    -2.076072020000    12.000000000000
      Gh(C)           9.161222180000    -2.355203460000    -1.321899330000    12.000000000000
      Gh(C)           9.135484110000    -2.420663580000     1.339127960000    12.000000000000
      Gh(C)           9.839274810000     0.235539240000     2.239136490000    12.000000000000
      Gh(C)           8.550028060000    -4.479123350000    -2.729596000000    12.000000000000
      Gh(C)           7.900737060000    -6.700590900000    -1.428015010000    12.000000000000
      Gh(C)           7.874186410000    -6.765238430000     1.206571230000    12.000000000000
      Gh(C)           8.497021240000    -4.610780570000     2.628306680000    12.000000000000
      Gh(C)          11.772842580000     0.925967690000     0.115070900000    12.000000000000
      Gh(C)          -8.317648440000    -5.082645180000     1.980962100000    12.000000000000
      Gh(C)          -5.665776870000    -5.913217610000     1.169154660000    12.000000000000
      Gh(C)          -5.634256240000    -5.858264370000    -1.489901650000    12.000000000000
      Gh(C)          -8.266965980000    -4.993846950000    -2.329295320000    12.000000000000
      Gh(C)          -3.499262560000    -6.479568530000     2.527811050000    12.000000000000
      Gh(C)          -1.274907510000    -7.030896130000     1.184784580000    12.000000000000
      Gh(C)          -1.243505930000    -6.976509810000    -1.446791330000    12.000000000000
      Gh(C)          -3.435408710000    -6.369019550000    -2.818564310000    12.000000000000
      Gh(C)          -9.876691390000    -6.270716000000    -0.218202900000    12.000000000000
      Gh(H)          -2.452940100000     5.841710370000    -4.658288280000     1.007825032230
      Gh(H)          -2.540302140000     5.627472120000     4.866743970000     1.007825032230
      Gh(H)          -7.860221330000     5.467280040000    -4.058961640000     1.007825032230
      Gh(H)          -7.937926870000     5.295409450000     4.150386590000     1.007825032230
      Gh(H)          -8.117734310000     0.056953320000    -4.836054820000     1.007825032230
      Gh(H)          -8.218929150000    -0.140410050000     4.696177290000     1.007825032230
      Gh(H)          -8.405199450000     8.383354220000     0.103798120000     1.007825032230
      Gh(H)         -10.871405430000     6.032497120000     0.031101680000     1.007825032230
      Gh(H)           2.585750050000     7.686461020000    -3.909692180000     1.007825032230
      Gh(H)           2.514280610000     7.490553110000     4.295706530000     1.007825032230
      Gh(H)           5.920360770000     3.325426650000     4.884601880000     1.007825032230
      Gh(H)           6.005398450000     3.556729130000    -4.637690270000     1.007825032230
      Gh(H)           1.578087610000    10.481668310000     0.253576680000     1.007825032230
      Gh(H)           4.867291990000     9.575639120000     0.260704730000     1.007825032230
      Gh(H)          10.524621790000     0.601977930000    -4.014704260000     1.007825032230
      Gh(H)          10.448333540000     0.398684970000     4.199878520000     1.007825032230
      Gh(H)           8.553183900000    -4.432673880000    -4.782367700000     1.007825032230
      Gh(H)           7.422145020000    -8.391555630000    -2.489827550000     1.007825032230
      Gh(H)           7.375128640000    -8.505997440000     2.174205500000     1.007825032230
      Gh(H)           8.460020400000    -4.665431450000     4.680643740000     1.007825032230
      Gh(H)          12.345032760000     2.911992370000     0.169592720000     1.007825032230
      Gh(H)          13.422573490000    -0.321261000000     0.099560220000     1.007825032230
      Gh(H)          -8.865914680000    -5.528431570000     3.916060550000     1.007825032230
      Gh(H)          -8.769028420000    -5.359792420000    -4.293495550000     1.007825032230
      Gh(H)          -3.505744320000    -6.499807490000     4.582151220000     1.007825032230
      Gh(H)           0.444994600000    -7.489060220000     2.208428440000     1.007825032230
      Gh(H)           0.500767970000    -7.392381840000    -2.446836280000     1.007825032230
      Gh(H)          -3.392549720000    -6.304183050000    -4.871581670000     1.007825032230
      Gh(H)         -11.845615940000    -5.640756900000    -0.228492460000     1.007825032230
      Gh(H)          -9.760511030000    -8.334731560000    -0.259257200000     1.007825032230
         C            0.452251150000    -0.845805510000    -2.675379760000    12.000000000000
         C            2.678384430000    -1.538427930000    -1.286680500000    12.000000000000
         C            2.650681040000    -1.594456420000     1.274251780000    12.000000000000
         C            0.394591820000    -0.964584240000     2.644501640000    12.000000000000
         C           -1.863130120000    -0.393682860000     1.253255030000    12.000000000000
         C           -1.835024220000    -0.336333460000    -1.308773290000    12.000000000000
         C            0.511807750000    -0.677215480000    -5.305840730000    12.000000000000
         C            2.774023470000    -1.116803570000    -6.678348820000    12.000000000000
         N            4.657929230000    -1.465170810000    -7.761974470000    14.003074004430
         C           -1.678320570000    -0.017794640000    -6.706014410000    12.000000000000
         N           -3.498752330000     0.529049620000    -7.815661590000    14.003074004430
         C            0.398356160000    -0.915842540000     5.280480610000    12.000000000000
         C            2.632105030000    -1.417632860000     6.677933080000    12.000000000000
         N            4.494656900000    -1.816605060000     7.780796140000    14.003074004430
         C           -1.822461320000    -0.325471310000     6.662985350000    12.000000000000
         N           -3.667750540000     0.165863720000     7.757458030000    14.003074004430
         H            4.381537890000    -2.034743710000    -2.304898960000     1.007825032230
         H            4.331762510000    -2.135182650000     2.306221760000     1.007825032230
         H           -3.592879590000     0.004128690000     2.267765840000     1.007825032230
         H           -3.542272720000     0.107614800000    -2.342088770000     1.007825032230

  Running in c1 symmetry.

  Rotational constants: A =      0.00267  B =      0.00168  C =      0.00146 [cm^-1]
  Rotational constants: A =     80.12542  B =     50.33918  C =     43.84220 [MHz]
  Nuclear repulsion =  836.883087262661093

  Charge       = 0
  Multiplicity = 1
  Electrons    = 104
  Nalpha       = 52
  Nbeta        = 52

  ==> Algorithm <==

  SCF Algorithm Type is DF.
  DIIS enabled.
  MOM disabled.
  Fractional occupation disabled.
  Guess Type is SAD.
  Energy threshold   = 1.00e-06
  Density threshold  = 1.00e-06
  Integral threshold = 1.00e-12

  ==> Primary Basis <==

  Basis Set: AUG-CC-PVTZ
    Blend: AUG-CC-PVTZ
    Number of shells: 1118
    Number of basis functions: 3450
    Number of Cartesian functions: 4040
    Spherical Harmonics?: true
    Max angular momentum: 3

  ==> DFT Potential <==

   => LibXC <=

    Version 7.0.0
    S. Lehtola, C. Steigemann, M. J.T. Oliveira, and M. A.L. Marques.,  SoftwareX 7, 1–5 (2018) (10.1016/j.softx.2017.11.002)

   => Composite Functional: WB97X-D <= 

    wB97X-D Hyb-GGA Exchange-Correlation Functional

    J.-D. Chai and M. Head-Gordon.,  Phys. Chem. Chem. Phys. 10, 6615-6620 (2008) (10.1039/B810189B)

    Deriv               =              1
    GGA                 =           TRUE
    Meta                =          FALSE

    Exchange Hybrid     =           TRUE
    MP2 Hybrid          =          FALSE

   => Exchange-Correlation Functionals <=

    1.0000   wB97X-D range-separated functional

   => Exact (HF) Exchange <=

    0.7780            HF,LR [omega = 0.2000]
    0.2220               HF 

   => LibXC Density Thresholds  <==

    XC_HYB_GGA_XC_WB97X_D:  1.00E-14 

   => Molecular Quadrature <=

    Radial Scheme          =       TREUTLER
    Pruning Scheme         =           NONE
    Nuclear Scheme         =       TREUTLER

    Blocking Scheme        =         OCTREE
    BS radius alpha        =              1
    Pruning alpha          =              1
    Radial Points          =             75
    Spherical Points       =            302
    Total Points           =        1810751
    Total Blocks           =          12182
    Max Points             =            256
    Max Functions          =           2258
    Weights Tolerance      =       1.00E-15

   => Loading Basis Set <=

    Name: (AUG-CC-PVTZ AUX)
    Role: JKFIT
    Keyword: DF_BASIS_SCF
    atoms 1-42, 73-80, 82, 84-85, 87 entry C          line   162 file /storage/home/hcoda1/5/vlita3/.conda/envs/p4_qcml/share/psi4/basis/aug-cc-pvtz-jkfit.gbs 
    atoms 43-72, 89-92               entry H          line    70 file /storage/home/hcoda1/5/vlita3/.conda/envs/p4_qcml/share/psi4/basis/aug-cc-pvtz-jkfit.gbs 
    atoms 81, 83, 86, 88             entry N          line   224 file /storage/home/hcoda1/5/vlita3/.conda/envs/p4_qcml/share/psi4/basis/aug-cc-pvtz-jkfit.gbs 

  ==> Integral Setup <==

  ==> DiskDFJK: Density-Fitted J/K Matrices <==

    J tasked:                  Yes
    K tasked:                  Yes
    wK tasked:                 Yes
    Omega:               2.000E-01
    OpenMP threads:             10
    Integrals threads:          10
    Memory [MiB]:           172800
    Algorithm:                Disk
    Integral Cache:           NONE
    Schwarz Cutoff:          1E-12
    Fitting Condition:       1E-10

   => Auxiliary Basis Set <=

  Basis Set: (AUG-CC-PVTZ AUX)
    Blend: AUG-CC-PVTZ-JKFIT
    Number of shells: 2216
    Number of basis functions: 7596
    Number of Cartesian functions: 9468
    Spherical Harmonics?: true
    Max angular momentum: 4

  Minimum eigenvalue in the overlap matrix is 3.2999283483E-10.
  Reciprocal condition number of the overlap matrix is 8.9829939844E-12.
    Using canonical orthogonalization.
  Overall, 31 of 3450 possible MOs eliminated.


  ==> Pre-Iterations <==

  SCF Guess: Superposition of Atomic Densities via on-the-fly atomic UHF (no occupation information).

   -------------------------
    Irrep   Nso     Nmo    
   -------------------------
     A       3450    3419 
   -------------------------
    Total    3450    3419
   -------------------------

  ==> Iterations <==

                           Total Energy        Delta E     RMS |[F,P]|

   @DF-RKS iter SAD:  -676.64446719074090   -6.76644e+02   0.00000e+00 
   @DF-RKS iter   1:  -678.07880223559550   -1.43434e+00   3.04739e-04 ADIIS/DIIS
   @DF-RKS iter   2:  -678.02112405906894    5.76782e-02   3.31058e-04 ADIIS/DIIS
   @DF-RKS iter   3:  -678.48055740096356   -4.59433e-01   1.08857e-04 ADIIS/DIIS
   @DF-RKS iter   4:  -678.54123549888470   -6.06781e-02   1.62458e-05 DIIS
   @DF-RKS iter   5:  -678.54252905597446   -1.29356e-03   8.52103e-06 DIIS
   @DF-RKS iter   6:  -678.54298594777583   -4.56892e-04   1.44446e-06 DIIS
   @DF-RKS iter   7:  -678.54301238126607   -2.64335e-05   5.77395e-07 DIIS
   @DF-RKS iter   8:  -678.54301881294077   -6.43167e-06   1.87940e-07 DIIS
   @DF-RKS iter   9:  -678.54301993089098   -1.11795e-06   6.70612e-08 DIIS
   @DF-RKS iter  10:  -678.54302001584961   -8.49586e-08   2.53046e-08 DIIS
  Energy and wave function converged.


  ==> Post-Iterations <==

   Electrons on quadrature grid:
      Ntotal   =  103.9998253340 ; deviation = -1.747e-04 

    Orbital Energies [Eh]
    ---------------------

    Doubly Occupied:                                                      

       1A    -14.485870     2A    -14.485853     3A    -14.485818  
       4A    -14.485810     5A    -10.420006     6A    -10.419994  
       7A    -10.402726     8A    -10.402694     9A    -10.375408  
      10A    -10.375394    11A    -10.375330    12A    -10.375312  
      13A    -10.369271    14A    -10.369144    15A    -10.368442  
      16A    -10.368315    17A     -1.071720    18A     -1.064364  
      19A     -1.045996    20A     -1.045948    21A     -1.040552  
      22A     -0.996551    23A     -0.946731    24A     -0.931170  
      25A     -0.871109    26A     -0.797076    27A     -0.782178  
      28A     -0.737574    29A     -0.700673    30A     -0.698145  
      31A     -0.665128    32A     -0.601073    33A     -0.597195  
      34A     -0.586594    35A     -0.572258    36A     -0.549222  
      37A     -0.541107    38A     -0.502845    39A     -0.502522  
      40A     -0.502002    41A     -0.501099    42A     -0.495835  
      43A     -0.492374    44A     -0.474751    45A     -0.470810  
      46A     -0.470112    47A     -0.469145    48A     -0.458739  
      49A     -0.457938    50A     -0.428609    51A     -0.416812  
      52A     -0.337866  

    Virtual:                                                              

      53A     -0.135301    54A     -0.008600    55A     -0.007354  
      56A      0.009158    57A      0.015473    58A      0.016441  
      59A      0.024477    60A      0.025496    61A      0.026455  
      62A      0.028907    63A      0.032581    64A      0.034022  
      65A      0.035060    66A      0.035494    67A      0.037900  
      68A      0.039597    69A      0.044311    70A      0.044693  
      71A      0.045162    72A      0.045552    73A      0.048748  
      74A      0.053198    75A      0.053680    76A      0.054627  
      77A      0.055238    78A      0.056001    79A      0.059541  
      80A      0.059709    81A      0.061388    82A      0.062828  
      83A      0.065014    84A      0.066896    85A      0.069193  
      86A      0.070249    87A      0.071264    88A      0.073076  
      89A      0.073654    90A      0.074168    91A      0.075769  
      92A      0.077440    93A      0.077911    94A      0.080484  
      95A      0.081273    96A      0.083014    97A      0.083865  
      98A      0.084222    99A      0.086954   100A      0.087800  
     101A      0.088395   102A      0.090155   103A      0.091295  
     104A      0.092185   105A      0.097295   106A      0.097379  
     107A      0.098313   108A      0.100328   109A      0.100839  
     110A      0.102724   111A      0.103380   112A      0.103871  
     113A      0.107940   114A      0.108837   115A      0.109395  
     116A      0.111051   117A      0.113203   118A      0.115907  
     119A      0.116844   120A      0.117135   121A      0.118069  
     122A      0.121193   123A      0.121537   124A      0.122946  
     125A      0.124504   126A      0.126056   127A      0.126913  
     128A      0.128260   129A      0.128438   130A      0.132391  
     131A      0.133985   132A      0.134089   133A      0.135496  
     134A      0.136176   135A      0.137008   136A      0.138634  
     137A      0.139476   138A      0.141228   139A      0.141562  
     140A      0.142616   141A      0.143928   142A      0.144614  
     143A      0.145977   144A      0.146705   145A      0.148836  
     146A      0.150329   147A      0.152728   148A      0.154396  
     149A      0.155014   150A      0.155559   151A      0.158075  
     152A      0.160353   153A      0.161033   154A      0.161058  
     155A      0.162784   156A      0.163010   157A      0.163148  
     158A      0.163858   159A      0.164656   160A      0.166684  
     161A      0.166867   162A      0.166922   163A      0.168373  
     164A      0.169963   165A      0.171923   166A      0.171962  
     167A      0.174724   168A      0.176759   169A      0.177227  
     170A      0.179288   171A      0.180157   172A      0.180925  
     173A      0.180954   174A      0.184761   175A      0.185034  
     176A      0.186727   177A      0.187204   178A      0.189082  
     179A      0.189204   180A      0.190264   181A      0.192018  
     182A      0.192481   183A      0.195309   184A      0.195547  
     185A      0.197078   186A      0.198426   187A      0.198939  
     188A      0.200996   189A      0.203790   190A      0.204113  
     191A      0.205422   192A      0.206327   193A      0.207293  
     194A      0.208635   195A      0.210455   196A      0.211775  
     197A      0.212805   198A      0.213894   199A      0.214698  
     200A      0.216101   201A      0.217137   202A      0.218040  
     203A      0.218335   204A      0.219101   205A      0.221169  
     206A      0.223077   207A      0.224020   208A      0.224644  
     209A      0.224860   210A      0.225584   211A      0.227658  
     212A      0.228371   213A      0.228387   214A      0.231230  
     215A      0.231466   216A      0.231759   217A      0.232616  
     218A      0.232674   219A      0.234121   220A      0.235372  
     221A      0.236572   222A      0.238058   223A      0.238841  
     224A      0.239735   225A      0.241114   226A      0.243942  
     227A      0.245031   228A      0.246774   229A      0.247052  
     230A      0.250532   231A      0.251649   232A      0.251746  
     233A      0.254246   234A      0.254848   235A      0.255278  
     236A      0.255876   237A      0.257466   238A      0.258110  
     239A      0.259116   240A      0.261031   241A      0.262360  
     242A      0.262595   243A      0.263608   244A      0.265202  
     245A      0.265813   246A      0.266412   247A      0.267395  
     248A      0.268587   249A      0.268819   250A      0.269940  
     251A      0.271099   252A      0.271448   253A      0.272606  
     254A      0.273490   255A      0.274715   256A      0.275132  
     257A      0.275552   258A      0.276663   259A      0.279027  
     260A      0.281034   261A      0.281073   262A      0.282956  
     263A      0.284139   264A      0.286615   265A      0.288340  
     266A      0.289173   267A      0.290248   268A      0.291903  
     269A      0.292394   270A      0.292530   271A      0.294000  
     272A      0.294628   273A      0.295230   274A      0.296430  
     275A      0.296713   276A      0.297725   277A      0.299530  
     278A      0.300207   279A      0.302224   280A      0.302309  
     281A      0.304079   282A      0.304420   283A      0.307646  
     284A      0.307846   285A      0.308697   286A      0.310209  
     287A      0.311873   288A      0.314076   289A      0.314306  
     290A      0.314423   291A      0.315217   292A      0.317520  
     293A      0.318033   294A      0.318731   295A      0.320182  
     296A      0.321547   297A      0.322146   298A      0.322587  
     299A      0.324030   300A      0.325493   301A      0.327485  
     302A      0.329346   303A      0.330698   304A      0.331972  
     305A      0.333022   306A      0.333376   307A      0.334183  
     308A      0.336062   309A      0.337387   310A      0.339481  
     311A      0.339785   312A      0.340922   313A      0.341476  
     314A      0.344494   315A      0.346502   316A      0.348117  
     317A      0.348211   318A      0.350499   319A      0.351999  
     320A      0.353980   321A      0.354238   322A      0.355506  
     323A      0.355823   324A      0.356916   325A      0.357658  
     326A      0.358681   327A      0.360556   328A      0.361734  
     329A      0.366407   330A      0.367193   331A      0.369148  
     332A      0.369916   333A      0.372038   334A      0.372257  
     335A      0.374720   336A      0.375596   337A      0.376414  
     338A      0.378258   339A      0.380027   340A      0.381824  
     341A      0.381912   342A      0.384281   343A      0.386875  
     344A      0.387953   345A      0.388369   346A      0.389825  
     347A      0.391652   348A      0.395866   349A      0.396259  
     350A      0.396975   351A      0.398229   352A      0.398723  
     353A      0.402281   354A      0.402889   355A      0.403795  
     356A      0.405331   357A      0.406685   358A      0.407738  
     359A      0.411235   360A      0.411564   361A      0.412381  
     362A      0.414255   363A      0.417397   364A      0.417933  
     365A      0.419760   366A      0.419961   367A      0.420969  
     368A      0.423382   369A      0.424343   370A      0.425533  
     371A      0.426903   372A      0.427436   373A      0.429958  
     374A      0.431423   375A      0.431726   376A      0.431945  
     377A      0.433351   378A      0.433375   379A      0.434481  
     380A      0.435843   381A      0.436293   382A      0.440767  
     383A      0.441501   384A      0.442591   385A      0.442774  
     386A      0.443959   387A      0.444962   388A      0.445449  
     389A      0.446264   390A      0.446801   391A      0.447564  
     392A      0.449066   393A      0.449482   394A      0.450177  
     395A      0.453364   396A      0.454207   397A      0.456090  
     398A      0.458430   399A      0.459190   400A      0.459375  
     401A      0.461191   402A      0.463608   403A      0.464565  
     404A      0.466189   405A      0.466325   406A      0.468947  
     407A      0.469169   408A      0.472057   409A      0.473290  
     410A      0.473716   411A      0.474136   412A      0.475292  
     413A      0.477454   414A      0.479657   415A      0.479714  
     416A      0.482541   417A      0.483377   418A      0.483461  
     419A      0.488859   420A      0.489701   421A      0.490308  
     422A      0.490604   423A      0.491681   424A      0.493075  
     425A      0.494771   426A      0.496158   427A      0.496268  
     428A      0.499357   429A      0.500567   430A      0.500714  
     431A      0.501078   432A      0.502309   433A      0.506077  
     434A      0.506931   435A      0.507396   436A      0.509481  
     437A      0.510595   438A      0.511603   439A      0.511877  
     440A      0.512900   441A      0.513645   442A      0.514852  
     443A      0.517234   444A      0.519224   445A      0.519762  
     446A      0.520205   447A      0.521165   448A      0.523037  
     449A      0.524160   450A      0.525847   451A      0.527003  
     452A      0.528380   453A      0.529309   454A      0.530622  
     455A      0.532314   456A      0.532594   457A      0.534004  
     458A      0.535892   459A      0.537066   460A      0.538196  
     461A      0.539022   462A      0.539352   463A      0.540212  
     464A      0.541641   465A      0.543683   466A      0.545968  
     467A      0.547358   468A      0.549011   469A      0.549635  
     470A      0.551320   471A      0.552629   472A      0.553118  
     473A      0.554356   474A      0.555500   475A      0.558090  
     476A      0.559141   477A      0.559372   478A      0.559826  
     479A      0.560549   480A      0.562800   481A      0.562956  
     482A      0.565606   483A      0.565812   484A      0.567672  
     485A      0.569121   486A      0.571125   487A      0.571401  
     488A      0.573132   489A      0.574496   490A      0.575492  
     491A      0.577262   492A      0.578544   493A      0.581564  
     494A      0.581983   495A      0.584035   496A      0.584846  
     497A      0.585864   498A      0.588201   499A      0.588624  
     500A      0.592038   501A      0.593055   502A      0.593389  
     503A      0.595379   504A      0.595957   505A      0.596742  
     506A      0.597469   507A      0.598016   508A      0.599167  
     509A      0.599462   510A      0.600609   511A      0.602135  
     512A      0.604364   513A      0.607002   514A      0.607163  
     515A      0.608905   516A      0.609529   517A      0.610529  
     518A      0.614915   519A      0.615573   520A      0.615800  
     521A      0.617976   522A      0.619532   523A      0.621592  
     524A      0.621965   525A      0.622752   526A      0.623650  
     527A      0.624199   528A      0.625513   529A      0.626755  
     530A      0.627790   531A      0.628513   532A      0.629297  
     533A      0.632936   534A      0.634337   535A      0.636133  
     536A      0.636947   537A      0.638007   538A      0.639561  
     539A      0.639588   540A      0.639844   541A      0.643036  
     542A      0.643809   543A      0.644043   544A      0.646780  
     545A      0.647169   546A      0.649192   547A      0.652440  
     548A      0.655604   549A      0.657352   550A      0.658345  
     551A      0.660155   552A      0.660990   553A      0.661213  
     554A      0.663791   555A      0.664366   556A      0.664858  
     557A      0.667398   558A      0.668098   559A      0.669459  
     560A      0.670308   561A      0.672226   562A      0.673298  
     563A      0.674711   564A      0.676683   565A      0.677439  
     566A      0.680390   567A      0.682226   568A      0.682255  
     569A      0.682819   570A      0.684178   571A      0.686899  
     572A      0.687513   573A      0.688188   574A      0.689871  
     575A      0.690720   576A      0.691685   577A      0.693344  
     578A      0.693760   579A      0.695603   580A      0.695715  
     581A      0.696381   582A      0.698028   583A      0.699635  
     584A      0.701268   585A      0.702055   586A      0.702987  
     587A      0.704571   588A      0.706815   589A      0.707600  
     590A      0.707837   591A      0.708778   592A      0.711790  
     593A      0.712360   594A      0.712767   595A      0.715409  
     596A      0.716025   597A      0.718169   598A      0.719005  
     599A      0.721062   600A      0.722600   601A      0.722742  
     602A      0.724438   603A      0.724717   604A      0.724981  
     605A      0.726936   606A      0.727392   607A      0.728680  
     608A      0.728911   609A      0.730981   610A      0.733378  
     611A      0.734233   612A      0.736635   613A      0.737603  
     614A      0.740315   615A      0.741400   616A      0.744326  
     617A      0.744981   618A      0.745117   619A      0.747538  
     620A      0.748226   621A      0.749381   622A      0.749975  
     623A      0.750699   624A      0.751817   625A      0.753795  
     626A      0.754004   627A      0.755124   628A      0.756969  
     629A      0.758130   630A      0.760642   631A      0.761559  
     632A      0.762525   633A      0.763812   634A      0.764738  
     635A      0.765483   636A      0.767964   637A      0.768967  
     638A      0.770660   639A      0.770673   640A      0.773171  
     641A      0.774484   642A      0.775286   643A      0.776459  
     644A      0.779281   645A      0.780670   646A      0.782034  
     647A      0.782791   648A      0.783528   649A      0.786544  
     650A      0.787427   651A      0.787874   652A      0.789371  
     653A      0.792220   654A      0.792384   655A      0.794873  
     656A      0.796142   657A      0.797455   658A      0.798003  
     659A      0.798656   660A      0.801262   661A      0.801523  
     662A      0.803746   663A      0.804079   664A      0.807429  
     665A      0.808346   666A      0.809356   667A      0.811490  
     668A      0.812516   669A      0.814719   670A      0.815170  
     671A      0.816001   672A      0.817632   673A      0.818203  
     674A      0.819956   675A      0.820159   676A      0.822646  
     677A      0.824783   678A      0.827419   679A      0.828536  
     680A      0.829117   681A      0.832134   682A      0.832248  
     683A      0.833679   684A      0.835939   685A      0.836624  
     686A      0.836966   687A      0.838539   688A      0.839299  
     689A      0.842695   690A      0.843247   691A      0.845529  
     692A      0.847195   693A      0.847695   694A      0.848718  
     695A      0.851024   696A      0.851318   697A      0.852815  
     698A      0.854784   699A      0.856068   700A      0.858242  
     701A      0.858419   702A      0.859288   703A      0.860177  
     704A      0.861297   705A      0.864744   706A      0.865673  
     707A      0.868502   708A      0.869295   709A      0.869638  
     710A      0.873525   711A      0.874200   712A      0.874412  
     713A      0.875431   714A      0.877947   715A      0.879027  
     716A      0.881067   717A      0.881368   718A      0.884081  
     719A      0.885211   720A      0.885598   721A      0.888396  
     722A      0.890115   723A      0.891036   724A      0.891766  
     725A      0.893482   726A      0.894031   727A      0.895526  
     728A      0.896903   729A      0.897632   730A      0.898914  
     731A      0.900868   732A      0.902395   733A      0.902663  
     734A      0.905307   735A      0.906948   736A      0.907438  
     737A      0.907905   738A      0.909498   739A      0.912209  
     740A      0.912829   741A      0.914337   742A      0.916599  
     743A      0.919009   744A      0.919953   745A      0.920744  
     746A      0.921291   747A      0.923574   748A      0.925733  
     749A      0.928846   750A      0.929388   751A      0.930751  
     752A      0.932455   753A      0.932732   754A      0.934648  
     755A      0.935450   756A      0.937155   757A      0.938039  
     758A      0.938722   759A      0.939650   760A      0.942041  
     761A      0.942582   762A      0.944764   763A      0.944944  
     764A      0.947126   765A      0.947881   766A      0.949085  
     767A      0.950535   768A      0.951286   769A      0.955517  
     770A      0.956702   771A      0.959058   772A      0.959257  
     773A      0.961265   774A      0.963186   775A      0.964696  
     776A      0.964999   777A      0.965695   778A      0.966639  
     779A      0.968644   780A      0.969167   781A      0.969711  
     782A      0.970335   783A      0.976419   784A      0.976646  
     785A      0.979522   786A      0.979803   787A      0.979973  
     788A      0.983194   789A      0.984720   790A      0.985183  
     791A      0.987522   792A      0.987713   793A      0.988031  
     794A      0.988970   795A      0.990031   796A      0.990733  
     797A      0.991758   798A      0.993711   799A      0.994098  
     800A      0.997264   801A      0.998964   802A      0.999252  
     803A      1.001911   804A      1.003490   805A      1.005538  
     806A      1.007085   807A      1.008280   808A      1.008802  
     809A      1.010411   810A      1.012579   811A      1.013716  
     812A      1.015978   813A      1.016750   814A      1.020701  
     815A      1.021144   816A      1.021663   817A      1.022992  
     818A      1.025361   819A      1.028064   820A      1.028857  
     821A      1.030219   822A      1.031957   823A      1.032206  
     824A      1.034294   825A      1.034812   826A      1.036595  
     827A      1.038022   828A      1.038346   829A      1.039828  
     830A      1.041055   831A      1.043105   832A      1.043245  
     833A      1.044195   834A      1.046017   835A      1.047231  
     836A      1.050019   837A      1.051375   838A      1.052467  
     839A      1.055505   840A      1.056414   841A      1.060092  
     842A      1.061841   843A      1.062626   844A      1.063551  
     845A      1.064655   846A      1.067673   847A      1.068291  
     848A      1.069403   849A      1.069746   850A      1.071704  
     851A      1.074383   852A      1.074754   853A      1.076494  
     854A      1.077248   855A      1.079003   856A      1.081443  
     857A      1.081970   858A      1.082619   859A      1.083163  
     860A      1.084042   861A      1.086141   862A      1.088133  
     863A      1.088917   864A      1.092415   865A      1.092996  
     866A      1.095869   867A      1.096206   868A      1.096873  
     869A      1.098755   870A      1.101674   871A      1.102163  
     872A      1.103701   873A      1.104164   874A      1.106630  
     875A      1.107806   876A      1.108522   877A      1.110175  
     878A      1.110854   879A      1.111335   880A      1.115496  
     881A      1.115986   882A      1.118133   883A      1.121216  
     884A      1.121883   885A      1.122143   886A      1.122637  
     887A      1.124414   888A      1.126025   889A      1.129045  
     890A      1.131353   891A      1.131840   892A      1.134477  
     893A      1.135867   894A      1.137070   895A      1.138190  
     896A      1.139263   897A      1.139585   898A      1.141333  
     899A      1.147460   900A      1.147718   901A      1.150275  
     902A      1.150364   903A      1.153806   904A      1.154648  
     905A      1.155857   906A      1.156466   907A      1.157714  
     908A      1.158342   909A      1.161419   910A      1.162493  
     911A      1.164739   912A      1.165890   913A      1.166824  
     914A      1.168749   915A      1.170069   916A      1.171731  
     917A      1.172311   918A      1.173809   919A      1.173994  
     920A      1.175941   921A      1.177333   922A      1.177674  
     923A      1.182038   924A      1.183128   925A      1.183864  
     926A      1.185696   927A      1.188803   928A      1.190396  
     929A      1.191142   930A      1.194438   931A      1.195106  
     932A      1.197489   933A      1.200426   934A      1.201475  
     935A      1.204342   936A      1.206338   937A      1.207281  
     938A      1.207844   939A      1.208660   940A      1.209865  
     941A      1.211903   942A      1.212076   943A      1.217053  
     944A      1.217621   945A      1.218670   946A      1.221740  
     947A      1.224196   948A      1.224936   949A      1.226438  
     950A      1.229081   951A      1.229630   952A      1.229855  
     953A      1.230554   954A      1.234641   955A      1.234775  
     956A      1.237157   957A      1.238322   958A      1.239274  
     959A      1.241582   960A      1.244847   961A      1.246075  
     962A      1.247621   963A      1.248661   964A      1.249723  
     965A      1.250115   966A      1.250754   967A      1.252533  
     968A      1.255656   969A      1.257506   970A      1.258599  
     971A      1.260810   972A      1.262052   973A      1.262259  
     974A      1.263555   975A      1.264579   976A      1.269412  
     977A      1.270085   978A      1.271080   979A      1.272135  
     980A      1.274006   981A      1.274682   982A      1.276522  
     983A      1.278064   984A      1.279965   985A      1.280338  
     986A      1.281828   987A      1.284511   988A      1.284911  
     989A      1.285834   990A      1.287903   991A      1.288437  
     992A      1.290869   993A      1.292816   994A      1.295576  
     995A      1.297384   996A      1.298148   997A      1.300408  
     998A      1.301638   999A      1.302611  1000A      1.304028  
    1001A      1.304991  1002A      1.307195  1003A      1.307544  
    1004A      1.309573  1005A      1.313278  1006A      1.315393  
    1007A      1.315687  1008A      1.317193  1009A      1.318477  
    1010A      1.320958  1011A      1.321019  1012A      1.323154  
    1013A      1.324492  1014A      1.325331  1015A      1.326991  
    1016A      1.328386  1017A      1.329309  1018A      1.329735  
    1019A      1.331305  1020A      1.332851  1021A      1.335021  
    1022A      1.337746  1023A      1.338735  1024A      1.339465  
    1025A      1.341975  1026A      1.342092  1027A      1.344802  
    1028A      1.347141  1029A      1.348239  1030A      1.349405  
    1031A      1.353774  1032A      1.354855  1033A      1.355958  
    1034A      1.358159  1035A      1.359129  1036A      1.360934  
    1037A      1.361808  1038A      1.363739  1039A      1.365134  
    1040A      1.366804  1041A      1.368252  1042A      1.371087  
    1043A      1.371350  1044A      1.373221  1045A      1.375477  
    1046A      1.376249  1047A      1.376583  1048A      1.378710  
    1049A      1.380280  1050A      1.382481  1051A      1.383340  
    1052A      1.385792  1053A      1.387539  1054A      1.389304  
    1055A      1.389788  1056A      1.390550  1057A      1.393959  
    1058A      1.395298  1059A      1.397755  1060A      1.398653  
    1061A      1.402280  1062A      1.403635  1063A      1.405072  
    1064A      1.405385  1065A      1.406472  1066A      1.408413  
    1067A      1.411216  1068A      1.412462  1069A      1.413849  
    1070A      1.416765  1071A      1.417978  1072A      1.419327  
    1073A      1.419501  1074A      1.420030  1075A      1.424676  
    1076A      1.425242  1077A      1.426570  1078A      1.427892  
    1079A      1.428812  1080A      1.429798  1081A      1.431596  
    1082A      1.433906  1083A      1.436231  1084A      1.437785  
    1085A      1.439060  1086A      1.439640  1087A      1.440667  
    1088A      1.442647  1089A      1.443460  1090A      1.444856  
    1091A      1.445885  1092A      1.448167  1093A      1.452122  
    1094A      1.452749  1095A      1.456109  1096A      1.456317  
    1097A      1.458255  1098A      1.459682  1099A      1.461134  
    1100A      1.462187  1101A      1.463400  1102A      1.463868  
    1103A      1.464407  1104A      1.466369  1105A      1.470074  
    1106A      1.472279  1107A      1.473391  1108A      1.474638  
    1109A      1.478038  1110A      1.479173  1111A      1.479564  
    1112A      1.479780  1113A      1.482499  1114A      1.484116  
    1115A      1.485674  1116A      1.486259  1117A      1.488712  
    1118A      1.489912  1119A      1.492048  1120A      1.493765  
    1121A      1.493968  1122A      1.495749  1123A      1.496243  
    1124A      1.499395  1125A      1.499819  1126A      1.500972  
    1127A      1.502014  1128A      1.505688  1129A      1.506618  
    1130A      1.507530  1131A      1.508773  1132A      1.509717  
    1133A      1.512025  1134A      1.513958  1135A      1.514182  
    1136A      1.515190  1137A      1.517963  1138A      1.518474  
    1139A      1.519142  1140A      1.520143  1141A      1.522599  
    1142A      1.523080  1143A      1.525739  1144A      1.526911  
    1145A      1.528647  1146A      1.529326  1147A      1.530928  
    1148A      1.532895  1149A      1.533822  1150A      1.534875  
    1151A      1.538141  1152A      1.539999  1153A      1.541891  
    1154A      1.543499  1155A      1.544685  1156A      1.545365  
    1157A      1.547070  1158A      1.548652  1159A      1.551932  
    1160A      1.552315  1161A      1.553064  1162A      1.554698  
    1163A      1.555817  1164A      1.556370  1165A      1.556595  
    1166A      1.559446  1167A      1.560496  1168A      1.560544  
    1169A      1.565849  1170A      1.566835  1171A      1.567775  
    1172A      1.569135  1173A      1.570743  1174A      1.573057  
    1175A      1.573899  1176A      1.575115  1177A      1.576355  
    1178A      1.577709  1179A      1.578296  1180A      1.580035  
    1181A      1.580128  1182A      1.581427  1183A      1.583044  
    1184A      1.585053  1185A      1.587094  1186A      1.588330  
    1187A      1.590833  1188A      1.591832  1189A      1.592132  
    1190A      1.594105  1191A      1.594240  1192A      1.597110  
    1193A      1.597719  1194A      1.599446  1195A      1.601463  
    1196A      1.602448  1197A      1.605650  1198A      1.606128  
    1199A      1.607314  1200A      1.607952  1201A      1.609915  
    1202A      1.611236  1203A      1.611961  1204A      1.613458  
    1205A      1.614596  1206A      1.615538  1207A      1.617444  
    1208A      1.618199  1209A      1.619600  1210A      1.620836  
    1211A      1.622001  1212A      1.624533  1213A      1.625752  
    1214A      1.625814  1215A      1.630149  1216A      1.631251  
    1217A      1.634200  1218A      1.634906  1219A      1.635065  
    1220A      1.636440  1221A      1.637078  1222A      1.637709  
    1223A      1.641887  1224A      1.643340  1225A      1.645082  
    1226A      1.645788  1227A      1.647919  1228A      1.648460  
    1229A      1.650238  1230A      1.652396  1231A      1.653312  
    1232A      1.653977  1233A      1.654527  1234A      1.655829  
    1235A      1.657601  1236A      1.658484  1237A      1.659176  
    1238A      1.661550  1239A      1.663464  1240A      1.666178  
    1241A      1.667916  1242A      1.670283  1243A      1.671584  
    1244A      1.672753  1245A      1.674646  1246A      1.675241  
    1247A      1.676690  1248A      1.677508  1249A      1.678181  
    1250A      1.679582  1251A      1.680465  1252A      1.681229  
    1253A      1.682800  1254A      1.685384  1255A      1.686939  
    1256A      1.687356  1257A      1.689465  1258A      1.690725  
    1259A      1.691819  1260A      1.692612  1261A      1.694053  
    1262A      1.697144  1263A      1.697443  1264A      1.698770  
    1265A      1.699705  1266A      1.700472  1267A      1.701958  
    1268A      1.702512  1269A      1.704531  1270A      1.706485  
    1271A      1.708507  1272A      1.712869  1273A      1.713224  
    1274A      1.714211  1275A      1.716494  1276A      1.717035  
    1277A      1.718575  1278A      1.719069  1279A      1.719935  
    1280A      1.721826  1281A      1.722105  1282A      1.724333  
    1283A      1.726194  1284A      1.727041  1285A      1.728756  
    1286A      1.729609  1287A      1.734325  1288A      1.735958  
    1289A      1.736219  1290A      1.739346  1291A      1.740858  
    1292A      1.743986  1293A      1.745348  1294A      1.746013  
    1295A      1.747589  1296A      1.748342  1297A      1.751470  
    1298A      1.752298  1299A      1.754138  1300A      1.755464  
    1301A      1.755845  1302A      1.758083  1303A      1.758418  
    1304A      1.759859  1305A      1.762054  1306A      1.763777  
    1307A      1.766460  1308A      1.766991  1309A      1.768570  
    1310A      1.771177  1311A      1.772899  1312A      1.773263  
    1313A      1.774360  1314A      1.775721  1315A      1.777010  
    1316A      1.779984  1317A      1.780615  1318A      1.781617  
    1319A      1.783606  1320A      1.785377  1321A      1.785718  
    1322A      1.787725  1323A      1.788673  1324A      1.790449  
    1325A      1.791937  1326A      1.792487  1327A      1.794035  
    1328A      1.795644  1329A      1.796151  1330A      1.799363  
    1331A      1.799917  1332A      1.801065  1333A      1.801542  
    1334A      1.803147  1335A      1.805712  1336A      1.806702  
    1337A      1.808791  1338A      1.809658  1339A      1.811771  
    1340A      1.812465  1341A      1.815027  1342A      1.817773  
    1343A      1.817867  1344A      1.819688  1345A      1.821752  
    1346A      1.822263  1347A      1.824796  1348A      1.825401  
    1349A      1.828319  1350A      1.830979  1351A      1.831363  
    1352A      1.833863  1353A      1.834447  1354A      1.836203  
    1355A      1.837337  1356A      1.839643  1357A      1.842446  
    1358A      1.842637  1359A      1.843099  1360A      1.843745  
    1361A      1.845315  1362A      1.846594  1363A      1.849120  
    1364A      1.849851  1365A      1.850755  1366A      1.853492  
    1367A      1.857542  1368A      1.859325  1369A      1.861619  
    1370A      1.861966  1371A      1.864691  1372A      1.866409  
    1373A      1.871422  1374A      1.871749  1375A      1.873980  
    1376A      1.874403  1377A      1.875745  1378A      1.876515  
    1379A      1.877382  1380A      1.880981  1381A      1.882101  
    1382A      1.883781  1383A      1.886170  1384A      1.887962  
    1385A      1.890284  1386A      1.891381  1387A      1.892022  
    1388A      1.893426  1389A      1.895271  1390A      1.896320  
    1391A      1.897608  1392A      1.898567  1393A      1.903367  
    1394A      1.904190  1395A      1.904463  1396A      1.904948  
    1397A      1.907421  1398A      1.907689  1399A      1.908952  
    1400A      1.910032  1401A      1.914450  1402A      1.915180  
    1403A      1.917639  1404A      1.919833  1405A      1.919980  
    1406A      1.923213  1407A      1.924638  1408A      1.926466  
    1409A      1.928374  1410A      1.930296  1411A      1.931626  
    1412A      1.935097  1413A      1.935951  1414A      1.936031  
    1415A      1.937828  1416A      1.939468  1417A      1.939975  
    1418A      1.943188  1419A      1.943824  1420A      1.946490  
    1421A      1.948611  1422A      1.950400  1423A      1.951117  
    1424A      1.952392  1425A      1.953062  1426A      1.954603  
    1427A      1.957214  1428A      1.957565  1429A      1.959007  
    1430A      1.963304  1431A      1.964241  1432A      1.966347  
    1433A      1.967856  1434A      1.969253  1435A      1.970837  
    1436A      1.971089  1437A      1.973812  1438A      1.976084  
    1439A      1.976379  1440A      1.978369  1441A      1.979694  
    1442A      1.980122  1443A      1.982004  1444A      1.982812  
    1445A      1.983501  1446A      1.985036  1447A      1.987880  
    1448A      1.989260  1449A      1.991825  1450A      1.992427  
    1451A      1.994894  1452A      1.995804  1453A      1.997292  
    1454A      1.999138  1455A      1.999307  1456A      2.002297  
    1457A      2.002440  1458A      2.003353  1459A      2.005672  
    1460A      2.006279  1461A      2.008944  1462A      2.010786  
    1463A      2.014162  1464A      2.014508  1465A      2.016075  
    1466A      2.018615  1467A      2.019770  1468A      2.020270  
    1469A      2.021913  1470A      2.026090  1471A      2.027141  
    1472A      2.027483  1473A      2.031751  1474A      2.032113  
    1475A      2.032441  1476A      2.033417  1477A      2.037413  
    1478A      2.041129  1479A      2.042950  1480A      2.043985  
    1481A      2.045197  1482A      2.046226  1483A      2.049745  
    1484A      2.051315  1485A      2.051904  1486A      2.054779  
    1487A      2.054979  1488A      2.057928  1489A      2.060564  
    1490A      2.061172  1491A      2.063580  1492A      2.064014  
    1493A      2.065650  1494A      2.069240  1495A      2.069611  
    1496A      2.071385  1497A      2.072023  1498A      2.075983  
    1499A      2.076329  1500A      2.077017  1501A      2.079967  
    1502A      2.080398  1503A      2.080572  1504A      2.086367  
    1505A      2.088609  1506A      2.089389  1507A      2.089954  
    1508A      2.090792  1509A      2.095768  1510A      2.096669  
    1511A      2.099788  1512A      2.100956  1513A      2.101713  
    1514A      2.103377  1515A      2.105444  1516A      2.107926  
    1517A      2.111018  1518A      2.114326  1519A      2.114508  
    1520A      2.116314  1521A      2.118529  1522A      2.121527  
    1523A      2.123712  1524A      2.125303  1525A      2.126027  
    1526A      2.127801  1527A      2.129062  1528A      2.129520  
    1529A      2.132125  1530A      2.135636  1531A      2.136229  
    1532A      2.139716  1533A      2.141550  1534A      2.142478  
    1535A      2.146600  1536A      2.147006  1537A      2.150739  
    1538A      2.152374  1539A      2.153995  1540A      2.154818  
    1541A      2.156130  1542A      2.158415  1543A      2.160500  
    1544A      2.162463  1545A      2.163349  1546A      2.164841  
    1547A      2.166173  1548A      2.167025  1549A      2.167776  
    1550A      2.173349  1551A      2.174556  1552A      2.175337  
    1553A      2.175543  1554A      2.176654  1555A      2.177451  
    1556A      2.179493  1557A      2.182631  1558A      2.184004  
    1559A      2.186033  1560A      2.187954  1561A      2.190774  
    1562A      2.194927  1563A      2.195004  1564A      2.197249  
    1565A      2.197826  1566A      2.200763  1567A      2.201509  
    1568A      2.203921  1569A      2.204969  1570A      2.207241  
    1571A      2.207514  1572A      2.209692  1573A      2.211212  
    1574A      2.213160  1575A      2.216531  1576A      2.219758  
    1577A      2.222494  1578A      2.226409  1579A      2.226619  
    1580A      2.229462  1581A      2.229884  1582A      2.230215  
    1583A      2.232624  1584A      2.234311  1585A      2.235053  
    1586A      2.238665  1587A      2.241580  1588A      2.241832  
    1589A      2.245678  1590A      2.247146  1591A      2.247825  
    1592A      2.249276  1593A      2.252290  1594A      2.257167  
    1595A      2.257978  1596A      2.260697  1597A      2.260935  
    1598A      2.263541  1599A      2.265082  1600A      2.266752  
    1601A      2.267343  1602A      2.268675  1603A      2.272359  
    1604A      2.273779  1605A      2.276923  1606A      2.277837  
    1607A      2.279328  1608A      2.279746  1609A      2.281059  
    1610A      2.285061  1611A      2.288420  1612A      2.291491  
    1613A      2.292442  1614A      2.295235  1615A      2.296509  
    1616A      2.299339  1617A      2.302848  1618A      2.304476  
    1619A      2.307621  1620A      2.310338  1621A      2.311329  
    1622A      2.313198  1623A      2.314958  1624A      2.316931  
    1625A      2.317683  1626A      2.320227  1627A      2.324695  
    1628A      2.329114  1629A      2.329691  1630A      2.331626  
    1631A      2.332256  1632A      2.334874  1633A      2.335897  
    1634A      2.337696  1635A      2.342049  1636A      2.344630  
    1637A      2.346505  1638A      2.349189  1639A      2.350227  
    1640A      2.351607  1641A      2.353940  1642A      2.355001  
    1643A      2.355775  1644A      2.358516  1645A      2.363224  
    1646A      2.366474  1647A      2.367499  1648A      2.371245  
    1649A      2.373398  1650A      2.375786  1651A      2.378616  
    1652A      2.379425  1653A      2.381466  1654A      2.386024  
    1655A      2.387331  1656A      2.388750  1657A      2.389069  
    1658A      2.390127  1659A      2.393438  1660A      2.394243  
    1661A      2.395368  1662A      2.398267  1663A      2.399708  
    1664A      2.401020  1665A      2.403025  1666A      2.403830  
    1667A      2.409184  1668A      2.409731  1669A      2.412357  
    1670A      2.414067  1671A      2.416534  1672A      2.419065  
    1673A      2.422139  1674A      2.424427  1675A      2.425098  
    1676A      2.426027  1677A      2.426429  1678A      2.431705  
    1679A      2.432896  1680A      2.433883  1681A      2.434353  
    1682A      2.438017  1683A      2.438967  1684A      2.439539  
    1685A      2.442893  1686A      2.444121  1687A      2.447519  
    1688A      2.450090  1689A      2.453311  1690A      2.454635  
    1691A      2.458580  1692A      2.459482  1693A      2.460480  
    1694A      2.461428  1695A      2.463453  1696A      2.464028  
    1697A      2.466301  1698A      2.469381  1699A      2.470876  
    1700A      2.471575  1701A      2.478439  1702A      2.478658  
    1703A      2.479077  1704A      2.481871  1705A      2.484395  
    1706A      2.485021  1707A      2.487628  1708A      2.488920  
    1709A      2.489984  1710A      2.492697  1711A      2.494565  
    1712A      2.496778  1713A      2.497674  1714A      2.500596  
    1715A      2.503660  1716A      2.506592  1717A      2.507252  
    1718A      2.509272  1719A      2.510011  1720A      2.513386  
    1721A      2.515480  1722A      2.517855  1723A      2.518269  
    1724A      2.522694  1725A      2.524508  1726A      2.525614  
    1727A      2.527239  1728A      2.528499  1729A      2.532497  
    1730A      2.535006  1731A      2.536002  1732A      2.539434  
    1733A      2.540169  1734A      2.543681  1735A      2.544931  
    1736A      2.546909  1737A      2.547272  1738A      2.551254  
    1739A      2.553611  1740A      2.554167  1741A      2.556574  
    1742A      2.560735  1743A      2.562044  1744A      2.562917  
    1745A      2.565016  1746A      2.565697  1747A      2.566100  
    1748A      2.569384  1749A      2.571722  1750A      2.573005  
    1751A      2.574660  1752A      2.578815  1753A      2.579812  
    1754A      2.580462  1755A      2.581441  1756A      2.582407  
    1757A      2.583518  1758A      2.586836  1759A      2.591086  
    1760A      2.592620  1761A      2.592992  1762A      2.594289  
    1763A      2.595865  1764A      2.597266  1765A      2.598815  
    1766A      2.601808  1767A      2.603252  1768A      2.606036  
    1769A      2.608821  1770A      2.609909  1771A      2.610131  
    1772A      2.611852  1773A      2.612799  1774A      2.615695  
    1775A      2.616671  1776A      2.619900  1777A      2.623803  
    1778A      2.624856  1779A      2.626103  1780A      2.627175  
    1781A      2.628436  1782A      2.630950  1783A      2.633834  
    1784A      2.634903  1785A      2.638893  1786A      2.640108  
    1787A      2.641223  1788A      2.642916  1789A      2.643890  
    1790A      2.647090  1791A      2.648405  1792A      2.649728  
    1793A      2.651656  1794A      2.652655  1795A      2.658591  
    1796A      2.659879  1797A      2.660452  1798A      2.663651  
    1799A      2.664180  1800A      2.664677  1801A      2.667062  
    1802A      2.667732  1803A      2.670406  1804A      2.672148  
    1805A      2.674134  1806A      2.676493  1807A      2.678736  
    1808A      2.680544  1809A      2.680960  1810A      2.686097  
    1811A      2.689413  1812A      2.690188  1813A      2.692193  
    1814A      2.693880  1815A      2.698336  1816A      2.699730  
    1817A      2.700795  1818A      2.705860  1819A      2.707194  
    1820A      2.709146  1821A      2.712311  1822A      2.716775  
    1823A      2.716990  1824A      2.719040  1825A      2.720084  
    1826A      2.721026  1827A      2.723526  1828A      2.724989  
    1829A      2.728273  1830A      2.730167  1831A      2.731587  
    1832A      2.734949  1833A      2.739224  1834A      2.739791  
    1835A      2.745329  1836A      2.748677  1837A      2.749086  
    1838A      2.751524  1839A      2.751794  1840A      2.753512  
    1841A      2.757743  1842A      2.759349  1843A      2.760409  
    1844A      2.764428  1845A      2.767743  1846A      2.770337  
    1847A      2.770631  1848A      2.771732  1849A      2.774833  
    1850A      2.775810  1851A      2.776536  1852A      2.779245  
    1853A      2.781895  1854A      2.785444  1855A      2.786851  
    1856A      2.788603  1857A      2.790180  1858A      2.790960  
    1859A      2.792850  1860A      2.797139  1861A      2.799130  
    1862A      2.801239  1863A      2.802782  1864A      2.808705  
    1865A      2.811322  1866A      2.813286  1867A      2.813430  
    1868A      2.814724  1869A      2.818260  1870A      2.820387  
    1871A      2.823988  1872A      2.824501  1873A      2.827643  
    1874A      2.830323  1875A      2.832285  1876A      2.833534  
    1877A      2.836751  1878A      2.840838  1879A      2.841781  
    1880A      2.847351  1881A      2.851411  1882A      2.853710  
    1883A      2.854031  1884A      2.854404  1885A      2.859453  
    1886A      2.861390  1887A      2.864371  1888A      2.865001  
    1889A      2.866784  1890A      2.869078  1891A      2.873213  
    1892A      2.873969  1893A      2.876409  1894A      2.877791  
    1895A      2.881280  1896A      2.882580  1897A      2.883647  
    1898A      2.886153  1899A      2.887920  1900A      2.893538  
    1901A      2.894358  1902A      2.895519  1903A      2.895804  
    1904A      2.902213  1905A      2.905860  1906A      2.907628  
    1907A      2.912367  1908A      2.913273  1909A      2.914146  
    1910A      2.915420  1911A      2.917989  1912A      2.918765  
    1913A      2.922049  1914A      2.931249  1915A      2.931807  
    1916A      2.933237  1917A      2.934429  1918A      2.935007  
    1919A      2.938068  1920A      2.938987  1921A      2.946378  
    1922A      2.947329  1923A      2.948731  1924A      2.949431  
    1925A      2.955017  1926A      2.956761  1927A      2.961643  
    1928A      2.964619  1929A      2.965518  1930A      2.972122  
    1931A      2.972779  1932A      2.974828  1933A      2.977483  
    1934A      2.978041  1935A      2.980849  1936A      2.981417  
    1937A      2.987516  1938A      2.989743  1939A      2.991322  
    1940A      2.997061  1941A      2.997794  1942A      3.001525  
    1943A      3.002576  1944A      3.003648  1945A      3.009596  
    1946A      3.014120  1947A      3.015488  1948A      3.017930  
    1949A      3.020528  1950A      3.022850  1951A      3.023789  
    1952A      3.026547  1953A      3.028906  1954A      3.029324  
    1955A      3.034781  1956A      3.035136  1957A      3.038703  
    1958A      3.039827  1959A      3.043928  1960A      3.049333  
    1961A      3.056356  1962A      3.057597  1963A      3.058665  
    1964A      3.061692  1965A      3.063927  1966A      3.067910  
    1967A      3.070494  1968A      3.073555  1969A      3.076262  
    1970A      3.079881  1971A      3.082365  1972A      3.085809  
    1973A      3.086050  1974A      3.091613  1975A      3.095582  
    1976A      3.097864  1977A      3.101097  1978A      3.105366  
    1979A      3.107790  1980A      3.109161  1981A      3.111136  
    1982A      3.117062  1983A      3.120797  1984A      3.124367  
    1985A      3.129443  1986A      3.130920  1987A      3.132387  
    1988A      3.137481  1989A      3.138658  1990A      3.144116  
    1991A      3.146776  1992A      3.147654  1993A      3.153139  
    1994A      3.153622  1995A      3.160184  1996A      3.167209  
    1997A      3.167506  1998A      3.168873  1999A      3.171629  
    2000A      3.177481  2001A      3.181741  2002A      3.184992  
    2003A      3.187696  2004A      3.192285  2005A      3.194848  
    2006A      3.196869  2007A      3.204714  2008A      3.206094  
    2009A      3.206712  2010A      3.207621  2011A      3.208767  
    2012A      3.214639  2013A      3.215540  2014A      3.221377  
    2015A      3.224421  2016A      3.228482  2017A      3.230544  
    2018A      3.232880  2019A      3.235079  2020A      3.236945  
    2021A      3.238562  2022A      3.246445  2023A      3.247807  
    2024A      3.249225  2025A      3.258524  2026A      3.258853  
    2027A      3.262158  2028A      3.264891  2029A      3.268004  
    2030A      3.269657  2031A      3.277441  2032A      3.278895  
    2033A      3.279018  2034A      3.281540  2035A      3.291014  
    2036A      3.293343  2037A      3.300435  2038A      3.303907  
    2039A      3.308499  2040A      3.313386  2041A      3.318000  
    2042A      3.318642  2043A      3.320023  2044A      3.320433  
    2045A      3.328364  2046A      3.330960  2047A      3.335978  
    2048A      3.336681  2049A      3.339642  2050A      3.346044  
    2051A      3.346469  2052A      3.352671  2053A      3.355212  
    2054A      3.356311  2055A      3.359896  2056A      3.365697  
    2057A      3.372620  2058A      3.373651  2059A      3.375743  
    2060A      3.380075  2061A      3.392365  2062A      3.397682  
    2063A      3.398550  2064A      3.404508  2065A      3.405044  
    2066A      3.406430  2067A      3.408935  2068A      3.411174  
    2069A      3.411645  2070A      3.420369  2071A      3.426977  
    2072A      3.427946  2073A      3.430190  2074A      3.432375  
    2075A      3.434405  2076A      3.438844  2077A      3.440664  
    2078A      3.446572  2079A      3.451808  2080A      3.461545  
    2081A      3.463727  2082A      3.464904  2083A      3.469066  
    2084A      3.470282  2085A      3.473677  2086A      3.475499  
    2087A      3.481027  2088A      3.483129  2089A      3.484220  
    2090A      3.485241  2091A      3.491056  2092A      3.496212  
    2093A      3.496478  2094A      3.497919  2095A      3.507432  
    2096A      3.511189  2097A      3.515423  2098A      3.519656  
    2099A      3.520236  2100A      3.520915  2101A      3.525260  
    2102A      3.528098  2103A      3.536659  2104A      3.539978  
    2105A      3.543075  2106A      3.547336  2107A      3.550985  
    2108A      3.554294  2109A      3.557447  2110A      3.559688  
    2111A      3.562470  2112A      3.568987  2113A      3.571404  
    2114A      3.572500  2115A      3.575920  2116A      3.577957  
    2117A      3.582243  2118A      3.590138  2119A      3.590961  
    2120A      3.595397  2121A      3.596426  2122A      3.604907  
    2123A      3.606603  2124A      3.607956  2125A      3.609176  
    2126A      3.613704  2127A      3.615796  2128A      3.622256  
    2129A      3.627584  2130A      3.629129  2131A      3.635384  
    2132A      3.635895  2133A      3.637857  2134A      3.640036  
    2135A      3.650369  2136A      3.652432  2137A      3.653831  
    2138A      3.658286  2139A      3.661749  2140A      3.665496  
    2141A      3.666053  2142A      3.675362  2143A      3.678143  
    2144A      3.680062  2145A      3.685050  2146A      3.689001  
    2147A      3.691009  2148A      3.694106  2149A      3.696633  
    2150A      3.703013  2151A      3.704757  2152A      3.705685  
    2153A      3.710631  2154A      3.721546  2155A      3.722709  
    2156A      3.727546  2157A      3.730873  2158A      3.734226  
    2159A      3.735305  2160A      3.738105  2161A      3.742528  
    2162A      3.748430  2163A      3.756764  2164A      3.758773  
    2165A      3.763587  2166A      3.765389  2167A      3.770998  
    2168A      3.771734  2169A      3.775324  2170A      3.776472  
    2171A      3.788446  2172A      3.788809  2173A      3.791705  
    2174A      3.792244  2175A      3.797293  2176A      3.798863  
    2177A      3.809785  2178A      3.815410  2179A      3.816364  
    2180A      3.826821  2181A      3.832581  2182A      3.835950  
    2183A      3.847948  2184A      3.849294  2185A      3.853576  
    2186A      3.854596  2187A      3.855755  2188A      3.861522  
    2189A      3.863955  2190A      3.864478  2191A      3.873743  
    2192A      3.878993  2193A      3.884223  2194A      3.888682  
    2195A      3.889084  2196A      3.897815  2197A      3.902155  
    2198A      3.903579  2199A      3.908374  2200A      3.911990  
    2201A      3.916625  2202A      3.921327  2203A      3.923292  
    2204A      3.927251  2205A      3.929815  2206A      3.931923  
    2207A      3.941064  2208A      3.944605  2209A      3.955760  
    2210A      3.960281  2211A      3.965815  2212A      3.973062  
    2213A      3.975009  2214A      3.979206  2215A      3.989566  
    2216A      3.989954  2217A      3.996303  2218A      4.000898  
    2219A      4.002135  2220A      4.008963  2221A      4.010950  
    2222A      4.018002  2223A      4.020823  2224A      4.025715  
    2225A      4.030969  2226A      4.034007  2227A      4.042045  
    2228A      4.050120  2229A      4.053602  2230A      4.055051  
    2231A      4.061097  2232A      4.064100  2233A      4.067944  
    2234A      4.068298  2235A      4.070851  2236A      4.083100  
    2237A      4.089531  2238A      4.098172  2239A      4.103538  
    2240A      4.106308  2241A      4.113299  2242A      4.119043  
    2243A      4.122366  2244A      4.123902  2245A      4.126726  
    2246A      4.127577  2247A      4.129607  2248A      4.130642  
    2249A      4.136975  2250A      4.140094  2251A      4.145510  
    2252A      4.149215  2253A      4.151248  2254A      4.158111  
    2255A      4.159086  2256A      4.165952  2257A      4.166800  
    2258A      4.172094  2259A      4.173719  2260A      4.175043  
    2261A      4.178223  2262A      4.181159  2263A      4.190271  
    2264A      4.195562  2265A      4.197147  2266A      4.201187  
    2267A      4.204123  2268A      4.205849  2269A      4.208017  
    2270A      4.208735  2271A      4.214035  2272A      4.218485  
    2273A      4.219658  2274A      4.224434  2275A      4.225352  
    2276A      4.233830  2277A      4.236250  2278A      4.242635  
    2279A      4.245614  2280A      4.246936  2281A      4.249681  
    2282A      4.255439  2283A      4.257841  2284A      4.259941  
    2285A      4.261173  2286A      4.267309  2287A      4.270701  
    2288A      4.272425  2289A      4.275366  2290A      4.280076  
    2291A      4.282106  2292A      4.283956  2293A      4.290584  
    2294A      4.292723  2295A      4.293009  2296A      4.294695  
    2297A      4.303724  2298A      4.303918  2299A      4.304289  
    2300A      4.308367  2301A      4.312992  2302A      4.313874  
    2303A      4.315577  2304A      4.318527  2305A      4.319964  
    2306A      4.327477  2307A      4.332542  2308A      4.335190  
    2309A      4.336189  2310A      4.338922  2311A      4.342511  
    2312A      4.345131  2313A      4.346598  2314A      4.347567  
    2315A      4.351296  2316A      4.351696  2317A      4.354892  
    2318A      4.357875  2319A      4.360240  2320A      4.361351  
    2321A      4.362702  2322A      4.368324  2323A      4.370676  
    2324A      4.372853  2325A      4.375891  2326A      4.380684  
    2327A      4.385156  2328A      4.386525  2329A      4.388255  
    2330A      4.389657  2331A      4.395808  2332A      4.401165  
    2333A      4.404715  2334A      4.409400  2335A      4.410032  
    2336A      4.413545  2337A      4.416779  2338A      4.419698  
    2339A      4.421522  2340A      4.423680  2341A      4.425872  
    2342A      4.428036  2343A      4.429137  2344A      4.436210  
    2345A      4.437894  2346A      4.439964  2347A      4.440555  
    2348A      4.443646  2349A      4.445076  2350A      4.447277  
    2351A      4.447587  2352A      4.449457  2353A      4.450894  
    2354A      4.458198  2355A      4.464810  2356A      4.466872  
    2357A      4.468790  2358A      4.471446  2359A      4.473258  
    2360A      4.475261  2361A      4.476591  2362A      4.481946  
    2363A      4.482927  2364A      4.486057  2365A      4.486433  
    2366A      4.489218  2367A      4.490816  2368A      4.494108  
    2369A      4.495344  2370A      4.496978  2371A      4.498664  
    2372A      4.502168  2373A      4.503449  2374A      4.507769  
    2375A      4.509973  2376A      4.511090  2377A      4.514367  
    2378A      4.518790  2379A      4.520210  2380A      4.522950  
    2381A      4.524520  2382A      4.526682  2383A      4.528167  
    2384A      4.529614  2385A      4.530779  2386A      4.533413  
    2387A      4.534317  2388A      4.536813  2389A      4.539059  
    2390A      4.540101  2391A      4.546214  2392A      4.547994  
    2393A      4.548983  2394A      4.554074  2395A      4.556932  
    2396A      4.561250  2397A      4.561722  2398A      4.563606  
    2399A      4.565709  2400A      4.568606  2401A      4.568859  
    2402A      4.572758  2403A      4.573641  2404A      4.576747  
    2405A      4.580371  2406A      4.582366  2407A      4.583600  
    2408A      4.585183  2409A      4.588230  2410A      4.592300  
    2411A      4.595654  2412A      4.599217  2413A      4.603481  
    2414A      4.603902  2415A      4.608847  2416A      4.609253  
    2417A      4.610651  2418A      4.611279  2419A      4.614167  
    2420A      4.615424  2421A      4.616017  2422A      4.621093  
    2423A      4.623314  2424A      4.628535  2425A      4.632858  
    2426A      4.633041  2427A      4.637266  2428A      4.640829  
    2429A      4.642704  2430A      4.648609  2431A      4.650082  
    2432A      4.652762  2433A      4.656878  2434A      4.657631  
    2435A      4.662042  2436A      4.665186  2437A      4.665855  
    2438A      4.668720  2439A      4.669149  2440A      4.670900  
    2441A      4.672473  2442A      4.676131  2443A      4.680455  
    2444A      4.683615  2445A      4.684703  2446A      4.687753  
    2447A      4.688414  2448A      4.688797  2449A      4.690058  
    2450A      4.693026  2451A      4.695380  2452A      4.698879  
    2453A      4.705541  2454A      4.708748  2455A      4.714792  
    2456A      4.716054  2457A      4.716927  2458A      4.718913  
    2459A      4.721317  2460A      4.722852  2461A      4.724416  
    2462A      4.726668  2463A      4.729892  2464A      4.731502  
    2465A      4.732559  2466A      4.738441  2467A      4.739486  
    2468A      4.742787  2469A      4.745656  2470A      4.748266  
    2471A      4.748925  2472A      4.751512  2473A      4.753141  
    2474A      4.756587  2475A      4.758403  2476A      4.762027  
    2477A      4.763839  2478A      4.764823  2479A      4.765941  
    2480A      4.771032  2481A      4.772522  2482A      4.775807  
    2483A      4.777904  2484A      4.783737  2485A      4.786383  
    2486A      4.788102  2487A      4.789948  2488A      4.791651  
    2489A      4.794980  2490A      4.799127  2491A      4.799804  
    2492A      4.804214  2493A      4.807333  2494A      4.808898  
    2495A      4.809371  2496A      4.809784  2497A      4.812851  
    2498A      4.816792  2499A      4.817651  2500A      4.818550  
    2501A      4.822053  2502A      4.822953  2503A      4.826352  
    2504A      4.828736  2505A      4.829571  2506A      4.831588  
    2507A      4.833571  2508A      4.837396  2509A      4.839446  
    2510A      4.840344  2511A      4.840932  2512A      4.844835  
    2513A      4.846553  2514A      4.847680  2515A      4.852487  
    2516A      4.854329  2517A      4.858011  2518A      4.861419  
    2519A      4.862368  2520A      4.863449  2521A      4.865637  
    2522A      4.866932  2523A      4.868704  2524A      4.868959  
    2525A      4.871284  2526A      4.875890  2527A      4.878932  
    2528A      4.881228  2529A      4.882337  2530A      4.882889  
    2531A      4.884078  2532A      4.884628  2533A      4.889303  
    2534A      4.890962  2535A      4.894057  2536A      4.900184  
    2537A      4.902649  2538A      4.907244  2539A      4.907546  
    2540A      4.910186  2541A      4.914338  2542A      4.916408  
    2543A      4.920992  2544A      4.923443  2545A      4.926884  
    2546A      4.929019  2547A      4.930678  2548A      4.933048  
    2549A      4.935144  2550A      4.936444  2551A      4.937213  
    2552A      4.942021  2553A      4.945111  2554A      4.947808  
    2555A      4.950104  2556A      4.954993  2557A      4.960275  
    2558A      4.960827  2559A      4.961613  2560A      4.965941  
    2561A      4.966850  2562A      4.968003  2563A      4.969934  
    2564A      4.973778  2565A      4.980236  2566A      4.981179  
    2567A      4.982121  2568A      4.982977  2569A      4.985059  
    2570A      4.986823  2571A      4.988266  2572A      4.990307  
    2573A      4.991635  2574A      4.995121  2575A      4.998740  
    2576A      4.999450  2577A      5.003276  2578A      5.005291  
    2579A      5.009503  2580A      5.011785  2581A      5.014735  
    2582A      5.016799  2583A      5.017565  2584A      5.019411  
    2585A      5.019721  2586A      5.027599  2587A      5.030366  
    2588A      5.032837  2589A      5.037043  2590A      5.039814  
    2591A      5.040630  2592A      5.042091  2593A      5.042710  
    2594A      5.046837  2595A      5.050344  2596A      5.054044  
    2597A      5.058874  2598A      5.063168  2599A      5.064611  
    2600A      5.067395  2601A      5.069224  2602A      5.073372  
    2603A      5.073799  2604A      5.078093  2605A      5.079717  
    2606A      5.084163  2607A      5.085612  2608A      5.087179  
    2609A      5.087735  2610A      5.091566  2611A      5.095395  
    2612A      5.096439  2613A      5.100927  2614A      5.109421  
    2615A      5.110119  2616A      5.110877  2617A      5.114654  
    2618A      5.115446  2619A      5.118317  2620A      5.119494  
    2621A      5.124369  2622A      5.125835  2623A      5.126417  
    2624A      5.128381  2625A      5.133523  2626A      5.135403  
    2627A      5.137135  2628A      5.139459  2629A      5.140035  
    2630A      5.143659  2631A      5.144414  2632A      5.147758  
    2633A      5.150117  2634A      5.151004  2635A      5.153571  
    2636A      5.159315  2637A      5.160821  2638A      5.161617  
    2639A      5.163178  2640A      5.163794  2641A      5.168674  
    2642A      5.170345  2643A      5.171870  2644A      5.173754  
    2645A      5.174348  2646A      5.179060  2647A      5.181952  
    2648A      5.185641  2649A      5.188224  2650A      5.188744  
    2651A      5.189853  2652A      5.192175  2653A      5.194163  
    2654A      5.194387  2655A      5.197260  2656A      5.198854  
    2657A      5.202015  2658A      5.204142  2659A      5.204497  
    2660A      5.208064  2661A      5.211745  2662A      5.215122  
    2663A      5.218536  2664A      5.219472  2665A      5.220125  
    2666A      5.222274  2667A      5.225169  2668A      5.230162  
    2669A      5.235534  2670A      5.237850  2671A      5.238498  
    2672A      5.241865  2673A      5.245844  2674A      5.250673  
    2675A      5.251289  2676A      5.252351  2677A      5.253057  
    2678A      5.254036  2679A      5.259254  2680A      5.260794  
    2681A      5.266937  2682A      5.267408  2683A      5.271220  
    2684A      5.273323  2685A      5.273886  2686A      5.275421  
    2687A      5.277695  2688A      5.281664  2689A      5.282267  
    2690A      5.288151  2691A      5.289848  2692A      5.292231  
    2693A      5.297165  2694A      5.298086  2695A      5.300977  
    2696A      5.301378  2697A      5.302881  2698A      5.305204  
    2699A      5.313052  2700A      5.315288  2701A      5.317697  
    2702A      5.324452  2703A      5.328747  2704A      5.332300  
    2705A      5.333447  2706A      5.334377  2707A      5.339988  
    2708A      5.340329  2709A      5.344654  2710A      5.347426  
    2711A      5.350540  2712A      5.355360  2713A      5.357396  
    2714A      5.363154  2715A      5.365828  2716A      5.366492  
    2717A      5.367280  2718A      5.368893  2719A      5.376979  
    2720A      5.380757  2721A      5.383205  2722A      5.384673  
    2723A      5.388303  2724A      5.390275  2725A      5.394471  
    2726A      5.399177  2727A      5.400211  2728A      5.403171  
    2729A      5.405602  2730A      5.411219  2731A      5.416615  
    2732A      5.418204  2733A      5.421511  2734A      5.424904  
    2735A      5.425838  2736A      5.430313  2737A      5.433228  
    2738A      5.434545  2739A      5.439040  2740A      5.439549  
    2741A      5.445505  2742A      5.446443  2743A      5.451185  
    2744A      5.452051  2745A      5.455776  2746A      5.459448  
    2747A      5.462953  2748A      5.467106  2749A      5.471517  
    2750A      5.475804  2751A      5.476340  2752A      5.479017  
    2753A      5.484360  2754A      5.488653  2755A      5.492258  
    2756A      5.492437  2757A      5.495039  2758A      5.496375  
    2759A      5.499304  2760A      5.500585  2761A      5.504667  
    2762A      5.505589  2763A      5.507461  2764A      5.508463  
    2765A      5.511528  2766A      5.513792  2767A      5.516947  
    2768A      5.517704  2769A      5.519225  2770A      5.523028  
    2771A      5.525280  2772A      5.529587  2773A      5.529994  
    2774A      5.536274  2775A      5.539620  2776A      5.540271  
    2777A      5.542314  2778A      5.543556  2779A      5.546180  
    2780A      5.553111  2781A      5.555837  2782A      5.556204  
    2783A      5.557577  2784A      5.561480  2785A      5.567526  
    2786A      5.568296  2787A      5.568627  2788A      5.573561  
    2789A      5.575903  2790A      5.578428  2791A      5.580261  
    2792A      5.583359  2793A      5.584690  2794A      5.592526  
    2795A      5.596269  2796A      5.597326  2797A      5.598547  
    2798A      5.604105  2799A      5.605012  2800A      5.606087  
    2801A      5.615097  2802A      5.617945  2803A      5.622462  
    2804A      5.623221  2805A      5.624332  2806A      5.627506  
    2807A      5.632236  2808A      5.634133  2809A      5.635874  
    2810A      5.641457  2811A      5.643403  2812A      5.644128  
    2813A      5.646152  2814A      5.649494  2815A      5.652226  
    2816A      5.654020  2817A      5.657614  2818A      5.657853  
    2819A      5.661481  2820A      5.661694  2821A      5.667331  
    2822A      5.667735  2823A      5.667799  2824A      5.669977  
    2825A      5.673993  2826A      5.678355  2827A      5.679765  
    2828A      5.684409  2829A      5.688524  2830A      5.692069  
    2831A      5.695931  2832A      5.696450  2833A      5.697800  
    2834A      5.701962  2835A      5.702246  2836A      5.703361  
    2837A      5.706021  2838A      5.708839  2839A      5.709615  
    2840A      5.714027  2841A      5.722676  2842A      5.724611  
    2843A      5.725226  2844A      5.726321  2845A      5.731551  
    2846A      5.734547  2847A      5.735792  2848A      5.736012  
    2849A      5.741283  2850A      5.745422  2851A      5.746634  
    2852A      5.750459  2853A      5.754722  2854A      5.760909  
    2855A      5.764153  2856A      5.766767  2857A      5.767777  
    2858A      5.777163  2859A      5.780219  2860A      5.782629  
    2861A      5.783647  2862A      5.784085  2863A      5.789255  
    2864A      5.792258  2865A      5.793237  2866A      5.799204  
    2867A      5.800791  2868A      5.803085  2869A      5.803666  
    2870A      5.807613  2871A      5.812103  2872A      5.812431  
    2873A      5.813482  2874A      5.821913  2875A      5.831687  
    2876A      5.832241  2877A      5.834560  2878A      5.836473  
    2879A      5.837834  2880A      5.840427  2881A      5.848064  
    2882A      5.850408  2883A      5.853454  2884A      5.855007  
    2885A      5.860198  2886A      5.861669  2887A      5.866283  
    2888A      5.868087  2889A      5.871714  2890A      5.874242  
    2891A      5.880580  2892A      5.880947  2893A      5.887574  
    2894A      5.888506  2895A      5.890868  2896A      5.894881  
    2897A      5.899496  2898A      5.906417  2899A      5.908442  
    2900A      5.910608  2901A      5.914375  2902A      5.915508  
    2903A      5.917098  2904A      5.922911  2905A      5.926828  
    2906A      5.929538  2907A      5.930576  2908A      5.934634  
    2909A      5.938084  2910A      5.942895  2911A      5.944274  
    2912A      5.944411  2913A      5.946216  2914A      5.952955  
    2915A      5.955404  2916A      5.957488  2917A      5.960978  
    2918A      5.971222  2919A      5.974300  2920A      5.974689  
    2921A      5.979302  2922A      5.988023  2923A      5.988973  
    2924A      5.996749  2925A      5.997849  2926A      5.998479  
    2927A      6.001481  2928A      6.003153  2929A      6.010100  
    2930A      6.011730  2931A      6.019127  2932A      6.020042  
    2933A      6.022301  2934A      6.027136  2935A      6.028915  
    2936A      6.032230  2937A      6.037255  2938A      6.038078  
    2939A      6.039140  2940A      6.045929  2941A      6.050774  
    2942A      6.052846  2943A      6.056673  2944A      6.057786  
    2945A      6.062465  2946A      6.065332  2947A      6.068927  
    2948A      6.069019  2949A      6.075126  2950A      6.078288  
    2951A      6.082526  2952A      6.084365  2953A      6.087094  
    2954A      6.089489  2955A      6.091667  2956A      6.098474  
    2957A      6.099273  2958A      6.105672  2959A      6.106853  
    2960A      6.112327  2961A      6.112747  2962A      6.120038  
    2963A      6.123863  2964A      6.126761  2965A      6.128967  
    2966A      6.130092  2967A      6.137282  2968A      6.144740  
    2969A      6.147402  2970A      6.148997  2971A      6.149606  
    2972A      6.150162  2973A      6.153848  2974A      6.161604  
    2975A      6.168945  2976A      6.170060  2977A      6.174959  
    2978A      6.175297  2979A      6.181007  2980A      6.181436  
    2981A      6.189362  2982A      6.189705  2983A      6.202864  
    2984A      6.203333  2985A      6.216887  2986A      6.217048  
    2987A      6.219815  2988A      6.224403  2989A      6.225043  
    2990A      6.228606  2991A      6.231342  2992A      6.234107  
    2993A      6.237706  2994A      6.239450  2995A      6.243381  
    2996A      6.250375  2997A      6.251505  2998A      6.255176  
    2999A      6.257972  3000A      6.261072  3001A      6.262885  
    3002A      6.263176  3003A      6.265438  3004A      6.271191  
    3005A      6.277472  3006A      6.281085  3007A      6.281498  
    3008A      6.290318  3009A      6.291726  3010A      6.293006  
    3011A      6.299341  3012A      6.301199  3013A      6.307196  
    3014A      6.309884  3015A      6.313553  3016A      6.314127  
    3017A      6.319106  3018A      6.324079  3019A      6.329771  
    3020A      6.330176  3021A      6.335377  3022A      6.338298  
    3023A      6.338647  3024A      6.341389  3025A      6.345532  
    3026A      6.346142  3027A      6.349344  3028A      6.349934  
    3029A      6.356023  3030A      6.360144  3031A      6.364638  
    3032A      6.368742  3033A      6.371740  3034A      6.374720  
    3035A      6.378005  3036A      6.381787  3037A      6.386683  
    3038A      6.392002  3039A      6.395980  3040A      6.401311  
    3041A      6.402256  3042A      6.416208  3043A      6.419840  
    3044A      6.422699  3045A      6.428300  3046A      6.437596  
    3047A      6.441619  3048A      6.445371  3049A      6.450335  
    3050A      6.453212  3051A      6.454598  3052A      6.455971  
    3053A      6.459209  3054A      6.464272  3055A      6.467861  
    3056A      6.471203  3057A      6.477954  3058A      6.487840  
    3059A      6.489102  3060A      6.496788  3061A      6.499171  
    3062A      6.516487  3063A      6.519136  3064A      6.521555  
    3065A      6.522942  3066A      6.537484  3067A      6.546647  
    3068A      6.546989  3069A      6.563307  3070A      6.570158  
    3071A      6.575696  3072A      6.616063  3073A      6.634662  
    3074A      6.635358  3075A      6.650419  3076A      6.670646  
    3077A      6.679125  3078A      6.681325  3079A      6.687734  
    3080A      6.706384  3081A      6.708596  3082A      6.718480  
    3083A      6.721572  3084A      6.730141  3085A      6.736846  
    3086A      6.741585  3087A      6.747264  3088A      6.749461  
    3089A      6.756872  3090A      6.766847  3091A      6.770314  
    3092A      6.779674  3093A      6.788865  3094A      6.797692  
    3095A      6.805363  3096A      6.809726  3097A      6.811977  
    3098A      6.815671  3099A      6.836489  3100A      6.847954  
    3101A      6.850511  3102A      6.856066  3103A      6.863520  
    3104A      6.878440  3105A      6.889833  3106A      6.896572  
    3107A      6.907263  3108A      6.932906  3109A      6.943131  
    3110A      6.947442  3111A      6.955480  3112A      6.963011  
    3113A      6.976384  3114A      6.985061  3115A      6.987795  
    3116A      6.997894  3117A      7.012523  3118A      7.017640  
    3119A      7.022491  3120A      7.027443  3121A      7.034510  
    3122A      7.049712  3123A      7.051870  3124A      7.056591  
    3125A      7.087709  3126A      7.095341  3127A      7.102369  
    3128A      7.113150  3129A      7.126933  3130A      7.129222  
    3131A      7.151881  3132A      7.182864  3133A      7.188681  
    3134A      7.190633  3135A      7.206161  3136A      7.215803  
    3137A      7.220472  3138A      7.224029  3139A      7.237133  
    3140A      7.250963  3141A      7.251977  3142A      7.271423  
    3143A      7.271861  3144A      7.275462  3145A      7.285596  
    3146A      7.295198  3147A      7.314986  3148A      7.326319  
    3149A      7.330238  3150A      7.359358  3151A      7.374759  
    3152A      7.385348  3153A      7.387634  3154A      7.397105  
    3155A      7.399123  3156A      7.419673  3157A      7.423695  
    3158A      7.431139  3159A      7.440880  3160A      7.441140  
    3161A      7.464447  3162A      7.484403  3163A      7.490012  
    3164A      7.497683  3165A      7.511723  3166A      7.548474  
    3167A      7.557885  3168A      7.576942  3169A      7.580896  
    3170A      7.583116  3171A      7.593287  3172A      7.600022  
    3173A      7.615892  3174A      7.619344  3175A      7.622985  
    3176A      7.626346  3177A      7.648765  3178A      7.649792  
    3179A      7.665471  3180A      7.680518  3181A      7.681409  
    3182A      7.696353  3183A      7.703668  3184A      7.722362  
    3185A      7.723974  3186A      7.731545  3187A      7.738252  
    3188A      7.751364  3189A      7.751999  3190A      7.764746  
    3191A      7.773265  3192A      7.781902  3193A      7.787749  
    3194A      7.789544  3195A      7.808958  3196A      7.821093  
    3197A      7.823378  3198A      7.833704  3199A      7.855059  
    3200A      7.861577  3201A      7.871448  3202A      7.879349  
    3203A      7.889014  3204A      7.894749  3205A      7.894959  
    3206A      7.927237  3207A      7.928726  3208A      7.933960  
    3209A      7.936461  3210A      7.945581  3211A      7.952200  
    3212A      7.961880  3213A      7.967303  3214A      7.975798  
    3215A      7.987870  3216A      7.994938  3217A      8.013626  
    3218A      8.020731  3219A      8.022390  3220A      8.022954  
    3221A      8.047147  3222A      8.049918  3223A      8.080026  
    3224A      8.081309  3225A      8.095954  3226A      8.109945  
    3227A      8.110477  3228A      8.131095  3229A      8.146690  
    3230A      8.154720  3231A      8.193457  3232A      8.198397  
    3233A      8.209833  3234A      8.214985  3235A      8.236498  
    3236A      8.245243  3237A      8.267358  3238A      8.298175  
    3239A      8.312034  3240A      8.336282  3241A      8.338764  
    3242A      8.359041  3243A      8.371759  3244A      8.392976  
    3245A      8.403207  3246A      8.403485  3247A      8.431985  
    3248A      8.447699  3249A      8.456268  3250A      8.464280  
    3251A      8.481071  3252A      8.508997  3253A      8.520393  
    3254A      8.534686  3255A      8.552216  3256A      8.575164  
    3257A      8.593728  3258A      8.752036  3259A      8.770049  
    3260A      8.782722  3261A      8.806955  3262A      8.809739  
    3263A      8.810624  3264A      8.833840  3265A      8.849904  
    3266A      8.854876  3267A      8.870607  3268A      8.887325  
    3269A      8.905112  3270A      8.919270  3271A      8.941731  
    3272A      8.970893  3273A      9.077403  3274A      9.088318  
    3275A      9.105735  3276A      9.148163  3277A      9.151590  
    3278A      9.201316  3279A      9.264453  3280A      9.278900  
    3281A      9.288563  3282A      9.317684  3283A      9.331346  
    3284A      9.361463  3285A      9.409126  3286A      9.434078  
    3287A      9.445670  3288A      9.452009  3289A      9.453023  
    3290A      9.468699  3291A      9.483432  3292A      9.574519  
    3293A      9.626517  3294A      9.699972  3295A      9.818040  
    3296A      9.869085  3297A      9.894349  3298A      9.914533  
    3299A      9.943720  3300A      9.949836  3301A     10.010949  
    3302A     10.036385  3303A     10.065939  3304A     10.082721  
    3305A     10.099440  3306A     10.129038  3307A     10.156951  
    3308A     10.196035  3309A     10.197074  3310A     10.205574  
    3311A     10.211920  3312A     10.250695  3313A     10.286364  
    3314A     10.289239  3315A     10.356676  3316A     10.362095  
    3317A     10.397812  3318A     10.472711  3319A     10.478802  
    3320A     10.487488  3321A     10.497515  3322A     10.784152  
    3323A     10.832324  3324A     10.841973  3325A     10.852679  
    3326A     10.853808  3327A     10.892659  3328A     10.907226  
    3329A     10.952324  3330A     11.026057  3331A     11.135981  
    3332A     11.167122  3333A     11.229831  3334A     11.239059  
    3335A     11.248809  3336A     11.315550  3337A     11.324686  
    3338A     11.338892  3339A     11.384631  3340A     11.442995  
    3341A     11.511468  3342A     11.531557  3343A     11.708776  
    3344A     11.713991  3345A     11.746656  3346A     11.780911  
    3347A     11.793402  3348A     11.840552  3349A     11.954617  
    3350A     11.974871  3351A     11.997885  3352A     12.039937  
    3353A     12.067866  3354A     12.083284  3355A     12.099205  
    3356A     12.129016  3357A     12.149317  3358A     12.227870  
    3359A     12.249635  3360A     12.310130  3361A     12.397728  
    3362A     16.024533  3363A     16.467665  3364A     16.679370  
    3365A     17.110724  3366A     18.123178  3367A     18.320367  
    3368A     18.482315  3369A     20.036458  3370A     20.219650  
    3371A     20.327935  3372A     20.613565  3373A     21.600953  
    3374A     21.984015  3375A     22.017311  3376A     22.873984  
    3377A     23.031885  3378A     50.785914  3379A     50.893116  
    3380A     51.485096  3381A     51.635631  3382A     51.934678  
    3383A     52.429517  3384A     52.546319  3385A     54.267965  
    3386A     54.562924  3387A     54.826449  3388A     54.996030  
    3389A     55.336054  3390A     55.378138  3391A     55.519752  
    3392A     55.650576  3393A     55.868545  3394A     56.150444  
    3395A     56.181440  3396A     56.686794  3397A     57.270817  
    3398A     58.045747  3399A     58.120275  3400A     58.811358  
    3401A     59.021448  3402A     59.646389  3403A     60.024891  
    3404A     60.403044  3405A     60.543391  3406A     60.697443  
    3407A     60.766055  3408A     60.888117  3409A     60.921836  
    3410A     61.096263  3411A     61.147916  3412A     61.288139  
    3413A     61.330689  3414A     61.474437  3415A     61.622068  
    3416A     61.758523  3417A     62.503416  3418A     62.673157  
    3419A     63.103698  

    Final Occupation by Irrep:
              A 
    DOCC [    52 ]
    NA   [    52 ]
    NB   [    52 ]

  @DF-RKS Final Energy:  -678.54302001584961

   => Energetics <=

    Nuclear Repulsion Energy =            836.8830872626610926
    One-Electron Energy =               -2573.7849939553370859
    Two-Electron Energy =                1123.3760563555933913
    DFT Exchange-Correlation Energy =     -65.0049937569634437
    Empirical Dispersion Energy =          -0.0121759218035028
    VV10 Nonlocal Energy =                  0.0000000000000000
    Total Energy =                       -678.5430200158496064

Computation Completed


Properties will be evaluated at   0.000000,   0.000000,   0.000000 [a0]

Properties computed using the SCF density matrix


 Multipole Moments:

 ------------------------------------------------------------------------------------
     Multipole            Electronic (a.u.)      Nuclear  (a.u.)        Total (a.u.)
 ------------------------------------------------------------------------------------

 L = 1.  Multiply by 2.5417464519 to convert [e a0] to [Debye]
 Dipole X            :        -47.2943002           47.2403186           -0.0539816
 Dipole Y            :         82.8348362          -83.0305255           -0.1956893
 Dipole Z            :          1.3503141           -1.3544535           -0.0041394
 Magnitude           :                                                    0.2030405

 ------------------------------------------------------------------------------------

*** tstop() called on atl1-1-02-003-29-1.pace.gatech.edu at Sat Jun 13 16:27:06 2026
Module time:
	user time   =   90062.43 seconds =    1501.04 minutes
	system time =    6657.01 seconds =     110.95 minutes
	total time  =      15210 seconds =     253.50 minutes
Total time:
	user time   =   90062.43 seconds =    1501.04 minutes
	system time =    6657.01 seconds =     110.95 minutes
	total time  =      15210 seconds =     253.50 minutes

    Psi4 stopped on: Saturday, 13 June 2026 04:27PM
    Psi4 wall time for execution: 4:13:51.53

*** Psi4 exiting successfully. Buy a developer a beer!
