
    -----------------------------------------------------------------------
          Psi4: An Open-Source Ab Initio Electronic Structure Package
                               Psi4 1.9.1 release

                         Git: Rev {} zzzzzzz 


    D. G. A. Smith, L. A. Burns, A. C. Simmonett, R. M. Parrish,
    M. C. Schieber, R. Galvelis, P. Kraus, H. Kruse, R. Di Remigio,
    A. Alenaizan, A. M. James, S. Lehtola, J. P. Misiewicz, M. Scheurer,
    R. A. Shaw, J. B. Schriber, Y. Xie, Z. L. Glick, D. A. Sirianni,
    J. S. O'Brien, J. M. Waldrop, A. Kumar, E. G. Hohenstein,
    B. P. Pritchard, B. R. Brooks, H. F. Schaefer III, A. Yu. Sokolov,
    K. Patkowski, A. E. DePrince III, U. Bozkaya, R. A. King,
    F. A. Evangelista, J. M. Turney, T. D. Crawford, C. D. Sherrill,
    J. Chem. Phys. 152(18) 184108 (2020). https://doi.org/10.1063/5.0006002

                            Additional Code Authors
    E. T. Seidl, C. L. Janssen, E. F. Valeev, M. L. Leininger,
    J. F. Gonthier, R. M. Richard, H. R. McAlexander, M. Saitow, X. Wang,
    P. Verma, M. H. Lechner, A. Jiang, S. Behnle, A. G. Heide,
    M. F. Herbst, and D. L. Poole

             Previous Authors, Complete List of Code Contributors,
                       and Citations for Specific Modules
    https://github.com/psi4/psi4/blob/master/codemeta.json
    https://github.com/psi4/psi4/graphs/contributors
    http://psicode.org/psi4manual/master/introduction.html#citing-psifour

    -----------------------------------------------------------------------


    Psi4 started on: Saturday, 13 June 2026 02:43PM

    Process ID: 1973245
    Host:       atl1-1-02-003-24-1.pace.gatech.edu
    PSIDATADIR: /storage/home/hcoda1/5/vlita3/.conda/envs/p4_qcml/share/psi4
    Memory:     250.0 GiB
    Threads:    10
    
  ==> Input QCSchema <==

--------------------------------------------------------------------------
{'driver': 'energy',
 'extras': {},
 'id': '253',
 'keywords': {},
 'model': {'basis': 'aug-cc-pvtz', 'method': 'wb97x-v'},
 'molecule': {'extras': {},
              'fix_com': True,
              'fix_orientation': True,
              'fragment_charges': [0.0, 0.0],
              'fragment_multiplicities': [1, 1],
              'fragments': [[0, 1, 2, 3, 4, 5, 6, 7, 8, 9, 10, 11, 12, 13, 14, 15, 16, 17, 18, 19, 20, 21, 22, 23, 24,
                             25, 26, 27, 28, 29, 30, 31, 32, 33, 34, 35, 36, 37, 38, 39, 40, 41, 42, 43, 44, 45, 46, 47,
                             48, 49, 50, 51, 52, 53, 54, 55, 56, 57, 58, 59, 60, 61, 62, 63, 64, 65, 66, 67, 68, 69, 70,
                             71],
                            [72, 73, 74, 75, 76, 77, 78, 79, 80, 81, 82, 83, 84, 85, 86, 87, 88, 89, 90, 91]],
              'geometry': [-0.27392714, 6.18819166, -1.19323544, -2.46344698, 5.77825337, -2.60449614, -4.6940608,
                           5.39705781, -1.25234985, -4.71896739, 5.33938337, 1.40379628, -2.51326016, 5.65638493,
                           2.81229042, -0.29786241, 6.1264921, 1.46128175, -7.4236946, 4.94664159, -2.11437677,
                           -8.0102089, 2.21933216, -1.3518118, -8.03725088, 2.16388759, 1.30730308, -7.46490952,
                           4.85601033, 2.19433108, -8.21278754, 0.01810099, -2.78449255, -8.41651891, -2.24308601,
                           -1.44718061, -8.44656555, -2.29788807, 1.20944929, -8.27108559, -0.09424159, 2.64331111,
                           -8.82968863, 6.36030791, 0.05739419, 2.39027678, 6.99321499, -1.97848656, 2.35234998,
                           6.89052727, 2.33048585, 4.24147139, 4.87579576, 1.47132186, 4.26509297, 4.93957402,
                           -1.18371122, 5.91295305, 3.35513315, 2.83024282, 7.66850862, 1.97164575, 1.43096487,
                           7.69269711, 2.03631218, -1.22332744, 5.96134893, 3.48626124, -2.58482409, 2.91214355,
                           8.90127146, 0.22748523, 9.87956377, 0.34201964, -2.07607202, 9.16122218, -2.35520346,
                           -1.32189933, 9.13548411, -2.42066358, 1.33912796, 9.83927481, 0.23553924, 2.23913649,
                           8.55002806, -4.47912335, -2.729596, 7.90073706, -6.7005909, -1.42801501, 7.87418641,
                           -6.76523843, 1.20657123, 8.49702124, -4.61078057, 2.62830668, 11.77284258, 0.92596769,
                           0.1150709, -8.31764844, -5.08264518, 1.9809621, -5.66577687, -5.91321761, 1.16915466,
                           -5.63425624, -5.85826437, -1.48990165, -8.26696598, -4.99384695, -2.32929532, -3.49926256,
                           -6.47956853, 2.52781105, -1.27490751, -7.03089613, 1.18478458, -1.24350593, -6.97650981,
                           -1.44679133, -3.43540871, -6.36901955, -2.81856431, -9.87669139, -6.270716, -0.2182029,
                           -2.4529401, 5.84171037, -4.65828828, -2.54030214, 5.62747212, 4.86674397, -7.86022133,
                           5.46728004, -4.05896164, -7.93792687, 5.29540945, 4.15038659, -8.11773431, 0.05695332,
                           -4.83605482, -8.21892915, -0.14041005, 4.69617729, -8.40519945, 8.38335422, 0.10379812,
                           -10.87140543, 6.03249712, 0.03110168, 2.58575005, 7.68646102, -3.90969218, 2.51428061,
                           7.49055311, 4.29570653, 5.92036077, 3.32542665, 4.88460188, 6.00539845, 3.55672913,
                           -4.63769027, 1.57808761, 10.48166831, 0.25357668, 4.86729199, 9.57563912, 0.26070473,
                           10.52462179, 0.60197793, -4.01470426, 10.44833354, 0.39868497, 4.19987852, 8.5531839,
                           -4.43267388, -4.7823677, 7.42214502, -8.39155563, -2.48982755, 7.37512864, -8.50599744,
                           2.1742055, 8.4600204, -4.66543145, 4.68064374, 12.34503276, 2.91199237, 0.16959272,
                           13.42257349, -0.321261, 0.09956022, -8.86591468, -5.52843157, 3.91606055, -8.76902842,
                           -5.35979242, -4.29349555, -3.50574432, -6.49980749, 4.58215122, 0.4449946, -7.48906022,
                           2.20842844, 0.50076797, -7.39238184, -2.44683628, -3.39254972, -6.30418305, -4.87158167,
                           -11.84561594, -5.6407569, -0.22849246, -9.76051103, -8.33473156, -0.2592572, 0.45225115,
                           -0.84580551, -2.67537976, 2.67838443, -1.53842793, -1.2866805, 2.65068104, -1.59445642,
                           1.27425178, 0.39459182, -0.96458424, 2.64450164, -1.86313012, -0.39368286, 1.25325503,
                           -1.83502422, -0.33633346, -1.30877329, 0.51180775, -0.67721548, -5.30584073, 2.77402347,
                           -1.11680357, -6.67834882, 4.65792923, -1.46517081, -7.76197447, -1.67832057, -0.01779464,
                           -6.70601441, -3.49875233, 0.52904962, -7.81566159, 0.39835616, -0.91584254, 5.28048061,
                           2.63210503, -1.41763286, 6.67793308, 4.4946569, -1.81660506, 7.78079614, -1.82246132,
                           -0.32547131, 6.66298535, -3.66775054, 0.16586372, 7.75745803, 4.38153789, -2.03474371,
                           -2.30489896, 4.33176251, -2.13518265, 2.30622176, -3.59287959, 0.00412869, 2.26776584,
                           -3.54227272, 0.1076148, -2.34208877],
              'id': 11,
              'identifiers': {'molecular_formula': 'C54H34N4',
                              'molecule_hash': '4c8c81f85cb59bc3d701ac2a728348ee32004706'},
              'masses': [12.0, 12.0, 12.0, 12.0, 12.0, 12.0, 12.0, 12.0, 12.0, 12.0, 12.0, 12.0, 12.0, 12.0, 12.0, 12.0,
                         12.0, 12.0, 12.0, 12.0, 12.0, 12.0, 12.0, 12.0, 12.0, 12.0, 12.0, 12.0, 12.0, 12.0, 12.0, 12.0,
                         12.0, 12.0, 12.0, 12.0, 12.0, 12.0, 12.0, 12.0, 12.0, 12.0, 1.00782503223, 1.00782503223,
                         1.00782503223, 1.00782503223, 1.00782503223, 1.00782503223, 1.00782503223, 1.00782503223,
                         1.00782503223, 1.00782503223, 1.00782503223, 1.00782503223, 1.00782503223, 1.00782503223,
                         1.00782503223, 1.00782503223, 1.00782503223, 1.00782503223, 1.00782503223, 1.00782503223,
                         1.00782503223, 1.00782503223, 1.00782503223, 1.00782503223, 1.00782503223, 1.00782503223,
                         1.00782503223, 1.00782503223, 1.00782503223, 1.00782503223, 12.0, 12.0, 12.0, 12.0, 12.0, 12.0,
                         12.0, 12.0, 14.00307400443, 12.0, 14.00307400443, 12.0, 12.0, 14.00307400443, 12.0,
                         14.00307400443, 1.00782503223, 1.00782503223, 1.00782503223, 1.00782503223],
              'molecular_charge': 0.0,
              'molecular_multiplicity': 1,
              'name': 'C54H34N4 ([1],[0])',
              'provenance': {'creator': 'QCElemental',
                             'routine': 'qcelemental.molparse.from_schema',
                             'version': '0.29.0'},
              'real': [False, False, False, False, False, False, False, False, False, False, False, False, False, False,
                       False, False, False, False, False, False, False, False, False, False, False, False, False, False,
                       False, False, False, False, False, False, False, False, False, False, False, False, False, False,
                       False, False, False, False, False, False, False, False, False, False, False, False, False, False,
                       False, False, False, False, False, False, False, False, False, False, False, False, False, False,
                       False, False, True, True, True, True, True, True, True, True, True, True, True, True, True, True,
                       True, True, True, True, True, True],
              'schema_name': 'qcschema_molecule',
              'schema_version': 2,
              'symbols': ['C', 'C', 'C', 'C', 'C', 'C', 'C', 'C', 'C', 'C', 'C', 'C', 'C', 'C', 'C', 'C', 'C', 'C', 'C',
                          'C', 'C', 'C', 'C', 'C', 'C', 'C', 'C', 'C', 'C', 'C', 'C', 'C', 'C', 'C', 'C', 'C', 'C', 'C',
                          'C', 'C', 'C', 'C', 'H', 'H', 'H', 'H', 'H', 'H', 'H', 'H', 'H', 'H', 'H', 'H', 'H', 'H', 'H',
                          'H', 'H', 'H', 'H', 'H', 'H', 'H', 'H', 'H', 'H', 'H', 'H', 'H', 'H', 'H', 'C', 'C', 'C', 'C',
                          'C', 'C', 'C', 'C', 'N', 'C', 'N', 'C', 'C', 'N', 'C', 'N', 'H', 'H', 'H', 'H'],
              'validated': True},
 'protocols': {},
 'provenance': {'creator': 'QCElemental', 'routine': 'qcelemental.models.results', 'version': '0.29.0'},
 'schema_name': 'qcschema_input',
 'schema_version': 1}
--------------------------------------------------------------------------

Scratch directory: /tmp/tmp87a23fs7_psi_scratch/
   => Libint2 <=

    Primary   basis highest AM E, G, H:  6, 6, 3
    Auxiliary basis highest AM E, G, H:  7, 7, 4
    Onebody   basis highest AM E, G, H:  -, -, -
    Solid Harmonics ordering:            Gaussian

*** tstart() called on atl1-1-02-003-24-1.pace.gatech.edu
*** at Sat Jun 13 14:43:27 2026

   => Loading Basis Set <=

    Name: AUG-CC-PVTZ
    Role: ORBITAL
    Keyword: BASIS
    atoms 1-42, 73-80, 82, 84-85, 87 entry C          line   239 file /storage/home/hcoda1/5/vlita3/.conda/envs/p4_qcml/share/psi4/basis/aug-cc-pvtz.gbs 
    atoms 43-72, 89-92               entry H          line    40 file /storage/home/hcoda1/5/vlita3/.conda/envs/p4_qcml/share/psi4/basis/aug-cc-pvtz.gbs 
    atoms 81, 83, 86, 88             entry N          line   285 file /storage/home/hcoda1/5/vlita3/.conda/envs/p4_qcml/share/psi4/basis/aug-cc-pvtz.gbs 


         ---------------------------------------------------------
                                   SCF
               by Justin Turney, Rob Parrish, Andy Simmonett
                          and Daniel G. A. Smith
                              RKS Reference
                       10 Threads, 256000 MiB Core
         ---------------------------------------------------------

  ==> Geometry <==

    Molecular point group: c1
    Full point group: C1

    Geometry (in Bohr), charge = 0, multiplicity = 1:

       Center              X                  Y                   Z               Mass       
    ------------   -----------------  -----------------  -----------------  -----------------
      Gh(C)          -0.273927140000     6.188191660000    -1.193235440000    12.000000000000
      Gh(C)          -2.463446980000     5.778253370000    -2.604496140000    12.000000000000
      Gh(C)          -4.694060800000     5.397057810000    -1.252349850000    12.000000000000
      Gh(C)          -4.718967390000     5.339383370000     1.403796280000    12.000000000000
      Gh(C)          -2.513260160000     5.656384930000     2.812290420000    12.000000000000
      Gh(C)          -0.297862410000     6.126492100000     1.461281750000    12.000000000000
      Gh(C)          -7.423694600000     4.946641590000    -2.114376770000    12.000000000000
      Gh(C)          -8.010208900000     2.219332160000    -1.351811800000    12.000000000000
      Gh(C)          -8.037250880000     2.163887590000     1.307303080000    12.000000000000
      Gh(C)          -7.464909520000     4.856010330000     2.194331080000    12.000000000000
      Gh(C)          -8.212787540000     0.018100990000    -2.784492550000    12.000000000000
      Gh(C)          -8.416518910000    -2.243086010000    -1.447180610000    12.000000000000
      Gh(C)          -8.446565550000    -2.297888070000     1.209449290000    12.000000000000
      Gh(C)          -8.271085590000    -0.094241590000     2.643311110000    12.000000000000
      Gh(C)          -8.829688630000     6.360307910000     0.057394190000    12.000000000000
      Gh(C)           2.390276780000     6.993214990000    -1.978486560000    12.000000000000
      Gh(C)           2.352349980000     6.890527270000     2.330485850000    12.000000000000
      Gh(C)           4.241471390000     4.875795760000     1.471321860000    12.000000000000
      Gh(C)           4.265092970000     4.939574020000    -1.183711220000    12.000000000000
      Gh(C)           5.912953050000     3.355133150000     2.830242820000    12.000000000000
      Gh(C)           7.668508620000     1.971645750000     1.430964870000    12.000000000000
      Gh(C)           7.692697110000     2.036312180000    -1.223327440000    12.000000000000
      Gh(C)           5.961348930000     3.486261240000    -2.584824090000    12.000000000000
      Gh(C)           2.912143550000     8.901271460000     0.227485230000    12.000000000000
      Gh(C)           9.879563770000     0.342019640000    -2.076072020000    12.000000000000
      Gh(C)           9.161222180000    -2.355203460000    -1.321899330000    12.000000000000
      Gh(C)           9.135484110000    -2.420663580000     1.339127960000    12.000000000000
      Gh(C)           9.839274810000     0.235539240000     2.239136490000    12.000000000000
      Gh(C)           8.550028060000    -4.479123350000    -2.729596000000    12.000000000000
      Gh(C)           7.900737060000    -6.700590900000    -1.428015010000    12.000000000000
      Gh(C)           7.874186410000    -6.765238430000     1.206571230000    12.000000000000
      Gh(C)           8.497021240000    -4.610780570000     2.628306680000    12.000000000000
      Gh(C)          11.772842580000     0.925967690000     0.115070900000    12.000000000000
      Gh(C)          -8.317648440000    -5.082645180000     1.980962100000    12.000000000000
      Gh(C)          -5.665776870000    -5.913217610000     1.169154660000    12.000000000000
      Gh(C)          -5.634256240000    -5.858264370000    -1.489901650000    12.000000000000
      Gh(C)          -8.266965980000    -4.993846950000    -2.329295320000    12.000000000000
      Gh(C)          -3.499262560000    -6.479568530000     2.527811050000    12.000000000000
      Gh(C)          -1.274907510000    -7.030896130000     1.184784580000    12.000000000000
      Gh(C)          -1.243505930000    -6.976509810000    -1.446791330000    12.000000000000
      Gh(C)          -3.435408710000    -6.369019550000    -2.818564310000    12.000000000000
      Gh(C)          -9.876691390000    -6.270716000000    -0.218202900000    12.000000000000
      Gh(H)          -2.452940100000     5.841710370000    -4.658288280000     1.007825032230
      Gh(H)          -2.540302140000     5.627472120000     4.866743970000     1.007825032230
      Gh(H)          -7.860221330000     5.467280040000    -4.058961640000     1.007825032230
      Gh(H)          -7.937926870000     5.295409450000     4.150386590000     1.007825032230
      Gh(H)          -8.117734310000     0.056953320000    -4.836054820000     1.007825032230
      Gh(H)          -8.218929150000    -0.140410050000     4.696177290000     1.007825032230
      Gh(H)          -8.405199450000     8.383354220000     0.103798120000     1.007825032230
      Gh(H)         -10.871405430000     6.032497120000     0.031101680000     1.007825032230
      Gh(H)           2.585750050000     7.686461020000    -3.909692180000     1.007825032230
      Gh(H)           2.514280610000     7.490553110000     4.295706530000     1.007825032230
      Gh(H)           5.920360770000     3.325426650000     4.884601880000     1.007825032230
      Gh(H)           6.005398450000     3.556729130000    -4.637690270000     1.007825032230
      Gh(H)           1.578087610000    10.481668310000     0.253576680000     1.007825032230
      Gh(H)           4.867291990000     9.575639120000     0.260704730000     1.007825032230
      Gh(H)          10.524621790000     0.601977930000    -4.014704260000     1.007825032230
      Gh(H)          10.448333540000     0.398684970000     4.199878520000     1.007825032230
      Gh(H)           8.553183900000    -4.432673880000    -4.782367700000     1.007825032230
      Gh(H)           7.422145020000    -8.391555630000    -2.489827550000     1.007825032230
      Gh(H)           7.375128640000    -8.505997440000     2.174205500000     1.007825032230
      Gh(H)           8.460020400000    -4.665431450000     4.680643740000     1.007825032230
      Gh(H)          12.345032760000     2.911992370000     0.169592720000     1.007825032230
      Gh(H)          13.422573490000    -0.321261000000     0.099560220000     1.007825032230
      Gh(H)          -8.865914680000    -5.528431570000     3.916060550000     1.007825032230
      Gh(H)          -8.769028420000    -5.359792420000    -4.293495550000     1.007825032230
      Gh(H)          -3.505744320000    -6.499807490000     4.582151220000     1.007825032230
      Gh(H)           0.444994600000    -7.489060220000     2.208428440000     1.007825032230
      Gh(H)           0.500767970000    -7.392381840000    -2.446836280000     1.007825032230
      Gh(H)          -3.392549720000    -6.304183050000    -4.871581670000     1.007825032230
      Gh(H)         -11.845615940000    -5.640756900000    -0.228492460000     1.007825032230
      Gh(H)          -9.760511030000    -8.334731560000    -0.259257200000     1.007825032230
         C            0.452251150000    -0.845805510000    -2.675379760000    12.000000000000
         C            2.678384430000    -1.538427930000    -1.286680500000    12.000000000000
         C            2.650681040000    -1.594456420000     1.274251780000    12.000000000000
         C            0.394591820000    -0.964584240000     2.644501640000    12.000000000000
         C           -1.863130120000    -0.393682860000     1.253255030000    12.000000000000
         C           -1.835024220000    -0.336333460000    -1.308773290000    12.000000000000
         C            0.511807750000    -0.677215480000    -5.305840730000    12.000000000000
         C            2.774023470000    -1.116803570000    -6.678348820000    12.000000000000
         N            4.657929230000    -1.465170810000    -7.761974470000    14.003074004430
         C           -1.678320570000    -0.017794640000    -6.706014410000    12.000000000000
         N           -3.498752330000     0.529049620000    -7.815661590000    14.003074004430
         C            0.398356160000    -0.915842540000     5.280480610000    12.000000000000
         C            2.632105030000    -1.417632860000     6.677933080000    12.000000000000
         N            4.494656900000    -1.816605060000     7.780796140000    14.003074004430
         C           -1.822461320000    -0.325471310000     6.662985350000    12.000000000000
         N           -3.667750540000     0.165863720000     7.757458030000    14.003074004430
         H            4.381537890000    -2.034743710000    -2.304898960000     1.007825032230
         H            4.331762510000    -2.135182650000     2.306221760000     1.007825032230
         H           -3.592879590000     0.004128690000     2.267765840000     1.007825032230
         H           -3.542272720000     0.107614800000    -2.342088770000     1.007825032230

  Running in c1 symmetry.

  Rotational constants: A =      0.00267  B =      0.00168  C =      0.00146 [cm^-1]
  Rotational constants: A =     80.12542  B =     50.33918  C =     43.84220 [MHz]
  Nuclear repulsion =  836.883087262661093

  Charge       = 0
  Multiplicity = 1
  Electrons    = 104
  Nalpha       = 52
  Nbeta        = 52

  ==> Algorithm <==

  SCF Algorithm Type is DF.
  DIIS enabled.
  MOM disabled.
  Fractional occupation disabled.
  Guess Type is SAD.
  Energy threshold   = 1.00e-06
  Density threshold  = 1.00e-06
  Integral threshold = 1.00e-12

  ==> Primary Basis <==

  Basis Set: AUG-CC-PVTZ
    Blend: AUG-CC-PVTZ
    Number of shells: 1118
    Number of basis functions: 3450
    Number of Cartesian functions: 4040
    Spherical Harmonics?: true
    Max angular momentum: 3

  ==> DFT Potential <==

   => LibXC <=

    Version 7.0.0
    S. Lehtola, C. Steigemann, M. J.T. Oliveira, and M. A.L. Marques.,  SoftwareX 7, 1–5 (2018) (10.1016/j.softx.2017.11.002)

   => Composite Functional: WB97X-V <= 

    wB97X-V Hyb-GGA Exchange-Correlation Functional

    N. Mardirossian and M. Head-Gordon.,  Phys. Chem. Chem. Phys. 16, 9904-9924 (2014) (10.1039/C3CP54374A)

    Deriv               =              1
    GGA                 =           TRUE
    Meta                =          FALSE

    Exchange Hybrid     =           TRUE
    MP2 Hybrid          =          FALSE

   => Exchange-Correlation Functionals <=

    1.0000   wB97X-V range-separated functional

   => Exact (HF) Exchange <=

    0.8330            HF,LR [omega = 0.3000]
    0.1670               HF 

   => LibXC Density Thresholds  <==

    XC_HYB_GGA_XC_WB97X_V:  1.00E-14 

   => VV10 Non-Local Parameters <=

    VV10 B              =     6.0000E+00
    VV10 C              =     1.0000E-02

   => Molecular Quadrature <=

    Radial Scheme          =       TREUTLER
    Pruning Scheme         =           NONE
    Nuclear Scheme         =       TREUTLER

    Blocking Scheme        =         OCTREE
    BS radius alpha        =              1
    Pruning alpha          =              1
    Radial Points          =             75
    Spherical Points       =            302
    Total Points           =        1810751
    Total Blocks           =          12182
    Max Points             =            256
    Max Functions          =           2258
    Weights Tolerance      =       1.00E-15

   => Loading Basis Set <=

    Name: (AUG-CC-PVTZ AUX)
    Role: JKFIT
    Keyword: DF_BASIS_SCF
    atoms 1-42, 73-80, 82, 84-85, 87 entry C          line   162 file /storage/home/hcoda1/5/vlita3/.conda/envs/p4_qcml/share/psi4/basis/aug-cc-pvtz-jkfit.gbs 
    atoms 43-72, 89-92               entry H          line    70 file /storage/home/hcoda1/5/vlita3/.conda/envs/p4_qcml/share/psi4/basis/aug-cc-pvtz-jkfit.gbs 
    atoms 81, 83, 86, 88             entry N          line   224 file /storage/home/hcoda1/5/vlita3/.conda/envs/p4_qcml/share/psi4/basis/aug-cc-pvtz-jkfit.gbs 

  ==> Integral Setup <==

  ==> DiskDFJK: Density-Fitted J/K Matrices <==

    J tasked:                  Yes
    K tasked:                  Yes
    wK tasked:                 Yes
    Omega:               3.000E-01
    OpenMP threads:             10
    Integrals threads:          10
    Memory [MiB]:           172800
    Algorithm:                Disk
    Integral Cache:           NONE
    Schwarz Cutoff:          1E-12
    Fitting Condition:       1E-10

   => Auxiliary Basis Set <=

  Basis Set: (AUG-CC-PVTZ AUX)
    Blend: AUG-CC-PVTZ-JKFIT
    Number of shells: 2216
    Number of basis functions: 7596
    Number of Cartesian functions: 9468
    Spherical Harmonics?: true
    Max angular momentum: 4

  Minimum eigenvalue in the overlap matrix is 3.2999283483E-10.
  Reciprocal condition number of the overlap matrix is 8.9829939844E-12.
    Using canonical orthogonalization.
  Overall, 31 of 3450 possible MOs eliminated.


  ==> Pre-Iterations <==

  SCF Guess: Superposition of Atomic Densities via on-the-fly atomic UHF (no occupation information).

   -------------------------
    Irrep   Nso     Nmo    
   -------------------------
     A       3450    3419 
   -------------------------
    Total    3450    3419
   -------------------------

  ==> Iterations <==

                           Total Energy        Delta E     RMS |[F,P]|

   @DF-RKS iter SAD:  -676.62619438708646   -6.76626e+02   0.00000e+00 
   @DF-RKS iter   1:  -678.18112447617409   -1.55493e+00   2.86888e-04 DIIS/ADIIS
   @DF-RKS iter   2:  -678.16059912759783    2.05253e-02   3.03471e-04 DIIS/ADIIS
   @DF-RKS iter   3:  -678.55507864299148   -3.94480e-01   8.50069e-05 DIIS
   @DF-RKS iter   4:  -678.59242730968936   -3.73487e-02   1.35244e-05 DIIS
   @DF-RKS iter   5:  -678.59356695081021   -1.13964e-03   7.19617e-06 DIIS
   @DF-RKS iter   6:  -678.59393117129810   -3.64220e-04   1.34792e-06 DIIS
   @DF-RKS iter   7:  -678.59397253488612   -4.13636e-05   6.73368e-07 DIIS
   @DF-RKS iter   8:  -678.59398327276551   -1.07379e-05   1.94493e-07 DIIS
   @DF-RKS iter   9:  -678.59398451122786   -1.23846e-06   5.79941e-08 DIIS
   @DF-RKS iter  10:  -678.59398457270845   -6.14806e-08   2.17615e-08 DIIS
  Energy and wave function converged.


  ==> Post-Iterations <==

   Electrons on quadrature grid:
      Ntotal   =  103.9998230264 ; deviation = -1.770e-04 

    Orbital Energies [Eh]
    ---------------------

    Doubly Occupied:                                                      

       1A    -14.461126     2A    -14.461112     3A    -14.461075  
       4A    -14.461070     5A    -10.404442     6A    -10.404430  
       7A    -10.389072     8A    -10.389033     9A    -10.358949  
      10A    -10.358936    11A    -10.358862    12A    -10.358844  
      13A    -10.354718    14A    -10.354603    15A    -10.353927  
      16A    -10.353813    17A     -1.106216    18A     -1.096709  
      19A     -1.075712    20A     -1.075650    21A     -1.073464  
      22A     -1.028849    23A     -0.978326    24A     -0.964578  
      25A     -0.901477    26A     -0.827187    27A     -0.810516  
      28A     -0.763677    29A     -0.728587    30A     -0.723173  
      31A     -0.689866    32A     -0.624407    33A     -0.622053  
      34A     -0.610616    35A     -0.600217    36A     -0.574633  
      37A     -0.562491    38A     -0.525597    39A     -0.525160  
      40A     -0.525091    41A     -0.523926    42A     -0.518980  
      43A     -0.514431    44A     -0.496042    45A     -0.492266  
      46A     -0.491600    47A     -0.490149    48A     -0.479674  
      49A     -0.478611    50A     -0.444586    51A     -0.435404  
      52A     -0.349552  

    Virtual:                                                              

      53A     -0.126532    54A      0.004526    55A      0.005000  
      56A      0.008544    57A      0.016807    58A      0.017390  
      59A      0.026346    60A      0.026509    61A      0.027437  
      62A      0.033577    63A      0.035537    64A      0.036933  
      65A      0.040103    66A      0.041698    67A      0.041743  
      68A      0.045307    69A      0.046128    70A      0.047118  
      71A      0.047522    72A      0.049565    73A      0.051228  
      74A      0.054206    75A      0.055244    76A      0.056070  
      77A      0.056828    78A      0.057747    79A      0.060696  
      80A      0.061493    81A      0.063272    82A      0.064797  
      83A      0.066329    84A      0.068975    85A      0.069229  
      86A      0.072951    87A      0.074255    88A      0.074355  
      89A      0.075822    90A      0.079445    91A      0.080127  
      92A      0.081257    93A      0.082264    94A      0.084688  
      95A      0.084962    96A      0.085652    97A      0.087529  
      98A      0.088841    99A      0.089996   100A      0.091582  
     101A      0.093295   102A      0.093392   103A      0.095089  
     104A      0.098218   105A      0.098554   106A      0.099629  
     107A      0.102160   108A      0.102865   109A      0.103495  
     110A      0.104790   111A      0.104840   112A      0.107185  
     113A      0.108899   114A      0.109633   115A      0.111941  
     116A      0.112552   117A      0.116864   118A      0.116902  
     119A      0.118014   120A      0.119750   121A      0.121177  
     122A      0.121703   123A      0.125010   124A      0.125703  
     125A      0.126719   126A      0.126930   127A      0.128507  
     128A      0.128645   129A      0.130325   130A      0.133497  
     131A      0.134634   132A      0.135337   133A      0.136229  
     134A      0.137803   135A      0.138531   136A      0.139460  
     137A      0.141162   138A      0.142170   139A      0.142659  
     140A      0.143150   141A      0.145141   142A      0.145791  
     143A      0.146695   144A      0.148656   145A      0.150423  
     146A      0.151941   147A      0.154009   148A      0.155442  
     149A      0.156452   150A      0.158353   151A      0.159219  
     152A      0.161603   153A      0.161736   154A      0.163106  
     155A      0.163726   156A      0.164247   157A      0.164849  
     158A      0.165001   159A      0.166444   160A      0.167560  
     161A      0.168267   162A      0.168370   163A      0.170829  
     164A      0.171120   165A      0.173183   166A      0.173705  
     167A      0.176079   168A      0.177698   169A      0.179408  
     170A      0.181015   171A      0.181863   172A      0.182666  
     173A      0.182697   174A      0.186371   175A      0.186565  
     176A      0.187677   177A      0.187874   178A      0.189806  
     179A      0.189958   180A      0.190568   181A      0.193560  
     182A      0.193601   183A      0.196441   184A      0.197277  
     185A      0.198538   186A      0.200124   187A      0.201601  
     188A      0.202935   189A      0.204287   190A      0.205876  
     191A      0.205996   192A      0.207468   193A      0.207934  
     194A      0.210935   195A      0.212844   196A      0.213697  
     197A      0.214462   198A      0.214837   199A      0.216856  
     200A      0.217593   201A      0.218298   202A      0.219053  
     203A      0.219590   204A      0.221572   205A      0.221972  
     206A      0.224659   207A      0.225193   208A      0.225630  
     209A      0.225835   210A      0.228550   211A      0.230060  
     212A      0.230127   213A      0.231803   214A      0.232437  
     215A      0.232557   216A      0.233257   217A      0.234573  
     218A      0.235342   219A      0.235637   220A      0.237254  
     221A      0.238128   222A      0.239245   223A      0.240245  
     224A      0.242271   225A      0.242789   226A      0.245966  
     227A      0.246071   228A      0.247238   229A      0.248286  
     230A      0.251719   231A      0.252640   232A      0.253722  
     233A      0.255360   234A      0.256595   235A      0.257152  
     236A      0.257586   237A      0.258661   238A      0.260560  
     239A      0.260721   240A      0.263444   241A      0.263744  
     242A      0.263963   243A      0.265910   244A      0.266467  
     245A      0.266941   246A      0.268504   247A      0.268876  
     248A      0.269883   249A      0.271239   250A      0.271891  
     251A      0.272568   252A      0.272866   253A      0.274384  
     254A      0.275448   255A      0.276430   256A      0.276932  
     257A      0.277054   258A      0.279247   259A      0.281623  
     260A      0.281905   261A      0.282622   262A      0.284770  
     263A      0.286033   264A      0.287589   265A      0.289400  
     266A      0.290273   267A      0.292316   268A      0.293080  
     269A      0.293583   270A      0.294206   271A      0.294815  
     272A      0.296031   273A      0.296257   274A      0.296925  
     275A      0.297370   276A      0.299436   277A      0.301031  
     278A      0.302207   279A      0.303894   280A      0.305104  
     281A      0.305266   282A      0.306545   283A      0.308719  
     284A      0.309490   285A      0.310424   286A      0.312500  
     287A      0.313725   288A      0.315443   289A      0.315591  
     290A      0.317507   291A      0.318276   292A      0.319094  
     293A      0.319744   294A      0.320322   295A      0.321952  
     296A      0.322701   297A      0.323499   298A      0.325370  
     299A      0.326022   300A      0.326316   301A      0.328549  
     302A      0.330908   303A      0.332281   304A      0.332642  
     305A      0.333272   306A      0.334597   307A      0.336072  
     308A      0.337040   309A      0.339606   310A      0.341008  
     311A      0.341120   312A      0.341977   313A      0.343528  
     314A      0.345807   315A      0.347953   316A      0.348688  
     317A      0.349629   318A      0.350672   319A      0.353062  
     320A      0.353242   321A      0.355238   322A      0.356766  
     323A      0.357876   324A      0.358887   325A      0.360120  
     326A      0.360782   327A      0.361079   328A      0.362894  
     329A      0.367678   330A      0.368299   331A      0.370017  
     332A      0.370415   333A      0.372261   334A      0.373096  
     335A      0.375275   336A      0.377776   337A      0.378174  
     338A      0.380530   339A      0.381897   340A      0.382667  
     341A      0.384299   342A      0.384925   343A      0.387960  
     344A      0.388526   345A      0.389218   346A      0.391657  
     347A      0.393271   348A      0.395699   349A      0.395976  
     350A      0.398515   351A      0.398866   352A      0.399428  
     353A      0.402501   354A      0.404131   355A      0.404469  
     356A      0.406411   357A      0.407056   358A      0.408297  
     359A      0.411755   360A      0.412003   361A      0.413863  
     362A      0.414262   363A      0.418669   364A      0.419129  
     365A      0.420594   366A      0.420942   367A      0.422343  
     368A      0.424968   369A      0.425919   370A      0.427967  
     371A      0.428403   372A      0.429396   373A      0.431710  
     374A      0.432124   375A      0.432566   376A      0.433226  
     377A      0.434329   378A      0.436467   379A      0.437170  
     380A      0.437410   381A      0.438205   382A      0.441731  
     383A      0.442164   384A      0.444077   385A      0.444671  
     386A      0.445177   387A      0.446411   388A      0.446667  
     389A      0.447351   390A      0.447877   391A      0.448542  
     392A      0.450174   393A      0.450951   394A      0.451457  
     395A      0.454928   396A      0.456249   397A      0.459001  
     398A      0.459568   399A      0.460979   400A      0.461041  
     401A      0.462304   402A      0.465223   403A      0.465374  
     404A      0.467349   405A      0.467470   406A      0.470401  
     407A      0.471438   408A      0.472903   409A      0.474014  
     410A      0.475096   411A      0.475842   412A      0.476318  
     413A      0.477626   414A      0.480743   415A      0.482643  
     416A      0.483150   417A      0.484456   418A      0.484608  
     419A      0.490040   420A      0.490560   421A      0.491905  
     422A      0.492541   423A      0.493897   424A      0.494700  
     425A      0.496599   426A      0.497028   427A      0.497337  
     428A      0.499851   429A      0.502191   430A      0.502349  
     431A      0.503176   432A      0.503521   433A      0.506953  
     434A      0.507649   435A      0.508557   436A      0.509806  
     437A      0.511090   438A      0.511408   439A      0.512829  
     440A      0.513650   441A      0.515861   442A      0.516038  
     443A      0.517633   444A      0.520453   445A      0.521030  
     446A      0.521598   447A      0.522406   448A      0.525122  
     449A      0.525399   450A      0.527096   451A      0.528340  
     452A      0.528902   453A      0.531016   454A      0.531565  
     455A      0.532970   456A      0.533236   457A      0.535698  
     458A      0.536557   459A      0.538173   460A      0.538887  
     461A      0.540116   462A      0.540155   463A      0.541404  
     464A      0.542601   465A      0.544562   466A      0.547435  
     467A      0.548691   468A      0.550180   469A      0.551149  
     470A      0.551785   471A      0.554831   472A      0.555232  
     473A      0.556002   474A      0.556858   475A      0.559530  
     476A      0.560015   477A      0.560135   478A      0.561633  
     479A      0.562052   480A      0.563670   481A      0.564692  
     482A      0.566701   483A      0.567073   484A      0.569196  
     485A      0.570845   486A      0.571731   487A      0.572588  
     488A      0.573827   489A      0.575322   490A      0.576536  
     491A      0.578447   492A      0.579672   493A      0.582766  
     494A      0.582906   495A      0.584858   496A      0.586780  
     497A      0.587346   498A      0.589106   499A      0.590867  
     500A      0.593054   501A      0.594140   502A      0.595155  
     503A      0.596721   504A      0.597453   505A      0.598997  
     506A      0.599213   507A      0.599747   508A      0.600395  
     509A      0.600686   510A      0.602404   511A      0.602633  
     512A      0.604688   513A      0.607833   514A      0.607984  
     515A      0.610890   516A      0.611273   517A      0.612214  
     518A      0.615307   519A      0.616684   520A      0.617856  
     521A      0.619038   522A      0.620766   523A      0.622321  
     524A      0.623439   525A      0.624584   526A      0.625063  
     527A      0.625159   528A      0.626742   529A      0.628283  
     530A      0.628548   531A      0.630521   532A      0.630821  
     533A      0.634612   534A      0.635922   535A      0.637724  
     536A      0.637903   537A      0.638268   538A      0.640255  
     539A      0.641027   540A      0.641337   541A      0.643728  
     542A      0.645670   543A      0.645917   544A      0.649149  
     545A      0.649502   546A      0.649765   547A      0.652764  
     548A      0.655933   549A      0.658131   550A      0.659209  
     551A      0.661351   552A      0.661928   553A      0.664262  
     554A      0.665227   555A      0.666150   556A      0.666849  
     557A      0.669398   558A      0.670154   559A      0.670854  
     560A      0.671561   561A      0.673180   562A      0.674908  
     563A      0.675913   564A      0.677926   565A      0.678219  
     566A      0.681616   567A      0.683706   568A      0.684038  
     569A      0.684559   570A      0.685246   571A      0.688381  
     572A      0.688813   573A      0.689220   574A      0.692268  
     575A      0.692489   576A      0.693619   577A      0.695073  
     578A      0.695759   579A      0.696192   580A      0.697455  
     581A      0.697826   582A      0.698505   583A      0.700513  
     584A      0.703583   585A      0.704181   586A      0.704503  
     587A      0.705493   588A      0.708135   589A      0.709391  
     590A      0.710528   591A      0.710689   592A      0.712782  
     593A      0.713386   594A      0.714151   595A      0.716869  
     596A      0.716920   597A      0.718636   598A      0.720374  
     599A      0.722367   600A      0.724647   601A      0.724783  
     602A      0.725530   603A      0.726416   604A      0.726802  
     605A      0.729003   606A      0.730369   607A      0.730417  
     608A      0.731173   609A      0.732403   610A      0.734719  
     611A      0.735175   612A      0.738131   613A      0.739289  
     614A      0.742172   615A      0.742972   616A      0.745506  
     617A      0.746357   618A      0.746446   619A      0.748912  
     620A      0.749130   621A      0.750642   622A      0.750829  
     623A      0.752721   624A      0.752944   625A      0.755070  
     626A      0.755556   627A      0.756571   628A      0.758497  
     629A      0.760115   630A      0.762661   631A      0.763075  
     632A      0.763232   633A      0.765290   634A      0.765673  
     635A      0.768083   636A      0.768756   637A      0.769554  
     638A      0.771630   639A      0.772346   640A      0.774869  
     641A      0.775330   642A      0.776634   643A      0.776922  
     644A      0.779335   645A      0.782286   646A      0.784267  
     647A      0.784681   648A      0.785740   649A      0.788252  
     650A      0.788371   651A      0.789732   652A      0.792077  
     653A      0.792942   654A      0.794460   655A      0.795240  
     656A      0.796739   657A      0.798546   658A      0.799212  
     659A      0.800671   660A      0.802669   661A      0.803248  
     662A      0.804557   663A      0.805822   664A      0.808063  
     665A      0.809437   666A      0.809904   667A      0.812357  
     668A      0.813889   669A      0.816181   670A      0.817205  
     671A      0.817577   672A      0.819001   673A      0.819478  
     674A      0.821330   675A      0.821830   676A      0.824912  
     677A      0.826300   678A      0.829377   679A      0.829901  
     680A      0.831014   681A      0.833672   682A      0.834540  
     683A      0.834945   684A      0.836978   685A      0.838539  
     686A      0.840063   687A      0.840814   688A      0.842566  
     689A      0.843555   690A      0.844407   691A      0.846299  
     692A      0.848445   693A      0.849761   694A      0.850812  
     695A      0.852598   696A      0.853873   697A      0.854097  
     698A      0.856237   699A      0.857236   700A      0.859825  
     701A      0.860187   702A      0.861213   703A      0.861421  
     704A      0.862390   705A      0.866367   706A      0.868051  
     707A      0.870059   708A      0.870719   709A      0.871769  
     710A      0.874531   711A      0.875097   712A      0.876923  
     713A      0.877136   714A      0.880255   715A      0.880761  
     716A      0.882704   717A      0.883351   718A      0.885737  
     719A      0.886688   720A      0.887932   721A      0.889068  
     722A      0.891783   723A      0.893068   724A      0.893599  
     725A      0.894186   726A      0.896664   727A      0.896729  
     728A      0.899064   729A      0.899488   730A      0.900317  
     731A      0.902262   732A      0.904279   733A      0.905008  
     734A      0.908200   735A      0.908951   736A      0.909164  
     737A      0.909406   738A      0.910455   739A      0.914042  
     740A      0.915214   741A      0.916222   742A      0.920211  
     743A      0.920565   744A      0.921194   745A      0.922737  
     746A      0.922864   747A      0.925132   748A      0.926443  
     749A      0.930399   750A      0.931171   751A      0.933236  
     752A      0.933548   753A      0.933996   754A      0.936238  
     755A      0.937193   756A      0.938839   757A      0.940303  
     758A      0.940692   759A      0.941307   760A      0.942569  
     761A      0.943862   762A      0.946984   763A      0.947257  
     764A      0.948043   765A      0.948920   766A      0.951046  
     767A      0.952617   768A      0.953538   769A      0.957249  
     770A      0.959275   771A      0.961192   772A      0.961414  
     773A      0.962860   774A      0.964107   775A      0.965997  
     776A      0.966906   777A      0.967536   778A      0.967819  
     779A      0.969608   780A      0.969950   781A      0.970579  
     782A      0.972528   783A      0.976878   784A      0.977129  
     785A      0.980590   786A      0.981696   787A      0.984412  
     788A      0.985437   789A      0.985827   790A      0.988368  
     791A      0.989276   792A      0.989918   793A      0.990575  
     794A      0.990918   795A      0.992738   796A      0.992950  
     797A      0.993498   798A      0.996477   799A      0.996754  
     800A      0.998718   801A      0.999581   802A      1.000114  
     803A      1.004049   804A      1.006439   805A      1.008235  
     806A      1.008693   807A      1.009415   808A      1.010293  
     809A      1.012144   810A      1.014902   811A      1.015539  
     812A      1.017277   813A      1.017965   814A      1.022197  
     815A      1.022830   816A      1.024469   817A      1.027268  
     818A      1.027773   819A      1.029716   820A      1.031413  
     821A      1.031839   822A      1.033000   823A      1.035965  
     824A      1.036375   825A      1.037090   826A      1.038225  
     827A      1.039047   828A      1.040727   829A      1.041940  
     830A      1.042781   831A      1.044045   832A      1.044317  
     833A      1.046077   834A      1.048208   835A      1.049135  
     836A      1.051623   837A      1.052210   838A      1.054730  
     839A      1.056868   840A      1.058238   841A      1.061546  
     842A      1.062614   843A      1.063928   844A      1.065077  
     845A      1.066596   846A      1.068353   847A      1.070527  
     848A      1.072011   849A      1.072396   850A      1.074211  
     851A      1.075693   852A      1.075738   853A      1.078053  
     854A      1.078844   855A      1.080926   856A      1.082375  
     857A      1.082690   858A      1.084669   859A      1.084818  
     860A      1.085143   861A      1.088353   862A      1.089475  
     863A      1.089771   864A      1.094399   865A      1.094988  
     866A      1.096247   867A      1.097453   868A      1.098056  
     869A      1.100870   870A      1.102767   871A      1.103934  
     872A      1.106491   873A      1.107586   874A      1.108285  
     875A      1.108705   876A      1.110233   877A      1.111164  
     878A      1.112242   879A      1.113610   880A      1.116963  
     881A      1.117932   882A      1.120471   883A      1.121964  
     884A      1.123075   885A      1.123654   886A      1.123826  
     887A      1.127007   888A      1.127577   889A      1.131165  
     890A      1.132161   891A      1.134414   892A      1.135947  
     893A      1.137415   894A      1.138581   895A      1.140246  
     896A      1.140726   897A      1.141465   898A      1.143626  
     899A      1.148131   900A      1.148644   901A      1.150996  
     902A      1.151707   903A      1.154461   904A      1.155219  
     905A      1.157082   906A      1.157678   907A      1.159121  
     908A      1.160258   909A      1.163727   910A      1.164109  
     911A      1.165924   912A      1.166790   913A      1.168418  
     914A      1.170816   915A      1.171296   916A      1.173307  
     917A      1.173815   918A      1.175727   919A      1.176431  
     920A      1.178285   921A      1.179276   922A      1.180401  
     923A      1.182609   924A      1.184668   925A      1.185734  
     926A      1.188780   927A      1.191056   928A      1.191881  
     929A      1.193412   930A      1.195506   931A      1.196673  
     932A      1.199282   933A      1.200846   934A      1.203708  
     935A      1.205856   936A      1.208473   937A      1.209229  
     938A      1.210043   939A      1.210738   940A      1.212755  
     941A      1.213728   942A      1.214109   943A      1.218346  
     944A      1.220171   945A      1.221005   946A      1.223614  
     947A      1.227097   948A      1.227454   949A      1.228268  
     950A      1.230471   951A      1.231724   952A      1.232248  
     953A      1.233709   954A      1.235996   955A      1.237183  
     956A      1.238992   957A      1.240237   958A      1.241197  
     959A      1.244490   960A      1.246161   961A      1.248904  
     962A      1.249736   963A      1.249943   964A      1.251975  
     965A      1.252202   966A      1.252762   967A      1.254295  
     968A      1.258055   969A      1.260539   970A      1.261445  
     971A      1.262616   972A      1.264657   973A      1.265876  
     974A      1.267110   975A      1.267586   976A      1.271006  
     977A      1.271954   978A      1.272489   979A      1.273132  
     980A      1.275777   981A      1.277532   982A      1.278065  
     983A      1.281176   984A      1.282184   985A      1.282781  
     986A      1.284424   987A      1.286555   988A      1.286696  
     989A      1.289210   990A      1.290347   991A      1.291333  
     992A      1.293208   993A      1.294491   994A      1.296630  
     995A      1.299492   996A      1.299963   997A      1.302484  
     998A      1.304271   999A      1.305357  1000A      1.306899  
    1001A      1.306990  1002A      1.309701  1003A      1.310813  
    1004A      1.312671  1005A      1.316323  1006A      1.317599  
    1007A      1.317873  1008A      1.320319  1009A      1.321754  
    1010A      1.323294  1011A      1.323849  1012A      1.324478  
    1013A      1.326120  1014A      1.327808  1015A      1.328458  
    1016A      1.330032  1017A      1.331486  1018A      1.332958  
    1019A      1.333967  1020A      1.335497  1021A      1.337132  
    1022A      1.339376  1023A      1.342290  1024A      1.343268  
    1025A      1.343704  1026A      1.345163  1027A      1.348181  
    1028A      1.349487  1029A      1.351244  1030A      1.351820  
    1031A      1.356728  1032A      1.356861  1033A      1.357859  
    1034A      1.360528  1035A      1.361828  1036A      1.363540  
    1037A      1.364479  1038A      1.365999  1039A      1.368373  
    1040A      1.368659  1041A      1.371694  1042A      1.372520  
    1043A      1.373631  1044A      1.374920  1045A      1.376626  
    1046A      1.379858  1047A      1.380791  1048A      1.381832  
    1049A      1.382269  1050A      1.384073  1051A      1.385665  
    1052A      1.387838  1053A      1.389402  1054A      1.391300  
    1055A      1.392713  1056A      1.393419  1057A      1.396357  
    1058A      1.397505  1059A      1.399911  1060A      1.401407  
    1061A      1.404666  1062A      1.405512  1063A      1.406880  
    1064A      1.407241  1065A      1.408620  1066A      1.410371  
    1067A      1.413765  1068A      1.414510  1069A      1.415405  
    1070A      1.418944  1071A      1.420630  1072A      1.420978  
    1073A      1.421511  1074A      1.421958  1075A      1.427261  
    1076A      1.427445  1077A      1.430054  1078A      1.430539  
    1079A      1.430780  1080A      1.431874  1081A      1.432716  
    1082A      1.436204  1083A      1.438010  1084A      1.439711  
    1085A      1.441086  1086A      1.442061  1087A      1.442382  
    1088A      1.444436  1089A      1.445847  1090A      1.446160  
    1091A      1.448330  1092A      1.449776  1093A      1.453419  
    1094A      1.454504  1095A      1.457603  1096A      1.458619  
    1097A      1.460723  1098A      1.462182  1099A      1.462935  
    1100A      1.464728  1101A      1.465762  1102A      1.466902  
    1103A      1.467150  1104A      1.468319  1105A      1.471211  
    1106A      1.474173  1107A      1.475489  1108A      1.476732  
    1109A      1.479684  1110A      1.481573  1111A      1.481807  
    1112A      1.482270  1113A      1.483626  1114A      1.486192  
    1115A      1.487822  1116A      1.489263  1117A      1.489977  
    1118A      1.493227  1119A      1.494387  1120A      1.496027  
    1121A      1.496331  1122A      1.497882  1123A      1.498276  
    1124A      1.500897  1125A      1.501483  1126A      1.501728  
    1127A      1.503671  1128A      1.507388  1129A      1.507740  
    1130A      1.509269  1131A      1.509821  1132A      1.511744  
    1133A      1.514521  1134A      1.516399  1135A      1.516537  
    1136A      1.517232  1137A      1.520215  1138A      1.521004  
    1139A      1.521666  1140A      1.522292  1141A      1.524180  
    1142A      1.525277  1143A      1.526569  1144A      1.528181  
    1145A      1.530334  1146A      1.531566  1147A      1.532369  
    1148A      1.534664  1149A      1.536281  1150A      1.537926  
    1151A      1.540219  1152A      1.543382  1153A      1.544082  
    1154A      1.544587  1155A      1.545667  1156A      1.547434  
    1157A      1.549512  1158A      1.550618  1159A      1.552359  
    1160A      1.554074  1161A      1.555776  1162A      1.556421  
    1163A      1.557302  1164A      1.558264  1165A      1.559411  
    1166A      1.560811  1167A      1.562004  1168A      1.562671  
    1169A      1.568560  1170A      1.569145  1171A      1.571109  
    1172A      1.571280  1173A      1.572286  1174A      1.574952  
    1175A      1.575071  1176A      1.578025  1177A      1.579230  
    1178A      1.579725  1179A      1.580145  1180A      1.580645  
    1181A      1.581836  1182A      1.584774  1183A      1.584888  
    1184A      1.586553  1185A      1.588620  1186A      1.589647  
    1187A      1.591383  1188A      1.593671  1189A      1.593796  
    1190A      1.596615  1191A      1.597020  1192A      1.599264  
    1193A      1.599435  1194A      1.602272  1195A      1.603556  
    1196A      1.604309  1197A      1.607830  1198A      1.608052  
    1199A      1.610107  1200A      1.610479  1201A      1.612491  
    1202A      1.612861  1203A      1.614591  1204A      1.614742  
    1205A      1.615974  1206A      1.618510  1207A      1.618665  
    1208A      1.620742  1209A      1.621844  1210A      1.622175  
    1211A      1.625456  1212A      1.626624  1213A      1.627590  
    1214A      1.627787  1215A      1.632566  1216A      1.633525  
    1217A      1.636178  1218A      1.636780  1219A      1.637439  
    1220A      1.638182  1221A      1.638949  1222A      1.639701  
    1223A      1.643566  1224A      1.644202  1225A      1.646967  
    1226A      1.647589  1227A      1.649155  1228A      1.650067  
    1229A      1.650883  1230A      1.654149  1231A      1.655202  
    1232A      1.656360  1233A      1.657447  1234A      1.657528  
    1235A      1.659563  1236A      1.660160  1237A      1.660875  
    1238A      1.663431  1239A      1.666208  1240A      1.668746  
    1241A      1.670333  1242A      1.672178  1243A      1.673919  
    1244A      1.674594  1245A      1.675893  1246A      1.676452  
    1247A      1.677860  1248A      1.678878  1249A      1.679508  
    1250A      1.680544  1251A      1.682378  1252A      1.683178  
    1253A      1.685344  1254A      1.686257  1255A      1.688436  
    1256A      1.691099  1257A      1.691832  1258A      1.692825  
    1259A      1.693333  1260A      1.694412  1261A      1.697005  
    1262A      1.699586  1263A      1.700097  1264A      1.700489  
    1265A      1.701760  1266A      1.702810  1267A      1.703250  
    1268A      1.704617  1269A      1.705840  1270A      1.708957  
    1271A      1.709483  1272A      1.713722  1273A      1.714646  
    1274A      1.716155  1275A      1.717292  1276A      1.718533  
    1277A      1.720449  1278A      1.721177  1279A      1.721856  
    1280A      1.723996  1281A      1.725730  1282A      1.725938  
    1283A      1.729187  1284A      1.729440  1285A      1.730391  
    1286A      1.730833  1287A      1.735408  1288A      1.737577  
    1289A      1.737850  1290A      1.740552  1291A      1.742503  
    1292A      1.745317  1293A      1.746781  1294A      1.748201  
    1295A      1.749296  1296A      1.750224  1297A      1.752549  
    1298A      1.752674  1299A      1.755556  1300A      1.757411  
    1301A      1.758302  1302A      1.759827  1303A      1.760795  
    1304A      1.761693  1305A      1.764299  1306A      1.764828  
    1307A      1.767399  1308A      1.768639  1309A      1.769897  
    1310A      1.774635  1311A      1.775519  1312A      1.776549  
    1313A      1.776914  1314A      1.777772  1315A      1.779490  
    1316A      1.780612  1317A      1.782893  1318A      1.783371  
    1319A      1.784052  1320A      1.786064  1321A      1.787288  
    1322A      1.788974  1323A      1.790263  1324A      1.792072  
    1325A      1.794175  1326A      1.794692  1327A      1.795274  
    1328A      1.797202  1329A      1.797677  1330A      1.801887  
    1331A      1.802662  1332A      1.803389  1333A      1.804106  
    1334A      1.804300  1335A      1.807943  1336A      1.808335  
    1337A      1.811806  1338A      1.812273  1339A      1.813674  
    1340A      1.815879  1341A      1.817297  1342A      1.819616  
    1343A      1.820099  1344A      1.822113  1345A      1.824320  
    1346A      1.825158  1347A      1.827516  1348A      1.828099  
    1349A      1.830550  1350A      1.832347  1351A      1.832820  
    1352A      1.835855  1353A      1.836635  1354A      1.836908  
    1355A      1.839438  1356A      1.841683  1357A      1.844118  
    1358A      1.844706  1359A      1.845343  1360A      1.845710  
    1361A      1.847567  1362A      1.849257  1363A      1.851080  
    1364A      1.852416  1365A      1.853422  1366A      1.856261  
    1367A      1.858535  1368A      1.860636  1369A      1.863493  
    1370A      1.864233  1371A      1.867162  1372A      1.868081  
    1373A      1.872890  1374A      1.874784  1375A      1.876427  
    1376A      1.877047  1377A      1.878204  1378A      1.878493  
    1379A      1.880712  1380A      1.883438  1381A      1.884048  
    1382A      1.885157  1383A      1.889462  1384A      1.890275  
    1385A      1.893296  1386A      1.894033  1387A      1.895365  
    1388A      1.897472  1389A      1.897996  1390A      1.898650  
    1391A      1.900319  1392A      1.901224  1393A      1.905192  
    1394A      1.905542  1395A      1.906445  1396A      1.907941  
    1397A      1.908587  1398A      1.911259  1399A      1.912154  
    1400A      1.914033  1401A      1.917595  1402A      1.918275  
    1403A      1.919388  1404A      1.923038  1405A      1.923972  
    1406A      1.925580  1407A      1.925714  1408A      1.929813  
    1409A      1.931075  1410A      1.933166  1411A      1.934466  
    1412A      1.937505  1413A      1.938259  1414A      1.940027  
    1415A      1.940306  1416A      1.941643  1417A      1.941824  
    1418A      1.944807  1419A      1.945734  1420A      1.948965  
    1421A      1.951414  1422A      1.953269  1423A      1.954161  
    1424A      1.954415  1425A      1.955096  1426A      1.958489  
    1427A      1.959283  1428A      1.961108  1429A      1.961379  
    1430A      1.965844  1431A      1.966788  1432A      1.968425  
    1433A      1.969234  1434A      1.971103  1435A      1.972629  
    1436A      1.973990  1437A      1.976007  1438A      1.978803  
    1439A      1.979157  1440A      1.980466  1441A      1.981113  
    1442A      1.982812  1443A      1.983584  1444A      1.984879  
    1445A      1.985775  1446A      1.986693  1447A      1.989991  
    1448A      1.990884  1449A      1.993716  1450A      1.994187  
    1451A      1.997474  1452A      1.998940  1453A      2.000112  
    1454A      2.001799  1455A      2.002060  1456A      2.003064  
    1457A      2.004062  1458A      2.004658  1459A      2.008010  
    1460A      2.008957  1461A      2.010797  1462A      2.014431  
    1463A      2.015398  1464A      2.016854  1465A      2.019101  
    1466A      2.021014  1467A      2.023374  1468A      2.024512  
    1469A      2.024629  1470A      2.028359  1471A      2.028591  
    1472A      2.029284  1473A      2.032923  1474A      2.033886  
    1475A      2.034821  1476A      2.036504  1477A      2.039664  
    1478A      2.042105  1479A      2.044969  1480A      2.045965  
    1481A      2.046976  1482A      2.048081  1483A      2.052677  
    1484A      2.053850  1485A      2.054991  1486A      2.057598  
    1487A      2.057826  1488A      2.060888  1489A      2.063067  
    1490A      2.063656  1491A      2.063929  1492A      2.067300  
    1493A      2.068409  1494A      2.071533  1495A      2.071558  
    1496A      2.073307  1497A      2.074643  1498A      2.077956  
    1499A      2.080128  1500A      2.081111  1501A      2.081688  
    1502A      2.082100  1503A      2.083722  1504A      2.088653  
    1505A      2.090282  1506A      2.091358  1507A      2.091965  
    1508A      2.093701  1509A      2.097741  1510A      2.100209  
    1511A      2.103082  1512A      2.104102  1513A      2.104379  
    1514A      2.105596  1515A      2.109163  1516A      2.109534  
    1517A      2.113506  1518A      2.115430  1519A      2.116691  
    1520A      2.119356  1521A      2.120873  1522A      2.125099  
    1523A      2.126284  1524A      2.129065  1525A      2.129171  
    1526A      2.129992  1527A      2.131725  1528A      2.132273  
    1529A      2.134545  1530A      2.137800  1531A      2.138726  
    1532A      2.141378  1533A      2.143821  1534A      2.146050  
    1535A      2.150507  1536A      2.150740  1537A      2.153657  
    1538A      2.154161  1539A      2.156926  1540A      2.158280  
    1541A      2.158791  1542A      2.160205  1543A      2.163102  
    1544A      2.165116  1545A      2.166113  1546A      2.166676  
    1547A      2.168378  1548A      2.170288  1549A      2.170583  
    1550A      2.175237  1551A      2.177515  1552A      2.178868  
    1553A      2.179318  1554A      2.179558  1555A      2.179972  
    1556A      2.181819  1557A      2.185449  1558A      2.187772  
    1559A      2.188343  1560A      2.191880  1561A      2.193662  
    1562A      2.196127  1563A      2.197371  1564A      2.201005  
    1565A      2.201450  1566A      2.202324  1567A      2.204091  
    1568A      2.204988  1569A      2.206874  1570A      2.209503  
    1571A      2.211299  1572A      2.212431  1573A      2.214189  
    1574A      2.214682  1575A      2.218135  1576A      2.221483  
    1577A      2.225086  1578A      2.228959  1579A      2.229344  
    1580A      2.231187  1581A      2.231503  1582A      2.234815  
    1583A      2.235204  1584A      2.236327  1585A      2.236898  
    1586A      2.241395  1587A      2.245345  1588A      2.246937  
    1589A      2.247289  1590A      2.250100  1591A      2.251175  
    1592A      2.252761  1593A      2.255182  1594A      2.259190  
    1595A      2.259996  1596A      2.261920  1597A      2.265981  
    1598A      2.266610  1599A      2.267533  1600A      2.268930  
    1601A      2.269613  1602A      2.271323  1603A      2.274949  
    1604A      2.278353  1605A      2.279642  1606A      2.280285  
    1607A      2.281072  1608A      2.281602  1609A      2.282889  
    1610A      2.288480  1611A      2.290574  1612A      2.293038  
    1613A      2.293606  1614A      2.297168  1615A      2.299261  
    1616A      2.301543  1617A      2.305070  1618A      2.306598  
    1619A      2.309799  1620A      2.312319  1621A      2.315392  
    1622A      2.316002  1623A      2.317388  1624A      2.318136  
    1625A      2.319168  1626A      2.322007  1627A      2.327017  
    1628A      2.330637  1629A      2.331546  1630A      2.332929  
    1631A      2.333515  1632A      2.337419  1633A      2.337874  
    1634A      2.339881  1635A      2.342500  1636A      2.347526  
    1637A      2.348696  1638A      2.351630  1639A      2.353094  
    1640A      2.354577  1641A      2.356608  1642A      2.358001  
    1643A      2.358488  1644A      2.361272  1645A      2.366093  
    1646A      2.369730  1647A      2.370616  1648A      2.374975  
    1649A      2.375490  1650A      2.379574  1651A      2.379948  
    1652A      2.380559  1653A      2.382331  1654A      2.387221  
    1655A      2.389555  1656A      2.391076  1657A      2.392007  
    1658A      2.393714  1659A      2.397199  1660A      2.398337  
    1661A      2.399636  1662A      2.400884  1663A      2.402660  
    1664A      2.405722  1665A      2.406800  1666A      2.408256  
    1667A      2.410543  1668A      2.414355  1669A      2.416092  
    1670A      2.418124  1671A      2.418581  1672A      2.421250  
    1673A      2.426613  1674A      2.427054  1675A      2.428170  
    1676A      2.429946  1677A      2.430256  1678A      2.432998  
    1679A      2.434961  1680A      2.437697  1681A      2.438226  
    1682A      2.440166  1683A      2.440550  1684A      2.442119  
    1685A      2.445393  1686A      2.446239  1687A      2.450780  
    1688A      2.451466  1689A      2.454496  1690A      2.457689  
    1691A      2.460152  1692A      2.461557  1693A      2.462499  
    1694A      2.462823  1695A      2.465718  1696A      2.466471  
    1697A      2.467829  1698A      2.470975  1699A      2.472994  
    1700A      2.475076  1701A      2.479355  1702A      2.480953  
    1703A      2.482994  1704A      2.483232  1705A      2.487178  
    1706A      2.488397  1707A      2.492673  1708A      2.493084  
    1709A      2.493994  1710A      2.495013  1711A      2.495801  
    1712A      2.501046  1713A      2.502021  1714A      2.504657  
    1715A      2.506389  1716A      2.510623  1717A      2.512851  
    1718A      2.513181  1719A      2.514046  1720A      2.516569  
    1721A      2.518424  1722A      2.519686  1723A      2.521229  
    1724A      2.525626  1725A      2.527041  1726A      2.528815  
    1727A      2.529564  1728A      2.530421  1729A      2.535087  
    1730A      2.538844  1731A      2.540968  1732A      2.542891  
    1733A      2.543621  1734A      2.544827  1735A      2.547310  
    1736A      2.549235  1737A      2.550918  1738A      2.553618  
    1739A      2.555039  1740A      2.556445  1741A      2.559797  
    1742A      2.562485  1743A      2.562557  1744A      2.564160  
    1745A      2.566121  1746A      2.567117  1747A      2.570426  
    1748A      2.571719  1749A      2.574955  1750A      2.576935  
    1751A      2.577677  1752A      2.581830  1753A      2.581989  
    1754A      2.582114  1755A      2.583048  1756A      2.584178  
    1757A      2.585838  1758A      2.586718  1759A      2.592856  
    1760A      2.593236  1761A      2.595461  1762A      2.595994  
    1763A      2.597981  1764A      2.600225  1765A      2.600406  
    1766A      2.602378  1767A      2.606336  1768A      2.608186  
    1769A      2.608691  1770A      2.611069  1771A      2.611842  
    1772A      2.613822  1773A      2.614109  1774A      2.616481  
    1775A      2.617625  1776A      2.620759  1777A      2.625619  
    1778A      2.626124  1779A      2.627820  1780A      2.628783  
    1781A      2.630817  1782A      2.632056  1783A      2.634324  
    1784A      2.637358  1785A      2.641471  1786A      2.642315  
    1787A      2.643730  1788A      2.643968  1789A      2.645275  
    1790A      2.647660  1791A      2.650665  1792A      2.652277  
    1793A      2.653176  1794A      2.656079  1795A      2.658766  
    1796A      2.659398  1797A      2.662480  1798A      2.664867  
    1799A      2.665302  1800A      2.665978  1801A      2.668704  
    1802A      2.670442  1803A      2.672371  1804A      2.673851  
    1805A      2.675347  1806A      2.677610  1807A      2.680284  
    1808A      2.682744  1809A      2.683212  1810A      2.688675  
    1811A      2.690669  1812A      2.691469  1813A      2.692757  
    1814A      2.693948  1815A      2.699182  1816A      2.703023  
    1817A      2.704421  1818A      2.707383  1819A      2.709038  
    1820A      2.709519  1821A      2.711471  1822A      2.716486  
    1823A      2.717733  1824A      2.721157  1825A      2.722336  
    1826A      2.724374  1827A      2.725270  1828A      2.726096  
    1829A      2.729937  1830A      2.730473  1831A      2.731673  
    1832A      2.734926  1833A      2.740282  1834A      2.742948  
    1835A      2.746730  1836A      2.749433  1837A      2.751257  
    1838A      2.751583  1839A      2.752520  1840A      2.753456  
    1841A      2.759173  1842A      2.762184  1843A      2.763637  
    1844A      2.765383  1845A      2.767457  1846A      2.770337  
    1847A      2.771372  1848A      2.773552  1849A      2.776308  
    1850A      2.777339  1851A      2.778033  1852A      2.779445  
    1853A      2.783322  1854A      2.786100  1855A      2.787077  
    1856A      2.789600  1857A      2.791268  1858A      2.792930  
    1859A      2.795347  1860A      2.796447  1861A      2.800352  
    1862A      2.803401  1863A      2.804445  1864A      2.810195  
    1865A      2.811064  1866A      2.813775  1867A      2.814367  
    1868A      2.814794  1869A      2.819196  1870A      2.820735  
    1871A      2.825936  1872A      2.827552  1873A      2.828684  
    1874A      2.829993  1875A      2.832061  1876A      2.833406  
    1877A      2.839427  1878A      2.841041  1879A      2.843314  
    1880A      2.849182  1881A      2.851937  1882A      2.853113  
    1883A      2.853889  1884A      2.856329  1885A      2.859387  
    1886A      2.860478  1887A      2.864232  1888A      2.867943  
    1889A      2.869422  1890A      2.870167  1891A      2.872871  
    1892A      2.876278  1893A      2.877918  1894A      2.878401  
    1895A      2.882485  1896A      2.883685  1897A      2.885677  
    1898A      2.886703  1899A      2.888859  1900A      2.893557  
    1901A      2.896119  1902A      2.896461  1903A      2.899977  
    1904A      2.901939  1905A      2.905476  1906A      2.907945  
    1907A      2.913319  1908A      2.914143  1909A      2.915361  
    1910A      2.916741  1911A      2.918102  1912A      2.922511  
    1913A      2.923006  1914A      2.930882  1915A      2.931370  
    1916A      2.934176  1917A      2.936332  1918A      2.936699  
    1919A      2.938537  1920A      2.939176  1921A      2.946147  
    1922A      2.948898  1923A      2.950196  1924A      2.950419  
    1925A      2.957395  1926A      2.957576  1927A      2.961823  
    1928A      2.966356  1929A      2.966777  1930A      2.972441  
    1931A      2.972603  1932A      2.975534  1933A      2.977408  
    1934A      2.979241  1935A      2.980568  1936A      2.981510  
    1937A      2.987119  1938A      2.989083  1939A      2.991205  
    1940A      2.998653  1941A      3.001121  1942A      3.001768  
    1943A      3.002702  1944A      3.003825  1945A      3.009415  
    1946A      3.015541  1947A      3.017970  1948A      3.020072  
    1949A      3.022108  1950A      3.023308  1951A      3.026706  
    1952A      3.028200  1953A      3.030274  1954A      3.031927  
    1955A      3.035370  1956A      3.035669  1957A      3.038916  
    1958A      3.038999  1959A      3.044831  1960A      3.052634  
    1961A      3.055931  1962A      3.058775  1963A      3.062040  
    1964A      3.063071  1965A      3.064964  1966A      3.071697  
    1967A      3.072401  1968A      3.074810  1969A      3.078577  
    1970A      3.081861  1971A      3.083878  1972A      3.087898  
    1973A      3.089845  1974A      3.093949  1975A      3.098014  
    1976A      3.099378  1977A      3.101263  1978A      3.109315  
    1979A      3.110385  1980A      3.111244  1981A      3.114533  
    1982A      3.119819  1983A      3.121029  1984A      3.123635  
    1985A      3.130347  1986A      3.130536  1987A      3.133796  
    1988A      3.138372  1989A      3.141911  1990A      3.144117  
    1991A      3.147855  1992A      3.153343  1993A      3.153471  
    1994A      3.157659  1995A      3.162185  1996A      3.166584  
    1997A      3.169022  1998A      3.171694  1999A      3.172855  
    2000A      3.177207  2001A      3.182932  2002A      3.185902  
    2003A      3.188000  2004A      3.195225  2005A      3.195824  
    2006A      3.198228  2007A      3.205095  2008A      3.207605  
    2009A      3.207977  2010A      3.210252  2011A      3.213502  
    2012A      3.215421  2013A      3.217511  2014A      3.224142  
    2015A      3.224787  2016A      3.231959  2017A      3.233281  
    2018A      3.234131  2019A      3.235915  2020A      3.236612  
    2021A      3.241463  2022A      3.249795  2023A      3.250345  
    2024A      3.253534  2025A      3.261033  2026A      3.264882  
    2027A      3.267678  2028A      3.268305  2029A      3.272307  
    2030A      3.279635  2031A      3.281270  2032A      3.282440  
    2033A      3.283318  2034A      3.285104  2035A      3.296270  
    2036A      3.300976  2037A      3.302508  2038A      3.308607  
    2039A      3.312399  2040A      3.320137  2041A      3.321531  
    2042A      3.323857  2043A      3.324278  2044A      3.327334  
    2045A      3.332848  2046A      3.334833  2047A      3.341541  
    2048A      3.343367  2049A      3.343753  2050A      3.350748  
    2051A      3.355463  2052A      3.355723  2053A      3.359330  
    2054A      3.360539  2055A      3.362443  2056A      3.369938  
    2057A      3.374487  2058A      3.375300  2059A      3.379691  
    2060A      3.385624  2061A      3.398278  2062A      3.402551  
    2063A      3.406103  2064A      3.406789  2065A      3.408629  
    2066A      3.410392  2067A      3.414303  2068A      3.415358  
    2069A      3.419209  2070A      3.424167  2071A      3.427959  
    2072A      3.432956  2073A      3.434162  2074A      3.436587  
    2075A      3.438126  2076A      3.440000  2077A      3.445419  
    2078A      3.454339  2079A      3.459806  2080A      3.466133  
    2081A      3.468227  2082A      3.469221  2083A      3.470244  
    2084A      3.476672  2085A      3.478782  2086A      3.479521  
    2087A      3.489477  2088A      3.489675  2089A      3.492986  
    2090A      3.497293  2091A      3.499971  2092A      3.501902  
    2093A      3.503627  2094A      3.509597  2095A      3.510830  
    2096A      3.521924  2097A      3.522235  2098A      3.525407  
    2099A      3.527357  2100A      3.530607  2101A      3.533059  
    2102A      3.534587  2103A      3.545646  2104A      3.552937  
    2105A      3.555577  2106A      3.558877  2107A      3.559409  
    2108A      3.560972  2109A      3.566132  2110A      3.566967  
    2111A      3.573424  2112A      3.576618  2113A      3.580073  
    2114A      3.585492  2115A      3.587846  2116A      3.589086  
    2117A      3.589592  2118A      3.596409  2119A      3.600762  
    2120A      3.601562  2121A      3.607108  2122A      3.613696  
    2123A      3.615701  2124A      3.622081  2125A      3.623819  
    2126A      3.627002  2127A      3.628898  2128A      3.634195  
    2129A      3.637464  2130A      3.638488  2131A      3.641617  
    2132A      3.643534  2133A      3.650726  2134A      3.651000  
    2135A      3.660739  2136A      3.662095  2137A      3.665931  
    2138A      3.668992  2139A      3.669562  2140A      3.673416  
    2141A      3.676249  2142A      3.681071  2143A      3.687221  
    2144A      3.690883  2145A      3.692449  2146A      3.695640  
    2147A      3.698725  2148A      3.705457  2149A      3.709172  
    2150A      3.712381  2151A      3.718704  2152A      3.719945  
    2153A      3.720656  2154A      3.728136  2155A      3.733436  
    2156A      3.735614  2157A      3.737966  2158A      3.743698  
    2159A      3.748693  2160A      3.750234  2161A      3.756721  
    2162A      3.760303  2163A      3.767214  2164A      3.771316  
    2165A      3.776994  2166A      3.778068  2167A      3.783389  
    2168A      3.786047  2169A      3.790305  2170A      3.791423  
    2171A      3.793562  2172A      3.794717  2173A      3.798733  
    2174A      3.802400  2175A      3.805621  2176A      3.806569  
    2177A      3.822724  2178A      3.825986  2179A      3.830721  
    2180A      3.837709  2181A      3.847914  2182A      3.849121  
    2183A      3.854927  2184A      3.861397  2185A      3.862223  
    2186A      3.864599  2187A      3.865677  2188A      3.875619  
    2189A      3.876057  2190A      3.877397  2191A      3.884584  
    2192A      3.890125  2193A      3.893320  2194A      3.899058  
    2195A      3.900854  2196A      3.903404  2197A      3.907866  
    2198A      3.908812  2199A      3.916801  2200A      3.923432  
    2201A      3.927229  2202A      3.930298  2203A      3.933175  
    2204A      3.935903  2205A      3.941371  2206A      3.946602  
    2207A      3.947328  2208A      3.959872  2209A      3.962856  
    2210A      3.975979  2211A      3.978813  2212A      3.981731  
    2213A      3.982057  2214A      3.989444  2215A      3.992739  
    2216A      3.998555  2217A      4.003319  2218A      4.011288  
    2219A      4.011975  2220A      4.018498  2221A      4.022444  
    2222A      4.025170  2223A      4.026357  2224A      4.028872  
    2225A      4.040890  2226A      4.045260  2227A      4.052199  
    2228A      4.064715  2229A      4.065430  2230A      4.068061  
    2231A      4.072666  2232A      4.074479  2233A      4.078936  
    2234A      4.082802  2235A      4.085325  2236A      4.090378  
    2237A      4.100525  2238A      4.102456  2239A      4.108927  
    2240A      4.116335  2241A      4.121181  2242A      4.125236  
    2243A      4.128759  2244A      4.132917  2245A      4.134643  
    2246A      4.135023  2247A      4.138405  2248A      4.139789  
    2249A      4.144017  2250A      4.147469  2251A      4.151878  
    2252A      4.157927  2253A      4.158811  2254A      4.161764  
    2255A      4.168336  2256A      4.174254  2257A      4.178217  
    2258A      4.181220  2259A      4.182278  2260A      4.185080  
    2261A      4.187292  2262A      4.188129  2263A      4.193516  
    2264A      4.200216  2265A      4.205958  2266A      4.207750  
    2267A      4.208377  2268A      4.210265  2269A      4.214856  
    2270A      4.216008  2271A      4.219392  2272A      4.221426  
    2273A      4.229477  2274A      4.229960  2275A      4.233412  
    2276A      4.234980  2277A      4.238865  2278A      4.243571  
    2279A      4.247274  2280A      4.255723  2281A      4.256632  
    2282A      4.256965  2283A      4.261582  2284A      4.263735  
    2285A      4.265235  2286A      4.271600  2287A      4.272845  
    2288A      4.273223  2289A      4.278129  2290A      4.282706  
    2291A      4.284196  2292A      4.286987  2293A      4.292819  
    2294A      4.295308  2295A      4.296615  2296A      4.299498  
    2297A      4.302417  2298A      4.304248  2299A      4.305638  
    2300A      4.309931  2301A      4.314951  2302A      4.316121  
    2303A      4.318463  2304A      4.322156  2305A      4.322992  
    2306A      4.327298  2307A      4.335206  2308A      4.335264  
    2309A      4.336663  2310A      4.342235  2311A      4.343549  
    2312A      4.346879  2313A      4.349375  2314A      4.350856  
    2315A      4.351713  2316A      4.355195  2317A      4.358474  
    2318A      4.361118  2319A      4.361625  2320A      4.363113  
    2321A      4.365125  2322A      4.371956  2323A      4.375980  
    2324A      4.377645  2325A      4.380057  2326A      4.380594  
    2327A      4.385792  2328A      4.388728  2329A      4.389236  
    2330A      4.395421  2331A      4.398729  2332A      4.403387  
    2333A      4.406114  2334A      4.410928  2335A      4.412601  
    2336A      4.417023  2337A      4.417376  2338A      4.421618  
    2339A      4.422719  2340A      4.423139  2341A      4.426018  
    2342A      4.431058  2343A      4.431298  2344A      4.438535  
    2345A      4.439561  2346A      4.444074  2347A      4.444537  
    2348A      4.447307  2349A      4.447813  2350A      4.449081  
    2351A      4.449807  2352A      4.453737  2353A      4.455476  
    2354A      4.458420  2355A      4.466609  2356A      4.471006  
    2357A      4.471432  2358A      4.473048  2359A      4.475154  
    2360A      4.475941  2361A      4.477798  2362A      4.484025  
    2363A      4.485419  2364A      4.487034  2365A      4.488515  
    2366A      4.490206  2367A      4.491081  2368A      4.495589  
    2369A      4.497198  2370A      4.500798  2371A      4.501821  
    2372A      4.504402  2373A      4.506094  2374A      4.510367  
    2375A      4.510951  2376A      4.513313  2377A      4.515076  
    2378A      4.519828  2379A      4.522744  2380A      4.524424  
    2381A      4.525695  2382A      4.529707  2383A      4.529926  
    2384A      4.530795  2385A      4.532857  2386A      4.535355  
    2387A      4.537579  2388A      4.539689  2389A      4.540281  
    2390A      4.542150  2391A      4.548587  2392A      4.550712  
    2393A      4.552306  2394A      4.554456  2395A      4.561887  
    2396A      4.562534  2397A      4.564636  2398A      4.566375  
    2399A      4.567827  2400A      4.570861  2401A      4.571547  
    2402A      4.574239  2403A      4.577399  2404A      4.579604  
    2405A      4.583073  2406A      4.584846  2407A      4.586176  
    2408A      4.586889  2409A      4.592870  2410A      4.594535  
    2411A      4.596899  2412A      4.602930  2413A      4.605034  
    2414A      4.607517  2415A      4.608458  2416A      4.611798  
    2417A      4.612537  2418A      4.615775  2419A      4.616169  
    2420A      4.617264  2421A      4.619859  2422A      4.621792  
    2423A      4.623951  2424A      4.630683  2425A      4.633497  
    2426A      4.634422  2427A      4.640050  2428A      4.642064  
    2429A      4.645516  2430A      4.649064  2431A      4.650558  
    2432A      4.652962  2433A      4.657329  2434A      4.657976  
    2435A      4.661986  2436A      4.666567  2437A      4.666975  
    2438A      4.670477  2439A      4.670521  2440A      4.673725  
    2441A      4.674659  2442A      4.677214  2443A      4.680652  
    2444A      4.684735  2445A      4.685804  2446A      4.687600  
    2447A      4.690244  2448A      4.692206  2449A      4.692701  
    2450A      4.694162  2451A      4.696257  2452A      4.699775  
    2453A      4.706856  2454A      4.708632  2455A      4.715829  
    2456A      4.716786  2457A      4.719079  2458A      4.720996  
    2459A      4.721748  2460A      4.723406  2461A      4.725427  
    2462A      4.727928  2463A      4.731534  2464A      4.733306  
    2465A      4.734455  2466A      4.738900  2467A      4.740165  
    2468A      4.743141  2469A      4.748389  2470A      4.749370  
    2471A      4.750294  2472A      4.755977  2473A      4.757995  
    2474A      4.760123  2475A      4.760675  2476A      4.763066  
    2477A      4.764816  2478A      4.766640  2479A      4.769851  
    2480A      4.772429  2481A      4.772805  2482A      4.776227  
    2483A      4.781496  2484A      4.786478  2485A      4.787764  
    2486A      4.789432  2487A      4.790210  2488A      4.792034  
    2489A      4.795575  2490A      4.802995  2491A      4.803647  
    2492A      4.806849  2493A      4.809151  2494A      4.809931  
    2495A      4.812600  2496A      4.813154  2497A      4.815435  
    2498A      4.819150  2499A      4.819683  2500A      4.820685  
    2501A      4.826301  2502A      4.826999  2503A      4.830634  
    2504A      4.831272  2505A      4.832618  2506A      4.833133  
    2507A      4.837909  2508A      4.840291  2509A      4.841838  
    2510A      4.843349  2511A      4.843981  2512A      4.846396  
    2513A      4.848467  2514A      4.852002  2515A      4.856715  
    2516A      4.858685  2517A      4.861076  2518A      4.864711  
    2519A      4.867236  2520A      4.867951  2521A      4.869489  
    2522A      4.872122  2523A      4.873483  2524A      4.875071  
    2525A      4.876856  2526A      4.877330  2527A      4.882123  
    2528A      4.885055  2529A      4.886447  2530A      4.889188  
    2531A      4.889440  2532A      4.890949  2533A      4.893163  
    2534A      4.893965  2535A      4.898433  2536A      4.905296  
    2537A      4.907895  2538A      4.908780  2539A      4.911619  
    2540A      4.913708  2541A      4.917370  2542A      4.922718  
    2543A      4.925020  2544A      4.925813  2545A      4.928095  
    2546A      4.932634  2547A      4.933981  2548A      4.936512  
    2549A      4.937418  2550A      4.941153  2551A      4.942542  
    2552A      4.946500  2553A      4.949406  2554A      4.951297  
    2555A      4.954580  2556A      4.955648  2557A      4.962525  
    2558A      4.963430  2559A      4.964578  2560A      4.967940  
    2561A      4.969492  2562A      4.971229  2563A      4.973830  
    2564A      4.974709  2565A      4.981308  2566A      4.981926  
    2567A      4.983877  2568A      4.985607  2569A      4.986436  
    2570A      4.990760  2571A      4.991855  2572A      4.992997  
    2573A      4.995551  2574A      5.000262  2575A      5.001610  
    2576A      5.003830  2577A      5.005821  2578A      5.007246  
    2579A      5.010402  2580A      5.013866  2581A      5.017093  
    2582A      5.017780  2583A      5.021036  2584A      5.021663  
    2585A      5.024007  2586A      5.029701  2587A      5.033257  
    2588A      5.033903  2589A      5.038929  2590A      5.040588  
    2591A      5.042486  2592A      5.044063  2593A      5.045436  
    2594A      5.048439  2595A      5.051107  2596A      5.058225  
    2597A      5.060279  2598A      5.065074  2599A      5.065832  
    2600A      5.068517  2601A      5.070454  2602A      5.072373  
    2603A      5.076561  2604A      5.079180  2605A      5.082717  
    2606A      5.084809  2607A      5.085994  2608A      5.090557  
    2609A      5.091993  2610A      5.094268  2611A      5.096422  
    2612A      5.096885  2613A      5.108606  2614A      5.109317  
    2615A      5.109890  2616A      5.111376  2617A      5.115932  
    2618A      5.117872  2619A      5.119799  2620A      5.120806  
    2621A      5.125675  2622A      5.127849  2623A      5.128754  
    2624A      5.129889  2625A      5.133890  2626A      5.135987  
    2627A      5.138451  2628A      5.140498  2629A      5.143593  
    2630A      5.144155  2631A      5.146743  2632A      5.148652  
    2633A      5.151695  2634A      5.152169  2635A      5.157975  
    2636A      5.158909  2637A      5.162800  2638A      5.165062  
    2639A      5.167106  2640A      5.167601  2641A      5.169367  
    2642A      5.172705  2643A      5.173773  2644A      5.174275  
    2645A      5.177624  2646A      5.179229  2647A      5.184255  
    2648A      5.187929  2649A      5.188896  2650A      5.191804  
    2651A      5.193679  2652A      5.194661  2653A      5.196503  
    2654A      5.197058  2655A      5.198843  2656A      5.203384  
    2657A      5.204234  2658A      5.209024  2659A      5.211918  
    2660A      5.212908  2661A      5.214717  2662A      5.215904  
    2663A      5.220132  2664A      5.221326  2665A      5.222812  
    2666A      5.224659  2667A      5.227931  2668A      5.236291  
    2669A      5.236952  2670A      5.238628  2671A      5.238828  
    2672A      5.241785  2673A      5.245312  2674A      5.250283  
    2675A      5.251238  2676A      5.251854  2677A      5.253011  
    2678A      5.253280  2679A      5.261239  2680A      5.261450  
    2681A      5.267450  2682A      5.268123  2683A      5.269635  
    2684A      5.272667  2685A      5.273351  2686A      5.276529  
    2687A      5.277338  2688A      5.281737  2689A      5.282975  
    2690A      5.287652  2691A      5.289449  2692A      5.291871  
    2693A      5.297346  2694A      5.298107  2695A      5.299784  
    2696A      5.301322  2697A      5.302673  2698A      5.306431  
    2699A      5.314087  2700A      5.317490  2701A      5.318701  
    2702A      5.325250  2703A      5.328891  2704A      5.331482  
    2705A      5.333959  2706A      5.335118  2707A      5.339547  
    2708A      5.339891  2709A      5.344073  2710A      5.345876  
    2711A      5.350422  2712A      5.356205  2713A      5.358085  
    2714A      5.362384  2715A      5.366204  2716A      5.367284  
    2717A      5.369490  2718A      5.371485  2719A      5.379078  
    2720A      5.379860  2721A      5.387087  2722A      5.387535  
    2723A      5.393931  2724A      5.396741  2725A      5.401284  
    2726A      5.402552  2727A      5.403292  2728A      5.406193  
    2729A      5.409682  2730A      5.410779  2731A      5.418125  
    2732A      5.420298  2733A      5.424704  2734A      5.425793  
    2735A      5.426382  2736A      5.434062  2737A      5.435040  
    2738A      5.435236  2739A      5.441111  2740A      5.444944  
    2741A      5.446344  2742A      5.448798  2743A      5.451272  
    2744A      5.454088  2745A      5.454803  2746A      5.457940  
    2747A      5.462399  2748A      5.467130  2749A      5.473953  
    2750A      5.477584  2751A      5.479832  2752A      5.481575  
    2753A      5.484306  2754A      5.488227  2755A      5.492395  
    2756A      5.493765  2757A      5.497950  2758A      5.498923  
    2759A      5.500049  2760A      5.501238  2761A      5.504715  
    2762A      5.506913  2763A      5.508626  2764A      5.511138  
    2765A      5.513301  2766A      5.515254  2767A      5.517537  
    2768A      5.519970  2769A      5.521241  2770A      5.522054  
    2771A      5.524242  2772A      5.529461  2773A      5.529903  
    2774A      5.535314  2775A      5.539978  2776A      5.540302  
    2777A      5.542588  2778A      5.543089  2779A      5.547036  
    2780A      5.553981  2781A      5.555017  2782A      5.555911  
    2783A      5.557735  2784A      5.560325  2785A      5.567513  
    2786A      5.568417  2787A      5.571096  2788A      5.574577  
    2789A      5.576178  2790A      5.578473  2791A      5.578988  
    2792A      5.584678  2793A      5.592871  2794A      5.595171  
    2795A      5.596052  2796A      5.600693  2797A      5.604585  
    2798A      5.606298  2799A      5.613553  2800A      5.615207  
    2801A      5.617340  2802A      5.618659  2803A      5.622868  
    2804A      5.627129  2805A      5.628550  2806A      5.634141  
    2807A      5.635861  2808A      5.636106  2809A      5.638721  
    2810A      5.643628  2811A      5.644222  2812A      5.645034  
    2813A      5.646827  2814A      5.650183  2815A      5.652546  
    2816A      5.654018  2817A      5.657431  2818A      5.657971  
    2819A      5.660697  2820A      5.662839  2821A      5.667085  
    2822A      5.668892  2823A      5.670654  2824A      5.672387  
    2825A      5.674384  2826A      5.680057  2827A      5.680392  
    2828A      5.685983  2829A      5.687764  2830A      5.692650  
    2831A      5.695622  2832A      5.697433  2833A      5.700423  
    2834A      5.702122  2835A      5.703322  2836A      5.705615  
    2837A      5.706626  2838A      5.708313  2839A      5.709333  
    2840A      5.712829  2841A      5.723849  2842A      5.724361  
    2843A      5.725912  2844A      5.729743  2845A      5.734752  
    2846A      5.735271  2847A      5.739923  2848A      5.740292  
    2849A      5.742029  2850A      5.747534  2851A      5.749737  
    2852A      5.750599  2853A      5.759278  2854A      5.761215  
    2855A      5.762781  2856A      5.765645  2857A      5.774132  
    2858A      5.776847  2859A      5.779696  2860A      5.781913  
    2861A      5.784476  2862A      5.786741  2863A      5.790120  
    2864A      5.791107  2865A      5.794569  2866A      5.799170  
    2867A      5.799740  2868A      5.803410  2869A      5.807491  
    2870A      5.808455  2871A      5.810655  2872A      5.812503  
    2873A      5.813106  2874A      5.822509  2875A      5.830901  
    2876A      5.831521  2877A      5.834476  2878A      5.836926  
    2879A      5.838322  2880A      5.842133  2881A      5.850193  
    2882A      5.850716  2883A      5.853436  2884A      5.857183  
    2885A      5.860375  2886A      5.862280  2887A      5.863964  
    2888A      5.867254  2889A      5.871112  2890A      5.874965  
    2891A      5.878572  2892A      5.879814  2893A      5.887287  
    2894A      5.887699  2895A      5.890260  2896A      5.893111  
    2897A      5.898822  2898A      5.904999  2899A      5.908202  
    2900A      5.913003  2901A      5.913754  2902A      5.914231  
    2903A      5.915067  2904A      5.920673  2905A      5.925349  
    2906A      5.929481  2907A      5.930858  2908A      5.932877  
    2909A      5.934648  2910A      5.939992  2911A      5.941808  
    2912A      5.942362  2913A      5.944021  2914A      5.951022  
    2915A      5.954617  2916A      5.956299  2917A      5.960343  
    2918A      5.968961  2919A      5.971923  2920A      5.973053  
    2921A      5.977174  2922A      5.988761  2923A      5.989611  
    2924A      5.993975  2925A      5.995396  2926A      5.997074  
    2927A      6.001229  2928A      6.002139  2929A      6.008593  
    2930A      6.010693  2931A      6.017986  2932A      6.020127  
    2933A      6.023450  2934A      6.026055  2935A      6.027826  
    2936A      6.032907  2937A      6.037365  2938A      6.038648  
    2939A      6.039875  2940A      6.045727  2941A      6.048302  
    2942A      6.052544  2943A      6.054867  2944A      6.061143  
    2945A      6.061168  2946A      6.063085  2947A      6.067432  
    2948A      6.068492  2949A      6.072161  2950A      6.075551  
    2951A      6.081766  2952A      6.082156  2953A      6.084023  
    2954A      6.086884  2955A      6.088835  2956A      6.095022  
    2957A      6.096675  2958A      6.103392  2959A      6.105639  
    2960A      6.110126  2961A      6.111049  2962A      6.118626  
    2963A      6.120298  2964A      6.126563  2965A      6.126969  
    2966A      6.129120  2967A      6.134550  2968A      6.142542  
    2969A      6.144098  2970A      6.145968  2971A      6.147098  
    2972A      6.150511  2973A      6.153881  2974A      6.158899  
    2975A      6.166638  2976A      6.168250  2977A      6.173080  
    2978A      6.173256  2979A      6.178231  2980A      6.183073  
    2981A      6.186665  2982A      6.188371  2983A      6.200473  
    2984A      6.200927  2985A      6.214757  2986A      6.216205  
    2987A      6.217906  2988A      6.221946  2989A      6.226244  
    2990A      6.229409  2991A      6.229868  2992A      6.232181  
    2993A      6.235960  2994A      6.237247  2995A      6.240871  
    2996A      6.248725  2997A      6.248837  2998A      6.252579  
    2999A      6.257064  3000A      6.259524  3001A      6.261332  
    3002A      6.262422  3003A      6.264815  3004A      6.272071  
    3005A      6.281490  3006A      6.281845  3007A      6.282291  
    3008A      6.289563  3009A      6.292437  3010A      6.295211  
    3011A      6.297147  3012A      6.301128  3013A      6.304593  
    3014A      6.317133  3015A      6.318291  3016A      6.323550  
    3017A      6.324290  3018A      6.328959  3019A      6.331463  
    3020A      6.335805  3021A      6.341638  3022A      6.342072  
    3023A      6.343635  3024A      6.347150  3025A      6.349155  
    3026A      6.349949  3027A      6.351534  3028A      6.357138  
    3029A      6.365717  3030A      6.366378  3031A      6.372039  
    3032A      6.372995  3033A      6.375088  3034A      6.376917  
    3035A      6.377276  3036A      6.386418  3037A      6.389653  
    3038A      6.391687  3039A      6.395104  3040A      6.399939  
    3041A      6.403437  3042A      6.415687  3043A      6.418760  
    3044A      6.422447  3045A      6.428067  3046A      6.436988  
    3047A      6.440489  3048A      6.444664  3049A      6.449081  
    3050A      6.451245  3051A      6.455200  3052A      6.457313  
    3053A      6.460656  3054A      6.464569  3055A      6.468618  
    3056A      6.476247  3057A      6.477375  3058A      6.488075  
    3059A      6.489356  3060A      6.494978  3061A      6.499258  
    3062A      6.514235  3063A      6.519220  3064A      6.528962  
    3065A      6.534193  3066A      6.539299  3067A      6.544105  
    3068A      6.545345  3069A      6.560854  3070A      6.567990  
    3071A      6.575270  3072A      6.627642  3073A      6.634172  
    3074A      6.643623  3075A      6.657457  3076A      6.672718  
    3077A      6.679928  3078A      6.684753  3079A      6.686864  
    3080A      6.703468  3081A      6.705307  3082A      6.718370  
    3083A      6.723700  3084A      6.734313  3085A      6.736001  
    3086A      6.738403  3087A      6.745067  3088A      6.746120  
    3089A      6.752981  3090A      6.763982  3091A      6.766709  
    3092A      6.775511  3093A      6.786018  3094A      6.799048  
    3095A      6.801724  3096A      6.808852  3097A      6.809119  
    3098A      6.827930  3099A      6.832811  3100A      6.846769  
    3101A      6.847400  3102A      6.852979  3103A      6.870364  
    3104A      6.874411  3105A      6.894241  3106A      6.899910  
    3107A      6.915775  3108A      6.936947  3109A      6.944140  
    3110A      6.944704  3111A      6.958694  3112A      6.966082  
    3113A      6.973982  3114A      6.982011  3115A      6.990198  
    3116A      6.993570  3117A      7.015981  3118A      7.026229  
    3119A      7.031695  3120A      7.033903  3121A      7.041809  
    3122A      7.048229  3123A      7.048616  3124A      7.071259  
    3125A      7.082991  3126A      7.091038  3127A      7.098179  
    3128A      7.123898  3129A      7.125065  3130A      7.127367  
    3131A      7.151750  3132A      7.179299  3133A      7.186461  
    3134A      7.194193  3135A      7.202088  3136A      7.214531  
    3137A      7.218731  3138A      7.220056  3139A      7.233932  
    3140A      7.247569  3141A      7.252687  3142A      7.267141  
    3143A      7.269048  3144A      7.273001  3145A      7.282560  
    3146A      7.291787  3147A      7.311859  3148A      7.322566  
    3149A      7.328163  3150A      7.357885  3151A      7.373614  
    3152A      7.384105  3153A      7.384700  3154A      7.394107  
    3155A      7.395649  3156A      7.417487  3157A      7.420130  
    3158A      7.427779  3159A      7.437567  3160A      7.437995  
    3161A      7.461034  3162A      7.481869  3163A      7.484308  
    3164A      7.494209  3165A      7.509869  3166A      7.545739  
    3167A      7.554965  3168A      7.572386  3169A      7.576151  
    3170A      7.579071  3171A      7.589355  3172A      7.596152  
    3173A      7.610635  3174A      7.615074  3175A      7.618692  
    3176A      7.622973  3177A      7.644263  3178A      7.645329  
    3179A      7.661120  3180A      7.676474  3181A      7.677359  
    3182A      7.691996  3183A      7.699381  3184A      7.718126  
    3185A      7.719275  3186A      7.729169  3187A      7.734470  
    3188A      7.747368  3189A      7.748601  3190A      7.760136  
    3191A      7.770080  3192A      7.777429  3193A      7.783415  
    3194A      7.787483  3195A      7.804552  3196A      7.817248  
    3197A      7.817762  3198A      7.829910  3199A      7.850776  
    3200A      7.858925  3201A      7.868802  3202A      7.874823  
    3203A      7.886720  3204A      7.891328  3205A      7.893826  
    3206A      7.924970  3207A      7.928623  3208A      7.930048  
    3209A      7.938196  3210A      7.941572  3211A      7.953645  
    3212A      7.963497  3213A      7.963690  3214A      7.971679  
    3215A      7.983339  3216A      7.991278  3217A      8.009983  
    3218A      8.017930  3219A      8.018219  3220A      8.020435  
    3221A      8.043310  3222A      8.047219  3223A      8.074586  
    3224A      8.078542  3225A      8.090524  3226A      8.106444  
    3227A      8.108791  3228A      8.128334  3229A      8.144387  
    3230A      8.152271  3231A      8.189331  3232A      8.195116  
    3233A      8.205703  3234A      8.211090  3235A      8.231966  
    3236A      8.240297  3237A      8.262610  3238A      8.293351  
    3239A      8.308317  3240A      8.330979  3241A      8.334640  
    3242A      8.355272  3243A      8.367311  3244A      8.387800  
    3245A      8.399145  3246A      8.399674  3247A      8.427937  
    3248A      8.442536  3249A      8.452225  3250A      8.460086  
    3251A      8.475933  3252A      8.505147  3253A      8.516753  
    3254A      8.531719  3255A      8.548792  3256A      8.571428  
    3257A      8.590552  3258A      8.748430  3259A      8.767080  
    3260A      8.778228  3261A      8.805079  3262A      8.805455  
    3263A      8.809448  3264A      8.828966  3265A      8.845039  
    3266A      8.854708  3267A      8.865677  3268A      8.882134  
    3269A      8.900641  3270A      8.918197  3271A      8.939859  
    3272A      8.967939  3273A      9.073242  3274A      9.084985  
    3275A      9.102503  3276A      9.146163  3277A      9.149221  
    3278A      9.199350  3279A      9.260910  3280A      9.278431  
    3281A      9.287902  3282A      9.315888  3283A      9.325597  
    3284A      9.360455  3285A      9.405985  3286A      9.432565  
    3287A      9.442557  3288A      9.448971  3289A      9.451549  
    3290A      9.467663  3291A      9.482257  3292A      9.570614  
    3293A      9.621001  3294A      9.697297  3295A      9.814414  
    3296A      9.864834  3297A      9.890144  3298A      9.910255  
    3299A      9.939548  3300A      9.945627  3301A     10.005341  
    3302A     10.031937  3303A     10.061495  3304A     10.077854  
    3305A     10.094336  3306A     10.124103  3307A     10.152254  
    3308A     10.191192  3309A     10.191656  3310A     10.199913  
    3311A     10.207311  3312A     10.245581  3313A     10.281462  
    3314A     10.284164  3315A     10.352169  3316A     10.356903  
    3317A     10.392508  3318A     10.467359  3319A     10.473778  
    3320A     10.482477  3321A     10.492739  3322A     10.784249  
    3323A     10.832960  3324A     10.842712  3325A     10.848615  
    3326A     10.855667  3327A     10.887807  3328A     10.903019  
    3329A     10.947344  3330A     11.021300  3331A     11.134477  
    3332A     11.162159  3333A     11.225288  3334A     11.236896  
    3335A     11.242840  3336A     11.310523  3337A     11.322918  
    3338A     11.336928  3339A     11.379331  3340A     11.437482  
    3341A     11.505704  3342A     11.526353  3343A     11.705532  
    3344A     11.710228  3345A     11.743206  3346A     11.774290  
    3347A     11.789853  3348A     11.837191  3349A     11.948817  
    3350A     11.969364  3351A     11.992695  3352A     12.034789  
    3353A     12.062832  3354A     12.078225  3355A     12.093554  
    3356A     12.124916  3357A     12.144265  3358A     12.221952  
    3359A     12.244285  3360A     12.304835  3361A     12.391875  
    3362A     16.028189  3363A     16.472401  3364A     16.683160  
    3365A     17.113882  3366A     18.125026  3367A     18.321785  
    3368A     18.483702  3369A     20.036047  3370A     20.219990  
    3371A     20.328094  3372A     20.611808  3373A     21.598274  
    3374A     21.979697  3375A     22.013729  3376A     22.868270  
    3377A     23.026036  3378A     50.781258  3379A     50.887300  
    3380A     51.479937  3381A     51.629949  3382A     51.930665  
    3383A     52.423236  3384A     52.542760  3385A     54.266480  
    3386A     54.558031  3387A     54.826187  3388A     54.996704  
    3389A     55.330472  3390A     55.378958  3391A     55.520686  
    3392A     55.650467  3393A     55.866879  3394A     56.145011  
    3395A     56.180485  3396A     56.683327  3397A     57.266847  
    3398A     58.041844  3399A     58.117002  3400A     58.807354  
    3401A     59.014740  3402A     59.642467  3403A     60.022679  
    3404A     60.398656  3405A     60.539512  3406A     60.691117  
    3407A     60.760918  3408A     60.883416  3409A     60.916112  
    3410A     61.092269  3411A     61.142931  3412A     61.283218  
    3413A     61.326129  3414A     61.469233  3415A     61.616915  
    3416A     61.753199  3417A     62.496686  3418A     62.667441  
    3419A     63.097136  

    Final Occupation by Irrep:
              A 
    DOCC [    52 ]
    NA   [    52 ]
    NB   [    52 ]

  @DF-RKS Final Energy:  -678.59398457270845

   => Energetics <=

    Nuclear Repulsion Energy =            836.8830872626610926
    One-Electron Energy =               -2573.0379511044498031
    Two-Electron Energy =                1122.7778680779197202
    DFT Exchange-Correlation Energy =     -65.6166624127192364
    Empirical Dispersion Energy =           0.0000000000000000
    VV10 Nonlocal Energy =                  0.3996736038799894
    Total Energy =                       -678.5939845727083366

Computation Completed


Properties will be evaluated at   0.000000,   0.000000,   0.000000 [a0]

Properties computed using the SCF density matrix


 Multipole Moments:

 ------------------------------------------------------------------------------------
     Multipole            Electronic (a.u.)      Nuclear  (a.u.)        Total (a.u.)
 ------------------------------------------------------------------------------------

 L = 1.  Multiply by 2.5417464519 to convert [e a0] to [Debye]
 Dipole X            :        -47.2947855           47.2403186           -0.0544669
 Dipole Y            :         82.8333478          -83.0305255           -0.1971777
 Dipole Z            :          1.3503509           -1.3544535           -0.0041025
 Magnitude           :                                                    0.2046033

 ------------------------------------------------------------------------------------

*** tstop() called on atl1-1-02-003-24-1.pace.gatech.edu at Sat Jun 13 19:23:50 2026
Module time:
	user time   =  109221.43 seconds =    1820.36 minutes
	system time =    6339.86 seconds =     105.66 minutes
	total time  =      16823 seconds =     280.38 minutes
Total time:
	user time   =  109221.43 seconds =    1820.36 minutes
	system time =    6339.86 seconds =     105.66 minutes
	total time  =      16823 seconds =     280.38 minutes

    Psi4 stopped on: Saturday, 13 June 2026 07:24PM
    Psi4 wall time for execution: 4:40:41.74

*** Psi4 exiting successfully. Buy a developer a beer!
