
    -----------------------------------------------------------------------
          Psi4: An Open-Source Ab Initio Electronic Structure Package
                               Psi4 1.9.1 release

                         Git: Rev {} zzzzzzz 


    D. G. A. Smith, L. A. Burns, A. C. Simmonett, R. M. Parrish,
    M. C. Schieber, R. Galvelis, P. Kraus, H. Kruse, R. Di Remigio,
    A. Alenaizan, A. M. James, S. Lehtola, J. P. Misiewicz, M. Scheurer,
    R. A. Shaw, J. B. Schriber, Y. Xie, Z. L. Glick, D. A. Sirianni,
    J. S. O'Brien, J. M. Waldrop, A. Kumar, E. G. Hohenstein,
    B. P. Pritchard, B. R. Brooks, H. F. Schaefer III, A. Yu. Sokolov,
    K. Patkowski, A. E. DePrince III, U. Bozkaya, R. A. King,
    F. A. Evangelista, J. M. Turney, T. D. Crawford, C. D. Sherrill,
    J. Chem. Phys. 152(18) 184108 (2020). https://doi.org/10.1063/5.0006002

                            Additional Code Authors
    E. T. Seidl, C. L. Janssen, E. F. Valeev, M. L. Leininger,
    J. F. Gonthier, R. M. Richard, H. R. McAlexander, M. Saitow, X. Wang,
    P. Verma, M. H. Lechner, A. Jiang, S. Behnle, A. G. Heide,
    M. F. Herbst, and D. L. Poole

             Previous Authors, Complete List of Code Contributors,
                       and Citations for Specific Modules
    https://github.com/psi4/psi4/blob/master/codemeta.json
    https://github.com/psi4/psi4/graphs/contributors
    http://psicode.org/psi4manual/master/introduction.html#citing-psifour

    -----------------------------------------------------------------------


    Psi4 started on: Saturday, 13 June 2026 03:28PM

    Process ID: 606818
    Host:       atl1-1-03-004-11-2.pace.gatech.edu
    PSIDATADIR: /storage/home/hcoda1/5/vlita3/.conda/envs/p4_qcml/share/psi4
    Memory:     250.0 GiB
    Threads:    10
    
  ==> Input QCSchema <==

--------------------------------------------------------------------------
{'driver': 'energy',
 'extras': {},
 'id': '257',
 'keywords': {},
 'model': {'basis': 'aug-cc-pvtz', 'method': 'wb97x-v'},
 'molecule': {'extras': {},
              'fix_com': True,
              'fix_orientation': True,
              'fragment_charges': [0.0, 0.0],
              'fragment_multiplicities': [1, 1],
              'fragments': [[0, 1, 2, 3, 4, 5, 6, 7, 8, 9, 10, 11, 12, 13, 14, 15, 16, 17, 18, 19, 20, 21, 22, 23, 24,
                             25, 26, 27, 28, 29, 30, 31, 32, 33, 34, 35, 36, 37, 38, 39, 40, 41, 42, 43],
                            [44, 45, 46, 47, 48, 49, 50, 51, 52, 53, 54, 55, 56, 57, 58, 59, 60, 61, 62, 63, 64, 65, 66,
                             67, 68, 69, 70, 71, 72, 73, 74, 75, 76, 77, 78, 79, 80, 81, 82, 83, 84, 85, 86, 87]],
              'geometry': [25.47963781, 23.08351049, 43.1296896, 24.89690954, 20.52012331, 43.887087, 25.07057198,
                           18.48699404, 42.07353641, 25.8424877, 19.04880944, 39.52013663, 26.46903607, 21.61452675,
                           38.85199593, 26.30318821, 23.59330066, 40.54460103, 24.46577176, 15.9279092, 42.77036087,
                           23.76811717, 15.37695629, 45.40838081, 23.59859476, 17.38880058, 47.22265844, 24.1081018,
                           20.02007671, 46.44346413, 22.96694077, 16.77267612, 49.77192758, 22.51062738, 14.29130626,
                           50.58597185, 22.67427055, 12.32177999, 48.76231557, 23.27971306, 12.86309326, 46.25226043,
                           25.97467497, 17.0727052, 37.71068154, 25.34789586, 14.59123463, 38.39437083, 24.59969708,
                           14.0277518, 40.88784347, 25.20039992, 25.0588727, 44.92111126, 24.35321071, 24.59525103,
                           47.39946073, 23.84084877, 22.08099208, 48.12795237, 21.86046838, 13.69556932, 53.32235171,
                           24.04555383, 26.76370654, 49.27889773, 26.50915633, 27.41178979, 50.73375129, 26.93108599,
                           26.27094839, 39.72356046, 27.10311578, 21.98163565, 36.89906984, 22.32265299, 10.34583799,
                           49.33666834, 23.39372081, 11.28300305, 44.90489504, 26.57612038, 17.51973959, 35.76596134,
                           25.43664936, 13.06203906, 36.97800898, 24.12002947, 12.05854919, 41.3527408, 25.62817825,
                           27.01761767, 44.36171793, 23.18724332, 21.75219607, 50.07608394, 23.27013145, 12.38510294,
                           54.17857328, 21.79629273, 15.42803966, 54.50687769, 19.98705402, 12.74487252, 53.47527914,
                           22.53167906, 26.28198386, 50.6619148, 23.38069793, 28.48102898, 48.25612267, 27.19569266,
                           25.7565067, 51.83310019, 28.04156267, 27.96965392, 49.40821263, 28.39145441, 27.1428651,
                           40.95513515, 25.23456206, 27.51897461, 39.79892028, 27.66207922, 26.29954115, 37.75755015,
                           26.2022166, 29.00071195, 52.0780899, 22.83611537, 18.29134925, 51.1881473, 30.81342193,
                           18.71017989, 45.99359029, 31.5788239, 19.74555973, 43.58027113, 32.18922921, 22.39746574,
                           43.36009841, 32.04731473, 23.98056161, 45.57578145, 31.25562095, 22.88485355, 47.94186375,
                           30.64065655, 20.36296812, 48.19759324, 32.96098858, 23.46875558, 40.98068543, 32.9776879,
                           21.8498177, 38.71563215, 32.39688051, 19.20754673, 38.92783428, 31.75108262, 18.1119644,
                           41.41040042, 32.38510148, 17.70859001, 36.6883681, 32.89884869, 18.70388423, 34.28627015,
                           33.46045747, 21.32787429, 34.10603582, 33.50020544, 22.84413785, 36.26471359, 32.71084168,
                           26.57519902, 45.39430813, 33.51746054, 27.59229626, 43.0833912, 33.64071365, 26.05933156,
                           40.9078722, 30.26834315, 16.09166271, 46.16720061, 30.49746548, 14.47431826, 44.06910385,
                           31.23964841, 15.50757785, 41.72580743, 32.85245858, 17.05660123, 31.93007182, 30.0352396,
                           11.64386798, 44.33912194, 32.45644731, 10.16276856, 45.08627623, 29.83741229, 19.30937345,
                           50.74453249, 31.15944353, 24.13692378, 49.60598037, 33.86115259, 22.17547238, 32.24063318,
                           33.92403613, 24.86828461, 36.03931452, 32.60693264, 27.77144276, 47.1004289, 34.05705016,
                           29.60331272, 42.95688301, 34.27807476, 26.92308174, 39.12655219, 29.64722791, 15.28713696,
                           47.98302787, 31.38145507, 14.21615321, 40.10268471, 34.735737, 17.01308892, 30.98680081,
                           32.31443775, 15.0754773, 32.37170495, 31.48589123, 17.79122297, 30.50534659, 29.28049933,
                           10.88478084, 42.52649407, 28.54357618, 11.31799443, 45.78690148, 33.97269455, 10.41059171,
                           43.64975571, 33.2192207, 10.84125701, 46.92494523, 31.18221652, 17.84465276, 51.44063809,
                           27.94896357, 18.39273342, 50.64394079, 29.74125873, 20.82714016, 52.19033882, 32.06613232,
                           8.10297733, 45.26704002, 31.91846208, 15.68652669, 36.81860417],
              'id': 16,
              'identifiers': {'molecular_formula': 'C48H40',
                              'molecule_hash': 'c7032f6b2da4c5ceb2b85b46228cc9bc6b33b25c'},
              'masses': [12.0, 12.0, 12.0, 12.0, 12.0, 12.0, 12.0, 12.0, 12.0, 12.0, 12.0, 12.0, 12.0, 12.0, 12.0, 12.0,
                         12.0, 12.0, 12.0, 12.0, 12.0, 12.0, 12.0, 12.0, 1.00782503223, 1.00782503223, 1.00782503223,
                         1.00782503223, 1.00782503223, 1.00782503223, 1.00782503223, 1.00782503223, 1.00782503223,
                         1.00782503223, 1.00782503223, 1.00782503223, 1.00782503223, 1.00782503223, 1.00782503223,
                         1.00782503223, 1.00782503223, 1.00782503223, 1.00782503223, 1.00782503223, 12.0, 12.0, 12.0,
                         12.0, 12.0, 12.0, 12.0, 12.0, 12.0, 12.0, 12.0, 12.0, 12.0, 12.0, 12.0, 12.0, 12.0, 12.0, 12.0,
                         12.0, 12.0, 12.0, 12.0, 12.0, 1.00782503223, 1.00782503223, 1.00782503223, 1.00782503223,
                         1.00782503223, 1.00782503223, 1.00782503223, 1.00782503223, 1.00782503223, 1.00782503223,
                         1.00782503223, 1.00782503223, 1.00782503223, 1.00782503223, 1.00782503223, 1.00782503223,
                         1.00782503223, 1.00782503223, 1.00782503223, 1.00782503223],
              'molecular_charge': 0.0,
              'molecular_multiplicity': 1,
              'name': 'C48H40 ([0],[1])',
              'provenance': {'creator': 'QCElemental',
                             'routine': 'qcelemental.molparse.from_schema',
                             'version': '0.29.0'},
              'real': [True, True, True, True, True, True, True, True, True, True, True, True, True, True, True, True,
                       True, True, True, True, True, True, True, True, True, True, True, True, True, True, True, True,
                       True, True, True, True, True, True, True, True, True, True, True, True, False, False, False,
                       False, False, False, False, False, False, False, False, False, False, False, False, False, False,
                       False, False, False, False, False, False, False, False, False, False, False, False, False, False,
                       False, False, False, False, False, False, False, False, False, False, False, False, False],
              'schema_name': 'qcschema_molecule',
              'schema_version': 2,
              'symbols': ['C', 'C', 'C', 'C', 'C', 'C', 'C', 'C', 'C', 'C', 'C', 'C', 'C', 'C', 'C', 'C', 'C', 'C', 'C',
                          'C', 'C', 'C', 'C', 'C', 'H', 'H', 'H', 'H', 'H', 'H', 'H', 'H', 'H', 'H', 'H', 'H', 'H', 'H',
                          'H', 'H', 'H', 'H', 'H', 'H', 'C', 'C', 'C', 'C', 'C', 'C', 'C', 'C', 'C', 'C', 'C', 'C', 'C',
                          'C', 'C', 'C', 'C', 'C', 'C', 'C', 'C', 'C', 'C', 'C', 'H', 'H', 'H', 'H', 'H', 'H', 'H', 'H',
                          'H', 'H', 'H', 'H', 'H', 'H', 'H', 'H', 'H', 'H', 'H', 'H'],
              'validated': True},
 'protocols': {},
 'provenance': {'creator': 'QCElemental', 'routine': 'qcelemental.models.results', 'version': '0.29.0'},
 'schema_name': 'qcschema_input',
 'schema_version': 1}
--------------------------------------------------------------------------

Scratch directory: /tmp/tmpoxidfsx4_psi_scratch/
   => Libint2 <=

    Primary   basis highest AM E, G, H:  6, 6, 3
    Auxiliary basis highest AM E, G, H:  7, 7, 4
    Onebody   basis highest AM E, G, H:  -, -, -
    Solid Harmonics ordering:            Gaussian

*** tstart() called on atl1-1-03-004-11-2.pace.gatech.edu
*** at Sat Jun 13 15:28:18 2026

   => Loading Basis Set <=

    Name: AUG-CC-PVTZ
    Role: ORBITAL
    Keyword: BASIS
    atoms 1-24, 45-68  entry C          line   239 file /storage/home/hcoda1/5/vlita3/.conda/envs/p4_qcml/share/psi4/basis/aug-cc-pvtz.gbs 
    atoms 25-44, 69-88 entry H          line    40 file /storage/home/hcoda1/5/vlita3/.conda/envs/p4_qcml/share/psi4/basis/aug-cc-pvtz.gbs 


         ---------------------------------------------------------
                                   SCF
               by Justin Turney, Rob Parrish, Andy Simmonett
                          and Daniel G. A. Smith
                              RKS Reference
                       10 Threads, 256000 MiB Core
         ---------------------------------------------------------

  ==> Geometry <==

    Molecular point group: c1
    Full point group: C1

    Geometry (in Bohr), charge = 0, multiplicity = 1:

       Center              X                  Y                   Z               Mass       
    ------------   -----------------  -----------------  -----------------  -----------------
         C           25.479637810000    23.083510490000    43.129689600000    12.000000000000
         C           24.896909540000    20.520123310000    43.887087000000    12.000000000000
         C           25.070571980000    18.486994040000    42.073536410000    12.000000000000
         C           25.842487700000    19.048809440000    39.520136630000    12.000000000000
         C           26.469036070000    21.614526750000    38.851995930000    12.000000000000
         C           26.303188210000    23.593300660000    40.544601030000    12.000000000000
         C           24.465771760000    15.927909200000    42.770360870000    12.000000000000
         C           23.768117170000    15.376956290000    45.408380810000    12.000000000000
         C           23.598594760000    17.388800580000    47.222658440000    12.000000000000
         C           24.108101800000    20.020076710000    46.443464130000    12.000000000000
         C           22.966940770000    16.772676120000    49.771927580000    12.000000000000
         C           22.510627380000    14.291306260000    50.585971850000    12.000000000000
         C           22.674270550000    12.321779990000    48.762315570000    12.000000000000
         C           23.279713060000    12.863093260000    46.252260430000    12.000000000000
         C           25.974674970000    17.072705200000    37.710681540000    12.000000000000
         C           25.347895860000    14.591234630000    38.394370830000    12.000000000000
         C           24.599697080000    14.027751800000    40.887843470000    12.000000000000
         C           25.200399920000    25.058872700000    44.921111260000    12.000000000000
         C           24.353210710000    24.595251030000    47.399460730000    12.000000000000
         C           23.840848770000    22.080992080000    48.127952370000    12.000000000000
         C           21.860468380000    13.695569320000    53.322351710000    12.000000000000
         C           24.045553830000    26.763706540000    49.278897730000    12.000000000000
         C           26.509156330000    27.411789790000    50.733751290000    12.000000000000
         C           26.931085990000    26.270948390000    39.723560460000    12.000000000000
         H           27.103115780000    21.981635650000    36.899069840000     1.007825032230
         H           22.322652990000    10.345837990000    49.336668340000     1.007825032230
         H           23.393720810000    11.283003050000    44.904895040000     1.007825032230
         H           26.576120380000    17.519739590000    35.765961340000     1.007825032230
         H           25.436649360000    13.062039060000    36.978008980000     1.007825032230
         H           24.120029470000    12.058549190000    41.352740800000     1.007825032230
         H           25.628178250000    27.017617670000    44.361717930000     1.007825032230
         H           23.187243320000    21.752196070000    50.076083940000     1.007825032230
         H           23.270131450000    12.385102940000    54.178573280000     1.007825032230
         H           21.796292730000    15.428039660000    54.506877690000     1.007825032230
         H           19.987054020000    12.744872520000    53.475279140000     1.007825032230
         H           22.531679060000    26.281983860000    50.661914800000     1.007825032230
         H           23.380697930000    28.481028980000    48.256122670000     1.007825032230
         H           27.195692660000    25.756506700000    51.833100190000     1.007825032230
         H           28.041562670000    27.969653920000    49.408212630000     1.007825032230
         H           28.391454410000    27.142865100000    40.955135150000     1.007825032230
         H           25.234562060000    27.518974610000    39.798920280000     1.007825032230
         H           27.662079220000    26.299541150000    37.757550150000     1.007825032230
         H           26.202216600000    29.000711950000    52.078089900000     1.007825032230
         H           22.836115370000    18.291349250000    51.188147300000     1.007825032230
      Gh(C)          30.813421930000    18.710179890000    45.993590290000    12.000000000000
      Gh(C)          31.578823900000    19.745559730000    43.580271130000    12.000000000000
      Gh(C)          32.189229210000    22.397465740000    43.360098410000    12.000000000000
      Gh(C)          32.047314730000    23.980561610000    45.575781450000    12.000000000000
      Gh(C)          31.255620950000    22.884853550000    47.941863750000    12.000000000000
      Gh(C)          30.640656550000    20.362968120000    48.197593240000    12.000000000000
      Gh(C)          32.960988580000    23.468755580000    40.980685430000    12.000000000000
      Gh(C)          32.977687900000    21.849817700000    38.715632150000    12.000000000000
      Gh(C)          32.396880510000    19.207546730000    38.927834280000    12.000000000000
      Gh(C)          31.751082620000    18.111964400000    41.410400420000    12.000000000000
      Gh(C)          32.385101480000    17.708590010000    36.688368100000    12.000000000000
      Gh(C)          32.898848690000    18.703884230000    34.286270150000    12.000000000000
      Gh(C)          33.460457470000    21.327874290000    34.106035820000    12.000000000000
      Gh(C)          33.500205440000    22.844137850000    36.264713590000    12.000000000000
      Gh(C)          32.710841680000    26.575199020000    45.394308130000    12.000000000000
      Gh(C)          33.517460540000    27.592296260000    43.083391200000    12.000000000000
      Gh(C)          33.640713650000    26.059331560000    40.907872200000    12.000000000000
      Gh(C)          30.268343150000    16.091662710000    46.167200610000    12.000000000000
      Gh(C)          30.497465480000    14.474318260000    44.069103850000    12.000000000000
      Gh(C)          31.239648410000    15.507577850000    41.725807430000    12.000000000000
      Gh(C)          32.852458580000    17.056601230000    31.930071820000    12.000000000000
      Gh(C)          30.035239600000    11.643867980000    44.339121940000    12.000000000000
      Gh(C)          32.456447310000    10.162768560000    45.086276230000    12.000000000000
      Gh(C)          29.837412290000    19.309373450000    50.744532490000    12.000000000000
      Gh(H)          31.159443530000    24.136923780000    49.605980370000     1.007825032230
      Gh(H)          33.861152590000    22.175472380000    32.240633180000     1.007825032230
      Gh(H)          33.924036130000    24.868284610000    36.039314520000     1.007825032230
      Gh(H)          32.606932640000    27.771442760000    47.100428900000     1.007825032230
      Gh(H)          34.057050160000    29.603312720000    42.956883010000     1.007825032230
      Gh(H)          34.278074760000    26.923081740000    39.126552190000     1.007825032230
      Gh(H)          29.647227910000    15.287136960000    47.983027870000     1.007825032230
      Gh(H)          31.381455070000    14.216153210000    40.102684710000     1.007825032230
      Gh(H)          34.735737000000    17.013088920000    30.986800810000     1.007825032230
      Gh(H)          32.314437750000    15.075477300000    32.371704950000     1.007825032230
      Gh(H)          31.485891230000    17.791222970000    30.505346590000     1.007825032230
      Gh(H)          29.280499330000    10.884780840000    42.526494070000     1.007825032230
      Gh(H)          28.543576180000    11.317994430000    45.786901480000     1.007825032230
      Gh(H)          33.972694550000    10.410591710000    43.649755710000     1.007825032230
      Gh(H)          33.219220700000    10.841257010000    46.924945230000     1.007825032230
      Gh(H)          31.182216520000    17.844652760000    51.440638090000     1.007825032230
      Gh(H)          27.948963570000    18.392733420000    50.643940790000     1.007825032230
      Gh(H)          29.741258730000    20.827140160000    52.190338820000     1.007825032230
      Gh(H)          32.066132320000     8.102977330000    45.267040020000     1.007825032230
      Gh(H)          31.918462080000    15.686526690000    36.818604170000     1.007825032230

  Running in c1 symmetry.

  Rotational constants: A =      0.00210  B =      0.00003  C =      0.00003 [cm^-1]
  Rotational constants: A =     62.96897  B =      0.94325  C =      0.93874 [MHz]
  Nuclear repulsion = 1863.800486968835230

  Charge       = 0
  Multiplicity = 1
  Electrons    = 164
  Nalpha       = 82
  Nbeta        = 82

  ==> Algorithm <==

  SCF Algorithm Type is DF.
  DIIS enabled.
  MOM disabled.
  Fractional occupation disabled.
  Guess Type is SAD.
  Energy threshold   = 1.00e-06
  Density threshold  = 1.00e-06
  Integral threshold = 1.00e-12

  ==> Primary Basis <==

  Basis Set: AUG-CC-PVTZ
    Blend: AUG-CC-PVTZ
    Number of shells: 1032
    Number of basis functions: 3128
    Number of Cartesian functions: 3640
    Spherical Harmonics?: true
    Max angular momentum: 3

  ==> DFT Potential <==

   => LibXC <=

    Version 7.0.0
    S. Lehtola, C. Steigemann, M. J.T. Oliveira, and M. A.L. Marques.,  SoftwareX 7, 1–5 (2018) (10.1016/j.softx.2017.11.002)

   => Composite Functional: WB97X-V <= 

    wB97X-V Hyb-GGA Exchange-Correlation Functional

    N. Mardirossian and M. Head-Gordon.,  Phys. Chem. Chem. Phys. 16, 9904-9924 (2014) (10.1039/C3CP54374A)

    Deriv               =              1
    GGA                 =           TRUE
    Meta                =          FALSE

    Exchange Hybrid     =           TRUE
    MP2 Hybrid          =          FALSE

   => Exchange-Correlation Functionals <=

    1.0000   wB97X-V range-separated functional

   => Exact (HF) Exchange <=

    0.8330            HF,LR [omega = 0.3000]
    0.1670               HF 

   => LibXC Density Thresholds  <==

    XC_HYB_GGA_XC_WB97X_V:  1.00E-14 

   => VV10 Non-Local Parameters <=

    VV10 B              =     6.0000E+00
    VV10 C              =     1.0000E-02

   => Molecular Quadrature <=

    Radial Scheme          =       TREUTLER
    Pruning Scheme         =           NONE
    Nuclear Scheme         =       TREUTLER

    Blocking Scheme        =         OCTREE
    BS radius alpha        =              1
    Pruning alpha          =              1
    Radial Points          =             75
    Spherical Points       =            302
    Total Points           =        1755895
    Total Blocks           =          12038
    Max Points             =            256
    Max Functions          =           2202
    Weights Tolerance      =       1.00E-15

   => Loading Basis Set <=

    Name: (AUG-CC-PVTZ AUX)
    Role: JKFIT
    Keyword: DF_BASIS_SCF
    atoms 1-24, 45-68  entry C          line   162 file /storage/home/hcoda1/5/vlita3/.conda/envs/p4_qcml/share/psi4/basis/aug-cc-pvtz-jkfit.gbs 
    atoms 25-44, 69-88 entry H          line    70 file /storage/home/hcoda1/5/vlita3/.conda/envs/p4_qcml/share/psi4/basis/aug-cc-pvtz-jkfit.gbs 

  ==> Integral Setup <==

  ==> DiskDFJK: Density-Fitted J/K Matrices <==

    J tasked:                  Yes
    K tasked:                  Yes
    wK tasked:                 Yes
    Omega:               3.000E-01
    OpenMP threads:             10
    Integrals threads:          10
    Memory [MiB]:           172800
    Algorithm:                Disk
    Integral Cache:           NONE
    Schwarz Cutoff:          1E-12
    Fitting Condition:       1E-10

   => Auxiliary Basis Set <=

  Basis Set: (AUG-CC-PVTZ AUX)
    Blend: AUG-CC-PVTZ-JKFIT
    Number of shells: 2000
    Number of basis functions: 6832
    Number of Cartesian functions: 8488
    Spherical Harmonics?: true
    Max angular momentum: 4

  Minimum eigenvalue in the overlap matrix is 6.3711160731E-10.
  Reciprocal condition number of the overlap matrix is 1.7895063395E-11.
    Using canonical orthogonalization.
  Overall, 29 of 3128 possible MOs eliminated.


  ==> Pre-Iterations <==

  SCF Guess: Superposition of Atomic Densities via on-the-fly atomic UHF (no occupation information).

   -------------------------
    Irrep   Nso     Nmo    
   -------------------------
     A       3128    3099 
   -------------------------
    Total    3128    3099
   -------------------------

  ==> Iterations <==

                           Total Energy        Delta E     RMS |[F,P]|

   @DF-RKS iter SAD:  -926.27183302108881   -9.26272e+02   0.00000e+00 
   @DF-RKS iter   1:  -925.89200022711839    3.79833e-01   3.95543e-04 ADIIS/DIIS
   @DF-RKS iter   2:  -926.43922826833898   -5.47228e-01   2.37590e-04 ADIIS/DIIS
   @DF-RKS iter   3:  -926.71249198539795   -2.73264e-01   2.65508e-05 DIIS
   @DF-RKS iter   4:  -926.71592732172473   -3.43534e-03   1.58211e-05 DIIS
   @DF-RKS iter   5:  -926.71714928385688   -1.22196e-03   4.31926e-06 DIIS
   @DF-RKS iter   6:  -926.71725074613880   -1.01462e-04   1.45181e-06 DIIS
   @DF-RKS iter   7:  -926.71726473087665   -1.39847e-05   5.05233e-07 DIIS
   @DF-RKS iter   8:  -926.71726758351497   -2.85264e-06   2.10003e-07 DIIS
   @DF-RKS iter   9:  -926.71726818580771   -6.02293e-07   9.89085e-08 DIIS
  Energy and wave function converged.


  ==> Post-Iterations <==

   Electrons on quadrature grid:
      Ntotal   =  164.0007868485 ; deviation = 7.868e-04 

    Orbital Energies [Eh]
    ---------------------

    Doubly Occupied:                                                      

       1A    -10.297570     2A    -10.297259     3A    -10.296135  
       4A    -10.294901     5A    -10.294557     6A    -10.293993  
       7A    -10.293798     8A    -10.293509     9A    -10.292249  
      10A    -10.291489    11A    -10.290539    12A    -10.284276  
      13A    -10.284175    14A    -10.283377    15A    -10.282289  
      16A    -10.281925    17A    -10.281681    18A    -10.281021  
      19A    -10.280984    20A    -10.280050    21A    -10.279823  
      22A    -10.278918    23A    -10.278012    24A    -10.272037  
      25A     -1.026971    26A     -0.993240    27A     -0.985148  
      28A     -0.953554    29A     -0.935850    30A     -0.913617  
      31A     -0.895070    32A     -0.890903    33A     -0.874220  
      34A     -0.848339    35A     -0.842063    36A     -0.813181  
      37A     -0.811028    38A     -0.765207    39A     -0.753881  
      40A     -0.735185    41A     -0.731858    42A     -0.720070  
      43A     -0.695828    44A     -0.658381    45A     -0.647690  
      46A     -0.636293    47A     -0.614763    48A     -0.604122  
      49A     -0.579869    50A     -0.576803    51A     -0.568954  
      52A     -0.556413    53A     -0.554303    54A     -0.543505  
      55A     -0.538830    56A     -0.530953    57A     -0.529320  
      58A     -0.523090    59A     -0.520948    60A     -0.515601  
      61A     -0.511548    62A     -0.505219    63A     -0.490732  
      64A     -0.490488    65A     -0.485188    66A     -0.479554  
      67A     -0.472719    68A     -0.467404    69A     -0.464423  
      70A     -0.460843    71A     -0.450883    72A     -0.445995  
      73A     -0.442101    74A     -0.414713    75A     -0.413592  
      76A     -0.410227    77A     -0.384975    78A     -0.381781  
      79A     -0.333093    80A     -0.332067    81A     -0.296920  
      82A     -0.276870  

    Virtual:                                                              

      83A      0.003684    84A      0.018919    85A      0.022629  
      86A      0.023769    87A      0.025938    88A      0.028893  
      89A      0.031385    90A      0.032586    91A      0.036318  
      92A      0.036669    93A      0.041430    94A      0.041879  
      95A      0.043619    96A      0.045922    97A      0.048083  
      98A      0.049323    99A      0.051313   100A      0.052786  
     101A      0.055275   102A      0.056206   103A      0.057305  
     104A      0.060387   105A      0.062262   106A      0.063223  
     107A      0.064199   108A      0.066550   109A      0.067378  
     110A      0.069387   111A      0.071620   112A      0.073389  
     113A      0.074222   114A      0.076717   115A      0.077967  
     116A      0.078302   117A      0.082035   118A      0.083059  
     119A      0.085050   120A      0.086567   121A      0.089379  
     122A      0.090732   123A      0.091646   124A      0.092309  
     125A      0.095044   126A      0.096679   127A      0.098834  
     128A      0.099171   129A      0.100144   130A      0.101706  
     131A      0.103287   132A      0.104196   133A      0.105723  
     134A      0.105898   135A      0.108787   136A      0.110412  
     137A      0.112871   138A      0.113775   139A      0.113996  
     140A      0.114935   141A      0.115851   142A      0.117096  
     143A      0.119932   144A      0.120497   145A      0.121421  
     146A      0.122779   147A      0.124645   148A      0.125742  
     149A      0.128316   150A      0.128831   151A      0.130336  
     152A      0.133103   153A      0.134948   154A      0.135472  
     155A      0.136348   156A      0.138386   157A      0.139507  
     158A      0.139994   159A      0.140968   160A      0.142797  
     161A      0.144007   162A      0.145063   163A      0.145681  
     164A      0.147968   165A      0.148865   166A      0.150426  
     167A      0.152444   168A      0.153301   169A      0.154537  
     170A      0.156391   171A      0.157357   172A      0.158882  
     173A      0.161481   174A      0.162718   175A      0.163128  
     176A      0.164199   177A      0.165120   178A      0.167232  
     179A      0.167327   180A      0.169307   181A      0.170742  
     182A      0.171788   183A      0.174056   184A      0.176667  
     185A      0.176766   186A      0.177170   187A      0.178452  
     188A      0.178948   189A      0.180382   190A      0.181615  
     191A      0.183299   192A      0.184008   193A      0.185399  
     194A      0.186994   195A      0.190124   196A      0.191362  
     197A      0.192058   198A      0.192388   199A      0.193525  
     200A      0.196827   201A      0.197227   202A      0.198350  
     203A      0.199462   204A      0.201259   205A      0.201974  
     206A      0.202605   207A      0.205677   208A      0.206469  
     209A      0.208581   210A      0.209938   211A      0.211064  
     212A      0.212776   213A      0.213647   214A      0.214885  
     215A      0.217180   216A      0.218054   217A      0.219046  
     218A      0.222095   219A      0.222972   220A      0.223922  
     221A      0.225100   222A      0.226538   223A      0.227366  
     224A      0.229031   225A      0.230585   226A      0.231198  
     227A      0.231778   228A      0.233086   229A      0.234289  
     230A      0.234764   231A      0.236706   232A      0.238651  
     233A      0.239486   234A      0.241058   235A      0.241163  
     236A      0.242646   237A      0.243495   238A      0.243581  
     239A      0.245552   240A      0.246895   241A      0.247658  
     242A      0.249923   243A      0.251695   244A      0.252368  
     245A      0.253557   246A      0.254044   247A      0.256697  
     248A      0.257052   249A      0.257902   250A      0.259183  
     251A      0.262426   252A      0.262838   253A      0.263711  
     254A      0.265464   255A      0.266936   256A      0.267999  
     257A      0.268297   258A      0.268956   259A      0.272774  
     260A      0.273696   261A      0.274770   262A      0.275123  
     263A      0.277512   264A      0.277920   265A      0.278679  
     266A      0.281028   267A      0.281719   268A      0.282485  
     269A      0.283297   270A      0.284005   271A      0.284857  
     272A      0.287668   273A      0.287996   274A      0.289360  
     275A      0.291091   276A      0.292679   277A      0.294363  
     278A      0.294816   279A      0.296967   280A      0.297828  
     281A      0.298659   282A      0.298904   283A      0.299957  
     284A      0.301010   285A      0.302620   286A      0.303903  
     287A      0.304940   288A      0.306426   289A      0.307729  
     290A      0.309912   291A      0.311147   292A      0.312150  
     293A      0.313084   294A      0.313172   295A      0.314812  
     296A      0.317208   297A      0.319839   298A      0.320259  
     299A      0.321129   300A      0.322897   301A      0.323208  
     302A      0.324329   303A      0.324894   304A      0.328658  
     305A      0.329101   306A      0.331224   307A      0.331840  
     308A      0.333737   309A      0.335419   310A      0.337596  
     311A      0.338727   312A      0.339690   313A      0.340557  
     314A      0.341055   315A      0.341591   316A      0.343004  
     317A      0.344122   318A      0.345862   319A      0.346474  
     320A      0.348080   321A      0.348476   322A      0.350966  
     323A      0.351915   324A      0.352825   325A      0.354109  
     326A      0.355005   327A      0.356769   328A      0.357810  
     329A      0.359209   330A      0.359750   331A      0.362665  
     332A      0.362918   333A      0.365611   334A      0.366638  
     335A      0.369229   336A      0.369494   337A      0.370434  
     338A      0.371598   339A      0.372317   340A      0.373970  
     341A      0.374857   342A      0.375660   343A      0.378152  
     344A      0.381241   345A      0.382514   346A      0.383466  
     347A      0.384168   348A      0.386469   349A      0.387223  
     350A      0.387922   351A      0.389221   352A      0.390775  
     353A      0.392505   354A      0.394149   355A      0.395178  
     356A      0.396452   357A      0.396724   358A      0.400228  
     359A      0.400755   360A      0.401433   361A      0.402563  
     362A      0.403661   363A      0.404392   364A      0.405015  
     365A      0.406940   366A      0.408152   367A      0.410030  
     368A      0.412238   369A      0.412956   370A      0.414490  
     371A      0.414945   372A      0.417048   373A      0.419544  
     374A      0.420581   375A      0.421405   376A      0.422133  
     377A      0.423235   378A      0.424764   379A      0.425637  
     380A      0.427721   381A      0.428158   382A      0.428849  
     383A      0.432137   384A      0.433504   385A      0.435271  
     386A      0.437005   387A      0.437788   388A      0.438847  
     389A      0.440302   390A      0.441269   391A      0.441897  
     392A      0.442963   393A      0.443906   394A      0.447295  
     395A      0.449820   396A      0.451000   397A      0.451682  
     398A      0.452231   399A      0.453681   400A      0.455307  
     401A      0.456459   402A      0.456843   403A      0.459095  
     404A      0.459866   405A      0.461636   406A      0.462754  
     407A      0.463662   408A      0.465487   409A      0.467044  
     410A      0.468454   411A      0.468723   412A      0.470135  
     413A      0.471734   414A      0.473310   415A      0.475159  
     416A      0.475755   417A      0.477183   418A      0.478359  
     419A      0.479061   420A      0.481428   421A      0.482350  
     422A      0.483415   423A      0.484384   424A      0.486344  
     425A      0.487299   426A      0.489225   427A      0.489861  
     428A      0.490797   429A      0.491703   430A      0.492836  
     431A      0.493496   432A      0.494899   433A      0.496151  
     434A      0.497519   435A      0.498922   436A      0.500945  
     437A      0.501958   438A      0.503169   439A      0.504494  
     440A      0.505079   441A      0.505389   442A      0.507008  
     443A      0.508456   444A      0.509350   445A      0.510791  
     446A      0.512082   447A      0.512342   448A      0.512633  
     449A      0.514607   450A      0.515059   451A      0.515613  
     452A      0.517585   453A      0.518796   454A      0.519380  
     455A      0.522460   456A      0.523309   457A      0.524110  
     458A      0.526078   459A      0.527488   460A      0.528258  
     461A      0.528700   462A      0.530520   463A      0.531008  
     464A      0.531835   465A      0.533638   466A      0.534839  
     467A      0.535948   468A      0.537385   469A      0.538618  
     470A      0.539936   471A      0.540442   472A      0.541350  
     473A      0.544100   474A      0.544982   475A      0.545772  
     476A      0.547006   477A      0.547692   478A      0.549811  
     479A      0.550795   480A      0.552696   481A      0.553037  
     482A      0.554157   483A      0.556005   484A      0.556851  
     485A      0.557982   486A      0.558455   487A      0.561033  
     488A      0.562483   489A      0.563373   490A      0.564097  
     491A      0.565905   492A      0.567513   493A      0.569119  
     494A      0.570710   495A      0.572148   496A      0.573304  
     497A      0.575219   498A      0.576430   499A      0.576765  
     500A      0.579035   501A      0.580357   502A      0.582375  
     503A      0.583492   504A      0.584101   505A      0.584486  
     506A      0.586438   507A      0.587144   508A      0.589316  
     509A      0.590041   510A      0.591193   511A      0.592788  
     512A      0.594137   513A      0.597722   514A      0.598580  
     515A      0.599746   516A      0.600378   517A      0.601444  
     518A      0.602955   519A      0.604746   520A      0.605857  
     521A      0.608068   522A      0.609035   523A      0.610898  
     524A      0.612005   525A      0.613077   526A      0.614469  
     527A      0.616075   528A      0.619582   529A      0.619894  
     530A      0.620953   531A      0.621818   532A      0.623204  
     533A      0.625233   534A      0.626925   535A      0.628367  
     536A      0.628474   537A      0.629536   538A      0.631375  
     539A      0.633202   540A      0.635173   541A      0.635769  
     542A      0.638283   543A      0.638986   544A      0.641086  
     545A      0.641795   546A      0.644857   547A      0.646222  
     548A      0.648025   549A      0.648969   550A      0.649992  
     551A      0.651309   552A      0.653310   553A      0.655086  
     554A      0.655729   555A      0.656597   556A      0.657346  
     557A      0.659471   558A      0.660543   559A      0.661680  
     560A      0.664555   561A      0.666521   562A      0.668803  
     563A      0.669248   564A      0.670760   565A      0.671967  
     566A      0.672284   567A      0.673962   568A      0.676082  
     569A      0.677400   570A      0.679447   571A      0.680528  
     572A      0.683551   573A      0.685401   574A      0.686787  
     575A      0.687773   576A      0.688952   577A      0.690276  
     578A      0.692898   579A      0.694866   580A      0.695761  
     581A      0.696139   582A      0.697103   583A      0.699471  
     584A      0.700616   585A      0.701342   586A      0.703600  
     587A      0.704800   588A      0.706510   589A      0.708473  
     590A      0.709528   591A      0.711146   592A      0.712188  
     593A      0.714995   594A      0.716131   595A      0.717375  
     596A      0.717614   597A      0.719812   598A      0.723120  
     599A      0.723420   600A      0.724546   601A      0.726563  
     602A      0.726968   603A      0.729931   604A      0.730977  
     605A      0.731266   606A      0.733865   607A      0.735493  
     608A      0.735986   609A      0.738117   610A      0.741079  
     611A      0.742520   612A      0.743135   613A      0.746092  
     614A      0.746752   615A      0.747567   616A      0.748881  
     617A      0.751038   618A      0.753319   619A      0.754113  
     620A      0.755144   621A      0.755782   622A      0.756690  
     623A      0.759023   624A      0.759942   625A      0.762612  
     626A      0.764187   627A      0.765382   628A      0.766992  
     629A      0.768544   630A      0.768894   631A      0.770729  
     632A      0.772556   633A      0.774022   634A      0.774593  
     635A      0.776709   636A      0.777184   637A      0.778757  
     638A      0.780651   639A      0.782855   640A      0.783370  
     641A      0.785487   642A      0.786050   643A      0.786644  
     644A      0.789449   645A      0.790277   646A      0.792065  
     647A      0.792781   648A      0.794177   649A      0.795640  
     650A      0.797823   651A      0.798761   652A      0.800332  
     653A      0.801882   654A      0.802621   655A      0.804507  
     656A      0.806550   657A      0.807914   658A      0.808326  
     659A      0.812284   660A      0.812589   661A      0.814464  
     662A      0.814911   663A      0.816925   664A      0.819533  
     665A      0.821686   666A      0.822297   667A      0.822987  
     668A      0.824628   669A      0.825136   670A      0.827735  
     671A      0.828067   672A      0.828703   673A      0.831388  
     674A      0.833822   675A      0.835922   676A      0.837584  
     677A      0.838429   678A      0.839816   679A      0.841347  
     680A      0.841872   681A      0.842804   682A      0.845321  
     683A      0.848252   684A      0.848744   685A      0.850120  
     686A      0.851040   687A      0.852962   688A      0.853913  
     689A      0.855210   690A      0.858051   691A      0.859084  
     692A      0.860075   693A      0.861413   694A      0.862031  
     695A      0.864875   696A      0.865996   697A      0.866657  
     698A      0.868499   699A      0.869620   700A      0.870566  
     701A      0.872911   702A      0.873353   703A      0.875328  
     704A      0.876064   705A      0.877689   706A      0.879441  
     707A      0.881579   708A      0.882788   709A      0.883904  
     710A      0.886977   711A      0.888127   712A      0.889158  
     713A      0.889629   714A      0.892985   715A      0.894304  
     716A      0.896389   717A      0.897197   718A      0.898725  
     719A      0.899283   720A      0.900150   721A      0.900814  
     722A      0.902884   723A      0.905665   724A      0.906961  
     725A      0.908434   726A      0.910817   727A      0.911363  
     728A      0.913397   729A      0.914674   730A      0.916551  
     731A      0.917966   732A      0.919346   733A      0.919945  
     734A      0.921541   735A      0.923128   736A      0.924422  
     737A      0.927257   738A      0.927646   739A      0.928505  
     740A      0.931374   741A      0.932922   742A      0.934077  
     743A      0.935466   744A      0.936511   745A      0.937123  
     746A      0.940097   747A      0.941406   748A      0.942513  
     749A      0.943473   750A      0.944075   751A      0.947518  
     752A      0.947683   753A      0.948047   754A      0.950718  
     755A      0.951976   756A      0.954409   757A      0.955858  
     758A      0.956456   759A      0.958107   760A      0.959124  
     761A      0.959995   762A      0.960824   763A      0.962788  
     764A      0.963615   765A      0.965219   766A      0.966642  
     767A      0.967323   768A      0.969592   769A      0.971077  
     770A      0.972329   771A      0.973643   772A      0.974522  
     773A      0.977869   774A      0.980091   775A      0.981016  
     776A      0.981502   777A      0.982443   778A      0.984464  
     779A      0.987272   780A      0.988214   781A      0.989312  
     782A      0.990351   783A      0.993404   784A      0.995053  
     785A      0.995729   786A      0.996212   787A      0.999730  
     788A      1.000383   789A      1.001215   790A      1.003353  
     791A      1.004705   792A      1.006632   793A      1.006806  
     794A      1.008603   795A      1.010973   796A      1.012967  
     797A      1.014492   798A      1.015726   799A      1.016129  
     800A      1.018287   801A      1.019193   802A      1.019556  
     803A      1.023055   804A      1.023549   805A      1.025104  
     806A      1.025953   807A      1.029268   808A      1.030446  
     809A      1.030904   810A      1.032169   811A      1.035579  
     812A      1.037873   813A      1.039726   814A      1.040888  
     815A      1.042246   816A      1.044108   817A      1.045786  
     818A      1.047330   819A      1.048990   820A      1.051390  
     821A      1.052414   822A      1.053366   823A      1.056502  
     824A      1.058563   825A      1.058991   826A      1.059608  
     827A      1.060978   828A      1.061441   829A      1.062846  
     830A      1.066605   831A      1.067416   832A      1.068500  
     833A      1.069347   834A      1.069483   835A      1.073688  
     836A      1.075498   837A      1.076231   838A      1.078410  
     839A      1.079691   840A      1.080499   841A      1.081666  
     842A      1.084468   843A      1.085655   844A      1.086986  
     845A      1.088326   846A      1.090029   847A      1.090343  
     848A      1.092170   849A      1.093911   850A      1.096908  
     851A      1.097320   852A      1.098042   853A      1.099279  
     854A      1.102644   855A      1.104370   856A      1.105800  
     857A      1.107253   858A      1.109116   859A      1.110245  
     860A      1.112723   861A      1.114452   862A      1.116250  
     863A      1.117343   864A      1.118810   865A      1.120211  
     866A      1.122462   867A      1.124615   868A      1.125286  
     869A      1.126864   870A      1.127344   871A      1.127887  
     872A      1.129802   873A      1.132503   874A      1.133540  
     875A      1.134236   876A      1.136599   877A      1.138234  
     878A      1.138963   879A      1.141114   880A      1.141743  
     881A      1.143294   882A      1.145483   883A      1.146455  
     884A      1.146724   885A      1.149668   886A      1.150312  
     887A      1.152573   888A      1.152784   889A      1.155015  
     890A      1.156514   891A      1.158036   892A      1.160048  
     893A      1.161888   894A      1.162331   895A      1.162403  
     896A      1.165905   897A      1.167021   898A      1.168468  
     899A      1.169883   900A      1.171501   901A      1.172902  
     902A      1.175521   903A      1.178312   904A      1.179114  
     905A      1.181710   906A      1.182082   907A      1.184164  
     908A      1.184886   909A      1.186278   910A      1.187778  
     911A      1.190428   912A      1.190879   913A      1.191570  
     914A      1.193134   915A      1.195638   916A      1.197421  
     917A      1.197996   918A      1.199597   919A      1.201117  
     920A      1.202628   921A      1.204456   922A      1.207420  
     923A      1.208529   924A      1.210006   925A      1.210996  
     926A      1.212616   927A      1.215818   928A      1.218061  
     929A      1.218247   930A      1.219563   931A      1.222110  
     932A      1.222853   933A      1.225861   934A      1.227356  
     935A      1.227459   936A      1.228536   937A      1.230818  
     938A      1.232832   939A      1.235016   940A      1.236053  
     941A      1.240185   942A      1.240749   943A      1.241632  
     944A      1.242096   945A      1.245512   946A      1.246702  
     947A      1.248157   948A      1.249993   949A      1.252952  
     950A      1.253817   951A      1.256839   952A      1.257842  
     953A      1.259961   954A      1.260190   955A      1.262529  
     956A      1.263697   957A      1.265464   958A      1.266188  
     959A      1.269868   960A      1.270947   961A      1.271613  
     962A      1.273184   963A      1.275864   964A      1.276882  
     965A      1.278109   966A      1.280385   967A      1.282645  
     968A      1.282911   969A      1.285057   970A      1.286053  
     971A      1.287150   972A      1.287446   973A      1.288767  
     974A      1.292644   975A      1.294451   976A      1.296937  
     977A      1.297760   978A      1.300010   979A      1.301272  
     980A      1.301918   981A      1.303867   982A      1.306066  
     983A      1.307399   984A      1.309418   985A      1.310217  
     986A      1.313174   987A      1.313699   988A      1.314705  
     989A      1.316569   990A      1.317190   991A      1.319985  
     992A      1.321294   993A      1.322270   994A      1.322815  
     995A      1.324258   996A      1.326235   997A      1.326986  
     998A      1.328309   999A      1.329914  1000A      1.331546  
    1001A      1.332651  1002A      1.334133  1003A      1.336703  
    1004A      1.338006  1005A      1.340873  1006A      1.341187  
    1007A      1.344175  1008A      1.345197  1009A      1.347859  
    1010A      1.349423  1011A      1.349571  1012A      1.351321  
    1013A      1.351801  1014A      1.354441  1015A      1.355243  
    1016A      1.355691  1017A      1.357323  1018A      1.358791  
    1019A      1.361633  1020A      1.362839  1021A      1.364509  
    1022A      1.365991  1023A      1.368457  1024A      1.371017  
    1025A      1.372801  1026A      1.373752  1027A      1.374800  
    1028A      1.376775  1029A      1.378798  1030A      1.381265  
    1031A      1.382807  1032A      1.383521  1033A      1.386079  
    1034A      1.386946  1035A      1.388389  1036A      1.389869  
    1037A      1.391704  1038A      1.392113  1039A      1.394321  
    1040A      1.395733  1041A      1.396362  1042A      1.397723  
    1043A      1.399592  1044A      1.400673  1045A      1.401885  
    1046A      1.404943  1047A      1.405327  1048A      1.407112  
    1049A      1.410379  1050A      1.411180  1051A      1.412732  
    1052A      1.413110  1053A      1.413601  1054A      1.417712  
    1055A      1.418544  1056A      1.420069  1057A      1.421643  
    1058A      1.422487  1059A      1.425014  1060A      1.427478  
    1061A      1.429121  1062A      1.431461  1063A      1.433228  
    1064A      1.434159  1065A      1.436260  1066A      1.437594  
    1067A      1.439201  1068A      1.439964  1069A      1.441558  
    1070A      1.444630  1071A      1.445878  1072A      1.446766  
    1073A      1.448995  1074A      1.450275  1075A      1.451264  
    1076A      1.452930  1077A      1.455126  1078A      1.456126  
    1079A      1.457692  1080A      1.458022  1081A      1.462081  
    1082A      1.462989  1083A      1.464669  1084A      1.465261  
    1085A      1.466213  1086A      1.468397  1087A      1.469547  
    1088A      1.471272  1089A      1.472528  1090A      1.474484  
    1091A      1.475517  1092A      1.476812  1093A      1.479600  
    1094A      1.480266  1095A      1.481234  1096A      1.482773  
    1097A      1.484434  1098A      1.487148  1099A      1.488713  
    1100A      1.490477  1101A      1.492937  1102A      1.494677  
    1103A      1.496062  1104A      1.497175  1105A      1.498189  
    1106A      1.499661  1107A      1.500483  1108A      1.501831  
    1109A      1.504568  1110A      1.505592  1111A      1.506966  
    1112A      1.509829  1113A      1.511206  1114A      1.513877  
    1115A      1.514692  1116A      1.515631  1117A      1.517160  
    1118A      1.517833  1119A      1.520346  1120A      1.523118  
    1121A      1.524269  1122A      1.525090  1123A      1.526322  
    1124A      1.529007  1125A      1.529933  1126A      1.531906  
    1127A      1.533314  1128A      1.534989  1129A      1.536431  
    1130A      1.537796  1131A      1.540016  1132A      1.541339  
    1133A      1.543837  1134A      1.544258  1135A      1.546491  
    1136A      1.547432  1137A      1.550404  1138A      1.551096  
    1139A      1.552365  1140A      1.553212  1141A      1.555947  
    1142A      1.556521  1143A      1.557364  1144A      1.560580  
    1145A      1.561664  1146A      1.562401  1147A      1.564695  
    1148A      1.566396  1149A      1.567380  1150A      1.569355  
    1151A      1.570142  1152A      1.572568  1153A      1.573003  
    1154A      1.574228  1155A      1.576927  1156A      1.578519  
    1157A      1.579201  1158A      1.580269  1159A      1.581472  
    1160A      1.582738  1161A      1.583665  1162A      1.587275  
    1163A      1.587868  1164A      1.590521  1165A      1.591348  
    1166A      1.591924  1167A      1.595568  1168A      1.596120  
    1169A      1.597205  1170A      1.598818  1171A      1.600058  
    1172A      1.601957  1173A      1.602983  1174A      1.604561  
    1175A      1.606491  1176A      1.606596  1177A      1.608680  
    1178A      1.610824  1179A      1.613781  1180A      1.613798  
    1181A      1.615855  1182A      1.617857  1183A      1.619576  
    1184A      1.622199  1185A      1.624264  1186A      1.625200  
    1187A      1.627531  1188A      1.628718  1189A      1.630180  
    1190A      1.631594  1191A      1.633812  1192A      1.636297  
    1193A      1.636876  1194A      1.639213  1195A      1.639410  
    1196A      1.641917  1197A      1.642743  1198A      1.644225  
    1199A      1.646059  1200A      1.647894  1201A      1.648488  
    1202A      1.650388  1203A      1.652706  1204A      1.653830  
    1205A      1.654981  1206A      1.655773  1207A      1.656314  
    1208A      1.660387  1209A      1.661676  1210A      1.663296  
    1211A      1.665575  1212A      1.666668  1213A      1.667858  
    1214A      1.669547  1215A      1.670780  1216A      1.671862  
    1217A      1.675494  1218A      1.677181  1219A      1.679084  
    1220A      1.679293  1221A      1.681660  1222A      1.682748  
    1223A      1.684086  1224A      1.684842  1225A      1.685199  
    1226A      1.688270  1227A      1.690935  1228A      1.691466  
    1229A      1.693359  1230A      1.694667  1231A      1.695085  
    1232A      1.697115  1233A      1.699061  1234A      1.701337  
    1235A      1.705341  1236A      1.705822  1237A      1.707094  
    1238A      1.708413  1239A      1.708992  1240A      1.710033  
    1241A      1.712193  1242A      1.713296  1243A      1.714710  
    1244A      1.716663  1245A      1.719383  1246A      1.721432  
    1247A      1.723823  1248A      1.724800  1249A      1.726532  
    1250A      1.727301  1251A      1.728081  1252A      1.730186  
    1253A      1.731406  1254A      1.735631  1255A      1.736312  
    1256A      1.737099  1257A      1.738998  1258A      1.739602  
    1259A      1.742948  1260A      1.744227  1261A      1.746134  
    1262A      1.746954  1263A      1.747510  1264A      1.750158  
    1265A      1.750564  1266A      1.751894  1267A      1.755074  
    1268A      1.756033  1269A      1.757203  1270A      1.761046  
    1271A      1.762613  1272A      1.764400  1273A      1.764840  
    1274A      1.767500  1275A      1.768244  1276A      1.770677  
    1277A      1.772425  1278A      1.773373  1279A      1.775450  
    1280A      1.778577  1281A      1.778824  1282A      1.781156  
    1283A      1.782564  1284A      1.785030  1285A      1.786863  
    1286A      1.788488  1287A      1.790378  1288A      1.792314  
    1289A      1.794729  1290A      1.797818  1291A      1.798494  
    1292A      1.800185  1293A      1.802136  1294A      1.804576  
    1295A      1.806060  1296A      1.806795  1297A      1.808164  
    1298A      1.810323  1299A      1.810713  1300A      1.812608  
    1301A      1.813596  1302A      1.815286  1303A      1.815770  
    1304A      1.818258  1305A      1.819534  1306A      1.820691  
    1307A      1.825408  1308A      1.825868  1309A      1.828207  
    1310A      1.830323  1311A      1.831385  1312A      1.833155  
    1313A      1.834463  1314A      1.836872  1315A      1.840221  
    1316A      1.840787  1317A      1.841609  1318A      1.843101  
    1319A      1.845206  1320A      1.845988  1321A      1.846146  
    1322A      1.848320  1323A      1.852037  1324A      1.855455  
    1325A      1.857036  1326A      1.858268  1327A      1.861935  
    1328A      1.863265  1329A      1.864896  1330A      1.866027  
    1331A      1.867158  1332A      1.868422  1333A      1.869684  
    1334A      1.872699  1335A      1.873206  1336A      1.874838  
    1337A      1.878676  1338A      1.880693  1339A      1.881291  
    1340A      1.882231  1341A      1.886970  1342A      1.888870  
    1343A      1.889566  1344A      1.890599  1345A      1.892131  
    1346A      1.892582  1347A      1.895922  1348A      1.897527  
    1349A      1.898730  1350A      1.899467  1351A      1.903043  
    1352A      1.904498  1353A      1.906244  1354A      1.908250  
    1355A      1.909313  1356A      1.910202  1357A      1.913749  
    1358A      1.915754  1359A      1.919017  1360A      1.919990  
    1361A      1.920949  1362A      1.922139  1363A      1.923103  
    1364A      1.925998  1365A      1.928318  1366A      1.930170  
    1367A      1.931847  1368A      1.933695  1369A      1.935477  
    1370A      1.936869  1371A      1.939816  1372A      1.942020  
    1373A      1.943733  1374A      1.944857  1375A      1.945153  
    1376A      1.948096  1377A      1.950542  1378A      1.952724  
    1379A      1.955466  1380A      1.956186  1381A      1.958230  
    1382A      1.959713  1383A      1.961742  1384A      1.963843  
    1385A      1.966126  1386A      1.967168  1387A      1.969514  
    1388A      1.970161  1389A      1.973574  1390A      1.974837  
    1391A      1.975811  1392A      1.977760  1393A      1.979854  
    1394A      1.981383  1395A      1.982007  1396A      1.984253  
    1397A      1.985642  1398A      1.988278  1399A      1.989290  
    1400A      1.990674  1401A      1.993499  1402A      1.996829  
    1403A      1.999223  1404A      2.001600  1405A      2.003423  
    1406A      2.003790  1407A      2.005188  1408A      2.005809  
    1409A      2.008733  1410A      2.010789  1411A      2.011679  
    1412A      2.013920  1413A      2.016729  1414A      2.017103  
    1415A      2.018459  1416A      2.022434  1417A      2.022772  
    1418A      2.024364  1419A      2.027978  1420A      2.029348  
    1421A      2.031812  1422A      2.033862  1423A      2.035281  
    1424A      2.036216  1425A      2.038133  1426A      2.041124  
    1427A      2.043135  1428A      2.044801  1429A      2.046422  
    1430A      2.047402  1431A      2.048149  1432A      2.051227  
    1433A      2.053447  1434A      2.053723  1435A      2.056889  
    1436A      2.058315  1437A      2.061105  1438A      2.061757  
    1439A      2.064241  1440A      2.066017  1441A      2.067929  
    1442A      2.070674  1443A      2.072209  1444A      2.075134  
    1445A      2.075993  1446A      2.076753  1447A      2.077605  
    1448A      2.079416  1449A      2.083121  1450A      2.084223  
    1451A      2.085682  1452A      2.089619  1453A      2.090108  
    1454A      2.091257  1455A      2.093243  1456A      2.095157  
    1457A      2.098059  1458A      2.101738  1459A      2.102648  
    1460A      2.104416  1461A      2.104767  1462A      2.110569  
    1463A      2.111040  1464A      2.114034  1465A      2.117174  
    1466A      2.118732  1467A      2.119543  1468A      2.120630  
    1469A      2.122622  1470A      2.124602  1471A      2.126619  
    1472A      2.128145  1473A      2.130813  1474A      2.134619  
    1475A      2.136070  1476A      2.138841  1477A      2.139331  
    1478A      2.140129  1479A      2.141050  1480A      2.144876  
    1481A      2.146240  1482A      2.148744  1483A      2.149739  
    1484A      2.151512  1485A      2.154951  1486A      2.156585  
    1487A      2.158554  1488A      2.160265  1489A      2.162870  
    1490A      2.164594  1491A      2.167769  1492A      2.168999  
    1493A      2.171763  1494A      2.173106  1495A      2.175896  
    1496A      2.177070  1497A      2.178262  1498A      2.181845  
    1499A      2.183769  1500A      2.185222  1501A      2.186668  
    1502A      2.188391  1503A      2.190321  1504A      2.191104  
    1505A      2.194192  1506A      2.196632  1507A      2.198309  
    1508A      2.200116  1509A      2.201334  1510A      2.203066  
    1511A      2.204987  1512A      2.206211  1513A      2.212126  
    1514A      2.214950  1515A      2.217491  1516A      2.218202  
    1517A      2.221670  1518A      2.221981  1519A      2.225582  
    1520A      2.226097  1521A      2.229047  1522A      2.230301  
    1523A      2.233195  1524A      2.235687  1525A      2.237212  
    1526A      2.241148  1527A      2.241646  1528A      2.243412  
    1529A      2.245236  1530A      2.246930  1531A      2.247346  
    1532A      2.249870  1533A      2.251744  1534A      2.255060  
    1535A      2.257463  1536A      2.258750  1537A      2.262753  
    1538A      2.264431  1539A      2.267270  1540A      2.268508  
    1541A      2.271240  1542A      2.274234  1543A      2.274655  
    1544A      2.280016  1545A      2.281729  1546A      2.285212  
    1547A      2.286614  1548A      2.290127  1549A      2.290687  
    1550A      2.292361  1551A      2.294782  1552A      2.297354  
    1553A      2.299893  1554A      2.301171  1555A      2.304432  
    1556A      2.305556  1557A      2.308939  1558A      2.311256  
    1559A      2.314081  1560A      2.315836  1561A      2.320805  
    1562A      2.323056  1563A      2.325687  1564A      2.327945  
    1565A      2.330362  1566A      2.331875  1567A      2.332920  
    1568A      2.335491  1569A      2.337375  1570A      2.339380  
    1571A      2.341835  1572A      2.344886  1573A      2.345384  
    1574A      2.347220  1575A      2.349355  1576A      2.350415  
    1577A      2.351377  1578A      2.358345  1579A      2.358642  
    1580A      2.359549  1581A      2.363357  1582A      2.365205  
    1583A      2.369813  1584A      2.370783  1585A      2.374441  
    1586A      2.375122  1587A      2.377268  1588A      2.379662  
    1589A      2.380973  1590A      2.381753  1591A      2.385625  
    1592A      2.387969  1593A      2.389299  1594A      2.391157  
    1595A      2.394457  1596A      2.395992  1597A      2.396328  
    1598A      2.399278  1599A      2.401529  1600A      2.405400  
    1601A      2.407300  1602A      2.408156  1603A      2.408910  
    1604A      2.409975  1605A      2.413703  1606A      2.415343  
    1607A      2.420058  1608A      2.421203  1609A      2.424064  
    1610A      2.425721  1611A      2.429119  1612A      2.431493  
    1613A      2.433548  1614A      2.436177  1615A      2.438624  
    1616A      2.441638  1617A      2.444425  1618A      2.446279  
    1619A      2.448337  1620A      2.449266  1621A      2.452267  
    1622A      2.454593  1623A      2.456276  1624A      2.457571  
    1625A      2.459578  1626A      2.462778  1627A      2.465097  
    1628A      2.466561  1629A      2.471150  1630A      2.473487  
    1631A      2.474124  1632A      2.476943  1633A      2.484750  
    1634A      2.486459  1635A      2.487394  1636A      2.488375  
    1637A      2.491734  1638A      2.494875  1639A      2.497476  
    1640A      2.499671  1641A      2.502424  1642A      2.504008  
    1643A      2.506493  1644A      2.510240  1645A      2.513727  
    1646A      2.515829  1647A      2.519596  1648A      2.520704  
    1649A      2.522795  1650A      2.524983  1651A      2.526189  
    1652A      2.527947  1653A      2.531480  1654A      2.532719  
    1655A      2.538788  1656A      2.540156  1657A      2.541066  
    1658A      2.543664  1659A      2.546325  1660A      2.549155  
    1661A      2.551767  1662A      2.556007  1663A      2.556965  
    1664A      2.560554  1665A      2.561712  1666A      2.563392  
    1667A      2.565624  1668A      2.567677  1669A      2.571060  
    1670A      2.573803  1671A      2.576076  1672A      2.578744  
    1673A      2.581412  1674A      2.584105  1675A      2.585492  
    1676A      2.588582  1677A      2.591508  1678A      2.593846  
    1679A      2.595731  1680A      2.599319  1681A      2.601831  
    1682A      2.605424  1683A      2.606500  1684A      2.609055  
    1685A      2.610353  1686A      2.614693  1687A      2.615503  
    1688A      2.619306  1689A      2.619858  1690A      2.626168  
    1691A      2.626671  1692A      2.627951  1693A      2.630658  
    1694A      2.635252  1695A      2.639496  1696A      2.641268  
    1697A      2.642656  1698A      2.643769  1699A      2.645651  
    1700A      2.649876  1701A      2.655382  1702A      2.656663  
    1703A      2.659436  1704A      2.661592  1705A      2.664093  
    1706A      2.667779  1707A      2.668658  1708A      2.672665  
    1709A      2.674943  1710A      2.677364  1711A      2.681077  
    1712A      2.682139  1713A      2.683344  1714A      2.685436  
    1715A      2.688708  1716A      2.691133  1717A      2.691825  
    1718A      2.698392  1719A      2.699271  1720A      2.702006  
    1721A      2.706335  1722A      2.708357  1723A      2.711154  
    1724A      2.715754  1725A      2.717261  1726A      2.718880  
    1727A      2.722218  1728A      2.725739  1729A      2.726660  
    1730A      2.727030  1731A      2.731563  1732A      2.735040  
    1733A      2.737555  1734A      2.739159  1735A      2.740141  
    1736A      2.746258  1737A      2.747142  1738A      2.749609  
    1739A      2.756325  1740A      2.757628  1741A      2.759201  
    1742A      2.763034  1743A      2.764957  1744A      2.765303  
    1745A      2.768085  1746A      2.772739  1747A      2.776707  
    1748A      2.777554  1749A      2.781279  1750A      2.784464  
    1751A      2.786331  1752A      2.788022  1753A      2.792779  
    1754A      2.795050  1755A      2.796942  1756A      2.799989  
    1757A      2.803308  1758A      2.806865  1759A      2.807606  
    1760A      2.809395  1761A      2.812791  1762A      2.814105  
    1763A      2.817910  1764A      2.821601  1765A      2.826061  
    1766A      2.829191  1767A      2.831209  1768A      2.832402  
    1769A      2.834797  1770A      2.837414  1771A      2.840613  
    1772A      2.844897  1773A      2.845363  1774A      2.850630  
    1775A      2.851966  1776A      2.854812  1777A      2.857043  
    1778A      2.859384  1779A      2.865348  1780A      2.870024  
    1781A      2.872881  1782A      2.873988  1783A      2.878477  
    1784A      2.883800  1785A      2.885104  1786A      2.887493  
    1787A      2.891182  1788A      2.895136  1789A      2.895893  
    1790A      2.901449  1791A      2.902064  1792A      2.905792  
    1793A      2.908476  1794A      2.914066  1795A      2.915884  
    1796A      2.920021  1797A      2.922945  1798A      2.926687  
    1799A      2.929260  1800A      2.931049  1801A      2.934217  
    1802A      2.936355  1803A      2.944387  1804A      2.947527  
    1805A      2.951407  1806A      2.957776  1807A      2.959252  
    1808A      2.961172  1809A      2.963644  1810A      2.966725  
    1811A      2.972967  1812A      2.976682  1813A      2.980884  
    1814A      2.985417  1815A      2.986289  1816A      2.989387  
    1817A      2.992287  1818A      2.995528  1819A      3.001754  
    1820A      3.009782  1821A      3.011302  1822A      3.013666  
    1823A      3.018875  1824A      3.023310  1825A      3.029112  
    1826A      3.030796  1827A      3.031909  1828A      3.037439  
    1829A      3.042364  1830A      3.046303  1831A      3.051832  
    1832A      3.052164  1833A      3.061154  1834A      3.063223  
    1835A      3.065317  1836A      3.069543  1837A      3.073227  
    1838A      3.081574  1839A      3.085653  1840A      3.088002  
    1841A      3.094392  1842A      3.098317  1843A      3.103578  
    1844A      3.105575  1845A      3.113787  1846A      3.124032  
    1847A      3.126269  1848A      3.130027  1849A      3.131994  
    1850A      3.134830  1851A      3.137165  1852A      3.142800  
    1853A      3.145480  1854A      3.148378  1855A      3.154455  
    1856A      3.156979  1857A      3.164909  1858A      3.165851  
    1859A      3.175506  1860A      3.179413  1861A      3.181817  
    1862A      3.186918  1863A      3.191551  1864A      3.195093  
    1865A      3.204265  1866A      3.206600  1867A      3.211473  
    1868A      3.216539  1869A      3.219203  1870A      3.224379  
    1871A      3.230680  1872A      3.232901  1873A      3.237634  
    1874A      3.239390  1875A      3.245028  1876A      3.248949  
    1877A      3.251167  1878A      3.260295  1879A      3.264962  
    1880A      3.265286  1881A      3.269084  1882A      3.274978  
    1883A      3.279535  1884A      3.280598  1885A      3.285575  
    1886A      3.290906  1887A      3.294059  1888A      3.301392  
    1889A      3.302497  1890A      3.306232  1891A      3.312483  
    1892A      3.314788  1893A      3.319633  1894A      3.321297  
    1895A      3.324036  1896A      3.330715  1897A      3.331766  
    1898A      3.336265  1899A      3.337346  1900A      3.347185  
    1901A      3.350614  1902A      3.355415  1903A      3.356022  
    1904A      3.358150  1905A      3.363170  1906A      3.365175  
    1907A      3.370807  1908A      3.374797  1909A      3.377580  
    1910A      3.381911  1911A      3.386560  1912A      3.391190  
    1913A      3.396248  1914A      3.399298  1915A      3.402168  
    1916A      3.404392  1917A      3.406319  1918A      3.416339  
    1919A      3.416940  1920A      3.420111  1921A      3.421424  
    1922A      3.426514  1923A      3.428221  1924A      3.434936  
    1925A      3.437809  1926A      3.440464  1927A      3.441371  
    1928A      3.446942  1929A      3.450962  1930A      3.454284  
    1931A      3.456310  1932A      3.460589  1933A      3.464643  
    1934A      3.468041  1935A      3.469550  1936A      3.471127  
    1937A      3.474783  1938A      3.477458  1939A      3.479306  
    1940A      3.485778  1941A      3.489026  1942A      3.491772  
    1943A      3.496497  1944A      3.498168  1945A      3.500190  
    1946A      3.504512  1947A      3.507065  1948A      3.512550  
    1949A      3.514930  1950A      3.518175  1951A      3.519974  
    1952A      3.524041  1953A      3.524840  1954A      3.527228  
    1955A      3.529068  1956A      3.534797  1957A      3.538123  
    1958A      3.539877  1959A      3.543126  1960A      3.544121  
    1961A      3.546046  1962A      3.550667  1963A      3.552357  
    1964A      3.555023  1965A      3.558335  1966A      3.562001  
    1967A      3.563231  1968A      3.566447  1969A      3.569466  
    1970A      3.570005  1971A      3.573816  1972A      3.578345  
    1973A      3.581520  1974A      3.583066  1975A      3.587296  
    1976A      3.589751  1977A      3.593922  1978A      3.596489  
    1979A      3.600973  1980A      3.602750  1981A      3.605146  
    1982A      3.606297  1983A      3.612849  1984A      3.617852  
    1985A      3.617972  1986A      3.621585  1987A      3.625220  
    1988A      3.629662  1989A      3.632179  1990A      3.633736  
    1991A      3.636889  1992A      3.637870  1993A      3.643290  
    1994A      3.646430  1995A      3.648436  1996A      3.653870  
    1997A      3.654960  1998A      3.657167  1999A      3.661018  
    2000A      3.662614  2001A      3.666596  2002A      3.669097  
    2003A      3.673715  2004A      3.677135  2005A      3.678503  
    2006A      3.684473  2007A      3.685460  2008A      3.687600  
    2009A      3.690777  2010A      3.693946  2011A      3.697400  
    2012A      3.702964  2013A      3.705308  2014A      3.706693  
    2015A      3.710431  2016A      3.714228  2017A      3.715965  
    2018A      3.717829  2019A      3.721800  2020A      3.726746  
    2021A      3.731185  2022A      3.731625  2023A      3.734131  
    2024A      3.736255  2025A      3.743528  2026A      3.746470  
    2027A      3.749124  2028A      3.752455  2029A      3.752977  
    2030A      3.757105  2031A      3.759553  2032A      3.761512  
    2033A      3.766010  2034A      3.769523  2035A      3.771500  
    2036A      3.775416  2037A      3.779995  2038A      3.783872  
    2039A      3.787356  2040A      3.791209  2041A      3.793095  
    2042A      3.796384  2043A      3.800743  2044A      3.803463  
    2045A      3.805030  2046A      3.808378  2047A      3.811099  
    2048A      3.813712  2049A      3.818435  2050A      3.824568  
    2051A      3.826032  2052A      3.827672  2053A      3.831462  
    2054A      3.834223  2055A      3.836182  2056A      3.842196  
    2057A      3.846478  2058A      3.849101  2059A      3.849701  
    2060A      3.854316  2061A      3.854795  2062A      3.857469  
    2063A      3.861445  2064A      3.866204  2065A      3.867943  
    2066A      3.869569  2067A      3.872855  2068A      3.875224  
    2069A      3.881480  2070A      3.885521  2071A      3.887928  
    2072A      3.891032  2073A      3.891464  2074A      3.894271  
    2075A      3.898206  2076A      3.899811  2077A      3.903500  
    2078A      3.909713  2079A      3.913561  2080A      3.915866  
    2081A      3.919691  2082A      3.923311  2083A      3.926183  
    2084A      3.929605  2085A      3.930956  2086A      3.935226  
    2087A      3.936984  2088A      3.940505  2089A      3.943341  
    2090A      3.946562  2091A      3.951201  2092A      3.954727  
    2093A      3.956321  2094A      3.958137  2095A      3.963139  
    2096A      3.966502  2097A      3.968664  2098A      3.974122  
    2099A      3.978395  2100A      3.980945  2101A      3.986493  
    2102A      3.991389  2103A      3.995358  2104A      3.997109  
    2105A      4.002768  2106A      4.004388  2107A      4.008991  
    2108A      4.010574  2109A      4.012928  2110A      4.014498  
    2111A      4.018154  2112A      4.019983  2113A      4.023083  
    2114A      4.024971  2115A      4.027263  2116A      4.034557  
    2117A      4.036474  2118A      4.037836  2119A      4.041123  
    2120A      4.043686  2121A      4.045583  2122A      4.049976  
    2123A      4.052795  2124A      4.056534  2125A      4.061157  
    2126A      4.062160  2127A      4.066506  2128A      4.070690  
    2129A      4.072529  2130A      4.075417  2131A      4.077710  
    2132A      4.083994  2133A      4.084945  2134A      4.084975  
    2135A      4.090178  2136A      4.094040  2137A      4.094710  
    2138A      4.099453  2139A      4.103467  2140A      4.105187  
    2141A      4.108279  2142A      4.108836  2143A      4.116305  
    2144A      4.117431  2145A      4.119293  2146A      4.122556  
    2147A      4.126911  2148A      4.129270  2149A      4.133331  
    2150A      4.134702  2151A      4.137415  2152A      4.139465  
    2153A      4.143291  2154A      4.147245  2155A      4.149601  
    2156A      4.151794  2157A      4.152106  2158A      4.155977  
    2159A      4.157831  2160A      4.161553  2161A      4.163175  
    2162A      4.165283  2163A      4.170779  2164A      4.175285  
    2165A      4.175895  2166A      4.178627  2167A      4.183095  
    2168A      4.186486  2169A      4.189332  2170A      4.191271  
    2171A      4.195090  2172A      4.198020  2173A      4.200896  
    2174A      4.201972  2175A      4.206932  2176A      4.208443  
    2177A      4.212338  2178A      4.213784  2179A      4.215586  
    2180A      4.219312  2181A      4.220780  2182A      4.224210  
    2183A      4.226112  2184A      4.229902  2185A      4.231948  
    2186A      4.234617  2187A      4.235876  2188A      4.237242  
    2189A      4.238094  2190A      4.240811  2191A      4.243257  
    2192A      4.246956  2193A      4.251054  2194A      4.253876  
    2195A      4.255673  2196A      4.258395  2197A      4.261689  
    2198A      4.263005  2199A      4.264887  2200A      4.266774  
    2201A      4.269815  2202A      4.271604  2203A      4.274110  
    2204A      4.276653  2205A      4.278919  2206A      4.282302  
    2207A      4.284599  2208A      4.285859  2209A      4.287853  
    2210A      4.292613  2211A      4.294385  2212A      4.295994  
    2213A      4.298660  2214A      4.299961  2215A      4.302772  
    2216A      4.303903  2217A      4.306660  2218A      4.308180  
    2219A      4.311881  2220A      4.314217  2221A      4.315791  
    2222A      4.318475  2223A      4.321914  2224A      4.323031  
    2225A      4.324425  2226A      4.326590  2227A      4.328274  
    2228A      4.330744  2229A      4.334067  2230A      4.335571  
    2231A      4.339319  2232A      4.341370  2233A      4.342618  
    2234A      4.345451  2235A      4.347957  2236A      4.353350  
    2237A      4.354934  2238A      4.360041  2239A      4.363466  
    2240A      4.364456  2241A      4.366136  2242A      4.369711  
    2243A      4.371783  2244A      4.373429  2245A      4.374679  
    2246A      4.377942  2247A      4.380279  2248A      4.382847  
    2249A      4.385291  2250A      4.389088  2251A      4.391264  
    2252A      4.393038  2253A      4.393681  2254A      4.396286  
    2255A      4.398246  2256A      4.401661  2257A      4.403156  
    2258A      4.405732  2259A      4.407635  2260A      4.410553  
    2261A      4.412716  2262A      4.418031  2263A      4.419072  
    2264A      4.423722  2265A      4.424516  2266A      4.426134  
    2267A      4.428441  2268A      4.429678  2269A      4.431678  
    2270A      4.435900  2271A      4.439149  2272A      4.442269  
    2273A      4.443237  2274A      4.444668  2275A      4.451216  
    2276A      4.453292  2277A      4.455373  2278A      4.457751  
    2279A      4.459694  2280A      4.462127  2281A      4.462690  
    2282A      4.464001  2283A      4.466518  2284A      4.469919  
    2285A      4.472539  2286A      4.475668  2287A      4.478122  
    2288A      4.479973  2289A      4.482094  2290A      4.482640  
    2291A      4.485425  2292A      4.489463  2293A      4.491313  
    2294A      4.494367  2295A      4.496216  2296A      4.498002  
    2297A      4.500276  2298A      4.501758  2299A      4.506740  
    2300A      4.508358  2301A      4.509507  2302A      4.511319  
    2303A      4.512689  2304A      4.514173  2305A      4.518419  
    2306A      4.521542  2307A      4.524291  2308A      4.525594  
    2309A      4.527620  2310A      4.531251  2311A      4.533346  
    2312A      4.536687  2313A      4.537594  2314A      4.538389  
    2315A      4.542573  2316A      4.545778  2317A      4.547584  
    2318A      4.548292  2319A      4.550027  2320A      4.554923  
    2321A      4.558311  2322A      4.560231  2323A      4.561531  
    2324A      4.564283  2325A      4.565637  2326A      4.567150  
    2327A      4.573017  2328A      4.573614  2329A      4.577505  
    2330A      4.580225  2331A      4.581696  2332A      4.584382  
    2333A      4.585122  2334A      4.588172  2335A      4.592002  
    2336A      4.594420  2337A      4.595727  2338A      4.599095  
    2339A      4.599998  2340A      4.607764  2341A      4.608495  
    2342A      4.610371  2343A      4.613357  2344A      4.613956  
    2345A      4.615692  2346A      4.617969  2347A      4.620892  
    2348A      4.623118  2349A      4.626521  2350A      4.629661  
    2351A      4.631799  2352A      4.633530  2353A      4.635671  
    2354A      4.638328  2355A      4.640441  2356A      4.641430  
    2357A      4.644324  2358A      4.648204  2359A      4.648816  
    2360A      4.650862  2361A      4.654868  2362A      4.657248  
    2363A      4.658289  2364A      4.662717  2365A      4.664166  
    2366A      4.670094  2367A      4.673388  2368A      4.678163  
    2369A      4.679475  2370A      4.680714  2371A      4.683405  
    2372A      4.685433  2373A      4.686862  2374A      4.687348  
    2375A      4.691122  2376A      4.693826  2377A      4.697483  
    2378A      4.697867  2379A      4.700961  2380A      4.701825  
    2381A      4.706160  2382A      4.707713  2383A      4.709430  
    2384A      4.713636  2385A      4.714975  2386A      4.716515  
    2387A      4.718508  2388A      4.724600  2389A      4.728039  
    2390A      4.729353  2391A      4.732495  2392A      4.733131  
    2393A      4.733779  2394A      4.738883  2395A      4.742142  
    2396A      4.744949  2397A      4.745088  2398A      4.747526  
    2399A      4.748802  2400A      4.752599  2401A      4.757452  
    2402A      4.760166  2403A      4.762148  2404A      4.762956  
    2405A      4.766362  2406A      4.769333  2407A      4.771900  
    2408A      4.775676  2409A      4.779428  2410A      4.781906  
    2411A      4.785126  2412A      4.787700  2413A      4.790590  
    2414A      4.791998  2415A      4.793494  2416A      4.796371  
    2417A      4.797703  2418A      4.801552  2419A      4.806819  
    2420A      4.808679  2421A      4.810149  2422A      4.813687  
    2423A      4.817689  2424A      4.820251  2425A      4.821063  
    2426A      4.822200  2427A      4.825856  2428A      4.829876  
    2429A      4.831766  2430A      4.834049  2431A      4.834858  
    2432A      4.839759  2433A      4.840749  2434A      4.845304  
    2435A      4.846633  2436A      4.851091  2437A      4.856914  
    2438A      4.857416  2439A      4.858687  2440A      4.864774  
    2441A      4.866570  2442A      4.867961  2443A      4.869669  
    2444A      4.874953  2445A      4.876483  2446A      4.880838  
    2447A      4.882423  2448A      4.884088  2449A      4.885081  
    2450A      4.886238  2451A      4.891416  2452A      4.894948  
    2453A      4.898542  2454A      4.901717  2455A      4.902351  
    2456A      4.904857  2457A      4.908027  2458A      4.911415  
    2459A      4.914189  2460A      4.918215  2461A      4.920068  
    2462A      4.922246  2463A      4.925167  2464A      4.926264  
    2465A      4.929994  2466A      4.931258  2467A      4.934134  
    2468A      4.938621  2469A      4.939976  2470A      4.941657  
    2471A      4.942790  2472A      4.946115  2473A      4.947139  
    2474A      4.951552  2475A      4.957340  2476A      4.958448  
    2477A      4.962274  2478A      4.963545  2479A      4.966035  
    2480A      4.972097  2481A      4.975729  2482A      4.977986  
    2483A      4.979427  2484A      4.981992  2485A      4.986672  
    2486A      4.988438  2487A      4.992235  2488A      4.994706  
    2489A      4.997301  2490A      5.000963  2491A      5.004360  
    2492A      5.007743  2493A      5.009812  2494A      5.014327  
    2495A      5.018343  2496A      5.020585  2497A      5.021885  
    2498A      5.024999  2499A      5.025715  2500A      5.026795  
    2501A      5.027150  2502A      5.031661  2503A      5.035737  
    2504A      5.038288  2505A      5.042050  2506A      5.046867  
    2507A      5.048608  2508A      5.050971  2509A      5.054404  
    2510A      5.057629  2511A      5.058302  2512A      5.061577  
    2513A      5.064284  2514A      5.068694  2515A      5.069607  
    2516A      5.074296  2517A      5.078072  2518A      5.081607  
    2519A      5.082138  2520A      5.084236  2521A      5.088134  
    2522A      5.090384  2523A      5.093750  2524A      5.094542  
    2525A      5.096921  2526A      5.099065  2527A      5.103494  
    2528A      5.106076  2529A      5.111927  2530A      5.113389  
    2531A      5.118743  2532A      5.119479  2533A      5.121944  
    2534A      5.124144  2535A      5.125541  2536A      5.129244  
    2537A      5.130345  2538A      5.134211  2539A      5.135875  
    2540A      5.139259  2541A      5.147396  2542A      5.149778  
    2543A      5.151352  2544A      5.154231  2545A      5.156761  
    2546A      5.159791  2547A      5.160271  2548A      5.163187  
    2549A      5.165822  2550A      5.170610  2551A      5.170989  
    2552A      5.175588  2553A      5.181226  2554A      5.183251  
    2555A      5.185025  2556A      5.189971  2557A      5.193001  
    2558A      5.193785  2559A      5.199676  2560A      5.200672  
    2561A      5.205129  2562A      5.208756  2563A      5.212594  
    2564A      5.218416  2565A      5.220877  2566A      5.223415  
    2567A      5.226889  2568A      5.231407  2569A      5.234945  
    2570A      5.241475  2571A      5.242173  2572A      5.245812  
    2573A      5.248182  2574A      5.250148  2575A      5.253203  
    2576A      5.255525  2577A      5.257543  2578A      5.264037  
    2579A      5.264764  2580A      5.269512  2581A      5.271315  
    2582A      5.274237  2583A      5.276663  2584A      5.281302  
    2585A      5.284038  2586A      5.287681  2587A      5.289026  
    2588A      5.295488  2589A      5.296537  2590A      5.300802  
    2591A      5.301789  2592A      5.305214  2593A      5.307138  
    2594A      5.311744  2595A      5.314310  2596A      5.318288  
    2597A      5.323318  2598A      5.325398  2599A      5.327038  
    2600A      5.329688  2601A      5.331408  2602A      5.339935  
    2603A      5.342586  2604A      5.344420  2605A      5.349238  
    2606A      5.349640  2607A      5.350530  2608A      5.357580  
    2609A      5.360870  2610A      5.362441  2611A      5.367187  
    2612A      5.370769  2613A      5.376613  2614A      5.378209  
    2615A      5.384870  2616A      5.386425  2617A      5.387483  
    2618A      5.389312  2619A      5.394432  2620A      5.396293  
    2621A      5.403148  2622A      5.407333  2623A      5.409113  
    2624A      5.412696  2625A      5.413470  2626A      5.419331  
    2627A      5.421325  2628A      5.422748  2629A      5.428257  
    2630A      5.431242  2631A      5.435216  2632A      5.438945  
    2633A      5.444555  2634A      5.446184  2635A      5.447707  
    2636A      5.451801  2637A      5.455482  2638A      5.458530  
    2639A      5.461674  2640A      5.465063  2641A      5.468523  
    2642A      5.471301  2643A      5.473037  2644A      5.476096  
    2645A      5.479313  2646A      5.481909  2647A      5.483283  
    2648A      5.485764  2649A      5.490218  2650A      5.491103  
    2651A      5.494031  2652A      5.497655  2653A      5.505169  
    2654A      5.507850  2655A      5.513397  2656A      5.519262  
    2657A      5.520748  2658A      5.523018  2659A      5.525733  
    2660A      5.531713  2661A      5.533676  2662A      5.536038  
    2663A      5.540649  2664A      5.542962  2665A      5.547151  
    2666A      5.550573  2667A      5.551802  2668A      5.552832  
    2669A      5.554541  2670A      5.558516  2671A      5.561237  
    2672A      5.565593  2673A      5.572220  2674A      5.574300  
    2675A      5.576706  2676A      5.583559  2677A      5.584250  
    2678A      5.586224  2679A      5.589608  2680A      5.595527  
    2681A      5.596734  2682A      5.600381  2683A      5.604557  
    2684A      5.606839  2685A      5.610062  2686A      5.612985  
    2687A      5.615473  2688A      5.619166  2689A      5.622585  
    2690A      5.622829  2691A      5.625842  2692A      5.629232  
    2693A      5.634097  2694A      5.643519  2695A      5.650020  
    2696A      5.656058  2697A      5.657608  2698A      5.659282  
    2699A      5.665916  2700A      5.667011  2701A      5.674540  
    2702A      5.678275  2703A      5.681598  2704A      5.686439  
    2705A      5.687894  2706A      5.693464  2707A      5.698513  
    2708A      5.699736  2709A      5.705004  2710A      5.707408  
    2711A      5.712061  2712A      5.714260  2713A      5.721123  
    2714A      5.724822  2715A      5.729361  2716A      5.730388  
    2717A      5.735362  2718A      5.736513  2719A      5.741278  
    2720A      5.743484  2721A      5.752048  2722A      5.757630  
    2723A      5.762229  2724A      5.767604  2725A      5.773590  
    2726A      5.779795  2727A      5.784832  2728A      5.788277  
    2729A      5.793487  2730A      5.797285  2731A      5.798673  
    2732A      5.803218  2733A      5.806273  2734A      5.814231  
    2735A      5.816593  2736A      5.819015  2737A      5.823478  
    2738A      5.825593  2739A      5.832612  2740A      5.834510  
    2741A      5.839475  2742A      5.843955  2743A      5.846494  
    2744A      5.848367  2745A      5.854131  2746A      5.859875  
    2747A      5.865506  2748A      5.875856  2749A      5.881259  
    2750A      5.885222  2751A      5.886054  2752A      5.887383  
    2753A      5.894388  2754A      5.902237  2755A      5.905537  
    2756A      5.911205  2757A      5.911830  2758A      5.915874  
    2759A      5.921740  2760A      5.926704  2761A      5.929559  
    2762A      5.932154  2763A      5.939706  2764A      5.942293  
    2765A      5.945962  2766A      5.949870  2767A      5.952070  
    2768A      5.961405  2769A      5.964992  2770A      5.967922  
    2771A      5.973342  2772A      5.978099  2773A      5.984346  
    2774A      5.985731  2775A      5.991211  2776A      5.995457  
    2777A      5.998980  2778A      6.003007  2779A      6.004939  
    2780A      6.012829  2781A      6.018010  2782A      6.024276  
    2783A      6.033540  2784A      6.036720  2785A      6.041465  
    2786A      6.043471  2787A      6.046916  2788A      6.051330  
    2789A      6.058275  2790A      6.063374  2791A      6.065016  
    2792A      6.070165  2793A      6.077885  2794A      6.081981  
    2795A      6.087848  2796A      6.091190  2797A      6.101150  
    2798A      6.104499  2799A      6.106245  2800A      6.114809  
    2801A      6.121451  2802A      6.123405  2803A      6.128302  
    2804A      6.131828  2805A      6.135083  2806A      6.146990  
    2807A      6.156836  2808A      6.165042  2809A      6.167600  
    2810A      6.173853  2811A      6.178938  2812A      6.183929  
    2813A      6.187924  2814A      6.194609  2815A      6.198401  
    2816A      6.199879  2817A      6.210123  2818A      6.221591  
    2819A      6.222817  2820A      6.230238  2821A      6.242019  
    2822A      6.245439  2823A      6.249066  2824A      6.257930  
    2825A      6.260201  2826A      6.268014  2827A      6.272284  
    2828A      6.278228  2829A      6.280238  2830A      6.288709  
    2831A      6.292726  2832A      6.295838  2833A      6.298405  
    2834A      6.309653  2835A      6.313452  2836A      6.319863  
    2837A      6.325380  2838A      6.332931  2839A      6.337246  
    2840A      6.342863  2841A      6.350605  2842A      6.353838  
    2843A      6.355888  2844A      6.364689  2845A      6.369216  
    2846A      6.381702  2847A      6.392857  2848A      6.411365  
    2849A      6.416708  2850A      6.421058  2851A      6.423130  
    2852A      6.430728  2853A      6.434256  2854A      6.446528  
    2855A      6.448253  2856A      6.457178  2857A      6.478648  
    2858A      6.482484  2859A      6.493405  2860A      6.499110  
    2861A      6.505686  2862A      6.537288  2863A      6.552953  
    2864A      6.564666  2865A      6.568389  2866A      6.574733  
    2867A      6.586693  2868A      6.595655  2869A      6.608695  
    2870A      6.614216  2871A      6.624747  2872A      6.629427  
    2873A      6.634772  2874A      6.638272  2875A      6.650952  
    2876A      6.655509  2877A      6.673723  2878A      6.677569  
    2879A      6.691845  2880A      6.696151  2881A      6.706231  
    2882A      6.713659  2883A      6.734851  2884A      6.743192  
    2885A      6.744455  2886A      6.756796  2887A      6.765243  
    2888A      6.776005  2889A      6.778752  2890A      6.784165  
    2891A      6.792335  2892A      6.804170  2893A      6.810157  
    2894A      6.822370  2895A      6.827350  2896A      6.836830  
    2897A      6.844124  2898A      6.852012  2899A      6.860110  
    2900A      6.863602  2901A      6.874751  2902A      6.879262  
    2903A      6.917153  2904A      6.920578  2905A      6.932026  
    2906A      6.954578  2907A      6.960078  2908A      6.971859  
    2909A      6.998672  2910A      7.012191  2911A      7.032340  
    2912A      7.035302  2913A      7.041764  2914A      7.044158  
    2915A      7.063620  2916A      7.083528  2917A      7.095734  
    2918A      7.126425  2919A      7.142099  2920A      7.154937  
    2921A      7.162162  2922A      7.183973  2923A      7.192750  
    2924A      7.213939  2925A      7.218922  2926A      7.240177  
    2927A      7.250680  2928A      7.258807  2929A      7.276334  
    2930A      7.301926  2931A      7.314267  2932A      7.323996  
    2933A      7.356292  2934A      7.371436  2935A      7.391157  
    2936A      7.396571  2937A      7.428494  2938A      7.443248  
    2939A      7.463968  2940A      7.471738  2941A      7.489208  
    2942A      7.501958  2943A      7.508340  2944A      7.526345  
    2945A      7.549774  2946A      7.553506  2947A      7.568391  
    2948A      7.599554  2949A      7.600356  2950A      7.629572  
    2951A      7.642572  2952A      7.668542  2953A      7.692068  
    2954A      7.693600  2955A      7.709736  2956A      7.726908  
    2957A      7.749822  2958A      7.761456  2959A      7.769169  
    2960A      7.779053  2961A      7.783543  2962A      7.788615  
    2963A      7.797965  2964A      7.803000  2965A      7.814597  
    2966A      7.827282  2967A      7.852446  2968A      7.861906  
    2969A      7.892398  2970A      7.903081  2971A      7.916838  
    2972A      7.931839  2973A      7.957065  2974A      7.981882  
    2975A      7.992054  2976A      8.018576  2977A      8.073173  
    2978A      8.102272  2979A      8.141833  2980A      8.171823  
    2981A      8.199565  2982A      8.228850  2983A      8.255506  
    2984A      8.262809  2985A      8.291823  2986A      8.304924  
    2987A      8.325280  2988A      8.340644  2989A      8.381585  
    2990A      8.400453  2991A      8.414839  2992A      8.447900  
    2993A      8.472847  2994A      8.507243  2995A      8.591804  
    2996A      8.611514  2997A      8.653165  2998A      8.674542  
    2999A      8.696480  3000A      8.744426  3001A      8.850639  
    3002A      8.887087  3003A      8.921787  3004A      9.005108  
    3005A      9.026143  3006A      9.093980  3007A      9.225840  
    3008A      9.312988  3009A      9.411940  3010A      9.428174  
    3011A      9.577530  3012A      9.643300  3013A      9.667854  
    3014A      9.732063  3015A      9.766427  3016A      9.824332  
    3017A      9.927400  3018A      9.979956  3019A      9.999284  
    3020A     10.041301  3021A     10.055058  3022A     10.126884  
    3023A     10.155559  3024A     10.246614  3025A     10.293449  
    3026A     10.375618  3027A     10.430514  3028A     10.504315  
    3029A     10.580300  3030A     10.698947  3031A     10.756819  
    3032A     10.831024  3033A     10.991029  3034A     11.068741  
    3035A     11.179398  3036A     11.213050  3037A     11.289188  
    3038A     11.389431  3039A     11.396512  3040A     11.456590  
    3041A     11.663287  3042A     11.851773  3043A     11.862693  
    3044A     11.975476  3045A     12.170070  3046A     12.219085  
    3047A     12.268601  3048A     12.317690  3049A     12.537658  
    3050A     12.652188  3051A     12.702303  3052A     15.226375  
    3053A     15.649316  3054A     16.023907  3055A     16.460144  
    3056A     16.741951  3057A     17.043096  3058A     17.330330  
    3059A     17.612314  3060A     18.027057  3061A     18.327687  
    3062A     18.798942  3063A     19.130589  3064A     19.527478  
    3065A     20.169239  3066A     20.706559  3067A     21.122459  
    3068A     21.262513  3069A     21.673351  3070A     21.733098  
    3071A     21.985939  3072A     22.172034  3073A     22.714847  
    3074A     22.893071  3075A     23.057900  3076A     49.741784  
    3077A     50.622178  3078A     51.398629  3079A     52.249930  
    3080A     52.939106  3081A     53.194869  3082A     53.483685  
    3083A     54.255780  3084A     55.164717  3085A     55.954149  
    3086A     56.700334  3087A     57.572968  3088A     58.118032  
    3089A     58.558949  3090A     59.598267  3091A     60.638637  
    3092A     61.369172  3093A     61.535966  3094A     61.774120  
    3095A     62.394204  3096A     62.637551  3097A     63.545054  
    3098A     64.126840  3099A     64.331369  

    Final Occupation by Irrep:
              A 
    DOCC [    82 ]
    NA   [    82 ]
    NB   [    82 ]

  @DF-RKS Final Energy:  -926.71726818580771

   => Energetics <=

    Nuclear Repulsion Energy =           1863.8004869688352301
    One-Electron Energy =               -4953.7206905456023378
    Two-Electron Energy =                2257.3458839287923183
    DFT Exchange-Correlation Energy =     -94.7416477022690913
    Empirical Dispersion Energy =           0.0000000000000000
    VV10 Nonlocal Energy =                  0.5986991644361334
    Total Energy =                       -926.7172681858078249

Computation Completed


Properties will be evaluated at   0.000000,   0.000000,   0.000000 [a0]

Properties computed using the SCF density matrix


 Multipole Moments:

 ------------------------------------------------------------------------------------
     Multipole            Electronic (a.u.)      Nuclear  (a.u.)        Total (a.u.)
 ------------------------------------------------------------------------------------

 L = 1.  Multiply by 2.5417464519 to convert [e a0] to [Debye]
 Dipole X            :      -4034.8987149         4034.8790109           -0.0197039
 Dipole Y            :      -3189.3695031         3189.5933564            0.2238533
 Dipole Z            :      -7377.8238141         7378.1192754            0.2954614
 Magnitude           :                                                    0.3712088

 ------------------------------------------------------------------------------------

*** tstop() called on atl1-1-03-004-11-2.pace.gatech.edu at Sat Jun 13 19:06:20 2026
Module time:
	user time   =   86496.50 seconds =    1441.61 minutes
	system time =    4891.22 seconds =      81.52 minutes
	total time  =      13082 seconds =     218.03 minutes
Total time:
	user time   =   86496.50 seconds =    1441.61 minutes
	system time =    4891.22 seconds =      81.52 minutes
	total time  =      13082 seconds =     218.03 minutes

    Psi4 stopped on: Saturday, 13 June 2026 07:06PM
    Psi4 wall time for execution: 3:38:19.61

*** Psi4 exiting successfully. Buy a developer a beer!
