
    -----------------------------------------------------------------------
          Psi4: An Open-Source Ab Initio Electronic Structure Package
                               Psi4 1.9.1 release

                         Git: Rev {} zzzzzzz 


    D. G. A. Smith, L. A. Burns, A. C. Simmonett, R. M. Parrish,
    M. C. Schieber, R. Galvelis, P. Kraus, H. Kruse, R. Di Remigio,
    A. Alenaizan, A. M. James, S. Lehtola, J. P. Misiewicz, M. Scheurer,
    R. A. Shaw, J. B. Schriber, Y. Xie, Z. L. Glick, D. A. Sirianni,
    J. S. O'Brien, J. M. Waldrop, A. Kumar, E. G. Hohenstein,
    B. P. Pritchard, B. R. Brooks, H. F. Schaefer III, A. Yu. Sokolov,
    K. Patkowski, A. E. DePrince III, U. Bozkaya, R. A. King,
    F. A. Evangelista, J. M. Turney, T. D. Crawford, C. D. Sherrill,
    J. Chem. Phys. 152(18) 184108 (2020). https://doi.org/10.1063/5.0006002

                            Additional Code Authors
    E. T. Seidl, C. L. Janssen, E. F. Valeev, M. L. Leininger,
    J. F. Gonthier, R. M. Richard, H. R. McAlexander, M. Saitow, X. Wang,
    P. Verma, M. H. Lechner, A. Jiang, S. Behnle, A. G. Heide,
    M. F. Herbst, and D. L. Poole

             Previous Authors, Complete List of Code Contributors,
                       and Citations for Specific Modules
    https://github.com/psi4/psi4/blob/master/codemeta.json
    https://github.com/psi4/psi4/graphs/contributors
    http://psicode.org/psi4manual/master/introduction.html#citing-psifour

    -----------------------------------------------------------------------


    Psi4 started on: Saturday, 13 June 2026 12:49PM

    Process ID: 755473
    Host:       atl1-1-02-004-2-2.pace.gatech.edu
    PSIDATADIR: /storage/home/hcoda1/5/vlita3/.conda/envs/p4_qcml/share/psi4
    Memory:     250.0 GiB
    Threads:    10
    
  ==> Input QCSchema <==

--------------------------------------------------------------------------
{'driver': 'energy',
 'extras': {},
 'id': '243',
 'keywords': {},
 'model': {'basis': 'aug-cc-pvtz', 'method': 'wb97x-d'},
 'molecule': {'extras': {},
              'fix_com': True,
              'fix_orientation': True,
              'fragment_charges': [0.0, 0.0],
              'fragment_multiplicities': [1, 1],
              'fragments': [[0, 1, 2, 3, 4, 5, 6, 7, 8, 9, 10, 11, 12, 13, 14, 15, 16, 17, 18, 19, 20, 21, 22, 23, 24,
                             25, 26, 27, 28, 29, 30, 31, 32, 33, 34, 35, 36, 37, 38, 39, 40, 41, 42, 43, 44, 45, 46, 47,
                             48, 49, 50, 51, 52, 53, 54, 55, 56, 57, 58, 59, 60, 61, 62, 63, 64, 65, 66, 67],
                            [68, 69, 70, 71, 72, 73, 74, 75, 76, 77, 78, 79, 80, 81, 82, 83]],
              'geometry': [-5.34620642, -4.85206741, -0.42040662, -6.29696543, -3.97249137, -2.73196591, -7.16652857,
                           -1.39360971, -2.91024059, -7.07225732, 0.1478346, -0.75712917, -6.06055521, -0.70522859,
                           1.52779916, -5.14660825, -3.28275871, 1.6937689, -8.00940954, -0.47795161, -5.29622845,
                           -8.00389532, -2.01265111, -7.39175445, -7.1739962, -4.55869367, -7.20967896, -6.3482405,
                           -5.51081404, -4.93971915, -5.79174545, 0.94432733, 3.66064233, -4.5983628, 0.0799819,
                           5.76970066, -3.62293398, -2.4551662, 5.90550866, -3.92400421, -4.11631993, 3.96419018,
                           -2.16569152, -2.61945029, 8.3885177, 0.07636213, -0.84617571, 7.95116799, -0.9078112,
                           1.61784783, 7.8674416, -3.76570071, 1.39135281, 8.20497635, -3.85671125, -0.88804523,
                           10.06281411, 2.58001171, -1.3655127, 7.31184057, 4.1057488, 0.7110172, 6.7716308, 3.12911434,
                           3.1826792, 6.68292857, 0.58226752, 3.66820181, 7.1546987, 5.22477035, 4.85680231, 5.5947568,
                           5.45773257, 3.95265056, 2.86034162, 6.48712479, 1.44012834, 2.99187034, 6.82098554,
                           0.8515344, 5.79382301, 7.56885523, 3.52377684, 6.77238443, 6.80325367, 0.01007923,
                           0.87853632, 6.01230407, 0.99764822, -1.51581981, 4.9476594, 3.51769873, -1.64633715,
                           4.72513697, 4.9862546, 0.62058001, 6.12205861, -0.46131862, -3.71310038, 5.15756848,
                           0.40687221, -6.02295948, 4.08395781, 2.91056166, -6.14884699, 4.05329983, 4.41018879,
                           -3.96462935, 5.13306837, -1.12454068, -8.23614739, 4.07851898, -0.25961114, -10.44460058,
                           2.99478619, 2.19392857, -10.56107574, 3.00851807, 3.73807424, -8.47334713, 3.50361025,
                           -3.823107, 7.21233591, -0.52564981, 6.01194181, 6.93361699, 5.05829719, 6.89567715,
                           5.87089814, 8.0356414, -0.74107273, 6.26352729, 7.58901842, 3.63875572, 8.83518962,
                           9.35421802, 4.19783591, 5.97522954, -5.76611566, -1.64188193, 10.31542343, -2.98864212,
                           -0.45542891, 11.88758146, -4.77253092, 3.11242428, 8.71181923, -1.70891184, -4.50721847,
                           9.0671295, 7.55489696, -1.89976737, 0.96862939, 3.89947197, 6.86430373, 0.5027639,
                           -6.46680418, 2.87873678, 3.51311765, -3.18323648, -6.03153223, 4.04964208, 3.22722344,
                           6.29110633, -4.05969977, 6.91726822, -2.35617478, -3.61337858, 2.17488807, 5.6139636,
                           -8.5558299, 2.15939666, 2.84829877, -12.31851423, 4.06363758, -1.45295543, -12.11512622,
                           5.94772646, -3.00842661, -8.1365677, -4.65219392, -6.78410677, -0.29846731, -7.72607119,
                           2.09308409, -0.89347536, -5.69192784, -7.45269585, -4.79824367, -8.63836085, 1.47325902,
                           -5.4323305, -8.64382367, -1.28398557, -9.20131008, -7.19028923, -5.75067773, -8.88116704,
                           0.69471926, 7.16657411, 6.19908801, 3.21943853, -4.43255237, 5.4924338, -1.01804176,
                           -2.06721752, -6.41424693, -0.04006805, -3.69463605, -4.59993014, 0.29508244, -2.88730801,
                           -2.09508758, -0.32679714, -0.42272984, -1.41690966, -1.32071561, 1.15392876, -3.24915277,
                           -1.68814035, 0.37514049, -5.74325186, 0.62349756, -6.02367305, -5.33266218, 1.25684872,
                           -4.55988854, -0.10878832, -2.01790096, 3.74535177, -2.52671085, -2.46962752, 1.68011751,
                           -7.10722613, -0.06092458, 0.2181685, 0.50639917, -1.23619836, -2.74752497, -8.33105453,
                           2.06085935, -3.52195874, 1.83306118, 1.18336559, -6.86024705, -0.44470452, -2.90698951,
                           5.11929396, -4.19647021, -1.67462389, 4.39177019, -0.3135118],
              'id': 6,
              'identifiers': {'molecular_formula': 'C46FH29N2O6',
                              'molecule_hash': '6059439b7d3ff97eb634aabdaf8efaa815866e92'},
              'molecular_charge': 0.0,
              'molecular_multiplicity': 1,
              'name': 'C46FH29N2O6',
              'provenance': {'creator': 'QCElemental',
                             'routine': 'qcelemental.molparse.from_string',
                             'version': '0.29.0'},
              'schema_name': 'qcschema_molecule',
              'schema_version': 2,
              'symbols': ['C', 'C', 'C', 'C', 'C', 'C', 'C', 'C', 'C', 'C', 'C', 'C', 'C', 'C', 'C', 'C', 'C', 'C', 'C',
                          'C', 'C', 'C', 'C', 'C', 'C', 'C', 'C', 'C', 'C', 'C', 'C', 'C', 'C', 'C', 'C', 'C', 'C', 'C',
                          'C', 'C', 'O', 'O', 'H', 'H', 'H', 'H', 'H', 'H', 'H', 'H', 'H', 'H', 'H', 'H', 'H', 'H', 'H',
                          'H', 'H', 'H', 'H', 'H', 'H', 'H', 'H', 'H', 'H', 'H', 'C', 'C', 'C', 'C', 'C', 'C', 'F', 'N',
                          'N', 'H', 'H', 'H', 'O', 'O', 'O', 'O'],
              'validated': True},
 'protocols': {},
 'provenance': {'creator': 'QCElemental', 'routine': 'qcelemental.models.results', 'version': '0.29.0'},
 'schema_name': 'qcschema_input',
 'schema_version': 1}
--------------------------------------------------------------------------

Scratch directory: /tmp/tmpcxutparc_psi_scratch/
   => Libint2 <=

    Primary   basis highest AM E, G, H:  6, 6, 3
    Auxiliary basis highest AM E, G, H:  7, 7, 4
    Onebody   basis highest AM E, G, H:  -, -, -
    Solid Harmonics ordering:            Gaussian

*** tstart() called on atl1-1-02-004-2-2.pace.gatech.edu
*** at Sat Jun 13 12:49:54 2026

   => Loading Basis Set <=

    Name: AUG-CC-PVTZ
    Role: ORBITAL
    Keyword: BASIS
    atoms 1-40, 69-74  entry C          line   239 file /storage/home/hcoda1/5/vlita3/.conda/envs/p4_qcml/share/psi4/basis/aug-cc-pvtz.gbs 
    atoms 41-42, 81-84 entry O          line   331 file /storage/home/hcoda1/5/vlita3/.conda/envs/p4_qcml/share/psi4/basis/aug-cc-pvtz.gbs 
    atoms 43-68, 78-80 entry H          line    40 file /storage/home/hcoda1/5/vlita3/.conda/envs/p4_qcml/share/psi4/basis/aug-cc-pvtz.gbs 
    atoms 75           entry F          line   377 file /storage/home/hcoda1/5/vlita3/.conda/envs/p4_qcml/share/psi4/basis/aug-cc-pvtz.gbs 
    atoms 76-77        entry N          line   285 file /storage/home/hcoda1/5/vlita3/.conda/envs/p4_qcml/share/psi4/basis/aug-cc-pvtz.gbs 

   => WB97X-D: Empirical Dispersion <=

    Chai and Head-Gordon Dispersion Correction
    Chai, J.-D.; Head-Gordon, M. (2010), J. Chem. Phys., 132: 6615-6620

        s6 =       1.000000


         ---------------------------------------------------------
                                   SCF
               by Justin Turney, Rob Parrish, Andy Simmonett
                          and Daniel G. A. Smith
                              RKS Reference
                       10 Threads, 256000 MiB Core
         ---------------------------------------------------------

  ==> Geometry <==

    Molecular point group: c1
    Full point group: C1

    Geometry (in Bohr), charge = 0, multiplicity = 1:

       Center              X                  Y                   Z               Mass       
    ------------   -----------------  -----------------  -----------------  -----------------
         C           -5.346206420000    -4.852067410000    -0.420406620000    12.000000000000
         C           -6.296965430000    -3.972491370000    -2.731965910000    12.000000000000
         C           -7.166528570000    -1.393609710000    -2.910240590000    12.000000000000
         C           -7.072257320000     0.147834600000    -0.757129170000    12.000000000000
         C           -6.060555210000    -0.705228590000     1.527799160000    12.000000000000
         C           -5.146608250000    -3.282758710000     1.693768900000    12.000000000000
         C           -8.009409540000    -0.477951610000    -5.296228450000    12.000000000000
         C           -8.003895320000    -2.012651110000    -7.391754450000    12.000000000000
         C           -7.173996200000    -4.558693670000    -7.209678960000    12.000000000000
         C           -6.348240500000    -5.510814040000    -4.939719150000    12.000000000000
         C           -5.791745450000     0.944327330000     3.660642330000    12.000000000000
         C           -4.598362800000     0.079981900000     5.769700660000    12.000000000000
         C           -3.622933980000    -2.455166200000     5.905508660000    12.000000000000
         C           -3.924004210000    -4.116319930000     3.964190180000    12.000000000000
         C           -2.165691520000    -2.619450290000     8.388517700000    12.000000000000
         C            0.076362130000    -0.846175710000     7.951167990000    12.000000000000
         C           -0.907811200000     1.617847830000     7.867441600000    12.000000000000
         C           -3.765700710000     1.391352810000     8.204976350000    12.000000000000
         C           -3.856711250000    -0.888045230000    10.062814110000    12.000000000000
         C            2.580011710000    -1.365512700000     7.311840570000    12.000000000000
         C            4.105748800000     0.711017200000     6.771630800000    12.000000000000
         C            3.129114340000     3.182679200000     6.682928570000    12.000000000000
         C            0.582267520000     3.668201810000     7.154698700000    12.000000000000
         C            5.224770350000     4.856802310000     5.594756800000    12.000000000000
         C            5.457732570000     3.952650560000     2.860341620000    12.000000000000
         C            6.487124790000     1.440128340000     2.991870340000    12.000000000000
         C            6.820985540000     0.851534400000     5.793823010000    12.000000000000
         C            7.568855230000     3.523776840000     6.772384430000    12.000000000000
         C            6.803253670000     0.010079230000     0.878536320000    12.000000000000
         C            6.012304070000     0.997648220000    -1.515819810000    12.000000000000
         C            4.947659400000     3.517698730000    -1.646337150000    12.000000000000
         C            4.725136970000     4.986254600000     0.620580010000    12.000000000000
         C            6.122058610000    -0.461318620000    -3.713100380000    12.000000000000
         C            5.157568480000     0.406872210000    -6.022959480000    12.000000000000
         C            4.083957810000     2.910561660000    -6.148846990000    12.000000000000
         C            4.053299830000     4.410188790000    -3.964629350000    12.000000000000
         C            5.133068370000    -1.124540680000    -8.236147390000    12.000000000000
         C            4.078518980000    -0.259611140000   -10.444600580000    12.000000000000
         C            2.994786190000     2.193928570000   -10.561075740000    12.000000000000
         C            3.008518070000     3.738074240000    -8.473347130000    12.000000000000
         O            3.503610250000    -3.823107000000     7.212335910000    15.994914619570
         O           -0.525649810000     6.011941810000     6.933616990000    15.994914619570
         H            5.058297190000     6.895677150000     5.870898140000     1.007825032230
         H            8.035641400000    -0.741072730000     6.263527290000     1.007825032230
         H            7.589018420000     3.638755720000     8.835189620000     1.007825032230
         H            9.354218020000     4.197835910000     5.975229540000     1.007825032230
         H           -5.766115660000    -1.641881930000    10.315423430000     1.007825032230
         H           -2.988642120000    -0.455428910000    11.887581460000     1.007825032230
         H           -4.772530920000     3.112424280000     8.711819230000     1.007825032230
         H           -1.708911840000    -4.507218470000     9.067129500000     1.007825032230
         H            7.554896960000    -1.899767370000     0.968629390000     1.007825032230
         H            3.899471970000     6.864303730000     0.502763900000     1.007825032230
         H           -6.466804180000     2.878736780000     3.513117650000     1.007825032230
         H           -3.183236480000    -6.031532230000     4.049642080000     1.007825032230
         H            3.227223440000     6.291106330000    -4.059699770000     1.007825032230
         H            6.917268220000    -2.356174780000    -3.613378580000     1.007825032230
         H            2.174888070000     5.613963600000    -8.555829900000     1.007825032230
         H            2.159396660000     2.848298770000   -12.318514230000     1.007825032230
         H            4.063637580000    -1.452955430000   -12.115126220000     1.007825032230
         H            5.947726460000    -3.008426610000    -8.136567700000     1.007825032230
         H           -4.652193920000    -6.784106770000    -0.298467310000     1.007825032230
         H           -7.726071190000     2.093084090000    -0.893475360000     1.007825032230
         H           -5.691927840000    -7.452695850000    -4.798243670000     1.007825032230
         H           -8.638360850000     1.473259020000    -5.432330500000     1.007825032230
         H           -8.643823670000    -1.283985570000    -9.201310080000     1.007825032230
         H           -7.190289230000    -5.750677730000    -8.881167040000     1.007825032230
         H            0.694719260000     7.166574110000     6.199088010000     1.007825032230
         H            3.219438530000    -4.432552370000     5.492433800000     1.007825032230
         C           -1.018041760000    -2.067217520000    -6.414246930000    12.000000000000
         C           -0.040068050000    -3.694636050000    -4.599930140000    12.000000000000
         C            0.295082440000    -2.887308010000    -2.095087580000    12.000000000000
         C           -0.326797140000    -0.422729840000    -1.416909660000    12.000000000000
         C           -1.320715610000     1.153928760000    -3.249152770000    12.000000000000
         C           -1.688140350000     0.375140490000    -5.743251860000    12.000000000000
         F            0.623497560000    -6.023673050000    -5.332662180000    18.998403162730
         N            1.256848720000    -4.559888540000    -0.108788320000    14.003074004430
         N           -2.017900960000     3.745351770000    -2.526710850000    14.003074004430
         H           -2.469627520000     1.680117510000    -7.107226130000     1.007825032230
         H           -0.060924580000     0.218168500000     0.506399170000     1.007825032230
         H           -1.236198360000    -2.747524970000    -8.331054530000     1.007825032230
         O            2.060859350000    -3.521958740000     1.833061180000    15.994914619570
         O            1.183365590000    -6.860247050000    -0.444704520000    15.994914619570
         O           -2.906989510000     5.119293960000    -4.196470210000    15.994914619570
         O           -1.674623890000     4.391770190000    -0.313511800000    15.994914619570

  Running in c1 symmetry.

  Rotational constants: A =      0.00269  B =      0.00202  C =      0.00154 [cm^-1]
  Rotational constants: A =     80.53073  B =     60.67005  C =     46.28054 [MHz]
  Nuclear repulsion = 8036.031125408757362

  Charge       = 0
  Multiplicity = 1
  Electrons    = 376
  Nalpha       = 188
  Nbeta        = 188

  ==> Algorithm <==

  SCF Algorithm Type is DF.
  DIIS enabled.
  MOM disabled.
  Fractional occupation disabled.
  Guess Type is SAD.
  Energy threshold   = 1.00e-06
  Density threshold  = 1.00e-06
  Integral threshold = 1.00e-12

  ==> Primary Basis <==

  Basis Set: AUG-CC-PVTZ
    Blend: AUG-CC-PVTZ
    Number of shells: 1031
    Number of basis functions: 3197
    Number of Cartesian functions: 3750
    Spherical Harmonics?: true
    Max angular momentum: 3

  ==> DFT Potential <==

   => LibXC <=

    Version 7.0.0
    S. Lehtola, C. Steigemann, M. J.T. Oliveira, and M. A.L. Marques.,  SoftwareX 7, 1–5 (2018) (10.1016/j.softx.2017.11.002)

   => Composite Functional: WB97X-D <= 

    wB97X-D Hyb-GGA Exchange-Correlation Functional

    J.-D. Chai and M. Head-Gordon.,  Phys. Chem. Chem. Phys. 10, 6615-6620 (2008) (10.1039/B810189B)

    Deriv               =              1
    GGA                 =           TRUE
    Meta                =          FALSE

    Exchange Hybrid     =           TRUE
    MP2 Hybrid          =          FALSE

   => Exchange-Correlation Functionals <=

    1.0000   wB97X-D range-separated functional

   => Exact (HF) Exchange <=

    0.7780            HF,LR [omega = 0.2000]
    0.2220               HF 

   => LibXC Density Thresholds  <==

    XC_HYB_GGA_XC_WB97X_D:  1.00E-14 

   => Molecular Quadrature <=

    Radial Scheme          =       TREUTLER
    Pruning Scheme         =           NONE
    Nuclear Scheme         =       TREUTLER

    Blocking Scheme        =         OCTREE
    BS radius alpha        =              1
    Pruning alpha          =              1
    Radial Points          =             75
    Spherical Points       =            302
    Total Points           =        1660585
    Total Blocks           =          11397
    Max Points             =            256
    Max Functions          =           2139
    Weights Tolerance      =       1.00E-15

   => Loading Basis Set <=

    Name: (AUG-CC-PVTZ AUX)
    Role: JKFIT
    Keyword: DF_BASIS_SCF
    atoms 1-40, 69-74  entry C          line   162 file /storage/home/hcoda1/5/vlita3/.conda/envs/p4_qcml/share/psi4/basis/aug-cc-pvtz-jkfit.gbs 
    atoms 41-42, 81-84 entry O          line   286 file /storage/home/hcoda1/5/vlita3/.conda/envs/p4_qcml/share/psi4/basis/aug-cc-pvtz-jkfit.gbs 
    atoms 43-68, 78-80 entry H          line    70 file /storage/home/hcoda1/5/vlita3/.conda/envs/p4_qcml/share/psi4/basis/aug-cc-pvtz-jkfit.gbs 
    atoms 75           entry F          line   348 file /storage/home/hcoda1/5/vlita3/.conda/envs/p4_qcml/share/psi4/basis/aug-cc-pvtz-jkfit.gbs 
    atoms 76-77        entry N          line   224 file /storage/home/hcoda1/5/vlita3/.conda/envs/p4_qcml/share/psi4/basis/aug-cc-pvtz-jkfit.gbs 

  ==> Integral Setup <==

  ==> DiskDFJK: Density-Fitted J/K Matrices <==

    J tasked:                  Yes
    K tasked:                  Yes
    wK tasked:                 Yes
    Omega:               2.000E-01
    OpenMP threads:             10
    Integrals threads:          10
    Memory [MiB]:           172800
    Algorithm:                Disk
    Integral Cache:           NONE
    Schwarz Cutoff:          1E-12
    Fitting Condition:       1E-10

   => Auxiliary Basis Set <=

  Basis Set: (AUG-CC-PVTZ AUX)
    Blend: AUG-CC-PVTZ-JKFIT
    Number of shells: 2056
    Number of basis functions: 7054
    Number of Cartesian functions: 8800
    Spherical Harmonics?: true
    Max angular momentum: 4

  Minimum eigenvalue in the overlap matrix is 8.4696743678E-09.
  Reciprocal condition number of the overlap matrix is 2.5542464085E-10.
    Using canonical orthogonalization.
  Overall, 16 of 3197 possible MOs eliminated.


  ==> Pre-Iterations <==

  SCF Guess: Superposition of Atomic Densities via on-the-fly atomic UHF (no occupation information).

   -------------------------
    Irrep   Nso     Nmo    
   -------------------------
     A       3197    3181 
   -------------------------
    Total    3197    3181
   -------------------------

  ==> Iterations <==

                           Total Energy        Delta E     RMS |[F,P]|

   @DF-RKS iter SAD: -2432.68226452884710   -2.43268e+03   0.00000e+00 
   @DF-RKS iter   1: -2428.90280715423251    3.77946e+00   6.45142e-04 DIIS/ADIIS
   @DF-RKS iter   2: -2429.33978436481948   -4.36977e-01   6.21780e-04 DIIS/ADIIS
   @DF-RKS iter   3: -2430.85507795897274   -1.51529e+00   1.28607e-04 DIIS/ADIIS
   @DF-RKS iter   4: -2430.90964068961375   -5.45627e-02   5.18748e-05 DIIS
   @DF-RKS iter   5: -2430.91790082285161   -8.26013e-03   2.58316e-05 DIIS
   @DF-RKS iter   6: -2430.92020824881092   -2.30743e-03   7.81229e-06 DIIS
   @DF-RKS iter   7: -2430.92043597185102   -2.27723e-04   2.65451e-06 DIIS
   @DF-RKS iter   8: -2430.92046848738119   -3.25155e-05   6.33179e-07 DIIS
   @DF-RKS iter   9: -2430.92047187011394   -3.38273e-06   3.67428e-07 DIIS
   @DF-RKS iter  10: -2430.92047286522347   -9.95110e-07   1.50053e-07 DIIS
  Energy and wave function converged.


  ==> Post-Iterations <==

   Electrons on quadrature grid:
      Ntotal   =  375.9997333310 ; deviation = -2.667e-04 

    Orbital Energies [Eh]
    ---------------------

    Doubly Occupied:                                                      

       1A    -24.858266     2A    -19.311743     3A    -19.310745  
       4A    -19.300471     5A    -19.299451     6A    -19.284927  
       7A    -19.257654     8A    -14.707567     9A    -14.694341  
      10A    -10.430643    11A    -10.384542    12A    -10.373087  
      13A    -10.351975    14A    -10.348602    15A    -10.344044  
      16A    -10.338789    17A    -10.333323    18A    -10.320717  
      19A    -10.312296    20A    -10.311988    21A    -10.311841  
      22A    -10.311819    23A    -10.311425    24A    -10.309618  
      25A    -10.309520    26A    -10.309097    27A    -10.309043  
      28A    -10.308989    29A    -10.308603    30A    -10.307496  
      31A    -10.305105    32A    -10.304714    33A    -10.304509  
      34A    -10.303925    35A    -10.303587    36A    -10.303027  
      37A    -10.302693    38A    -10.302459    39A    -10.302094  
      40A    -10.302044    41A    -10.301959    42A    -10.301521  
      43A    -10.300885    44A    -10.300821    45A    -10.298798  
      46A    -10.298750    47A    -10.298351    48A    -10.297489  
      49A    -10.297086    50A    -10.296196    51A    -10.294825  
      52A    -10.294786    53A    -10.294448    54A    -10.293413  
      55A    -10.292978    56A     -1.369426    57A     -1.350399  
      58A     -1.339374    59A     -1.176558    60A     -1.165445  
      61A     -1.160053    62A     -1.132248    63A     -1.026801  
      64A     -1.019446    65A     -1.011751    66A     -0.990600  
      67A     -0.987848    68A     -0.957105    69A     -0.951223  
      70A     -0.949268    71A     -0.923155    72A     -0.917991  
      73A     -0.899901    74A     -0.895858    75A     -0.893060  
      76A     -0.887332    77A     -0.869904    78A     -0.865830  
      79A     -0.847319    80A     -0.841159    81A     -0.834828  
      82A     -0.832277    83A     -0.831495    84A     -0.818446  
      85A     -0.812040    86A     -0.806021    87A     -0.792587  
      88A     -0.770259    89A     -0.751210    90A     -0.750936  
      91A     -0.747518    92A     -0.720428    93A     -0.711604  
      94A     -0.709767    95A     -0.704650    96A     -0.704274  
      97A     -0.701792    98A     -0.700166    99A     -0.695043  
     100A     -0.686423   101A     -0.680533   102A     -0.664728  
     103A     -0.661859   104A     -0.660222   105A     -0.653424  
     106A     -0.644291   107A     -0.639397   108A     -0.638262  
     109A     -0.636214   110A     -0.625563   111A     -0.622999  
     112A     -0.622537   113A     -0.619803   114A     -0.615333  
     115A     -0.610422   116A     -0.602456   117A     -0.598244  
     118A     -0.594962   119A     -0.592110   120A     -0.586922  
     121A     -0.576841   122A     -0.567712   123A     -0.566701  
     124A     -0.552043   125A     -0.548418   126A     -0.548036  
     127A     -0.544964   128A     -0.543433   129A     -0.538036  
     130A     -0.531986   131A     -0.529433   132A     -0.528097  
     133A     -0.521131   134A     -0.516517   135A     -0.515226  
     136A     -0.514124   137A     -0.513321   138A     -0.511006  
     139A     -0.507309   140A     -0.505838   141A     -0.504545  
     142A     -0.502270   143A     -0.499580   144A     -0.493752  
     145A     -0.488197   146A     -0.485381   147A     -0.481249  
     148A     -0.475310   149A     -0.471331   150A     -0.468180  
     151A     -0.465064   152A     -0.463834   153A     -0.463711  
     154A     -0.454576   155A     -0.449315   156A     -0.444910  
     157A     -0.440599   158A     -0.438770   159A     -0.432256  
     160A     -0.430238   161A     -0.427980   162A     -0.425015  
     163A     -0.423152   164A     -0.421819   165A     -0.420987  
     166A     -0.417082   167A     -0.414725   168A     -0.412831  
     169A     -0.410216   170A     -0.407620   171A     -0.405760  
     172A     -0.399823   173A     -0.397050   174A     -0.392466  
     175A     -0.389898   176A     -0.387059   177A     -0.384139  
     178A     -0.377252   179A     -0.368638   180A     -0.360968  
     181A     -0.344180   182A     -0.338942   183A     -0.321957  
     184A     -0.312416   185A     -0.292630   186A     -0.288908  
     187A     -0.272126   188A     -0.269172  

    Virtual:                                                              

     189A     -0.049592   190A     -0.040608   191A     -0.016589  
     192A     -0.009569   193A      0.020956   194A      0.022903  
     195A      0.026528   196A      0.029142   197A      0.029933  
     198A      0.031674   199A      0.032928   200A      0.034653  
     201A      0.035970   202A      0.037630   203A      0.038924  
     204A      0.045289   205A      0.046473   206A      0.046842  
     207A      0.048078   208A      0.049481   209A      0.049800  
     210A      0.055764   211A      0.056606   212A      0.057724  
     213A      0.059277   214A      0.060409   215A      0.062833  
     216A      0.063911   217A      0.064952   218A      0.065537  
     219A      0.066624   220A      0.069671   221A      0.072716  
     222A      0.074148   223A      0.077107   224A      0.077644  
     225A      0.080266   226A      0.081563   227A      0.084062  
     228A      0.087448   229A      0.088786   230A      0.089272  
     231A      0.092469   232A      0.094043   233A      0.095560  
     234A      0.096435   235A      0.097749   236A      0.099112  
     237A      0.099758   238A      0.100947   239A      0.102575  
     240A      0.103790   241A      0.104397   242A      0.105424  
     243A      0.106456   244A      0.107171   245A      0.109315  
     246A      0.112400   247A      0.113198   248A      0.113830  
     249A      0.115479   250A      0.116625   251A      0.119065  
     252A      0.119842   253A      0.120181   254A      0.121348  
     255A      0.124775   256A      0.125700   257A      0.126668  
     258A      0.129299   259A      0.129445   260A      0.130109  
     261A      0.130936   262A      0.132821   263A      0.133178  
     264A      0.135109   265A      0.137868   266A      0.138407  
     267A      0.139504   268A      0.141007   269A      0.142280  
     270A      0.144014   271A      0.145145   272A      0.145851  
     273A      0.147156   274A      0.149195   275A      0.151225  
     276A      0.151897   277A      0.154015   278A      0.155473  
     279A      0.156545   280A      0.157716   281A      0.159641  
     282A      0.160692   283A      0.162414   284A      0.163023  
     285A      0.163915   286A      0.165422   287A      0.167423  
     288A      0.170144   289A      0.171159   290A      0.173691  
     291A      0.174087   292A      0.174769   293A      0.176995  
     294A      0.180197   295A      0.181259   296A      0.181975  
     297A      0.183702   298A      0.184018   299A      0.184953  
     300A      0.185596   301A      0.186283   302A      0.189758  
     303A      0.191079   304A      0.191972   305A      0.193709  
     306A      0.194518   307A      0.195566   308A      0.196933  
     309A      0.198230   310A      0.199442   311A      0.201084  
     312A      0.202776   313A      0.203858   314A      0.204337  
     315A      0.206253   316A      0.207358   317A      0.208085  
     318A      0.208721   319A      0.210123   320A      0.211076  
     321A      0.212941   322A      0.213242   323A      0.214701  
     324A      0.216092   325A      0.216365   326A      0.217775  
     327A      0.218549   328A      0.219647   329A      0.220416  
     330A      0.221364   331A      0.222196   332A      0.223096  
     333A      0.224762   334A      0.225410   335A      0.226094  
     336A      0.227869   337A      0.228516   338A      0.229108  
     339A      0.229512   340A      0.231263   341A      0.231721  
     342A      0.232841   343A      0.233280   344A      0.235098  
     345A      0.236415   346A      0.237536   347A      0.237864  
     348A      0.238808   349A      0.239910   350A      0.241344  
     351A      0.241989   352A      0.242563   353A      0.244433  
     354A      0.246234   355A      0.247326   356A      0.247943  
     357A      0.248104   358A      0.249214   359A      0.250435  
     360A      0.250894   361A      0.251496   362A      0.252809  
     363A      0.253750   364A      0.253913   365A      0.254983  
     366A      0.255980   367A      0.256379   368A      0.256679  
     369A      0.259178   370A      0.259636   371A      0.260543  
     372A      0.262366   373A      0.263826   374A      0.264356  
     375A      0.265095   376A      0.266282   377A      0.267268  
     378A      0.267744   379A      0.269930   380A      0.271371  
     381A      0.271775   382A      0.272147   383A      0.273004  
     384A      0.273768   385A      0.275719   386A      0.277012  
     387A      0.277455   388A      0.278422   389A      0.279428  
     390A      0.280077   391A      0.280654   392A      0.282925  
     393A      0.283317   394A      0.284206   395A      0.286161  
     396A      0.287538   397A      0.288086   398A      0.289432  
     399A      0.291623   400A      0.293258   401A      0.294053  
     402A      0.294712   403A      0.295505   404A      0.296800  
     405A      0.297687   406A      0.298156   407A      0.299133  
     408A      0.300404   409A      0.302483   410A      0.306346  
     411A      0.307759   412A      0.308567   413A      0.309594  
     414A      0.310727   415A      0.311346   416A      0.311781  
     417A      0.313436   418A      0.314737   419A      0.315171  
     420A      0.315789   421A      0.318077   422A      0.319077  
     423A      0.320670   424A      0.321112   425A      0.321466  
     426A      0.323576   427A      0.324602   428A      0.325309  
     429A      0.325959   430A      0.327649   431A      0.328867  
     432A      0.329949   433A      0.331019   434A      0.331412  
     435A      0.333233   436A      0.334529   437A      0.334547  
     438A      0.336081   439A      0.336671   440A      0.338277  
     441A      0.340140   442A      0.341023   443A      0.342682  
     444A      0.344936   445A      0.345290   446A      0.346461  
     447A      0.346751   448A      0.348127   449A      0.349688  
     450A      0.351720   451A      0.352478   452A      0.353743  
     453A      0.354395   454A      0.355266   455A      0.356928  
     456A      0.359081   457A      0.359554   458A      0.360099  
     459A      0.361397   460A      0.362698   461A      0.364084  
     462A      0.365169   463A      0.366955   464A      0.367036  
     465A      0.368200   466A      0.370670   467A      0.370775  
     468A      0.372151   469A      0.372555   470A      0.374382  
     471A      0.375376   472A      0.377378   473A      0.380096  
     474A      0.381476   475A      0.381707   476A      0.382906  
     477A      0.385588   478A      0.386776   479A      0.387493  
     480A      0.389456   481A      0.391208   482A      0.393189  
     483A      0.393905   484A      0.395883   485A      0.396485  
     486A      0.397823   487A      0.399064   488A      0.400188  
     489A      0.401481   490A      0.402392   491A      0.404908  
     492A      0.405532   493A      0.405706   494A      0.407678  
     495A      0.408412   496A      0.409587   497A      0.411229  
     498A      0.411635   499A      0.412225   500A      0.413532  
     501A      0.414217   502A      0.416261   503A      0.417798  
     504A      0.419400   505A      0.419737   506A      0.422453  
     507A      0.423149   508A      0.423755   509A      0.424441  
     510A      0.425818   511A      0.427811   512A      0.429847  
     513A      0.432308   514A      0.433375   515A      0.434283  
     516A      0.435318   517A      0.436806   518A      0.437502  
     519A      0.438868   520A      0.440648   521A      0.442126  
     522A      0.443947   523A      0.446894   524A      0.447003  
     525A      0.449375   526A      0.449879   527A      0.452114  
     528A      0.452636   529A      0.453518   530A      0.454617  
     531A      0.456670   532A      0.458067   533A      0.458378  
     534A      0.460187   535A      0.460717   536A      0.461459  
     537A      0.463266   538A      0.463580   539A      0.464502  
     540A      0.464832   541A      0.466848   542A      0.467319  
     543A      0.468332   544A      0.469522   545A      0.470236  
     546A      0.470871   547A      0.473085   548A      0.474397  
     549A      0.474957   550A      0.475813   551A      0.476678  
     552A      0.477858   553A      0.479356   554A      0.481113  
     555A      0.481677   556A      0.483072   557A      0.484415  
     558A      0.486867   559A      0.487481   560A      0.488004  
     561A      0.489722   562A      0.491112   563A      0.491943  
     564A      0.493291   565A      0.494398   566A      0.496420  
     567A      0.498277   568A      0.498974   569A      0.499147  
     570A      0.501144   571A      0.501737   572A      0.502723  
     573A      0.504024   574A      0.504272   575A      0.505234  
     576A      0.506070   577A      0.507643   578A      0.508668  
     579A      0.509382   580A      0.510497   581A      0.512680  
     582A      0.514400   583A      0.515234   584A      0.516408  
     585A      0.517638   586A      0.518147   587A      0.518833  
     588A      0.521015   589A      0.522084   590A      0.522209  
     591A      0.522800   592A      0.523599   593A      0.523900  
     594A      0.525609   595A      0.527180   596A      0.528259  
     597A      0.529803   598A      0.530898   599A      0.531445  
     600A      0.532301   601A      0.533401   602A      0.533853  
     603A      0.536012   604A      0.536997   605A      0.538855  
     606A      0.540107   607A      0.541199   608A      0.542414  
     609A      0.543423   610A      0.544888   611A      0.545478  
     612A      0.546673   613A      0.547373   614A      0.549507  
     615A      0.550116   616A      0.551963   617A      0.553334  
     618A      0.554084   619A      0.554512   620A      0.556298  
     621A      0.557375   622A      0.558547   623A      0.559479  
     624A      0.561586   625A      0.562408   626A      0.563954  
     627A      0.564235   628A      0.565985   629A      0.566839  
     630A      0.567557   631A      0.569044   632A      0.569481  
     633A      0.570667   634A      0.572344   635A      0.574072  
     636A      0.574476   637A      0.575786   638A      0.577251  
     639A      0.578692   640A      0.579941   641A      0.580630  
     642A      0.583528   643A      0.585036   644A      0.586022  
     645A      0.587932   646A      0.588304   647A      0.590299  
     648A      0.591307   649A      0.592362   650A      0.594780  
     651A      0.595436   652A      0.595911   653A      0.597592  
     654A      0.598931   655A      0.600725   656A      0.601035  
     657A      0.602649   658A      0.605721   659A      0.607661  
     660A      0.608209   661A      0.612036   662A      0.612112  
     663A      0.613380   664A      0.616122   665A      0.616460  
     666A      0.618752   667A      0.620020   668A      0.620841  
     669A      0.621707   670A      0.623651   671A      0.624704  
     672A      0.625634   673A      0.626583   674A      0.628864  
     675A      0.630042   676A      0.631073   677A      0.633036  
     678A      0.634248   679A      0.635143   680A      0.635806  
     681A      0.637534   682A      0.638733   683A      0.640878  
     684A      0.642881   685A      0.644433   686A      0.644524  
     687A      0.645179   688A      0.647061   689A      0.648664  
     690A      0.650410   691A      0.651880   692A      0.652731  
     693A      0.654500   694A      0.655954   695A      0.656519  
     696A      0.658585   697A      0.659903   698A      0.662459  
     699A      0.663345   700A      0.663864   701A      0.667205  
     702A      0.668568   703A      0.669781   704A      0.670416  
     705A      0.672491   706A      0.673469   707A      0.675615  
     708A      0.678468   709A      0.679634   710A      0.680117  
     711A      0.681471   712A      0.682802   713A      0.684547  
     714A      0.686867   715A      0.688770   716A      0.689574  
     717A      0.691677   718A      0.692233   719A      0.693383  
     720A      0.694814   721A      0.697575   722A      0.698111  
     723A      0.699443   724A      0.700355   725A      0.702806  
     726A      0.703905   727A      0.705044   728A      0.706271  
     729A      0.706798   730A      0.709321   731A      0.710116  
     732A      0.713017   733A      0.713581   734A      0.714665  
     735A      0.716462   736A      0.719348   737A      0.720287  
     738A      0.722067   739A      0.723536   740A      0.724059  
     741A      0.726682   742A      0.727794   743A      0.728291  
     744A      0.728796   745A      0.731195   746A      0.733188  
     747A      0.734473   748A      0.734896   749A      0.737227  
     750A      0.738164   751A      0.739228   752A      0.741332  
     753A      0.743224   754A      0.744543   755A      0.745728  
     756A      0.747658   757A      0.748235   758A      0.750039  
     759A      0.752428   760A      0.753007   761A      0.753628  
     762A      0.755192   763A      0.756624   764A      0.756966  
     765A      0.758297   766A      0.759841   767A      0.762368  
     768A      0.763641   769A      0.765297   770A      0.766205  
     771A      0.766247   772A      0.768260   773A      0.770892  
     774A      0.773116   775A      0.773553   776A      0.774413  
     777A      0.775438   778A      0.777458   779A      0.778201  
     780A      0.779842   781A      0.780995   782A      0.782298  
     783A      0.782920   784A      0.784125   785A      0.785520  
     786A      0.786464   787A      0.787696   788A      0.790708  
     789A      0.791169   790A      0.795817   791A      0.796371  
     792A      0.797023   793A      0.797146   794A      0.799021  
     795A      0.799593   796A      0.802624   797A      0.805446  
     798A      0.807372   799A      0.808619   800A      0.810146  
     801A      0.811969   802A      0.812153   803A      0.813645  
     804A      0.813919   805A      0.816565   806A      0.818560  
     807A      0.819113   808A      0.820810   809A      0.822058  
     810A      0.823866   811A      0.825372   812A      0.825672  
     813A      0.826753   814A      0.829090   815A      0.831825  
     816A      0.832944   817A      0.834547   818A      0.835201  
     819A      0.836755   820A      0.837131   821A      0.839371  
     822A      0.840551   823A      0.841131   824A      0.842642  
     825A      0.843931   826A      0.846370   827A      0.848157  
     828A      0.849581   829A      0.850784   830A      0.852396  
     831A      0.853447   832A      0.854979   833A      0.856161  
     834A      0.858815   835A      0.860309   836A      0.860598  
     837A      0.861153   838A      0.862152   839A      0.863684  
     840A      0.865804   841A      0.866381   842A      0.867338  
     843A      0.869775   844A      0.871865   845A      0.873075  
     846A      0.873664   847A      0.875152   848A      0.875608  
     849A      0.876355   850A      0.877123   851A      0.879210  
     852A      0.881141   853A      0.882876   854A      0.884137  
     855A      0.885093   856A      0.885688   857A      0.888004  
     858A      0.888873   859A      0.889583   860A      0.891203  
     861A      0.892133   862A      0.892413   863A      0.893103  
     864A      0.895944   865A      0.898259   866A      0.898771  
     867A      0.899820   868A      0.901981   869A      0.902063  
     870A      0.902990   871A      0.904051   872A      0.905526  
     873A      0.907480   874A      0.908592   875A      0.910163  
     876A      0.912816   877A      0.912945   878A      0.914929  
     879A      0.915314   880A      0.916522   881A      0.918281  
     882A      0.920268   883A      0.921249   884A      0.922131  
     885A      0.922868   886A      0.924193   887A      0.924985  
     888A      0.926682   889A      0.929913   890A      0.930143  
     891A      0.931242   892A      0.931805   893A      0.932418  
     894A      0.934033   895A      0.935423   896A      0.936712  
     897A      0.937883   898A      0.938035   899A      0.940963  
     900A      0.941357   901A      0.942497   902A      0.945296  
     903A      0.947183   904A      0.947978   905A      0.948651  
     906A      0.950366   907A      0.952285   908A      0.952613  
     909A      0.954086   910A      0.954774   911A      0.958551  
     912A      0.959646   913A      0.961237   914A      0.963434  
     915A      0.964280   916A      0.965726   917A      0.967208  
     918A      0.967930   919A      0.969888   920A      0.971350  
     921A      0.971520   922A      0.973256   923A      0.976179  
     924A      0.976868   925A      0.978086   926A      0.979999  
     927A      0.981161   928A      0.982547   929A      0.985175  
     930A      0.986374   931A      0.987275   932A      0.989632  
     933A      0.990700   934A      0.993644   935A      0.994496  
     936A      0.994869   937A      0.997295   938A      0.998218  
     939A      1.000246   940A      1.001951   941A      1.003638  
     942A      1.004224   943A      1.005663   944A      1.007653  
     945A      1.008361   946A      1.009700   947A      1.011198  
     948A      1.013148   949A      1.014049   950A      1.016382  
     951A      1.017064   952A      1.018977   953A      1.021060  
     954A      1.021577   955A      1.022125   956A      1.023576  
     957A      1.024171   958A      1.025359   959A      1.026467  
     960A      1.030069   961A      1.031025   962A      1.032326  
     963A      1.034553   964A      1.035759   965A      1.036425  
     966A      1.038456   967A      1.040588   968A      1.042988  
     969A      1.044749   970A      1.046488   971A      1.047862  
     972A      1.049721   973A      1.051395   974A      1.053344  
     975A      1.054157   976A      1.057611   977A      1.058627  
     978A      1.059594   979A      1.061727   980A      1.063032  
     981A      1.063814   982A      1.066432   983A      1.068209  
     984A      1.069993   985A      1.070812   986A      1.071299  
     987A      1.073458   988A      1.075032   989A      1.075225  
     990A      1.077674   991A      1.078681   992A      1.079751  
     993A      1.082396   994A      1.084488   995A      1.086088  
     996A      1.086702   997A      1.088442   998A      1.089835  
     999A      1.090932  1000A      1.092582  1001A      1.095161  
    1002A      1.095764  1003A      1.097452  1004A      1.098194  
    1005A      1.099800  1006A      1.100901  1007A      1.104082  
    1008A      1.105584  1009A      1.106333  1010A      1.107492  
    1011A      1.109693  1012A      1.110951  1013A      1.113160  
    1014A      1.113913  1015A      1.114755  1016A      1.116163  
    1017A      1.116630  1018A      1.117418  1019A      1.120661  
    1020A      1.122334  1021A      1.124733  1022A      1.125908  
    1023A      1.127100  1024A      1.128981  1025A      1.130356  
    1026A      1.131290  1027A      1.132383  1028A      1.133646  
    1029A      1.135618  1030A      1.136991  1031A      1.137961  
    1032A      1.139118  1033A      1.140975  1034A      1.143310  
    1035A      1.144249  1036A      1.144874  1037A      1.145621  
    1038A      1.147317  1039A      1.150677  1040A      1.151615  
    1041A      1.154875  1042A      1.155962  1043A      1.157454  
    1044A      1.158800  1045A      1.159589  1046A      1.162133  
    1047A      1.162529  1048A      1.164071  1049A      1.166215  
    1050A      1.167007  1051A      1.169872  1052A      1.170853  
    1053A      1.173569  1054A      1.174908  1055A      1.177025  
    1056A      1.177939  1057A      1.178438  1058A      1.180066  
    1059A      1.181946  1060A      1.184201  1061A      1.186563  
    1062A      1.188226  1063A      1.190275  1064A      1.191337  
    1065A      1.192687  1066A      1.194021  1067A      1.196493  
    1068A      1.196914  1069A      1.197204  1070A      1.200265  
    1071A      1.200389  1072A      1.201603  1073A      1.202856  
    1074A      1.205752  1075A      1.206350  1076A      1.207337  
    1077A      1.209089  1078A      1.210049  1079A      1.210581  
    1080A      1.214275  1081A      1.216540  1082A      1.217808  
    1083A      1.220111  1084A      1.220762  1085A      1.223368  
    1086A      1.224599  1087A      1.226117  1088A      1.228665  
    1089A      1.228922  1090A      1.230355  1091A      1.231732  
    1092A      1.233713  1093A      1.233805  1094A      1.236771  
    1095A      1.237425  1096A      1.237957  1097A      1.240927  
    1098A      1.242188  1099A      1.243926  1100A      1.247375  
    1101A      1.247829  1102A      1.248278  1103A      1.250458  
    1104A      1.250886  1105A      1.251630  1106A      1.253379  
    1107A      1.254236  1108A      1.256210  1109A      1.258135  
    1110A      1.259409  1111A      1.261944  1112A      1.263338  
    1113A      1.264301  1114A      1.267803  1115A      1.269511  
    1116A      1.270339  1117A      1.271987  1118A      1.273312  
    1119A      1.275137  1120A      1.277472  1121A      1.278239  
    1122A      1.280928  1123A      1.281967  1124A      1.282522  
    1125A      1.283298  1126A      1.285940  1127A      1.287329  
    1128A      1.288446  1129A      1.290511  1130A      1.291016  
    1131A      1.294302  1132A      1.295011  1133A      1.297614  
    1134A      1.300519  1135A      1.301321  1136A      1.301903  
    1137A      1.305361  1138A      1.306937  1139A      1.308350  
    1140A      1.310091  1141A      1.313519  1142A      1.314467  
    1143A      1.314841  1144A      1.316026  1145A      1.317780  
    1146A      1.319514  1147A      1.320345  1148A      1.322883  
    1149A      1.324553  1150A      1.325648  1151A      1.326917  
    1152A      1.328520  1153A      1.330494  1154A      1.330933  
    1155A      1.331919  1156A      1.334161  1157A      1.335228  
    1158A      1.337345  1159A      1.338022  1160A      1.340436  
    1161A      1.341440  1162A      1.342883  1163A      1.346736  
    1164A      1.348100  1165A      1.349093  1166A      1.351684  
    1167A      1.353722  1168A      1.354877  1169A      1.356456  
    1170A      1.359448  1171A      1.360225  1172A      1.360907  
    1173A      1.363049  1174A      1.363979  1175A      1.364895  
    1176A      1.366020  1177A      1.369103  1178A      1.371375  
    1179A      1.372536  1180A      1.373506  1181A      1.374755  
    1182A      1.378959  1183A      1.379212  1184A      1.381221  
    1185A      1.383531  1186A      1.383927  1187A      1.385002  
    1188A      1.388379  1189A      1.389101  1190A      1.390108  
    1191A      1.390857  1192A      1.392111  1193A      1.393948  
    1194A      1.394832  1195A      1.397661  1196A      1.398129  
    1197A      1.401544  1198A      1.402183  1199A      1.403155  
    1200A      1.403831  1201A      1.407049  1202A      1.408110  
    1203A      1.409093  1204A      1.411913  1205A      1.412470  
    1206A      1.413768  1207A      1.414975  1208A      1.417336  
    1209A      1.419628  1210A      1.420826  1211A      1.422994  
    1212A      1.425477  1213A      1.426420  1214A      1.426874  
    1215A      1.428963  1216A      1.429217  1217A      1.431638  
    1218A      1.432233  1219A      1.432759  1220A      1.436475  
    1221A      1.436748  1222A      1.438670  1223A      1.439464  
    1224A      1.440373  1225A      1.442984  1226A      1.445783  
    1227A      1.446670  1228A      1.448134  1229A      1.451902  
    1230A      1.452307  1231A      1.454341  1232A      1.456349  
    1233A      1.457823  1234A      1.459182  1235A      1.461217  
    1236A      1.463821  1237A      1.463940  1238A      1.465517  
    1239A      1.466325  1240A      1.467894  1241A      1.470581  
    1242A      1.471788  1243A      1.472132  1244A      1.474448  
    1245A      1.476679  1246A      1.477373  1247A      1.478744  
    1248A      1.483103  1249A      1.483362  1250A      1.484478  
    1251A      1.486242  1252A      1.488633  1253A      1.489008  
    1254A      1.489570  1255A      1.492137  1256A      1.493552  
    1257A      1.495310  1258A      1.496070  1259A      1.498595  
    1260A      1.500017  1261A      1.501715  1262A      1.504613  
    1263A      1.506347  1264A      1.506892  1265A      1.508421  
    1266A      1.508809  1267A      1.511818  1268A      1.514118  
    1269A      1.515535  1270A      1.516584  1271A      1.518669  
    1272A      1.519748  1273A      1.521600  1274A      1.522585  
    1275A      1.524295  1276A      1.525040  1277A      1.527566  
    1278A      1.528366  1279A      1.530313  1280A      1.532515  
    1281A      1.535202  1282A      1.536975  1283A      1.538464  
    1284A      1.539636  1285A      1.540973  1286A      1.542345  
    1287A      1.544298  1288A      1.545952  1289A      1.547550  
    1290A      1.548701  1291A      1.550579  1292A      1.552053  
    1293A      1.553851  1294A      1.555174  1295A      1.556155  
    1296A      1.557719  1297A      1.559942  1298A      1.561201  
    1299A      1.562023  1300A      1.564904  1301A      1.566344  
    1302A      1.566920  1303A      1.567832  1304A      1.570770  
    1305A      1.571654  1306A      1.573628  1307A      1.575722  
    1308A      1.577055  1309A      1.577995  1310A      1.578991  
    1311A      1.580553  1312A      1.583233  1313A      1.584372  
    1314A      1.585647  1315A      1.588645  1316A      1.589502  
    1317A      1.590674  1318A      1.591826  1319A      1.593827  
    1320A      1.594460  1321A      1.596637  1322A      1.598151  
    1323A      1.599506  1324A      1.601082  1325A      1.602468  
    1326A      1.602950  1327A      1.605772  1328A      1.606422  
    1329A      1.607885  1330A      1.610860  1331A      1.612206  
    1332A      1.612372  1333A      1.615414  1334A      1.616913  
    1335A      1.618547  1336A      1.621258  1337A      1.622294  
    1338A      1.623659  1339A      1.624658  1340A      1.625099  
    1341A      1.627029  1342A      1.629017  1343A      1.631225  
    1344A      1.632620  1345A      1.633534  1346A      1.634634  
    1347A      1.635503  1348A      1.638444  1349A      1.639027  
    1350A      1.640297  1351A      1.641827  1352A      1.644411  
    1353A      1.646047  1354A      1.646963  1355A      1.648022  
    1356A      1.649769  1357A      1.650815  1358A      1.653784  
    1359A      1.655419  1360A      1.657044  1361A      1.659339  
    1362A      1.660258  1363A      1.663916  1364A      1.664535  
    1365A      1.666660  1366A      1.671020  1367A      1.671255  
    1368A      1.672765  1369A      1.674308  1370A      1.676016  
    1371A      1.676888  1372A      1.677790  1373A      1.679513  
    1374A      1.680053  1375A      1.682037  1376A      1.685384  
    1377A      1.685778  1378A      1.687940  1379A      1.689727  
    1380A      1.690482  1381A      1.690981  1382A      1.693411  
    1383A      1.695287  1384A      1.696816  1385A      1.699148  
    1386A      1.699739  1387A      1.702018  1388A      1.702831  
    1389A      1.706164  1390A      1.707112  1391A      1.709782  
    1392A      1.710010  1393A      1.710989  1394A      1.711753  
    1395A      1.713148  1396A      1.715316  1397A      1.717040  
    1398A      1.720093  1399A      1.721904  1400A      1.723354  
    1401A      1.725437  1402A      1.726957  1403A      1.728260  
    1404A      1.729461  1405A      1.730151  1406A      1.734503  
    1407A      1.736176  1408A      1.737245  1409A      1.738294  
    1410A      1.739551  1411A      1.740514  1412A      1.743188  
    1413A      1.745505  1414A      1.747565  1415A      1.749645  
    1416A      1.749781  1417A      1.751978  1418A      1.752636  
    1419A      1.755756  1420A      1.756359  1421A      1.758331  
    1422A      1.759878  1423A      1.761018  1424A      1.763032  
    1425A      1.764385  1426A      1.765608  1427A      1.767824  
    1428A      1.769764  1429A      1.770655  1430A      1.772256  
    1431A      1.773415  1432A      1.775893  1433A      1.776699  
    1434A      1.779534  1435A      1.780873  1436A      1.783445  
    1437A      1.784792  1438A      1.787713  1439A      1.788601  
    1440A      1.788729  1441A      1.790181  1442A      1.793386  
    1443A      1.794099  1444A      1.796961  1445A      1.797986  
    1446A      1.800667  1447A      1.801819  1448A      1.803986  
    1449A      1.804951  1450A      1.808079  1451A      1.809164  
    1452A      1.811355  1453A      1.812442  1454A      1.816168  
    1455A      1.816470  1456A      1.818581  1457A      1.822450  
    1458A      1.822938  1459A      1.825350  1460A      1.827441  
    1461A      1.829015  1462A      1.830793  1463A      1.831248  
    1464A      1.833919  1465A      1.838738  1466A      1.840446  
    1467A      1.840974  1468A      1.843181  1469A      1.845118  
    1470A      1.847397  1471A      1.849342  1472A      1.849901  
    1473A      1.852926  1474A      1.853225  1475A      1.853695  
    1476A      1.856749  1477A      1.857783  1478A      1.861439  
    1479A      1.863700  1480A      1.864661  1481A      1.866971  
    1482A      1.869701  1483A      1.870256  1484A      1.873227  
    1485A      1.873985  1486A      1.874427  1487A      1.876029  
    1488A      1.876468  1489A      1.881212  1490A      1.882505  
    1491A      1.883919  1492A      1.887221  1493A      1.887754  
    1494A      1.889163  1495A      1.890512  1496A      1.892360  
    1497A      1.893697  1498A      1.895398  1499A      1.897847  
    1500A      1.899838  1501A      1.901329  1502A      1.902890  
    1503A      1.903779  1504A      1.906816  1505A      1.908323  
    1506A      1.908959  1507A      1.910611  1508A      1.912811  
    1509A      1.917407  1510A      1.918700  1511A      1.920184  
    1512A      1.920602  1513A      1.922334  1514A      1.926063  
    1515A      1.927451  1516A      1.928888  1517A      1.931540  
    1518A      1.934050  1519A      1.935716  1520A      1.937762  
    1521A      1.938569  1522A      1.939489  1523A      1.941786  
    1524A      1.943655  1525A      1.945679  1526A      1.947655  
    1527A      1.950556  1528A      1.952857  1529A      1.954670  
    1530A      1.956271  1531A      1.958202  1532A      1.960380  
    1533A      1.963094  1534A      1.964166  1535A      1.965249  
    1536A      1.967828  1537A      1.969274  1538A      1.969698  
    1539A      1.972251  1540A      1.972786  1541A      1.976335  
    1542A      1.976794  1543A      1.978448  1544A      1.979162  
    1545A      1.984376  1546A      1.986262  1547A      1.987381  
    1548A      1.989437  1549A      1.990033  1550A      1.991044  
    1551A      1.994906  1552A      1.996800  1553A      1.998366  
    1554A      2.001696  1555A      2.002135  1556A      2.003269  
    1557A      2.005146  1558A      2.007829  1559A      2.009091  
    1560A      2.010258  1561A      2.013693  1562A      2.013855  
    1563A      2.016000  1564A      2.017048  1565A      2.019835  
    1566A      2.021997  1567A      2.023646  1568A      2.024908  
    1569A      2.029217  1570A      2.032079  1571A      2.033357  
    1572A      2.035861  1573A      2.037525  1574A      2.038984  
    1575A      2.041222  1576A      2.044172  1577A      2.046230  
    1578A      2.049418  1579A      2.049841  1580A      2.050788  
    1581A      2.053313  1582A      2.056521  1583A      2.058532  
    1584A      2.060226  1585A      2.061511  1586A      2.063446  
    1587A      2.064316  1588A      2.066706  1589A      2.068659  
    1590A      2.069247  1591A      2.071071  1592A      2.074514  
    1593A      2.075454  1594A      2.077436  1595A      2.079547  
    1596A      2.081118  1597A      2.083488  1598A      2.087090  
    1599A      2.087596  1600A      2.088847  1601A      2.091146  
    1602A      2.093825  1603A      2.095349  1604A      2.096224  
    1605A      2.099078  1606A      2.100001  1607A      2.101061  
    1608A      2.103676  1609A      2.106970  1610A      2.108745  
    1611A      2.111098  1612A      2.112270  1613A      2.114922  
    1614A      2.117758  1615A      2.119177  1616A      2.120990  
    1617A      2.123792  1618A      2.124464  1619A      2.127078  
    1620A      2.130951  1621A      2.132764  1622A      2.133699  
    1623A      2.134513  1624A      2.137618  1625A      2.139149  
    1626A      2.139783  1627A      2.142322  1628A      2.143479  
    1629A      2.148039  1630A      2.149098  1631A      2.152314  
    1632A      2.152682  1633A      2.155180  1634A      2.155725  
    1635A      2.158034  1636A      2.160489  1637A      2.161120  
    1638A      2.164003  1639A      2.166536  1640A      2.167032  
    1641A      2.169106  1642A      2.171644  1643A      2.172033  
    1644A      2.175175  1645A      2.177302  1646A      2.179359  
    1647A      2.180902  1648A      2.181626  1649A      2.183588  
    1650A      2.184931  1651A      2.189434  1652A      2.190205  
    1653A      2.192651  1654A      2.194324  1655A      2.196107  
    1656A      2.199425  1657A      2.200642  1658A      2.201757  
    1659A      2.203867  1660A      2.206147  1661A      2.209578  
    1662A      2.212893  1663A      2.213502  1664A      2.216268  
    1665A      2.218923  1666A      2.222150  1667A      2.222904  
    1668A      2.226350  1669A      2.226689  1670A      2.230681  
    1671A      2.231927  1672A      2.234361  1673A      2.237423  
    1674A      2.239252  1675A      2.242210  1676A      2.244040  
    1677A      2.244895  1678A      2.248186  1679A      2.250076  
    1680A      2.252070  1681A      2.254001  1682A      2.256527  
    1683A      2.260328  1684A      2.261782  1685A      2.264183  
    1686A      2.266844  1687A      2.267883  1688A      2.268597  
    1689A      2.274148  1690A      2.274602  1691A      2.275946  
    1692A      2.277539  1693A      2.278287  1694A      2.281708  
    1695A      2.283987  1696A      2.287034  1697A      2.288502  
    1698A      2.289731  1699A      2.292719  1700A      2.293860  
    1701A      2.296619  1702A      2.299434  1703A      2.299588  
    1704A      2.301142  1705A      2.303627  1706A      2.306448  
    1707A      2.307071  1708A      2.312593  1709A      2.315463  
    1710A      2.315812  1711A      2.318718  1712A      2.322682  
    1713A      2.323159  1714A      2.325069  1715A      2.325986  
    1716A      2.328723  1717A      2.333475  1718A      2.335463  
    1719A      2.336947  1720A      2.337376  1721A      2.340855  
    1722A      2.343075  1723A      2.345067  1724A      2.345980  
    1725A      2.347193  1726A      2.349164  1727A      2.351069  
    1728A      2.353008  1729A      2.355167  1730A      2.357836  
    1731A      2.359954  1732A      2.360653  1733A      2.363893  
    1734A      2.368125  1735A      2.368977  1736A      2.370020  
    1737A      2.370455  1738A      2.372828  1739A      2.376376  
    1740A      2.377895  1741A      2.380156  1742A      2.383425  
    1743A      2.383861  1744A      2.386168  1745A      2.389252  
    1746A      2.391366  1747A      2.393223  1748A      2.395138  
    1749A      2.398378  1750A      2.401229  1751A      2.402264  
    1752A      2.405379  1753A      2.407566  1754A      2.408882  
    1755A      2.412575  1756A      2.413998  1757A      2.417044  
    1758A      2.417547  1759A      2.420165  1760A      2.422271  
    1761A      2.425689  1762A      2.429229  1763A      2.430880  
    1764A      2.434626  1765A      2.435970  1766A      2.439156  
    1767A      2.440753  1768A      2.443778  1769A      2.446331  
    1770A      2.448142  1771A      2.450176  1772A      2.451495  
    1773A      2.451772  1774A      2.456671  1775A      2.457866  
    1776A      2.460396  1777A      2.462961  1778A      2.465193  
    1779A      2.466546  1780A      2.468356  1781A      2.470257  
    1782A      2.473009  1783A      2.477938  1784A      2.478958  
    1785A      2.484123  1786A      2.486368  1787A      2.488902  
    1788A      2.491587  1789A      2.494512  1790A      2.496932  
    1791A      2.498940  1792A      2.501002  1793A      2.502328  
    1794A      2.506367  1795A      2.509264  1796A      2.512353  
    1797A      2.513854  1798A      2.515922  1799A      2.519566  
    1800A      2.522683  1801A      2.524205  1802A      2.525016  
    1803A      2.526561  1804A      2.529684  1805A      2.531212  
    1806A      2.537525  1807A      2.538420  1808A      2.541499  
    1809A      2.543650  1810A      2.545659  1811A      2.546099  
    1812A      2.548353  1813A      2.550053  1814A      2.552894  
    1815A      2.558598  1816A      2.559065  1817A      2.561605  
    1818A      2.568273  1819A      2.569261  1820A      2.569914  
    1821A      2.572588  1822A      2.576753  1823A      2.578458  
    1824A      2.581460  1825A      2.585852  1826A      2.588314  
    1827A      2.590107  1828A      2.592453  1829A      2.593913  
    1830A      2.599719  1831A      2.600928  1832A      2.602970  
    1833A      2.603852  1834A      2.609976  1835A      2.614658  
    1836A      2.615384  1837A      2.617858  1838A      2.622073  
    1839A      2.623735  1840A      2.624107  1841A      2.628031  
    1842A      2.628725  1843A      2.632730  1844A      2.634785  
    1845A      2.637651  1846A      2.640596  1847A      2.644054  
    1848A      2.646905  1849A      2.647849  1850A      2.648945  
    1851A      2.651925  1852A      2.654963  1853A      2.656506  
    1854A      2.658196  1855A      2.664023  1856A      2.665630  
    1857A      2.666857  1858A      2.670415  1859A      2.675717  
    1860A      2.678057  1861A      2.680918  1862A      2.683394  
    1863A      2.686249  1864A      2.690021  1865A      2.694593  
    1866A      2.694719  1867A      2.697750  1868A      2.699498  
    1869A      2.700159  1870A      2.703411  1871A      2.706150  
    1872A      2.708736  1873A      2.711371  1874A      2.713189  
    1875A      2.718277  1876A      2.718956  1877A      2.721414  
    1878A      2.724283  1879A      2.726443  1880A      2.731263  
    1881A      2.732913  1882A      2.737387  1883A      2.738910  
    1884A      2.744475  1885A      2.745353  1886A      2.749618  
    1887A      2.752260  1888A      2.753675  1889A      2.756564  
    1890A      2.760203  1891A      2.763394  1892A      2.765209  
    1893A      2.768451  1894A      2.772463  1895A      2.775594  
    1896A      2.777877  1897A      2.782508  1898A      2.785087  
    1899A      2.787137  1900A      2.789588  1901A      2.791791  
    1902A      2.795138  1903A      2.799257  1904A      2.804903  
    1905A      2.807158  1906A      2.809101  1907A      2.811472  
    1908A      2.813847  1909A      2.815473  1910A      2.820021  
    1911A      2.824062  1912A      2.827333  1913A      2.829132  
    1914A      2.834247  1915A      2.837831  1916A      2.843636  
    1917A      2.846283  1918A      2.849717  1919A      2.852269  
    1920A      2.855390  1921A      2.859846  1922A      2.859971  
    1923A      2.864606  1924A      2.870315  1925A      2.870763  
    1926A      2.880679  1927A      2.881548  1928A      2.886451  
    1929A      2.890520  1930A      2.893675  1931A      2.897988  
    1932A      2.901756  1933A      2.905484  1934A      2.907597  
    1935A      2.914210  1936A      2.919090  1937A      2.920962  
    1938A      2.925914  1939A      2.927646  1940A      2.929702  
    1941A      2.938063  1942A      2.945249  1943A      2.948222  
    1944A      2.952438  1945A      2.956348  1946A      2.960307  
    1947A      2.968338  1948A      2.969404  1949A      2.974830  
    1950A      2.975644  1951A      2.979915  1952A      2.983755  
    1953A      2.986512  1954A      2.993106  1955A      3.000271  
    1956A      3.001234  1957A      3.007482  1958A      3.010378  
    1959A      3.015040  1960A      3.021107  1961A      3.026790  
    1962A      3.027700  1963A      3.031642  1964A      3.035604  
    1965A      3.038961  1966A      3.043038  1967A      3.048486  
    1968A      3.051615  1969A      3.056650  1970A      3.063379  
    1971A      3.065656  1972A      3.070399  1973A      3.074627  
    1974A      3.078035  1975A      3.079312  1976A      3.087770  
    1977A      3.088988  1978A      3.092389  1979A      3.096749  
    1980A      3.098534  1981A      3.105678  1982A      3.112335  
    1983A      3.115400  1984A      3.117978  1985A      3.122599  
    1986A      3.124090  1987A      3.128874  1988A      3.131844  
    1989A      3.138925  1990A      3.141875  1991A      3.144744  
    1992A      3.146844  1993A      3.153069  1994A      3.155759  
    1995A      3.158014  1996A      3.160625  1997A      3.162605  
    1998A      3.166320  1999A      3.172159  2000A      3.177069  
    2001A      3.177308  2002A      3.184286  2003A      3.185276  
    2004A      3.188812  2005A      3.190974  2006A      3.195263  
    2007A      3.197640  2008A      3.203869  2009A      3.206209  
    2010A      3.212267  2011A      3.214856  2012A      3.220839  
    2013A      3.221859  2014A      3.227792  2015A      3.230280  
    2016A      3.236140  2017A      3.239041  2018A      3.240557  
    2019A      3.246655  2020A      3.247340  2021A      3.250946  
    2022A      3.253538  2023A      3.257079  2024A      3.259923  
    2025A      3.261901  2026A      3.262213  2027A      3.265411  
    2028A      3.267706  2029A      3.270202  2030A      3.276845  
    2031A      3.280762  2032A      3.281762  2033A      3.284136  
    2034A      3.285867  2035A      3.289249  2036A      3.291934  
    2037A      3.296281  2038A      3.301599  2039A      3.303005  
    2040A      3.305546  2041A      3.310912  2042A      3.313618  
    2043A      3.313790  2044A      3.314940  2045A      3.318911  
    2046A      3.320433  2047A      3.325107  2048A      3.325692  
    2049A      3.330111  2050A      3.333757  2051A      3.335738  
    2052A      3.339072  2053A      3.343426  2054A      3.344586  
    2055A      3.346065  2056A      3.348805  2057A      3.354317  
    2058A      3.356916  2059A      3.357343  2060A      3.359232  
    2061A      3.360753  2062A      3.362636  2063A      3.364617  
    2064A      3.365814  2065A      3.368923  2066A      3.371326  
    2067A      3.376798  2068A      3.378029  2069A      3.379487  
    2070A      3.383799  2071A      3.384240  2072A      3.386941  
    2073A      3.390404  2074A      3.391520  2075A      3.396588  
    2076A      3.397386  2077A      3.399864  2078A      3.402071  
    2079A      3.402928  2080A      3.406496  2081A      3.408804  
    2082A      3.411124  2083A      3.416701  2084A      3.417983  
    2085A      3.421923  2086A      3.425199  2087A      3.427010  
    2088A      3.427969  2089A      3.429998  2090A      3.432113  
    2091A      3.434301  2092A      3.437143  2093A      3.439213  
    2094A      3.442891  2095A      3.446187  2096A      3.447155  
    2097A      3.448377  2098A      3.451297  2099A      3.454708  
    2100A      3.457562  2101A      3.459601  2102A      3.461863  
    2103A      3.463488  2104A      3.464640  2105A      3.466272  
    2106A      3.469295  2107A      3.471802  2108A      3.473555  
    2109A      3.477252  2110A      3.479357  2111A      3.479506  
    2112A      3.484570  2113A      3.487208  2114A      3.491166  
    2115A      3.491588  2116A      3.493832  2117A      3.495566  
    2118A      3.497387  2119A      3.497756  2120A      3.500636  
    2121A      3.503674  2122A      3.505030  2123A      3.507145  
    2124A      3.508018  2125A      3.511048  2126A      3.512273  
    2127A      3.516369  2128A      3.518037  2129A      3.520394  
    2130A      3.522898  2131A      3.527170  2132A      3.530053  
    2133A      3.530164  2134A      3.533161  2135A      3.536633  
    2136A      3.537641  2137A      3.541300  2138A      3.543057  
    2139A      3.545423  2140A      3.548571  2141A      3.549813  
    2142A      3.552186  2143A      3.552397  2144A      3.556619  
    2145A      3.558322  2146A      3.561245  2147A      3.562006  
    2148A      3.563215  2149A      3.566443  2150A      3.569591  
    2151A      3.571040  2152A      3.573096  2153A      3.575621  
    2154A      3.579308  2155A      3.582134  2156A      3.584922  
    2157A      3.585672  2158A      3.587043  2159A      3.589535  
    2160A      3.590615  2161A      3.593216  2162A      3.595541  
    2163A      3.596141  2164A      3.600634  2165A      3.603595  
    2166A      3.604212  2167A      3.605857  2168A      3.607216  
    2169A      3.612703  2170A      3.614095  2171A      3.616155  
    2172A      3.618776  2173A      3.621108  2174A      3.622826  
    2175A      3.625930  2176A      3.626919  2177A      3.628787  
    2178A      3.631003  2179A      3.632392  2180A      3.637442  
    2181A      3.639577  2182A      3.640902  2183A      3.642141  
    2184A      3.644905  2185A      3.647113  2186A      3.650614  
    2187A      3.653316  2188A      3.654612  2189A      3.656943  
    2190A      3.658913  2191A      3.660769  2192A      3.661709  
    2193A      3.665553  2194A      3.666841  2195A      3.668146  
    2196A      3.672108  2197A      3.674564  2198A      3.677004  
    2199A      3.679386  2200A      3.680293  2201A      3.681573  
    2202A      3.684111  2203A      3.687308  2204A      3.688969  
    2205A      3.693705  2206A      3.694908  2207A      3.696364  
    2208A      3.699206  2209A      3.701628  2210A      3.704361  
    2211A      3.705336  2212A      3.706988  2213A      3.707286  
    2214A      3.710771  2215A      3.713602  2216A      3.714344  
    2217A      3.717189  2218A      3.719436  2219A      3.720517  
    2220A      3.724001  2221A      3.725978  2222A      3.727405  
    2223A      3.729114  2224A      3.729880  2225A      3.731047  
    2226A      3.733657  2227A      3.737779  2228A      3.740737  
    2229A      3.742618  2230A      3.744454  2231A      3.746376  
    2232A      3.747559  2233A      3.750739  2234A      3.751915  
    2235A      3.754404  2236A      3.756339  2237A      3.759805  
    2238A      3.763680  2239A      3.764223  2240A      3.765336  
    2241A      3.767745  2242A      3.769224  2243A      3.769546  
    2244A      3.772878  2245A      3.773949  2246A      3.778034  
    2247A      3.780026  2248A      3.783372  2249A      3.785356  
    2250A      3.786561  2251A      3.788304  2252A      3.789338  
    2253A      3.793455  2254A      3.794473  2255A      3.798006  
    2256A      3.799368  2257A      3.803580  2258A      3.805756  
    2259A      3.806767  2260A      3.808903  2261A      3.812311  
    2262A      3.812811  2263A      3.815909  2264A      3.819082  
    2265A      3.820086  2266A      3.822676  2267A      3.824753  
    2268A      3.826089  2269A      3.827985  2270A      3.829390  
    2271A      3.830508  2272A      3.834173  2273A      3.836293  
    2274A      3.840033  2275A      3.840306  2276A      3.841449  
    2277A      3.842576  2278A      3.845380  2279A      3.846951  
    2280A      3.850586  2281A      3.853744  2282A      3.855026  
    2283A      3.857417  2284A      3.858934  2285A      3.862866  
    2286A      3.864730  2287A      3.866421  2288A      3.869040  
    2289A      3.869766  2290A      3.871864  2291A      3.874473  
    2292A      3.876628  2293A      3.878418  2294A      3.881740  
    2295A      3.882262  2296A      3.883390  2297A      3.886921  
    2298A      3.888391  2299A      3.891060  2300A      3.893479  
    2301A      3.893883  2302A      3.895749  2303A      3.898485  
    2304A      3.899746  2305A      3.903687  2306A      3.904748  
    2307A      3.904925  2308A      3.906506  2309A      3.911263  
    2310A      3.912243  2311A      3.914924  2312A      3.916482  
    2313A      3.918003  2314A      3.919256  2315A      3.922770  
    2316A      3.925077  2317A      3.926232  2318A      3.930356  
    2319A      3.933465  2320A      3.934375  2321A      3.936957  
    2322A      3.939592  2323A      3.941177  2324A      3.942768  
    2325A      3.943388  2326A      3.946061  2327A      3.947779  
    2328A      3.948978  2329A      3.953355  2330A      3.954912  
    2331A      3.957270  2332A      3.962725  2333A      3.963586  
    2334A      3.965682  2335A      3.967815  2336A      3.969179  
    2337A      3.970214  2338A      3.971687  2339A      3.976026  
    2340A      3.978797  2341A      3.981143  2342A      3.982803  
    2343A      3.985426  2344A      3.988082  2345A      3.990803  
    2346A      3.992599  2347A      3.996039  2348A      3.998958  
    2349A      3.999718  2350A      4.001646  2351A      4.003438  
    2352A      4.006403  2353A      4.008809  2354A      4.010891  
    2355A      4.012838  2356A      4.014720  2357A      4.015297  
    2358A      4.018926  2359A      4.020990  2360A      4.024624  
    2361A      4.025309  2362A      4.027741  2363A      4.031575  
    2364A      4.033415  2365A      4.037783  2366A      4.039457  
    2367A      4.042859  2368A      4.045175  2369A      4.047932  
    2370A      4.051120  2371A      4.053826  2372A      4.055317  
    2373A      4.057878  2374A      4.058301  2375A      4.061200  
    2376A      4.061705  2377A      4.063688  2378A      4.065407  
    2379A      4.066480  2380A      4.068090  2381A      4.069331  
    2382A      4.073383  2383A      4.077174  2384A      4.077942  
    2385A      4.082002  2386A      4.084874  2387A      4.086165  
    2388A      4.088591  2389A      4.092506  2390A      4.094423  
    2391A      4.095461  2392A      4.097296  2393A      4.102381  
    2394A      4.104671  2395A      4.105533  2396A      4.106225  
    2397A      4.108404  2398A      4.110016  2399A      4.113382  
    2400A      4.114396  2401A      4.116385  2402A      4.119215  
    2403A      4.122014  2404A      4.125261  2405A      4.127950  
    2406A      4.131539  2407A      4.133494  2408A      4.136607  
    2409A      4.139524  2410A      4.141111  2411A      4.144957  
    2412A      4.146483  2413A      4.147040  2414A      4.149870  
    2415A      4.153291  2416A      4.153617  2417A      4.156588  
    2418A      4.158077  2419A      4.159930  2420A      4.163218  
    2421A      4.165748  2422A      4.166086  2423A      4.167862  
    2424A      4.170716  2425A      4.172762  2426A      4.173120  
    2427A      4.176774  2428A      4.179949  2429A      4.180867  
    2430A      4.182927  2431A      4.183968  2432A      4.186240  
    2433A      4.187688  2434A      4.190461  2435A      4.190716  
    2436A      4.193114  2437A      4.195579  2438A      4.198907  
    2439A      4.202544  2440A      4.203509  2441A      4.206293  
    2442A      4.207540  2443A      4.210850  2444A      4.211230  
    2445A      4.214020  2446A      4.215443  2447A      4.219260  
    2448A      4.220311  2449A      4.223343  2450A      4.226754  
    2451A      4.227584  2452A      4.229811  2453A      4.232581  
    2454A      4.233423  2455A      4.235733  2456A      4.238216  
    2457A      4.241116  2458A      4.242193  2459A      4.244200  
    2460A      4.245620  2461A      4.250265  2462A      4.252391  
    2463A      4.253350  2464A      4.255863  2465A      4.258669  
    2466A      4.259611  2467A      4.261104  2468A      4.265235  
    2469A      4.268889  2470A      4.270639  2471A      4.272769  
    2472A      4.273744  2473A      4.275138  2474A      4.277845  
    2475A      4.279827  2476A      4.282362  2477A      4.285892  
    2478A      4.289454  2479A      4.290582  2480A      4.292117  
    2481A      4.294105  2482A      4.297957  2483A      4.298367  
    2484A      4.301136  2485A      4.303867  2486A      4.304746  
    2487A      4.306008  2488A      4.308589  2489A      4.312426  
    2490A      4.313688  2491A      4.317843  2492A      4.321911  
    2493A      4.322727  2494A      4.325124  2495A      4.326502  
    2496A      4.328060  2497A      4.331720  2498A      4.334181  
    2499A      4.336084  2500A      4.338845  2501A      4.343651  
    2502A      4.344289  2503A      4.345551  2504A      4.345915  
    2505A      4.348465  2506A      4.350669  2507A      4.353990  
    2508A      4.354297  2509A      4.357102  2510A      4.363708  
    2511A      4.366822  2512A      4.369591  2513A      4.370960  
    2514A      4.373414  2515A      4.375483  2516A      4.378769  
    2517A      4.380022  2518A      4.384488  2519A      4.385962  
    2520A      4.387014  2521A      4.390611  2522A      4.393324  
    2523A      4.396404  2524A      4.400629  2525A      4.402913  
    2526A      4.406672  2527A      4.407893  2528A      4.408641  
    2529A      4.411453  2530A      4.414098  2531A      4.415105  
    2532A      4.419268  2533A      4.419848  2534A      4.420783  
    2535A      4.424990  2536A      4.427120  2537A      4.428206  
    2538A      4.431135  2539A      4.432485  2540A      4.437436  
    2541A      4.439170  2542A      4.441073  2543A      4.445496  
    2544A      4.446558  2545A      4.449122  2546A      4.451037  
    2547A      4.452330  2548A      4.457322  2549A      4.461297  
    2550A      4.463424  2551A      4.464977  2552A      4.466619  
    2553A      4.468367  2554A      4.472511  2555A      4.475739  
    2556A      4.477023  2557A      4.479652  2558A      4.481173  
    2559A      4.483462  2560A      4.484217  2561A      4.485448  
    2562A      4.488020  2563A      4.495457  2564A      4.496854  
    2565A      4.498171  2566A      4.500871  2567A      4.502527  
    2568A      4.505264  2569A      4.509510  2570A      4.511661  
    2571A      4.514270  2572A      4.517912  2573A      4.522101  
    2574A      4.523221  2575A      4.527935  2576A      4.529826  
    2577A      4.530946  2578A      4.533382  2579A      4.536040  
    2580A      4.538224  2581A      4.540509  2582A      4.542606  
    2583A      4.546987  2584A      4.552028  2585A      4.553488  
    2586A      4.556855  2587A      4.558202  2588A      4.559073  
    2589A      4.562698  2590A      4.564769  2591A      4.568358  
    2592A      4.571579  2593A      4.573704  2594A      4.574973  
    2595A      4.576746  2596A      4.580584  2597A      4.581668  
    2598A      4.582426  2599A      4.587980  2600A      4.589201  
    2601A      4.594609  2602A      4.596055  2603A      4.596749  
    2604A      4.602464  2605A      4.604464  2606A      4.605411  
    2607A      4.608129  2608A      4.609730  2609A      4.614503  
    2610A      4.616882  2611A      4.617859  2612A      4.619496  
    2613A      4.624722  2614A      4.626804  2615A      4.629670  
    2616A      4.631645  2617A      4.635425  2618A      4.640150  
    2619A      4.642719  2620A      4.644059  2621A      4.646786  
    2622A      4.649351  2623A      4.651189  2624A      4.652183  
    2625A      4.655842  2626A      4.657047  2627A      4.660995  
    2628A      4.666759  2629A      4.669235  2630A      4.674043  
    2631A      4.674443  2632A      4.679419  2633A      4.682412  
    2634A      4.686829  2635A      4.688202  2636A      4.692221  
    2637A      4.693021  2638A      4.695520  2639A      4.699425  
    2640A      4.704010  2641A      4.706994  2642A      4.709417  
    2643A      4.713094  2644A      4.715927  2645A      4.716790  
    2646A      4.723501  2647A      4.726172  2648A      4.726919  
    2649A      4.730141  2650A      4.733222  2651A      4.736973  
    2652A      4.738181  2653A      4.742876  2654A      4.744250  
    2655A      4.744710  2656A      4.746500  2657A      4.751387  
    2658A      4.754630  2659A      4.756514  2660A      4.758316  
    2661A      4.763570  2662A      4.766844  2663A      4.769147  
    2664A      4.770660  2665A      4.773308  2666A      4.776454  
    2667A      4.778939  2668A      4.782479  2669A      4.785621  
    2670A      4.786686  2671A      4.792568  2672A      4.794259  
    2673A      4.795371  2674A      4.797005  2675A      4.802060  
    2676A      4.803888  2677A      4.806365  2678A      4.810547  
    2679A      4.812638  2680A      4.815210  2681A      4.819293  
    2682A      4.820039  2683A      4.824607  2684A      4.829249  
    2685A      4.830917  2686A      4.834815  2687A      4.835354  
    2688A      4.837125  2689A      4.841840  2690A      4.845891  
    2691A      4.847340  2692A      4.850732  2693A      4.854626  
    2694A      4.856967  2695A      4.859989  2696A      4.863431  
    2697A      4.866500  2698A      4.872082  2699A      4.872230  
    2700A      4.876438  2701A      4.878584  2702A      4.882579  
    2703A      4.885101  2704A      4.887053  2705A      4.890358  
    2706A      4.892884  2707A      4.896593  2708A      4.903655  
    2709A      4.910097  2710A      4.912932  2711A      4.916465  
    2712A      4.919041  2713A      4.921616  2714A      4.925640  
    2715A      4.928340  2716A      4.931801  2717A      4.934852  
    2718A      4.938226  2719A      4.938976  2720A      4.940717  
    2721A      4.946716  2722A      4.948561  2723A      4.952000  
    2724A      4.955444  2725A      4.956091  2726A      4.960739  
    2727A      4.965104  2728A      4.966305  2729A      4.971783  
    2730A      4.974040  2731A      4.976661  2732A      4.980523  
    2733A      4.981482  2734A      4.984766  2735A      4.989854  
    2736A      4.989978  2737A      4.993362  2738A      4.996956  
    2739A      4.999619  2740A      5.003945  2741A      5.008001  
    2742A      5.008644  2743A      5.010915  2744A      5.014071  
    2745A      5.014501  2746A      5.017674  2747A      5.021162  
    2748A      5.024008  2749A      5.027015  2750A      5.033015  
    2751A      5.035846  2752A      5.038734  2753A      5.040877  
    2754A      5.048568  2755A      5.051890  2756A      5.054341  
    2757A      5.058821  2758A      5.062302  2759A      5.067313  
    2760A      5.070783  2761A      5.072702  2762A      5.078227  
    2763A      5.081214  2764A      5.085363  2765A      5.086631  
    2766A      5.095659  2767A      5.097578  2768A      5.100619  
    2769A      5.103447  2770A      5.104458  2771A      5.107410  
    2772A      5.111801  2773A      5.115766  2774A      5.116482  
    2775A      5.119868  2776A      5.123580  2777A      5.129845  
    2778A      5.130635  2779A      5.132208  2780A      5.136283  
    2781A      5.138073  2782A      5.144142  2783A      5.149501  
    2784A      5.151147  2785A      5.153612  2786A      5.156510  
    2787A      5.160094  2788A      5.164640  2789A      5.165499  
    2790A      5.168112  2791A      5.170837  2792A      5.174956  
    2793A      5.176944  2794A      5.180385  2795A      5.181363  
    2796A      5.184491  2797A      5.188099  2798A      5.193553  
    2799A      5.197734  2800A      5.198441  2801A      5.200936  
    2802A      5.201298  2803A      5.209824  2804A      5.214801  
    2805A      5.216520  2806A      5.220594  2807A      5.222101  
    2808A      5.224377  2809A      5.232674  2810A      5.233799  
    2811A      5.235989  2812A      5.238272  2813A      5.247483  
    2814A      5.249119  2815A      5.256374  2816A      5.258542  
    2817A      5.260707  2818A      5.264175  2819A      5.273611  
    2820A      5.274863  2821A      5.280648  2822A      5.288610  
    2823A      5.294776  2824A      5.295834  2825A      5.299439  
    2826A      5.300484  2827A      5.305411  2828A      5.308179  
    2829A      5.315763  2830A      5.316649  2831A      5.321444  
    2832A      5.325178  2833A      5.325972  2834A      5.331077  
    2835A      5.334950  2836A      5.337528  2837A      5.341489  
    2838A      5.343367  2839A      5.353866  2840A      5.357396  
    2841A      5.364579  2842A      5.369210  2843A      5.373755  
    2844A      5.378699  2845A      5.383997  2846A      5.390615  
    2847A      5.396629  2848A      5.398876  2849A      5.406569  
    2850A      5.409158  2851A      5.417905  2852A      5.418618  
    2853A      5.425196  2854A      5.427133  2855A      5.432269  
    2856A      5.437064  2857A      5.444867  2858A      5.447607  
    2859A      5.450851  2860A      5.457947  2861A      5.459776  
    2862A      5.461715  2863A      5.467058  2864A      5.469413  
    2865A      5.474873  2866A      5.477175  2867A      5.480248  
    2868A      5.486146  2869A      5.488518  2870A      5.490387  
    2871A      5.495403  2872A      5.499130  2873A      5.502518  
    2874A      5.503914  2875A      5.505949  2876A      5.508651  
    2877A      5.513576  2878A      5.520370  2879A      5.523526  
    2880A      5.533401  2881A      5.540997  2882A      5.547994  
    2883A      5.552867  2884A      5.557952  2885A      5.561663  
    2886A      5.564181  2887A      5.568966  2888A      5.576322  
    2889A      5.578102  2890A      5.580330  2891A      5.587475  
    2892A      5.588519  2893A      5.593086  2894A      5.606338  
    2895A      5.614399  2896A      5.621179  2897A      5.624003  
    2898A      5.631739  2899A      5.639838  2900A      5.655416  
    2901A      5.657011  2902A      5.663001  2903A      5.669219  
    2904A      5.678780  2905A      5.681999  2906A      5.683386  
    2907A      5.691334  2908A      5.694580  2909A      5.704134  
    2910A      5.707090  2911A      5.713378  2912A      5.716934  
    2913A      5.722129  2914A      5.725607  2915A      5.732205  
    2916A      5.738468  2917A      5.741789  2918A      5.745933  
    2919A      5.754114  2920A      5.755069  2921A      5.765028  
    2922A      5.775610  2923A      5.788457  2924A      5.796325  
    2925A      5.801341  2926A      5.808273  2927A      5.818544  
    2928A      5.833466  2929A      5.839250  2930A      5.839856  
    2931A      5.848183  2932A      5.864596  2933A      5.876691  
    2934A      5.889196  2935A      5.889853  2936A      5.895725  
    2937A      5.904940  2938A      5.907940  2939A      5.912078  
    2940A      5.922364  2941A      5.926575  2942A      5.954720  
    2943A      5.971080  2944A      5.972157  2945A      5.977348  
    2946A      5.981532  2947A      5.992388  2948A      6.003417  
    2949A      6.005539  2950A      6.010482  2951A      6.016654  
    2952A      6.029299  2953A      6.043511  2954A      6.064475  
    2955A      6.070583  2956A      6.075387  2957A      6.091741  
    2958A      6.098528  2959A      6.106616  2960A      6.131164  
    2961A      6.143289  2962A      6.160943  2963A      6.176190  
    2964A      6.189370  2965A      6.190835  2966A      6.203875  
    2967A      6.217719  2968A      6.223741  2969A      6.230318  
    2970A      6.236910  2971A      6.244058  2972A      6.259048  
    2973A      6.269152  2974A      6.277274  2975A      6.301578  
    2976A      6.310811  2977A      6.317585  2978A      6.319002  
    2979A      6.321491  2980A      6.327205  2981A      6.328674  
    2982A      6.340264  2983A      6.345007  2984A      6.346261  
    2985A      6.351635  2986A      6.361103  2987A      6.366503  
    2988A      6.375513  2989A      6.382066  2990A      6.395022  
    2991A      6.402885  2992A      6.410199  2993A      6.415294  
    2994A      6.426924  2995A      6.430660  2996A      6.437269  
    2997A      6.445253  2998A      6.453627  2999A      6.458912  
    3000A      6.461403  3001A      6.478989  3002A      6.481413  
    3003A      6.485220  3004A      6.494419  3005A      6.499023  
    3006A      6.507229  3007A      6.512026  3008A      6.518941  
    3009A      6.532046  3010A      6.538624  3011A      6.541917  
    3012A      6.549180  3013A      6.557464  3014A      6.580501  
    3015A      6.588571  3016A      6.598758  3017A      6.606416  
    3018A      6.618524  3019A      6.622327  3020A      6.637451  
    3021A      6.647994  3022A      6.653092  3023A      6.655678  
    3024A      6.662030  3025A      6.664544  3026A      6.666403  
    3027A      6.677036  3028A      6.678045  3029A      6.687147  
    3030A      6.697499  3031A      6.701622  3032A      6.705212  
    3033A      6.721277  3034A      6.732737  3035A      6.735600  
    3036A      6.746785  3037A      6.765155  3038A      6.767866  
    3039A      6.776481  3040A      6.778924  3041A      6.784979  
    3042A      6.796836  3043A      6.803169  3044A      6.814687  
    3045A      6.818202  3046A      6.826594  3047A      6.834949  
    3048A      6.843801  3049A      6.849521  3050A      6.854481  
    3051A      6.876170  3052A      6.881757  3053A      6.890920  
    3054A      6.894327  3055A      6.899636  3056A      6.910288  
    3057A      6.919312  3058A      6.931008  3059A      6.940436  
    3060A      6.956305  3061A      6.987092  3062A      7.002159  
    3063A      7.019568  3064A      7.032660  3065A      7.046027  
    3066A      7.057472  3067A      7.078825  3068A      7.085160  
    3069A      7.101060  3070A      7.111505  3071A      7.120216  
    3072A      7.122669  3073A      7.125404  3074A      7.132023  
    3075A      7.143529  3076A      7.152302  3077A      7.163719  
    3078A      7.175694  3079A      7.181438  3080A      7.203945  
    3081A      7.218133  3082A      7.224973  3083A      7.274392  
    3084A      7.306296  3085A      7.336119  3086A      7.349907  
    3087A      7.380292  3088A      7.399987  3089A      7.405755  
    3090A      7.417428  3091A      7.437142  3092A      7.485016  
    3093A      7.498605  3094A      7.513276  3095A      7.550746  
    3096A      7.607937  3097A      7.643984  3098A      7.669353  
    3099A      7.675586  3100A      7.684072  3101A      7.722007  
    3102A      7.744996  3103A      7.755541  3104A      7.811565  
    3105A      7.846585  3106A      7.853248  3107A      7.895445  
    3108A      8.100951  3109A      8.122009  3110A      8.164765  
    3111A      8.347603  3112A      8.396530  3113A      8.410046  
    3114A      8.494539  3115A      8.572985  3116A      8.695224  
    3117A      8.873668  3118A      8.914979  3119A      9.056393  
    3120A      9.161485  3121A      9.189066  3122A      9.197096  
    3123A      9.256779  3124A      9.311019  3125A      9.581260  
    3126A      9.685710  3127A     15.412637  3128A     15.438891  
    3129A     15.869285  3130A     16.081178  3131A     16.251943  
    3132A     16.259918  3133A     16.319555  3134A     16.374917  
    3135A     16.441588  3136A     16.617185  3137A     16.807639  
    3138A     16.925675  3139A     17.066108  3140A     17.181673  
    3141A     17.377971  3142A     17.598937  3143A     17.620446  
    3144A     17.670293  3145A     17.893985  3146A     17.931353  
    3147A     17.999740  3148A     18.114400  3149A     18.286298  
    3150A     18.346033  3151A     18.876367  3152A     19.074148  
    3153A     19.101029  3154A     19.391072  3155A     19.619501  
    3156A     19.656497  3157A     19.719010  3158A     20.368164  
    3159A     20.623412  3160A     20.680344  3161A     20.811728  
    3162A     20.910121  3163A     20.947667  3164A     21.149410  
    3165A     21.295527  3166A     21.299296  3167A     21.422981  
    3168A     21.435866  3169A     21.507025  3170A     21.591398  
    3171A     21.653925  3172A     21.807300  3173A     21.885228  
    3174A     21.948397  3175A     21.995637  3176A     22.182328  
    3177A     22.220521  3178A     22.316106  3179A     22.440633  
    3180A     22.612245  3181A     22.678814  

    Final Occupation by Irrep:
              A 
    DOCC [   188 ]
    NA   [   188 ]
    NB   [   188 ]

  @DF-RKS Final Energy: -2430.92047286522347

   => Energetics <=

    Nuclear Repulsion Energy =           8036.0311254087573616
    One-Electron Energy =              -19319.4630822155122587
    Two-Electron Energy =                9085.1696898361715284
    DFT Exchange-Correlation Energy =    -232.5494674757253222
    Empirical Dispersion Energy =          -0.1087384189150765
    VV10 Nonlocal Energy =                  0.0000000000000000
    Total Energy =                      -2430.9204728652234735

Computation Completed


Properties will be evaluated at   0.000000,   0.000000,   0.000000 [a0]

Properties computed using the SCF density matrix


 Multipole Moments:

 ------------------------------------------------------------------------------------
     Multipole            Electronic (a.u.)      Nuclear  (a.u.)        Total (a.u.)
 ------------------------------------------------------------------------------------

 L = 1.  Multiply by 2.5417464519 to convert [e a0] to [Debye]
 Dipole X            :        -10.8118051           10.8896665            0.0778614
 Dipole Y            :         38.7423073          -38.3816908            0.3606165
 Dipole Z            :        -32.6729427           31.3327632           -1.3401795
 Magnitude           :                                                    1.3900315

 ------------------------------------------------------------------------------------

*** tstop() called on atl1-1-02-004-2-2.pace.gatech.edu at Sat Jun 13 16:30:45 2026
Module time:
	user time   =   84502.40 seconds =    1408.37 minutes
	system time =    5375.56 seconds =      89.59 minutes
	total time  =      13251 seconds =     220.85 minutes
Total time:
	user time   =   84502.40 seconds =    1408.37 minutes
	system time =    5375.56 seconds =      89.59 minutes
	total time  =      13251 seconds =     220.85 minutes

    Psi4 stopped on: Saturday, 13 June 2026 04:31PM
    Psi4 wall time for execution: 3:41:08.60

*** Psi4 exiting successfully. Buy a developer a beer!
