
    -----------------------------------------------------------------------
          Psi4: An Open-Source Ab Initio Electronic Structure Package
                               Psi4 1.9.1 release

                         Git: Rev {} zzzzzzz 


    D. G. A. Smith, L. A. Burns, A. C. Simmonett, R. M. Parrish,
    M. C. Schieber, R. Galvelis, P. Kraus, H. Kruse, R. Di Remigio,
    A. Alenaizan, A. M. James, S. Lehtola, J. P. Misiewicz, M. Scheurer,
    R. A. Shaw, J. B. Schriber, Y. Xie, Z. L. Glick, D. A. Sirianni,
    J. S. O'Brien, J. M. Waldrop, A. Kumar, E. G. Hohenstein,
    B. P. Pritchard, B. R. Brooks, H. F. Schaefer III, A. Yu. Sokolov,
    K. Patkowski, A. E. DePrince III, U. Bozkaya, R. A. King,
    F. A. Evangelista, J. M. Turney, T. D. Crawford, C. D. Sherrill,
    J. Chem. Phys. 152(18) 184108 (2020). https://doi.org/10.1063/5.0006002

                            Additional Code Authors
    E. T. Seidl, C. L. Janssen, E. F. Valeev, M. L. Leininger,
    J. F. Gonthier, R. M. Richard, H. R. McAlexander, M. Saitow, X. Wang,
    P. Verma, M. H. Lechner, A. Jiang, S. Behnle, A. G. Heide,
    M. F. Herbst, and D. L. Poole

             Previous Authors, Complete List of Code Contributors,
                       and Citations for Specific Modules
    https://github.com/psi4/psi4/blob/master/codemeta.json
    https://github.com/psi4/psi4/graphs/contributors
    http://psicode.org/psi4manual/master/introduction.html#citing-psifour

    -----------------------------------------------------------------------


    Psi4 started on: Saturday, 13 June 2026 03:30PM

    Process ID: 166595
    Host:       atl1-1-02-004-2-1.pace.gatech.edu
    PSIDATADIR: /storage/home/hcoda1/5/vlita3/.conda/envs/p4_qcml/share/psi4
    Memory:     250.0 GiB
    Threads:    10
    
  ==> Input QCSchema <==

--------------------------------------------------------------------------
{'driver': 'energy',
 'extras': {},
 'id': '258',
 'keywords': {},
 'model': {'basis': 'aug-cc-pvtz', 'method': 'wb97x-v'},
 'molecule': {'extras': {},
              'fix_com': True,
              'fix_orientation': True,
              'fragment_charges': [0.0, 0.0],
              'fragment_multiplicities': [1, 1],
              'fragments': [[0, 1, 2, 3, 4, 5, 6, 7, 8, 9, 10, 11, 12, 13, 14, 15, 16, 17, 18, 19, 20, 21, 22, 23, 24,
                             25, 26, 27, 28, 29, 30, 31, 32, 33, 34, 35, 36, 37, 38, 39, 40, 41, 42, 43],
                            [44, 45, 46, 47, 48, 49, 50, 51, 52, 53, 54, 55, 56, 57, 58, 59, 60, 61, 62, 63, 64, 65, 66,
                             67, 68, 69, 70, 71, 72, 73, 74, 75, 76, 77, 78, 79, 80, 81, 82, 83, 84, 85, 86, 87]],
              'geometry': [25.47963781, 23.08351049, 43.1296896, 24.89690954, 20.52012331, 43.887087, 25.07057198,
                           18.48699404, 42.07353641, 25.8424877, 19.04880944, 39.52013663, 26.46903607, 21.61452675,
                           38.85199593, 26.30318821, 23.59330066, 40.54460103, 24.46577176, 15.9279092, 42.77036087,
                           23.76811717, 15.37695629, 45.40838081, 23.59859476, 17.38880058, 47.22265844, 24.1081018,
                           20.02007671, 46.44346413, 22.96694077, 16.77267612, 49.77192758, 22.51062738, 14.29130626,
                           50.58597185, 22.67427055, 12.32177999, 48.76231557, 23.27971306, 12.86309326, 46.25226043,
                           25.97467497, 17.0727052, 37.71068154, 25.34789586, 14.59123463, 38.39437083, 24.59969708,
                           14.0277518, 40.88784347, 25.20039992, 25.0588727, 44.92111126, 24.35321071, 24.59525103,
                           47.39946073, 23.84084877, 22.08099208, 48.12795237, 21.86046838, 13.69556932, 53.32235171,
                           24.04555383, 26.76370654, 49.27889773, 26.50915633, 27.41178979, 50.73375129, 26.93108599,
                           26.27094839, 39.72356046, 27.10311578, 21.98163565, 36.89906984, 22.32265299, 10.34583799,
                           49.33666834, 23.39372081, 11.28300305, 44.90489504, 26.57612038, 17.51973959, 35.76596134,
                           25.43664936, 13.06203906, 36.97800898, 24.12002947, 12.05854919, 41.3527408, 25.62817825,
                           27.01761767, 44.36171793, 23.18724332, 21.75219607, 50.07608394, 23.27013145, 12.38510294,
                           54.17857328, 21.79629273, 15.42803966, 54.50687769, 19.98705402, 12.74487252, 53.47527914,
                           22.53167906, 26.28198386, 50.6619148, 23.38069793, 28.48102898, 48.25612267, 27.19569266,
                           25.7565067, 51.83310019, 28.04156267, 27.96965392, 49.40821263, 28.39145441, 27.1428651,
                           40.95513515, 25.23456206, 27.51897461, 39.79892028, 27.66207922, 26.29954115, 37.75755015,
                           26.2022166, 29.00071195, 52.0780899, 22.83611537, 18.29134925, 51.1881473, 30.81342193,
                           18.71017989, 45.99359029, 31.5788239, 19.74555973, 43.58027113, 32.18922921, 22.39746574,
                           43.36009841, 32.04731473, 23.98056161, 45.57578145, 31.25562095, 22.88485355, 47.94186375,
                           30.64065655, 20.36296812, 48.19759324, 32.96098858, 23.46875558, 40.98068543, 32.9776879,
                           21.8498177, 38.71563215, 32.39688051, 19.20754673, 38.92783428, 31.75108262, 18.1119644,
                           41.41040042, 32.38510148, 17.70859001, 36.6883681, 32.89884869, 18.70388423, 34.28627015,
                           33.46045747, 21.32787429, 34.10603582, 33.50020544, 22.84413785, 36.26471359, 32.71084168,
                           26.57519902, 45.39430813, 33.51746054, 27.59229626, 43.0833912, 33.64071365, 26.05933156,
                           40.9078722, 30.26834315, 16.09166271, 46.16720061, 30.49746548, 14.47431826, 44.06910385,
                           31.23964841, 15.50757785, 41.72580743, 32.85245858, 17.05660123, 31.93007182, 30.0352396,
                           11.64386798, 44.33912194, 32.45644731, 10.16276856, 45.08627623, 29.83741229, 19.30937345,
                           50.74453249, 31.15944353, 24.13692378, 49.60598037, 33.86115259, 22.17547238, 32.24063318,
                           33.92403613, 24.86828461, 36.03931452, 32.60693264, 27.77144276, 47.1004289, 34.05705016,
                           29.60331272, 42.95688301, 34.27807476, 26.92308174, 39.12655219, 29.64722791, 15.28713696,
                           47.98302787, 31.38145507, 14.21615321, 40.10268471, 34.735737, 17.01308892, 30.98680081,
                           32.31443775, 15.0754773, 32.37170495, 31.48589123, 17.79122297, 30.50534659, 29.28049933,
                           10.88478084, 42.52649407, 28.54357618, 11.31799443, 45.78690148, 33.97269455, 10.41059171,
                           43.64975571, 33.2192207, 10.84125701, 46.92494523, 31.18221652, 17.84465276, 51.44063809,
                           27.94896357, 18.39273342, 50.64394079, 29.74125873, 20.82714016, 52.19033882, 32.06613232,
                           8.10297733, 45.26704002, 31.91846208, 15.68652669, 36.81860417],
              'id': 5,
              'identifiers': {'molecular_formula': 'C48H40',
                              'molecule_hash': '15b64246f541ee1ce312b171a08939958d334f77'},
              'molecular_charge': 0.0,
              'molecular_multiplicity': 1,
              'name': 'C48H40',
              'provenance': {'creator': 'QCElemental',
                             'routine': 'qcelemental.molparse.from_string',
                             'version': '0.29.0'},
              'schema_name': 'qcschema_molecule',
              'schema_version': 2,
              'symbols': ['C', 'C', 'C', 'C', 'C', 'C', 'C', 'C', 'C', 'C', 'C', 'C', 'C', 'C', 'C', 'C', 'C', 'C', 'C',
                          'C', 'C', 'C', 'C', 'C', 'H', 'H', 'H', 'H', 'H', 'H', 'H', 'H', 'H', 'H', 'H', 'H', 'H', 'H',
                          'H', 'H', 'H', 'H', 'H', 'H', 'C', 'C', 'C', 'C', 'C', 'C', 'C', 'C', 'C', 'C', 'C', 'C', 'C',
                          'C', 'C', 'C', 'C', 'C', 'C', 'C', 'C', 'C', 'C', 'C', 'H', 'H', 'H', 'H', 'H', 'H', 'H', 'H',
                          'H', 'H', 'H', 'H', 'H', 'H', 'H', 'H', 'H', 'H', 'H', 'H'],
              'validated': True},
 'protocols': {},
 'provenance': {'creator': 'QCElemental', 'routine': 'qcelemental.models.results', 'version': '0.29.0'},
 'schema_name': 'qcschema_input',
 'schema_version': 1}
--------------------------------------------------------------------------

Scratch directory: /tmp/tmpa5gl__xj_psi_scratch/
   => Libint2 <=

    Primary   basis highest AM E, G, H:  6, 6, 3
    Auxiliary basis highest AM E, G, H:  7, 7, 4
    Onebody   basis highest AM E, G, H:  -, -, -
    Solid Harmonics ordering:            Gaussian

*** tstart() called on atl1-1-02-004-2-1.pace.gatech.edu
*** at Sat Jun 13 15:30:27 2026

   => Loading Basis Set <=

    Name: AUG-CC-PVTZ
    Role: ORBITAL
    Keyword: BASIS
    atoms 1-24, 45-68  entry C          line   239 file /storage/home/hcoda1/5/vlita3/.conda/envs/p4_qcml/share/psi4/basis/aug-cc-pvtz.gbs 
    atoms 25-44, 69-88 entry H          line    40 file /storage/home/hcoda1/5/vlita3/.conda/envs/p4_qcml/share/psi4/basis/aug-cc-pvtz.gbs 


         ---------------------------------------------------------
                                   SCF
               by Justin Turney, Rob Parrish, Andy Simmonett
                          and Daniel G. A. Smith
                              RKS Reference
                       10 Threads, 256000 MiB Core
         ---------------------------------------------------------

  ==> Geometry <==

    Molecular point group: c1
    Full point group: C1

    Geometry (in Bohr), charge = 0, multiplicity = 1:

       Center              X                  Y                   Z               Mass       
    ------------   -----------------  -----------------  -----------------  -----------------
         C           25.479637810000    23.083510490000    43.129689600000    12.000000000000
         C           24.896909540000    20.520123310000    43.887087000000    12.000000000000
         C           25.070571980000    18.486994040000    42.073536410000    12.000000000000
         C           25.842487700000    19.048809440000    39.520136630000    12.000000000000
         C           26.469036070000    21.614526750000    38.851995930000    12.000000000000
         C           26.303188210000    23.593300660000    40.544601030000    12.000000000000
         C           24.465771760000    15.927909200000    42.770360870000    12.000000000000
         C           23.768117170000    15.376956290000    45.408380810000    12.000000000000
         C           23.598594760000    17.388800580000    47.222658440000    12.000000000000
         C           24.108101800000    20.020076710000    46.443464130000    12.000000000000
         C           22.966940770000    16.772676120000    49.771927580000    12.000000000000
         C           22.510627380000    14.291306260000    50.585971850000    12.000000000000
         C           22.674270550000    12.321779990000    48.762315570000    12.000000000000
         C           23.279713060000    12.863093260000    46.252260430000    12.000000000000
         C           25.974674970000    17.072705200000    37.710681540000    12.000000000000
         C           25.347895860000    14.591234630000    38.394370830000    12.000000000000
         C           24.599697080000    14.027751800000    40.887843470000    12.000000000000
         C           25.200399920000    25.058872700000    44.921111260000    12.000000000000
         C           24.353210710000    24.595251030000    47.399460730000    12.000000000000
         C           23.840848770000    22.080992080000    48.127952370000    12.000000000000
         C           21.860468380000    13.695569320000    53.322351710000    12.000000000000
         C           24.045553830000    26.763706540000    49.278897730000    12.000000000000
         C           26.509156330000    27.411789790000    50.733751290000    12.000000000000
         C           26.931085990000    26.270948390000    39.723560460000    12.000000000000
         H           27.103115780000    21.981635650000    36.899069840000     1.007825032230
         H           22.322652990000    10.345837990000    49.336668340000     1.007825032230
         H           23.393720810000    11.283003050000    44.904895040000     1.007825032230
         H           26.576120380000    17.519739590000    35.765961340000     1.007825032230
         H           25.436649360000    13.062039060000    36.978008980000     1.007825032230
         H           24.120029470000    12.058549190000    41.352740800000     1.007825032230
         H           25.628178250000    27.017617670000    44.361717930000     1.007825032230
         H           23.187243320000    21.752196070000    50.076083940000     1.007825032230
         H           23.270131450000    12.385102940000    54.178573280000     1.007825032230
         H           21.796292730000    15.428039660000    54.506877690000     1.007825032230
         H           19.987054020000    12.744872520000    53.475279140000     1.007825032230
         H           22.531679060000    26.281983860000    50.661914800000     1.007825032230
         H           23.380697930000    28.481028980000    48.256122670000     1.007825032230
         H           27.195692660000    25.756506700000    51.833100190000     1.007825032230
         H           28.041562670000    27.969653920000    49.408212630000     1.007825032230
         H           28.391454410000    27.142865100000    40.955135150000     1.007825032230
         H           25.234562060000    27.518974610000    39.798920280000     1.007825032230
         H           27.662079220000    26.299541150000    37.757550150000     1.007825032230
         H           26.202216600000    29.000711950000    52.078089900000     1.007825032230
         H           22.836115370000    18.291349250000    51.188147300000     1.007825032230
         C           30.813421930000    18.710179890000    45.993590290000    12.000000000000
         C           31.578823900000    19.745559730000    43.580271130000    12.000000000000
         C           32.189229210000    22.397465740000    43.360098410000    12.000000000000
         C           32.047314730000    23.980561610000    45.575781450000    12.000000000000
         C           31.255620950000    22.884853550000    47.941863750000    12.000000000000
         C           30.640656550000    20.362968120000    48.197593240000    12.000000000000
         C           32.960988580000    23.468755580000    40.980685430000    12.000000000000
         C           32.977687900000    21.849817700000    38.715632150000    12.000000000000
         C           32.396880510000    19.207546730000    38.927834280000    12.000000000000
         C           31.751082620000    18.111964400000    41.410400420000    12.000000000000
         C           32.385101480000    17.708590010000    36.688368100000    12.000000000000
         C           32.898848690000    18.703884230000    34.286270150000    12.000000000000
         C           33.460457470000    21.327874290000    34.106035820000    12.000000000000
         C           33.500205440000    22.844137850000    36.264713590000    12.000000000000
         C           32.710841680000    26.575199020000    45.394308130000    12.000000000000
         C           33.517460540000    27.592296260000    43.083391200000    12.000000000000
         C           33.640713650000    26.059331560000    40.907872200000    12.000000000000
         C           30.268343150000    16.091662710000    46.167200610000    12.000000000000
         C           30.497465480000    14.474318260000    44.069103850000    12.000000000000
         C           31.239648410000    15.507577850000    41.725807430000    12.000000000000
         C           32.852458580000    17.056601230000    31.930071820000    12.000000000000
         C           30.035239600000    11.643867980000    44.339121940000    12.000000000000
         C           32.456447310000    10.162768560000    45.086276230000    12.000000000000
         C           29.837412290000    19.309373450000    50.744532490000    12.000000000000
         H           31.159443530000    24.136923780000    49.605980370000     1.007825032230
         H           33.861152590000    22.175472380000    32.240633180000     1.007825032230
         H           33.924036130000    24.868284610000    36.039314520000     1.007825032230
         H           32.606932640000    27.771442760000    47.100428900000     1.007825032230
         H           34.057050160000    29.603312720000    42.956883010000     1.007825032230
         H           34.278074760000    26.923081740000    39.126552190000     1.007825032230
         H           29.647227910000    15.287136960000    47.983027870000     1.007825032230
         H           31.381455070000    14.216153210000    40.102684710000     1.007825032230
         H           34.735737000000    17.013088920000    30.986800810000     1.007825032230
         H           32.314437750000    15.075477300000    32.371704950000     1.007825032230
         H           31.485891230000    17.791222970000    30.505346590000     1.007825032230
         H           29.280499330000    10.884780840000    42.526494070000     1.007825032230
         H           28.543576180000    11.317994430000    45.786901480000     1.007825032230
         H           33.972694550000    10.410591710000    43.649755710000     1.007825032230
         H           33.219220700000    10.841257010000    46.924945230000     1.007825032230
         H           31.182216520000    17.844652760000    51.440638090000     1.007825032230
         H           27.948963570000    18.392733420000    50.643940790000     1.007825032230
         H           29.741258730000    20.827140160000    52.190338820000     1.007825032230
         H           32.066132320000     8.102977330000    45.267040020000     1.007825032230
         H           31.918462080000    15.686526690000    36.818604170000     1.007825032230

  Running in c1 symmetry.

  Rotational constants: A =      0.00210  B =      0.00003  C =      0.00003 [cm^-1]
  Rotational constants: A =     62.96897  B =      0.94325  C =      0.93874 [MHz]
  Nuclear repulsion = 6199.614502676580742

  Charge       = 0
  Multiplicity = 1
  Electrons    = 328
  Nalpha       = 164
  Nbeta        = 164

  ==> Algorithm <==

  SCF Algorithm Type is DF.
  DIIS enabled.
  MOM disabled.
  Fractional occupation disabled.
  Guess Type is SAD.
  Energy threshold   = 1.00e-06
  Density threshold  = 1.00e-06
  Integral threshold = 1.00e-12

  ==> Primary Basis <==

  Basis Set: AUG-CC-PVTZ
    Blend: AUG-CC-PVTZ
    Number of shells: 1032
    Number of basis functions: 3128
    Number of Cartesian functions: 3640
    Spherical Harmonics?: true
    Max angular momentum: 3

  ==> DFT Potential <==

   => LibXC <=

    Version 7.0.0
    S. Lehtola, C. Steigemann, M. J.T. Oliveira, and M. A.L. Marques.,  SoftwareX 7, 1–5 (2018) (10.1016/j.softx.2017.11.002)

   => Composite Functional: WB97X-V <= 

    wB97X-V Hyb-GGA Exchange-Correlation Functional

    N. Mardirossian and M. Head-Gordon.,  Phys. Chem. Chem. Phys. 16, 9904-9924 (2014) (10.1039/C3CP54374A)

    Deriv               =              1
    GGA                 =           TRUE
    Meta                =          FALSE

    Exchange Hybrid     =           TRUE
    MP2 Hybrid          =          FALSE

   => Exchange-Correlation Functionals <=

    1.0000   wB97X-V range-separated functional

   => Exact (HF) Exchange <=

    0.8330            HF,LR [omega = 0.3000]
    0.1670               HF 

   => LibXC Density Thresholds  <==

    XC_HYB_GGA_XC_WB97X_V:  1.00E-14 

   => VV10 Non-Local Parameters <=

    VV10 B              =     6.0000E+00
    VV10 C              =     1.0000E-02

   => Molecular Quadrature <=

    Radial Scheme          =       TREUTLER
    Pruning Scheme         =           NONE
    Nuclear Scheme         =       TREUTLER

    Blocking Scheme        =         OCTREE
    BS radius alpha        =              1
    Pruning alpha          =              1
    Radial Points          =             75
    Spherical Points       =            302
    Total Points           =        1755895
    Total Blocks           =          12038
    Max Points             =            256
    Max Functions          =           2202
    Weights Tolerance      =       1.00E-15

   => Loading Basis Set <=

    Name: (AUG-CC-PVTZ AUX)
    Role: JKFIT
    Keyword: DF_BASIS_SCF
    atoms 1-24, 45-68  entry C          line   162 file /storage/home/hcoda1/5/vlita3/.conda/envs/p4_qcml/share/psi4/basis/aug-cc-pvtz-jkfit.gbs 
    atoms 25-44, 69-88 entry H          line    70 file /storage/home/hcoda1/5/vlita3/.conda/envs/p4_qcml/share/psi4/basis/aug-cc-pvtz-jkfit.gbs 

  ==> Integral Setup <==

  ==> DiskDFJK: Density-Fitted J/K Matrices <==

    J tasked:                  Yes
    K tasked:                  Yes
    wK tasked:                 Yes
    Omega:               3.000E-01
    OpenMP threads:             10
    Integrals threads:          10
    Memory [MiB]:           172800
    Algorithm:                Disk
    Integral Cache:           NONE
    Schwarz Cutoff:          1E-12
    Fitting Condition:       1E-10

   => Auxiliary Basis Set <=

  Basis Set: (AUG-CC-PVTZ AUX)
    Blend: AUG-CC-PVTZ-JKFIT
    Number of shells: 2000
    Number of basis functions: 6832
    Number of Cartesian functions: 8488
    Spherical Harmonics?: true
    Max angular momentum: 4

  Minimum eigenvalue in the overlap matrix is 6.3711160731E-10.
  Reciprocal condition number of the overlap matrix is 1.7895063395E-11.
    Using canonical orthogonalization.
  Overall, 29 of 3128 possible MOs eliminated.


  ==> Pre-Iterations <==

  SCF Guess: Superposition of Atomic Densities via on-the-fly atomic UHF (no occupation information).

   -------------------------
    Irrep   Nso     Nmo    
   -------------------------
     A       3128    3099 
   -------------------------
    Total    3128    3099
   -------------------------

  ==> Iterations <==

                           Total Energy        Delta E     RMS |[F,P]|

   @DF-RKS iter SAD: -1853.62611104889447   -1.85363e+03   0.00000e+00 
   @DF-RKS iter   1: -1851.82742301244161    1.79869e+00   5.58361e-04 ADIIS/DIIS
   @DF-RKS iter   2: -1852.80852815304706   -9.81105e-01   3.64422e-04 ADIIS/DIIS
   @DF-RKS iter   3: -1853.43913018325975   -6.30602e-01   7.49667e-05 DIIS
   @DF-RKS iter   4: -1853.46023999636827   -2.11098e-02   4.09690e-05 DIIS
   @DF-RKS iter   5: -1853.46842905082508   -8.18905e-03   1.00900e-05 DIIS
   @DF-RKS iter   6: -1853.46894284559880   -5.13795e-04   3.32582e-06 DIIS
   @DF-RKS iter   7: -1853.46900943300966   -6.65874e-05   9.21294e-07 DIIS
   @DF-RKS iter   8: -1853.46901778204870   -8.34904e-06   4.60998e-07 DIIS
   @DF-RKS iter   9: -1853.46902023140478   -2.44936e-06   1.70648e-07 DIIS
   @DF-RKS iter  10: -1853.46902071749082   -4.86086e-07   9.04998e-08 DIIS
  Energy and wave function converged.


  ==> Post-Iterations <==

   Electrons on quadrature grid:
      Ntotal   =  328.0005169236 ; deviation = 5.169e-04 

    Orbital Energies [Eh]
    ---------------------

    Doubly Occupied:                                                      

       1A    -10.296635     2A    -10.294710     3A    -10.294083  
       4A    -10.293666     5A    -10.292963     6A    -10.292947  
       7A    -10.292491     8A    -10.292265     9A    -10.291924  
      10A    -10.290092    11A    -10.288685    12A    -10.288533  
      13A    -10.288219    14A    -10.287823    15A    -10.287728  
      16A    -10.287327    17A    -10.287005    18A    -10.286926  
      19A    -10.286486    20A    -10.285911    21A    -10.285818  
      22A    -10.284872    23A    -10.282879    24A    -10.282502  
      25A    -10.282464    26A    -10.282157    27A    -10.281572  
      28A    -10.281312    29A    -10.280554    30A    -10.280484  
      31A    -10.280172    32A    -10.279868    33A    -10.279513  
      34A    -10.279148    35A    -10.278843    36A    -10.278370  
      37A    -10.277411    38A    -10.277123    39A    -10.276638  
      40A    -10.274720    41A    -10.273277    42A    -10.273135  
      43A    -10.272224    44A    -10.272108    45A    -10.271910  
      46A    -10.271070    47A    -10.267349    48A    -10.267061  
      49A     -1.025104    50A     -1.020380    51A     -0.991511  
      52A     -0.990144    53A     -0.982177    54A     -0.979059  
      55A     -0.949654    56A     -0.948159    57A     -0.933232  
      58A     -0.931381    59A     -0.911422    60A     -0.909706  
      61A     -0.892033    62A     -0.890292    63A     -0.887345  
      64A     -0.886183    65A     -0.872383    66A     -0.871048  
      67A     -0.844752    68A     -0.842988    69A     -0.839221  
      70A     -0.837001    71A     -0.810513    72A     -0.809289  
      73A     -0.807870    74A     -0.805706    75A     -0.762880  
      76A     -0.759957    77A     -0.750957    78A     -0.749122  
      79A     -0.732973    80A     -0.732187    81A     -0.727865  
      82A     -0.727246    83A     -0.717186    84A     -0.714997  
      85A     -0.693331    86A     -0.692400    87A     -0.656024  
      88A     -0.654191    89A     -0.644401    90A     -0.643486  
      91A     -0.632819    92A     -0.630082    93A     -0.611143  
      94A     -0.610250    95A     -0.601830    96A     -0.600313  
      97A     -0.576925    98A     -0.576083    99A     -0.573953  
     100A     -0.572543   101A     -0.566860   102A     -0.565034  
     103A     -0.556509   104A     -0.553679   105A     -0.552682  
     106A     -0.551051   107A     -0.548459   108A     -0.538317  
     109A     -0.536289   110A     -0.533005   111A     -0.529907  
     112A     -0.528045   113A     -0.526193   114A     -0.523500  
     115A     -0.520900   116A     -0.519194   117A     -0.518358  
     118A     -0.517250   119A     -0.514070   120A     -0.508932  
     121A     -0.507284   122A     -0.506612   123A     -0.501433  
     124A     -0.499038   125A     -0.488494   126A     -0.486814  
     127A     -0.486473   128A     -0.484081   129A     -0.483131  
     130A     -0.479837   131A     -0.476125   132A     -0.473736  
     133A     -0.473191   134A     -0.468982   135A     -0.466039  
     136A     -0.464482   137A     -0.460847   138A     -0.459652  
     139A     -0.455490   140A     -0.450979   141A     -0.447973  
     142A     -0.446749   143A     -0.444657   144A     -0.441289  
     145A     -0.439830   146A     -0.436190   147A     -0.411950  
     148A     -0.410022   149A     -0.409705   150A     -0.409098  
     151A     -0.408265   152A     -0.404585   153A     -0.388459  
     154A     -0.377895   155A     -0.376778   156A     -0.368763  
     157A     -0.336708   158A     -0.332981   159A     -0.326877  
     160A     -0.322213   161A     -0.293107   162A     -0.290597  
     163A     -0.272917   164A     -0.270896  

    Virtual:                                                              

     165A      0.005522   166A      0.008409   167A      0.021796  
     168A      0.024051   169A      0.024949   170A      0.026261  
     171A      0.030021   172A      0.031837   173A      0.032212  
     174A      0.033005   175A      0.038018   176A      0.038131  
     177A      0.041438   178A      0.042390   179A      0.045933  
     180A      0.046416   181A      0.048420   182A      0.049486  
     183A      0.049742   184A      0.052802   185A      0.054972  
     186A      0.056099   187A      0.056634   188A      0.061344  
     189A      0.062366   190A      0.063480   191A      0.064921  
     192A      0.065938   193A      0.067352   194A      0.069482  
     195A      0.070458   196A      0.072193   197A      0.073359  
     198A      0.078413   199A      0.078742   200A      0.080569  
     201A      0.082336   202A      0.084063   203A      0.084598  
     204A      0.087937   205A      0.089949   206A      0.090853  
     207A      0.091776   208A      0.092970   209A      0.094126  
     210A      0.094888   211A      0.096233   212A      0.101092  
     213A      0.102079   214A      0.103160   215A      0.104024  
     216A      0.105713   217A      0.106760   218A      0.107706  
     219A      0.108734   220A      0.110779   221A      0.111161  
     222A      0.112615   223A      0.114483   224A      0.115646  
     225A      0.116222   226A      0.116858   227A      0.118802  
     228A      0.119670   229A      0.120358   230A      0.121543  
     231A      0.123327   232A      0.125405   233A      0.126941  
     234A      0.128651   235A      0.129710   236A      0.130698  
     237A      0.131972   238A      0.133133   239A      0.135009  
     240A      0.136166   241A      0.137767   242A      0.138380  
     243A      0.139242   244A      0.140944   245A      0.141850  
     246A      0.142367   247A      0.144048   248A      0.144532  
     249A      0.146900   250A      0.148625   251A      0.149948  
     252A      0.150948   253A      0.152221   254A      0.154423  
     255A      0.154934   256A      0.156325   257A      0.157249  
     258A      0.159747   259A      0.160280   260A      0.161776  
     261A      0.162206   262A      0.163771   263A      0.164855  
     264A      0.167813   265A      0.168726   266A      0.170211  
     267A      0.170866   268A      0.172461   269A      0.172611  
     270A      0.174257   271A      0.175346   272A      0.176356  
     273A      0.178635   274A      0.180001   275A      0.180560  
     276A      0.182197   277A      0.182429   278A      0.184363  
     279A      0.185304   280A      0.188328   281A      0.190062  
     282A      0.192463   283A      0.193092   284A      0.194681  
     285A      0.195308   286A      0.195999   287A      0.196600  
     288A      0.198128   289A      0.199606   290A      0.199919  
     291A      0.202017   292A      0.203357   293A      0.204831  
     294A      0.207875   295A      0.208083   296A      0.211217  
     297A      0.212526   298A      0.213492   299A      0.214673  
     300A      0.217332   301A      0.217746   302A      0.218209  
     303A      0.219000   304A      0.220620   305A      0.223433  
     306A      0.224161   307A      0.226201   308A      0.226897  
     309A      0.227500   310A      0.228925   311A      0.230429  
     312A      0.231447   313A      0.232836   314A      0.234383  
     315A      0.234796   316A      0.236143   317A      0.237040  
     318A      0.237660   319A      0.239322   320A      0.240281  
     321A      0.241007   322A      0.241762   323A      0.243612  
     324A      0.244065   325A      0.244447   326A      0.247074  
     327A      0.248631   328A      0.249198   329A      0.249482  
     330A      0.251253   331A      0.252441   332A      0.253635  
     333A      0.255281   334A      0.256343   335A      0.256688  
     336A      0.257587   337A      0.258549   338A      0.260170  
     339A      0.261543   340A      0.262179   341A      0.263363  
     342A      0.264656   343A      0.265587   344A      0.267073  
     345A      0.268556   346A      0.269377   347A      0.270472  
     348A      0.271484   349A      0.271611   350A      0.272715  
     351A      0.274874   352A      0.275412   353A      0.277158  
     354A      0.277299   355A      0.277597   356A      0.278300  
     357A      0.279429   358A      0.281236   359A      0.283053  
     360A      0.283673   361A      0.285494   362A      0.286253  
     363A      0.287980   364A      0.289525   365A      0.290700  
     366A      0.291178   367A      0.292196   368A      0.293398  
     369A      0.295420   370A      0.295890   371A      0.296631  
     372A      0.297109   373A      0.298058   374A      0.299036  
     375A      0.301602   376A      0.302391   377A      0.303362  
     378A      0.305058   379A      0.306876   380A      0.307161  
     381A      0.308126   382A      0.309540   383A      0.311008  
     384A      0.311783   385A      0.312634   386A      0.313562  
     387A      0.313892   388A      0.315906   389A      0.317406  
     390A      0.317703   391A      0.318766   392A      0.321074  
     393A      0.321657   394A      0.323032   395A      0.323616  
     396A      0.324993   397A      0.325370   398A      0.327232  
     399A      0.328007   400A      0.329252   401A      0.331158  
     402A      0.331938   403A      0.332464   404A      0.333466  
     405A      0.334334   406A      0.335175   407A      0.336520  
     408A      0.337930   409A      0.339072   410A      0.339798  
     411A      0.340198   412A      0.341876   413A      0.342709  
     414A      0.344364   415A      0.345673   416A      0.346903  
     417A      0.348997   418A      0.349240   419A      0.351778  
     420A      0.351956   421A      0.353319   422A      0.354554  
     423A      0.355642   424A      0.355866   425A      0.357525  
     426A      0.358887   427A      0.359378   428A      0.361166  
     429A      0.361441   430A      0.363172   431A      0.363795  
     432A      0.367379   433A      0.367709   434A      0.368679  
     435A      0.369885   436A      0.370838   437A      0.372425  
     438A      0.372880   439A      0.373560   440A      0.375378  
     441A      0.376551   442A      0.376924   443A      0.378210  
     444A      0.379220   445A      0.380843   446A      0.381938  
     447A      0.382826   448A      0.385135   449A      0.385856  
     450A      0.386512   451A      0.389533   452A      0.390586  
     453A      0.391513   454A      0.392611   455A      0.393133  
     456A      0.393521   457A      0.395263   458A      0.396156  
     459A      0.397414   460A      0.398082   461A      0.398957  
     462A      0.401226   463A      0.403172   464A      0.405204  
     465A      0.406567   466A      0.407186   467A      0.408415  
     468A      0.408939   469A      0.410409   470A      0.412323  
     471A      0.413484   472A      0.415462   473A      0.416063  
     474A      0.417316   475A      0.420583   476A      0.421308  
     477A      0.422000   478A      0.424912   479A      0.425899  
     480A      0.427429   481A      0.427920   482A      0.429018  
     483A      0.430416   484A      0.433452   485A      0.434043  
     486A      0.434332   487A      0.434885   488A      0.437938  
     489A      0.439084   490A      0.439951   491A      0.441024  
     492A      0.443265   493A      0.444544   494A      0.445411  
     495A      0.446039   496A      0.447944   497A      0.449698  
     498A      0.451434   499A      0.453092   500A      0.454311  
     501A      0.456142   502A      0.456614   503A      0.457312  
     504A      0.458920   505A      0.460433   506A      0.461065  
     507A      0.462526   508A      0.463452   509A      0.465258  
     510A      0.466259   511A      0.468197   512A      0.469283  
     513A      0.470724   514A      0.472082   515A      0.474009  
     516A      0.476020   517A      0.476440   518A      0.477647  
     519A      0.478287   520A      0.479060   521A      0.479780  
     522A      0.480736   523A      0.482411   524A      0.482540  
     525A      0.484879   526A      0.485585   527A      0.487562  
     528A      0.488158   529A      0.489935   530A      0.491547  
     531A      0.492078   532A      0.493006   533A      0.494703  
     534A      0.495445   535A      0.496300   536A      0.496692  
     537A      0.498390   538A      0.499478   539A      0.500712  
     540A      0.501257   541A      0.502283   542A      0.502726  
     543A      0.503669   544A      0.503774   545A      0.504561  
     546A      0.506124   547A      0.508091   548A      0.508837  
     549A      0.509131   550A      0.509449   551A      0.512197  
     552A      0.512983   553A      0.514936   554A      0.515330  
     555A      0.516117   556A      0.517383   557A      0.517857  
     558A      0.518842   559A      0.519245   560A      0.521013  
     561A      0.521074   562A      0.522455   563A      0.524054  
     564A      0.524453   565A      0.526204   566A      0.527372  
     567A      0.527832   568A      0.528797   569A      0.530864  
     570A      0.531125   571A      0.532132   572A      0.532630  
     573A      0.534270   574A      0.535213   575A      0.535846  
     576A      0.537767   577A      0.538547   578A      0.539266  
     579A      0.540345   580A      0.541825   581A      0.542916  
     582A      0.543316   583A      0.544772   584A      0.546695  
     585A      0.548178   586A      0.548866   587A      0.549736  
     588A      0.551473   589A      0.551751   590A      0.553239  
     591A      0.554442   592A      0.554938   593A      0.555989  
     594A      0.558546   595A      0.559146   596A      0.559321  
     597A      0.562505   598A      0.563555   599A      0.564069  
     600A      0.564913   601A      0.566169   602A      0.566898  
     603A      0.567928   604A      0.568605   605A      0.570273  
     606A      0.571153   607A      0.572305   608A      0.573045  
     609A      0.574000   610A      0.575757   611A      0.577934  
     612A      0.579129   613A      0.579648   614A      0.580830  
     615A      0.582281   616A      0.583315   617A      0.585168  
     618A      0.585982   619A      0.587064   620A      0.587394  
     621A      0.588432   622A      0.589881   623A      0.592599  
     624A      0.593916   625A      0.594572   626A      0.595969  
     627A      0.596542   628A      0.599316   629A      0.599637  
     630A      0.600970   631A      0.602378   632A      0.603047  
     633A      0.604375   634A      0.605283   635A      0.606677  
     636A      0.609270   637A      0.610585   638A      0.612123  
     639A      0.613931   640A      0.616335   641A      0.618031  
     642A      0.618640   643A      0.620250   644A      0.621753  
     645A      0.622720   646A      0.623314   647A      0.624668  
     648A      0.626101   649A      0.629935   650A      0.630090  
     651A      0.630647   652A      0.631608   653A      0.632924  
     654A      0.635167   655A      0.637068   656A      0.637435  
     657A      0.640489   658A      0.641883   659A      0.643014  
     660A      0.645023   661A      0.646122   662A      0.647334  
     663A      0.647869   664A      0.649122   665A      0.650246  
     666A      0.651274   667A      0.652757   668A      0.654889  
     669A      0.658249   670A      0.659632   671A      0.661644  
     672A      0.662534   673A      0.664565   674A      0.665100  
     675A      0.666764   676A      0.667508   677A      0.668653  
     678A      0.670492   679A      0.673708   680A      0.675998  
     681A      0.678040   682A      0.678208   683A      0.680872  
     684A      0.681313   685A      0.682913   686A      0.683425  
     687A      0.685086   688A      0.686406   689A      0.688678  
     690A      0.689500   691A      0.692141   692A      0.694726  
     693A      0.695107   694A      0.695544   695A      0.697597  
     696A      0.701062   697A      0.701695   698A      0.702232  
     699A      0.704325   700A      0.705866   701A      0.706479  
     702A      0.709526   703A      0.709959   704A      0.712906  
     705A      0.714761   706A      0.715790   707A      0.717857  
     708A      0.719010   709A      0.719656   710A      0.720002  
     711A      0.722688   712A      0.723601   713A      0.726040  
     714A      0.727919   715A      0.730312   716A      0.731406  
     717A      0.732961   718A      0.733534   719A      0.733808  
     720A      0.734878   721A      0.736632   722A      0.737585  
     723A      0.739761   724A      0.742249   725A      0.742770  
     726A      0.744162   727A      0.746312   728A      0.746618  
     729A      0.750072   730A      0.751652   731A      0.753928  
     732A      0.755333   733A      0.756762   734A      0.757385  
     735A      0.758320   736A      0.759809   737A      0.760621  
     738A      0.764727   739A      0.765357   740A      0.766129  
     741A      0.767187   742A      0.769588   743A      0.771074  
     744A      0.772732   745A      0.773638   746A      0.776544  
     747A      0.777300   748A      0.779435   749A      0.780983  
     750A      0.782321   751A      0.782934   752A      0.783656  
     753A      0.785404   754A      0.788349   755A      0.789053  
     756A      0.790831   757A      0.793445   758A      0.793816  
     759A      0.796090   760A      0.797229   761A      0.799873  
     762A      0.801029   763A      0.801451   764A      0.803053  
     765A      0.804456   766A      0.805207   767A      0.807575  
     768A      0.807977   769A      0.809066   770A      0.810341  
     771A      0.811291   772A      0.813444   773A      0.814304  
     774A      0.815629   775A      0.817022   776A      0.818949  
     777A      0.819941   778A      0.821769   779A      0.822990  
     780A      0.825642   781A      0.826519   782A      0.827842  
     783A      0.828807   784A      0.830268   785A      0.831873  
     786A      0.833158   787A      0.833991   788A      0.836161  
     789A      0.837236   790A      0.838853   791A      0.840812  
     792A      0.841933   793A      0.843279   794A      0.844046  
     795A      0.845701   796A      0.846850   797A      0.847506  
     798A      0.850698   799A      0.851644   800A      0.851830  
     801A      0.854391   802A      0.854853   803A      0.856947  
     804A      0.857837   805A      0.858712   806A      0.859396  
     807A      0.860003   808A      0.861579   809A      0.862865  
     810A      0.863559   811A      0.865323   812A      0.865887  
     813A      0.868200   814A      0.870384   815A      0.873510  
     816A      0.873849   817A      0.874714   818A      0.874906  
     819A      0.875150   820A      0.878920   821A      0.879853  
     822A      0.880454   823A      0.881361   824A      0.883877  
     825A      0.884521   826A      0.885701   827A      0.887090  
     828A      0.888692   829A      0.888977   830A      0.891378  
     831A      0.892253   832A      0.894174   833A      0.895581  
     834A      0.897711   835A      0.899383   836A      0.900232  
     837A      0.901294   838A      0.902825   839A      0.904284  
     840A      0.905410   841A      0.906055   842A      0.908996  
     843A      0.909565   844A      0.911204   845A      0.911747  
     846A      0.913161   847A      0.914295   848A      0.914605  
     849A      0.916256   850A      0.917085   851A      0.917938  
     852A      0.919687   853A      0.922548   854A      0.923420  
     855A      0.924285   856A      0.926078   857A      0.927300  
     858A      0.928805   859A      0.930180   860A      0.931233  
     861A      0.931961   862A      0.933359   863A      0.933921  
     864A      0.934811   865A      0.935559   866A      0.937868  
     867A      0.939304   868A      0.940141   869A      0.942064  
     870A      0.942458   871A      0.943135   872A      0.944938  
     873A      0.946442   874A      0.947720   875A      0.948996  
     876A      0.950601   877A      0.951597   878A      0.952502  
     879A      0.955021   880A      0.956301   881A      0.956936  
     882A      0.959117   883A      0.960238   884A      0.961295  
     885A      0.961767   886A      0.963103   887A      0.964182  
     888A      0.966056   889A      0.966976   890A      0.968556  
     891A      0.969589   892A      0.971198   893A      0.972586  
     894A      0.974433   895A      0.975983   896A      0.976715  
     897A      0.979480   898A      0.979956   899A      0.980363  
     900A      0.982574   901A      0.983413   902A      0.984459  
     903A      0.986406   904A      0.986549   905A      0.987570  
     906A      0.988786   907A      0.990353   908A      0.992972  
     909A      0.994326   910A      0.994634   911A      0.996301  
     912A      0.997255   913A      0.999369   914A      0.999860  
     915A      1.002081   916A      1.003002   917A      1.005431  
     918A      1.006733   919A      1.007787   920A      1.010346  
     921A      1.011152   922A      1.011643   923A      1.013530  
     924A      1.015175   925A      1.015968   926A      1.016206  
     927A      1.018853   928A      1.019831   929A      1.020752  
     930A      1.023191   931A      1.024467   932A      1.025461  
     933A      1.028012   934A      1.029622   935A      1.031501  
     936A      1.032657   937A      1.033408   938A      1.035602  
     939A      1.036531   940A      1.037188   941A      1.038678  
     942A      1.042446   943A      1.042809   944A      1.044639  
     945A      1.045868   946A      1.046741   947A      1.048237  
     948A      1.051119   949A      1.053043   950A      1.053809  
     951A      1.054086   952A      1.055426   953A      1.056787  
     954A      1.057757   955A      1.059206   956A      1.060335  
     957A      1.060774   958A      1.062316   959A      1.063800  
     960A      1.064731   961A      1.067591   962A      1.069348  
     963A      1.069575   964A      1.071265   965A      1.071877  
     966A      1.073788   967A      1.076690   968A      1.078187  
     969A      1.078818   970A      1.080193   971A      1.081404  
     972A      1.084373   973A      1.086197   974A      1.086633  
     975A      1.087308   976A      1.088796   977A      1.090723  
     978A      1.091468   979A      1.092718   980A      1.094330  
     981A      1.095399   982A      1.098517   983A      1.100640  
     984A      1.102392   985A      1.102862   986A      1.104264  
     987A      1.105110   988A      1.107135   989A      1.107401  
     990A      1.109230   991A      1.111525   992A      1.111952  
     993A      1.114223   994A      1.115529   995A      1.116311  
     996A      1.118279   997A      1.118396   998A      1.121476  
     999A      1.121980  1000A      1.123928  1001A      1.124440  
    1002A      1.126382  1003A      1.127137  1004A      1.129338  
    1005A      1.131319  1006A      1.132490  1007A      1.134924  
    1008A      1.136191  1009A      1.137228  1010A      1.137672  
    1011A      1.139002  1012A      1.140464  1013A      1.141653  
    1014A      1.143111  1015A      1.144973  1016A      1.146657  
    1017A      1.148886  1018A      1.150309  1019A      1.151268  
    1020A      1.152949  1021A      1.154684  1022A      1.157215  
    1023A      1.158623  1024A      1.159611  1025A      1.160641  
    1026A      1.162200  1027A      1.164495  1028A      1.165773  
    1029A      1.166727  1030A      1.167747  1031A      1.170260  
    1032A      1.171619  1033A      1.172850  1034A      1.174851  
    1035A      1.176394  1036A      1.177157  1037A      1.178309  
    1038A      1.179208  1039A      1.180556  1040A      1.181765  
    1041A      1.182185  1042A      1.185120  1043A      1.186280  
    1044A      1.189327  1045A      1.191195  1046A      1.191840  
    1047A      1.193429  1048A      1.195721  1049A      1.196064  
    1050A      1.196753  1051A      1.198445  1052A      1.200538  
    1053A      1.201450  1054A      1.204921  1055A      1.205908  
    1056A      1.207206  1057A      1.207710  1058A      1.208543  
    1059A      1.210101  1060A      1.212368  1061A      1.213790  
    1062A      1.215039  1063A      1.217203  1064A      1.219633  
    1065A      1.221341  1066A      1.223030  1067A      1.224196  
    1068A      1.226327  1069A      1.229546  1070A      1.230672  
    1071A      1.231202  1072A      1.233826  1073A      1.235101  
    1074A      1.236982  1075A      1.237540  1076A      1.240074  
    1077A      1.240624  1078A      1.242456  1079A      1.245092  
    1080A      1.245670  1081A      1.247203  1082A      1.248038  
    1083A      1.249154  1084A      1.252700  1085A      1.253281  
    1086A      1.255133  1087A      1.256473  1088A      1.257002  
    1089A      1.260573  1090A      1.261889  1091A      1.263910  
    1092A      1.265802  1093A      1.267697  1094A      1.269972  
    1095A      1.272292  1096A      1.273215  1097A      1.274405  
    1098A      1.274863  1099A      1.276670  1100A      1.277709  
    1101A      1.278865  1102A      1.281320  1103A      1.282273  
    1104A      1.285334  1105A      1.286755  1106A      1.288685  
    1107A      1.291101  1108A      1.292852  1109A      1.294248  
    1110A      1.294840  1111A      1.295730  1112A      1.297891  
    1113A      1.299570  1114A      1.301027  1115A      1.302762  
    1116A      1.303847  1117A      1.304759  1118A      1.306590  
    1119A      1.308543  1120A      1.309519  1121A      1.311250  
    1122A      1.314924  1123A      1.315231  1124A      1.317990  
    1125A      1.318937  1126A      1.321262  1127A      1.323468  
    1128A      1.324471  1129A      1.324804  1130A      1.327320  
    1131A      1.330253  1132A      1.331107  1133A      1.332502  
    1134A      1.333770  1135A      1.334632  1136A      1.335485  
    1137A      1.336668  1138A      1.341144  1139A      1.342318  
    1140A      1.343055  1141A      1.344293  1142A      1.345827  
    1143A      1.347815  1144A      1.349232  1145A      1.350092  
    1146A      1.353688  1147A      1.356586  1148A      1.356858  
    1149A      1.360975  1150A      1.361493  1151A      1.363064  
    1152A      1.366129  1153A      1.366486  1154A      1.366849  
    1155A      1.367970  1156A      1.369702  1157A      1.371717  
    1158A      1.372989  1159A      1.374762  1160A      1.375659  
    1161A      1.377154  1162A      1.378635  1163A      1.379222  
    1164A      1.381011  1165A      1.382383  1166A      1.384415  
    1167A      1.386790  1168A      1.386847  1169A      1.390012  
    1170A      1.392874  1171A      1.393423  1172A      1.395233  
    1173A      1.398039  1174A      1.398964  1175A      1.399680  
    1176A      1.401236  1177A      1.403095  1178A      1.405081  
    1179A      1.408021  1180A      1.408599  1181A      1.409058  
    1182A      1.410623  1183A      1.414241  1184A      1.414638  
    1185A      1.417232  1186A      1.418168  1187A      1.420268  
    1188A      1.421419  1189A      1.423464  1190A      1.424590  
    1191A      1.426107  1192A      1.426675  1193A      1.428833  
    1194A      1.430947  1195A      1.431968  1196A      1.434750  
    1197A      1.435944  1198A      1.437150  1199A      1.437236  
    1200A      1.439529  1201A      1.440737  1202A      1.441940  
    1203A      1.442885  1204A      1.446399  1205A      1.448246  
    1206A      1.448949  1207A      1.450855  1208A      1.451371  
    1209A      1.453535  1210A      1.454180  1211A      1.455794  
    1212A      1.458414  1213A      1.459584  1214A      1.460730  
    1215A      1.461480  1216A      1.464392  1217A      1.464742  
    1218A      1.466461  1219A      1.470244  1220A      1.471476  
    1221A      1.474136  1222A      1.475870  1223A      1.476630  
    1224A      1.477956  1225A      1.480318  1226A      1.482771  
    1227A      1.483146  1228A      1.483793  1229A      1.485534  
    1230A      1.488495  1231A      1.489951  1232A      1.490596  
    1233A      1.491249  1234A      1.493469  1235A      1.495658  
    1236A      1.495792  1237A      1.496270  1238A      1.499226  
    1239A      1.500183  1240A      1.502695  1241A      1.503091  
    1242A      1.505593  1243A      1.507894  1244A      1.509184  
    1245A      1.511104  1246A      1.512845  1247A      1.513965  
    1248A      1.514780  1249A      1.515845  1250A      1.518057  
    1251A      1.519126  1252A      1.522426  1253A      1.523209  
    1254A      1.527255  1255A      1.527903  1256A      1.528861  
    1257A      1.529707  1258A      1.530365  1259A      1.532177  
    1260A      1.532679  1261A      1.534595  1262A      1.535729  
    1263A      1.538719  1264A      1.540576  1265A      1.541900  
    1266A      1.543229  1267A      1.544182  1268A      1.546935  
    1269A      1.548509  1270A      1.549360  1271A      1.550632  
    1272A      1.552793  1273A      1.553676  1274A      1.554601  
    1275A      1.556557  1276A      1.559180  1277A      1.560614  
    1278A      1.561576  1279A      1.562961  1280A      1.564624  
    1281A      1.565638  1282A      1.566337  1283A      1.567082  
    1284A      1.568933  1285A      1.569792  1286A      1.570085  
    1287A      1.571508  1288A      1.573336  1289A      1.574773  
    1290A      1.575348  1291A      1.577847  1292A      1.578621  
    1293A      1.580230  1294A      1.581290  1295A      1.583971  
    1296A      1.586291  1297A      1.586745  1298A      1.587464  
    1299A      1.588623  1300A      1.590508  1301A      1.592612  
    1302A      1.594100  1303A      1.595816  1304A      1.597067  
    1305A      1.598881  1306A      1.600479  1307A      1.601290  
    1308A      1.602685  1309A      1.603954  1310A      1.605586  
    1311A      1.606347  1312A      1.606507  1313A      1.609672  
    1314A      1.610831  1315A      1.612247  1316A      1.615202  
    1317A      1.615707  1318A      1.617499  1319A      1.619905  
    1320A      1.620539  1321A      1.621475  1322A      1.624197  
    1323A      1.625153  1324A      1.627005  1325A      1.627798  
    1326A      1.629431  1327A      1.631184  1328A      1.633563  
    1329A      1.634646  1330A      1.636709  1331A      1.637663  
    1332A      1.638509  1333A      1.639378  1334A      1.640340  
    1335A      1.641137  1336A      1.643681  1337A      1.644988  
    1338A      1.645922  1339A      1.646585  1340A      1.649471  
    1341A      1.651721  1342A      1.653500  1343A      1.656266  
    1344A      1.656913  1345A      1.659436  1346A      1.659660  
    1347A      1.660889  1348A      1.662664  1349A      1.663803  
    1350A      1.664990  1351A      1.666592  1352A      1.668052  
    1353A      1.669779  1354A      1.670724  1355A      1.671913  
    1356A      1.674109  1357A      1.675245  1358A      1.677084  
    1359A      1.678197  1360A      1.679321  1361A      1.681763  
    1362A      1.682448  1363A      1.684770  1364A      1.685770  
    1365A      1.686781  1366A      1.688851  1367A      1.690837  
    1368A      1.693006  1369A      1.693153  1370A      1.694209  
    1371A      1.695025  1372A      1.698361  1373A      1.699163  
    1374A      1.699818  1375A      1.702656  1376A      1.703740  
    1377A      1.704201  1378A      1.706056  1379A      1.708289  
    1380A      1.709824  1381A      1.711189  1382A      1.713016  
    1383A      1.713949  1384A      1.715999  1385A      1.717587  
    1386A      1.718394  1387A      1.719252  1388A      1.721676  
    1389A      1.724430  1390A      1.725382  1391A      1.726865  
    1392A      1.727716  1393A      1.729809  1394A      1.731456  
    1395A      1.732689  1396A      1.733676  1397A      1.735486  
    1398A      1.736824  1399A      1.738449  1400A      1.739668  
    1401A      1.742193  1402A      1.743305  1403A      1.743976  
    1404A      1.744172  1405A      1.747516  1406A      1.748548  
    1407A      1.749210  1408A      1.752472  1409A      1.752821  
    1410A      1.755343  1411A      1.755952  1412A      1.758425  
    1413A      1.760001  1414A      1.760491  1415A      1.764089  
    1416A      1.764975  1417A      1.765872  1418A      1.767094  
    1419A      1.770182  1420A      1.773298  1421A      1.774854  
    1422A      1.777441  1423A      1.779427  1424A      1.779817  
    1425A      1.781699  1426A      1.782301  1427A      1.784561  
    1428A      1.785075  1429A      1.787536  1430A      1.789429  
    1431A      1.791711  1432A      1.792317  1433A      1.795130  
    1434A      1.796548  1435A      1.798406  1436A      1.799533  
    1437A      1.801670  1438A      1.802509  1439A      1.804908  
    1440A      1.805609  1441A      1.806062  1442A      1.809847  
    1443A      1.811689  1444A      1.813461  1445A      1.815757  
    1446A      1.816293  1447A      1.817504  1448A      1.818370  
    1449A      1.820588  1450A      1.822086  1451A      1.823563  
    1452A      1.824946  1453A      1.826655  1454A      1.827586  
    1455A      1.830951  1456A      1.831534  1457A      1.833378  
    1458A      1.833891  1459A      1.836897  1460A      1.838163  
    1461A      1.840769  1462A      1.842877  1463A      1.844271  
    1464A      1.845267  1465A      1.845867  1466A      1.849015  
    1467A      1.852281  1468A      1.852460  1469A      1.856240  
    1470A      1.857278  1471A      1.859823  1472A      1.861158  
    1473A      1.862532  1474A      1.864625  1475A      1.866049  
    1476A      1.868465  1477A      1.868995  1478A      1.873286  
    1479A      1.875148  1480A      1.877047  1481A      1.879115  
    1482A      1.880057  1483A      1.881831  1484A      1.884540  
    1485A      1.885584  1486A      1.887997  1487A      1.889915  
    1488A      1.891704  1489A      1.892525  1490A      1.894881  
    1491A      1.895695  1492A      1.897772  1493A      1.900569  
    1494A      1.903502  1495A      1.907212  1496A      1.911073  
    1497A      1.913249  1498A      1.913841  1499A      1.914359  
    1500A      1.915734  1501A      1.917227  1502A      1.920530  
    1503A      1.921457  1504A      1.924235  1505A      1.927501  
    1506A      1.927850  1507A      1.929122  1508A      1.931034  
    1509A      1.933268  1510A      1.934757  1511A      1.938217  
    1512A      1.939232  1513A      1.940987  1514A      1.943016  
    1515A      1.945164  1516A      1.948064  1517A      1.948990  
    1518A      1.949995  1519A      1.952155  1520A      1.953587  
    1521A      1.956730  1522A      1.957745  1523A      1.960047  
    1524A      1.963118  1525A      1.963622  1526A      1.965280  
    1527A      1.969083  1528A      1.970989  1529A      1.972163  
    1530A      1.973986  1531A      1.975896  1532A      1.977491  
    1533A      1.980586  1534A      1.981622  1535A      1.984922  
    1536A      1.985948  1537A      1.987109  1538A      1.990670  
    1539A      1.992517  1540A      1.994833  1541A      1.995470  
    1542A      1.997171  1543A      1.997605  1544A      2.001191  
    1545A      2.002087  1546A      2.005384  1547A      2.006067  
    1548A      2.007316  1549A      2.009889  1550A      2.011381  
    1551A      2.015185  1552A      2.015631  1553A      2.016928  
    1554A      2.019641  1555A      2.023810  1556A      2.024647  
    1557A      2.026517  1558A      2.028481  1559A      2.029909  
    1560A      2.031863  1561A      2.033791  1562A      2.036512  
    1563A      2.039153  1564A      2.040464  1565A      2.043607  
    1566A      2.046155  1567A      2.048309  1568A      2.049497  
    1569A      2.050798  1570A      2.054040  1571A      2.055143  
    1572A      2.057559  1573A      2.060289  1574A      2.062648  
    1575A      2.065165  1576A      2.065809  1577A      2.066660  
    1578A      2.069459  1579A      2.071184  1580A      2.072437  
    1581A      2.074885  1582A      2.077566  1583A      2.078431  
    1584A      2.080919  1585A      2.082835  1586A      2.084085  
    1587A      2.085320  1588A      2.087873  1589A      2.088803  
    1590A      2.091295  1591A      2.093694  1592A      2.094043  
    1593A      2.096685  1594A      2.100665  1595A      2.101087  
    1596A      2.103074  1597A      2.105951  1598A      2.107408  
    1599A      2.108543  1600A      2.112263  1601A      2.116172  
    1602A      2.118603  1603A      2.120260  1604A      2.124094  
    1605A      2.125366  1606A      2.126696  1607A      2.128452  
    1608A      2.129015  1609A      2.130724  1610A      2.131365  
    1611A      2.136587  1612A      2.137021  1613A      2.139619  
    1614A      2.141446  1615A      2.143272  1616A      2.144548  
    1617A      2.145310  1618A      2.149172  1619A      2.151744  
    1620A      2.153184  1621A      2.155170  1622A      2.156177  
    1623A      2.156805  1624A      2.157648  1625A      2.158689  
    1626A      2.160046  1627A      2.162564  1628A      2.166490  
    1629A      2.167072  1630A      2.167254  1631A      2.168120  
    1632A      2.172150  1633A      2.174117  1634A      2.176664  
    1635A      2.179052  1636A      2.180673  1637A      2.182846  
    1638A      2.183162  1639A      2.187013  1640A      2.187625  
    1641A      2.188963  1642A      2.190660  1643A      2.191603  
    1644A      2.193336  1645A      2.196273  1646A      2.197679  
    1647A      2.199070  1648A      2.202735  1649A      2.203224  
    1650A      2.207688  1651A      2.209206  1652A      2.211955  
    1653A      2.214087  1654A      2.216310  1655A      2.219972  
    1656A      2.220839  1657A      2.221791  1658A      2.224034  
    1659A      2.225844  1660A      2.228408  1661A      2.230128  
    1662A      2.232450  1663A      2.234702  1664A      2.236489  
    1665A      2.238503  1666A      2.241819  1667A      2.243258  
    1668A      2.246710  1669A      2.248355  1670A      2.249296  
    1671A      2.252319  1672A      2.253536  1673A      2.255781  
    1674A      2.257384  1675A      2.261941  1676A      2.262274  
    1677A      2.263140  1678A      2.264572  1679A      2.267181  
    1680A      2.268905  1681A      2.269581  1682A      2.274970  
    1683A      2.275537  1684A      2.277173  1685A      2.281970  
    1686A      2.283165  1687A      2.284922  1688A      2.286722  
    1689A      2.289162  1690A      2.289778  1691A      2.294675  
    1692A      2.297963  1693A      2.300057  1694A      2.303477  
    1695A      2.306623  1696A      2.307830  1697A      2.310182  
    1698A      2.311692  1699A      2.312759  1700A      2.315705  
    1701A      2.319643  1702A      2.321515  1703A      2.321947  
    1704A      2.322939  1705A      2.324748  1706A      2.327135  
    1707A      2.329111  1708A      2.332104  1709A      2.334029  
    1710A      2.336480  1711A      2.337540  1712A      2.341610  
    1713A      2.344078  1714A      2.347099  1715A      2.349868  
    1716A      2.351480  1717A      2.355072  1718A      2.356994  
    1719A      2.359097  1720A      2.360431  1721A      2.362489  
    1722A      2.363579  1723A      2.367452  1724A      2.369135  
    1725A      2.370632  1726A      2.372912  1727A      2.378338  
    1728A      2.379444  1729A      2.380394  1730A      2.381545  
    1731A      2.381891  1732A      2.386283  1733A      2.389167  
    1734A      2.389982  1735A      2.391428  1736A      2.396941  
    1737A      2.398718  1738A      2.400256  1739A      2.402877  
    1740A      2.404534  1741A      2.407099  1742A      2.409130  
    1743A      2.411722  1744A      2.413387  1745A      2.417715  
    1746A      2.418851  1747A      2.422570  1748A      2.425132  
    1749A      2.428181  1750A      2.428477  1751A      2.430135  
    1752A      2.434201  1753A      2.435460  1754A      2.437969  
    1755A      2.441001  1756A      2.441840  1757A      2.444603  
    1758A      2.445212  1759A      2.448917  1760A      2.451155  
    1761A      2.452188  1762A      2.457142  1763A      2.461475  
    1764A      2.462796  1765A      2.465997  1766A      2.469008  
    1767A      2.471169  1768A      2.471624  1769A      2.473503  
    1770A      2.476518  1771A      2.476819  1772A      2.480570  
    1773A      2.483322  1774A      2.485758  1775A      2.487175  
    1776A      2.489945  1777A      2.492611  1778A      2.494785  
    1779A      2.499804  1780A      2.502692  1781A      2.504595  
    1782A      2.507613  1783A      2.510105  1784A      2.512907  
    1785A      2.514507  1786A      2.518136  1787A      2.519498  
    1788A      2.522578  1789A      2.523496  1790A      2.529168  
    1791A      2.529842  1792A      2.531850  1793A      2.537397  
    1794A      2.537961  1795A      2.538659  1796A      2.541345  
    1797A      2.547295  1798A      2.548990  1799A      2.552375  
    1800A      2.554475  1801A      2.558347  1802A      2.561171  
    1803A      2.563120  1804A      2.566279  1805A      2.569117  
    1806A      2.571034  1807A      2.573510  1808A      2.576753  
    1809A      2.580972  1810A      2.583670  1811A      2.585690  
    1812A      2.589396  1813A      2.590966  1814A      2.592387  
    1815A      2.596766  1816A      2.599908  1817A      2.604698  
    1818A      2.605745  1819A      2.609091  1820A      2.611390  
    1821A      2.614036  1822A      2.615780  1823A      2.620789  
    1824A      2.621640  1825A      2.624642  1826A      2.626175  
    1827A      2.632113  1828A      2.633479  1829A      2.637115  
    1830A      2.639332  1831A      2.645975  1832A      2.648262  
    1833A      2.648912  1834A      2.650660  1835A      2.654027  
    1836A      2.657896  1837A      2.659606  1838A      2.660702  
    1839A      2.666759  1840A      2.669243  1841A      2.673039  
    1842A      2.676287  1843A      2.679471  1844A      2.682036  
    1845A      2.684733  1846A      2.688799  1847A      2.694266  
    1848A      2.696440  1849A      2.698787  1850A      2.703630  
    1851A      2.706241  1852A      2.709080  1853A      2.709882  
    1854A      2.712098  1855A      2.716350  1856A      2.720089  
    1857A      2.724597  1858A      2.728036  1859A      2.730323  
    1860A      2.735292  1861A      2.736671  1862A      2.741893  
    1863A      2.743119  1864A      2.745099  1865A      2.750601  
    1866A      2.755885  1867A      2.756565  1868A      2.757581  
    1869A      2.765266  1870A      2.767289  1871A      2.770046  
    1872A      2.772438  1873A      2.777459  1874A      2.781030  
    1875A      2.784511  1876A      2.787505  1877A      2.792247  
    1878A      2.792785  1879A      2.795270  1880A      2.799393  
    1881A      2.802572  1882A      2.806676  1883A      2.814947  
    1884A      2.820279  1885A      2.827201  1886A      2.829070  
    1887A      2.833164  1888A      2.836563  1889A      2.838749  
    1890A      2.840455  1891A      2.846635  1892A      2.855701  
    1893A      2.858308  1894A      2.867191  1895A      2.868493  
    1896A      2.872570  1897A      2.878305  1898A      2.884508  
    1899A      2.886497  1900A      2.890480  1901A      2.893041  
    1902A      2.899126  1903A      2.902128  1904A      2.914867  
    1905A      2.919803  1906A      2.926099  1907A      2.932922  
    1908A      2.934293  1909A      2.936977  1910A      2.939923  
    1911A      2.945313  1912A      2.948009  1913A      2.950049  
    1914A      2.955488  1915A      2.962922  1916A      2.963982  
    1917A      2.970139  1918A      2.974842  1919A      2.979357  
    1920A      2.983964  1921A      2.989892  1922A      2.995920  
    1923A      3.006053  1924A      3.009381  1925A      3.014427  
    1926A      3.017165  1927A      3.021522  1928A      3.031259  
    1929A      3.032935  1930A      3.040262  1931A      3.042564  
    1932A      3.049401  1933A      3.059260  1934A      3.062018  
    1935A      3.069421  1936A      3.085990  1937A      3.092154  
    1938A      3.095173  1939A      3.101428  1940A      3.108530  
    1941A      3.121386  1942A      3.126025  1943A      3.127026  
    1944A      3.132265  1945A      3.139468  1946A      3.142454  
    1947A      3.145936  1948A      3.152952  1949A      3.156967  
    1950A      3.160190  1951A      3.166954  1952A      3.167824  
    1953A      3.172150  1954A      3.175590  1955A      3.180595  
    1956A      3.184491  1957A      3.189729  1958A      3.195767  
    1959A      3.201806  1960A      3.203412  1961A      3.206859  
    1962A      3.208933  1963A      3.217651  1964A      3.219074  
    1965A      3.225300  1966A      3.226166  1967A      3.232496  
    1968A      3.234129  1969A      3.236188  1970A      3.244105  
    1971A      3.248810  1972A      3.253195  1973A      3.258413  
    1974A      3.260497  1975A      3.265264  1976A      3.268532  
    1977A      3.270892  1978A      3.276003  1979A      3.277438  
    1980A      3.281209  1981A      3.285097  1982A      3.285958  
    1983A      3.287996  1984A      3.291068  1985A      3.293897  
    1986A      3.296005  1987A      3.300182  1988A      3.304527  
    1989A      3.312014  1990A      3.312783  1991A      3.315724  
    1992A      3.317875  1993A      3.323194  1994A      3.325492  
    1995A      3.326592  1996A      3.328638  1997A      3.330190  
    1998A      3.335903  1999A      3.340297  2000A      3.342435  
    2001A      3.346461  2002A      3.348583  2003A      3.351540  
    2004A      3.352670  2005A      3.355530  2006A      3.360988  
    2007A      3.363553  2008A      3.365434  2009A      3.367634  
    2010A      3.370487  2011A      3.371610  2012A      3.376124  
    2013A      3.378121  2014A      3.382446  2015A      3.382793  
    2016A      3.385901  2017A      3.388423  2018A      3.390106  
    2019A      3.393872  2020A      3.395581  2021A      3.398805  
    2022A      3.401323  2023A      3.403342  2024A      3.405450  
    2025A      3.407000  2026A      3.409046  2027A      3.412221  
    2028A      3.413480  2029A      3.419044  2030A      3.419109  
    2031A      3.421945  2032A      3.424060  2033A      3.428597  
    2034A      3.429269  2035A      3.430411  2036A      3.433773  
    2037A      3.434918  2038A      3.437998  2039A      3.440217  
    2040A      3.442127  2041A      3.444747  2042A      3.447290  
    2043A      3.448534  2044A      3.450044  2045A      3.452729  
    2046A      3.456644  2047A      3.458669  2048A      3.462459  
    2049A      3.464037  2050A      3.467838  2051A      3.469949  
    2052A      3.470681  2053A      3.471964  2054A      3.474760  
    2055A      3.478008  2056A      3.480839  2057A      3.481619  
    2058A      3.483375  2059A      3.484187  2060A      3.486686  
    2061A      3.490463  2062A      3.493442  2063A      3.494443  
    2064A      3.496413  2065A      3.500025  2066A      3.501450  
    2067A      3.503186  2068A      3.504820  2069A      3.505182  
    2070A      3.507140  2071A      3.508133  2072A      3.511217  
    2073A      3.514961  2074A      3.516432  2075A      3.518720  
    2076A      3.521607  2077A      3.522488  2078A      3.528485  
    2079A      3.529626  2080A      3.531177  2081A      3.531687  
    2082A      3.535199  2083A      3.535985  2084A      3.539192  
    2085A      3.541082  2086A      3.542417  2087A      3.545271  
    2088A      3.547100  2089A      3.549377  2090A      3.550531  
    2091A      3.553497  2092A      3.554119  2093A      3.554844  
    2094A      3.557409  2095A      3.559293  2096A      3.561798  
    2097A      3.562997  2098A      3.563265  2099A      3.568245  
    2100A      3.568483  2101A      3.571326  2102A      3.573308  
    2103A      3.576293  2104A      3.576665  2105A      3.579646  
    2106A      3.582515  2107A      3.583966  2108A      3.585439  
    2109A      3.587657  2110A      3.588283  2111A      3.593796  
    2112A      3.594946  2113A      3.596312  2114A      3.597536  
    2115A      3.602579  2116A      3.603555  2117A      3.605981  
    2118A      3.607501  2119A      3.607942  2120A      3.611527  
    2121A      3.615541  2122A      3.616601  2123A      3.617978  
    2124A      3.620274  2125A      3.621980  2126A      3.623281  
    2127A      3.625245  2128A      3.629483  2129A      3.631363  
    2130A      3.634421  2131A      3.636621  2132A      3.636915  
    2133A      3.638543  2134A      3.640554  2135A      3.641520  
    2136A      3.644760  2137A      3.647493  2138A      3.648423  
    2139A      3.650397  2140A      3.652967  2141A      3.655117  
    2142A      3.657199  2143A      3.658061  2144A      3.660761  
    2145A      3.662672  2146A      3.664956  2147A      3.667656  
    2148A      3.668147  2149A      3.669219  2150A      3.671565  
    2151A      3.674543  2152A      3.678072  2153A      3.679016  
    2154A      3.680596  2155A      3.683352  2156A      3.686147  
    2157A      3.688634  2158A      3.689967  2159A      3.691802  
    2160A      3.694697  2161A      3.697050  2162A      3.699593  
    2163A      3.701968  2164A      3.703076  2165A      3.703707  
    2166A      3.703971  2167A      3.707895  2168A      3.709722  
    2169A      3.711383  2170A      3.713872  2171A      3.716162  
    2172A      3.718710  2173A      3.721881  2174A      3.723713  
    2175A      3.725031  2176A      3.729541  2177A      3.731248  
    2178A      3.732154  2179A      3.733357  2180A      3.734322  
    2181A      3.737198  2182A      3.739609  2183A      3.741712  
    2184A      3.742960  2185A      3.743847  2186A      3.747265  
    2187A      3.747812  2188A      3.749340  2189A      3.750853  
    2190A      3.754765  2191A      3.756736  2192A      3.759422  
    2193A      3.759979  2194A      3.763680  2195A      3.766456  
    2196A      3.769353  2197A      3.769686  2198A      3.771229  
    2199A      3.773231  2200A      3.775193  2201A      3.775804  
    2202A      3.778302  2203A      3.780618  2204A      3.782533  
    2205A      3.784153  2206A      3.787185  2207A      3.792077  
    2208A      3.793474  2209A      3.795352  2210A      3.798357  
    2211A      3.800661  2212A      3.802604  2213A      3.803880  
    2214A      3.805832  2215A      3.807206  2216A      3.811734  
    2217A      3.813380  2218A      3.816125  2219A      3.818367  
    2220A      3.819514  2221A      3.822772  2222A      3.824900  
    2223A      3.827726  2224A      3.828258  2225A      3.830591  
    2226A      3.831604  2227A      3.835678  2228A      3.836413  
    2229A      3.837240  2230A      3.840771  2231A      3.843192  
    2232A      3.844393  2233A      3.846479  2234A      3.848304  
    2235A      3.850202  2236A      3.854535  2237A      3.855177  
    2238A      3.857100  2239A      3.859800  2240A      3.861258  
    2241A      3.864428  2242A      3.864573  2243A      3.866949  
    2244A      3.870641  2245A      3.871891  2246A      3.872648  
    2247A      3.875428  2248A      3.876618  2249A      3.877834  
    2250A      3.879538  2251A      3.882562  2252A      3.884784  
    2253A      3.885966  2254A      3.887886  2255A      3.889540  
    2256A      3.890111  2257A      3.892664  2258A      3.895579  
    2259A      3.899222  2260A      3.900459  2261A      3.903010  
    2262A      3.904592  2263A      3.907875  2264A      3.908551  
    2265A      3.909509  2266A      3.912262  2267A      3.914196  
    2268A      3.915289  2269A      3.917237  2270A      3.920623  
    2271A      3.920922  2272A      3.922320  2273A      3.925066  
    2274A      3.926815  2275A      3.929791  2276A      3.931097  
    2277A      3.934983  2278A      3.935299  2279A      3.937452  
    2280A      3.939917  2281A      3.941171  2282A      3.943953  
    2283A      3.945240  2284A      3.946721  2285A      3.948086  
    2286A      3.950963  2287A      3.951917  2288A      3.955277  
    2289A      3.955682  2290A      3.961114  2291A      3.963360  
    2292A      3.964682  2293A      3.965199  2294A      3.966528  
    2295A      3.968803  2296A      3.969758  2297A      3.973421  
    2298A      3.974039  2299A      3.978026  2300A      3.981895  
    2301A      3.983318  2302A      3.985190  2303A      3.986147  
    2304A      3.987162  2305A      3.990024  2306A      3.992078  
    2307A      3.992969  2308A      3.995178  2309A      3.996704  
    2310A      3.999163  2311A      3.999421  2312A      4.003183  
    2313A      4.004786  2314A      4.005678  2315A      4.009650  
    2316A      4.013463  2317A      4.015579  2318A      4.016050  
    2319A      4.019933  2320A      4.021396  2321A      4.024651  
    2322A      4.025220  2323A      4.027769  2324A      4.028629  
    2325A      4.033247  2326A      4.035060  2327A      4.035718  
    2328A      4.038825  2329A      4.040135  2330A      4.041221  
    2331A      4.043138  2332A      4.044690  2333A      4.048270  
    2334A      4.049638  2335A      4.053422  2336A      4.054374  
    2337A      4.057288  2338A      4.057297  2339A      4.060598  
    2340A      4.062803  2341A      4.063920  2342A      4.065110  
    2343A      4.070113  2344A      4.071649  2345A      4.074561  
    2346A      4.075986  2347A      4.077878  2348A      4.079668  
    2349A      4.081477  2350A      4.084590  2351A      4.088797  
    2352A      4.091375  2353A      4.092559  2354A      4.093077  
    2355A      4.094872  2356A      4.098857  2357A      4.100006  
    2358A      4.102664  2359A      4.103722  2360A      4.104612  
    2361A      4.108274  2362A      4.110264  2363A      4.112078  
    2364A      4.114954  2365A      4.116610  2366A      4.118631  
    2367A      4.119590  2368A      4.121701  2369A      4.124743  
    2370A      4.125389  2371A      4.126542  2372A      4.129087  
    2373A      4.131038  2374A      4.133393  2375A      4.136313  
    2376A      4.139068  2377A      4.140887  2378A      4.141323  
    2379A      4.145116  2380A      4.146673  2381A      4.147256  
    2382A      4.149805  2383A      4.151968  2384A      4.154678  
    2385A      4.157021  2386A      4.158155  2387A      4.160977  
    2388A      4.164437  2389A      4.165509  2390A      4.166552  
    2391A      4.169047  2392A      4.171525  2393A      4.174886  
    2394A      4.176041  2395A      4.176293  2396A      4.179134  
    2397A      4.183660  2398A      4.185153  2399A      4.186877  
    2400A      4.188117  2401A      4.189890  2402A      4.193677  
    2403A      4.195950  2404A      4.197329  2405A      4.200061  
    2406A      4.202904  2407A      4.203401  2408A      4.208717  
    2409A      4.209088  2410A      4.210659  2411A      4.211333  
    2412A      4.214462  2413A      4.215942  2414A      4.217838  
    2415A      4.223444  2416A      4.224414  2417A      4.225880  
    2418A      4.228838  2419A      4.229661  2420A      4.230965  
    2421A      4.232445  2422A      4.233589  2423A      4.235832  
    2424A      4.239509  2425A      4.241866  2426A      4.244444  
    2427A      4.245709  2428A      4.246435  2429A      4.248862  
    2430A      4.251426  2431A      4.253819  2432A      4.256484  
    2433A      4.259079  2434A      4.261079  2435A      4.261692  
    2436A      4.262464  2437A      4.266333  2438A      4.268631  
    2439A      4.269573  2440A      4.270466  2441A      4.272569  
    2442A      4.275018  2443A      4.277996  2444A      4.278964  
    2445A      4.281104  2446A      4.282995  2447A      4.283909  
    2448A      4.287154  2449A      4.290722  2450A      4.290794  
    2451A      4.294936  2452A      4.296141  2453A      4.299864  
    2454A      4.302805  2455A      4.304250  2456A      4.306858  
    2457A      4.307697  2458A      4.311313  2459A      4.313711  
    2460A      4.315413  2461A      4.315792  2462A      4.319110  
    2463A      4.322247  2464A      4.324937  2465A      4.325718  
    2466A      4.327908  2467A      4.331879  2468A      4.333938  
    2469A      4.334771  2470A      4.335153  2471A      4.338978  
    2472A      4.341257  2473A      4.342647  2474A      4.344708  
    2475A      4.348355  2476A      4.349606  2477A      4.352889  
    2478A      4.354041  2479A      4.355907  2480A      4.358331  
    2481A      4.359861  2482A      4.361891  2483A      4.364530  
    2484A      4.366797  2485A      4.368348  2486A      4.369762  
    2487A      4.376411  2488A      4.377633  2489A      4.378372  
    2490A      4.380234  2491A      4.384273  2492A      4.386400  
    2493A      4.387155  2494A      4.388990  2495A      4.392969  
    2496A      4.395739  2497A      4.397839  2498A      4.399610  
    2499A      4.400744  2500A      4.404724  2501A      4.405355  
    2502A      4.407176  2503A      4.410882  2504A      4.412326  
    2505A      4.416116  2506A      4.417762  2507A      4.419391  
    2508A      4.422886  2509A      4.424679  2510A      4.426758  
    2511A      4.428438  2512A      4.432349  2513A      4.434911  
    2514A      4.435272  2515A      4.438180  2516A      4.441766  
    2517A      4.444187  2518A      4.445914  2519A      4.447834  
    2520A      4.451310  2521A      4.452028  2522A      4.455076  
    2523A      4.455941  2524A      4.459548  2525A      4.462249  
    2526A      4.463798  2527A      4.466117  2528A      4.469329  
    2529A      4.471258  2530A      4.473576  2531A      4.476330  
    2532A      4.477129  2533A      4.480922  2534A      4.481594  
    2535A      4.484801  2536A      4.488328  2537A      4.488964  
    2538A      4.490357  2539A      4.492362  2540A      4.495688  
    2541A      4.499771  2542A      4.501449  2543A      4.502873  
    2544A      4.503873  2545A      4.506528  2546A      4.509364  
    2547A      4.510277  2548A      4.516797  2549A      4.517191  
    2550A      4.518218  2551A      4.521966  2552A      4.524205  
    2553A      4.524866  2554A      4.529301  2555A      4.532319  
    2556A      4.534083  2557A      4.534612  2558A      4.536262  
    2559A      4.538687  2560A      4.542284  2561A      4.543787  
    2562A      4.545618  2563A      4.547297  2564A      4.549921  
    2565A      4.552922  2566A      4.553260  2567A      4.558142  
    2568A      4.559720  2569A      4.560776  2570A      4.562093  
    2571A      4.565687  2572A      4.566512  2573A      4.568272  
    2574A      4.571369  2575A      4.574509  2576A      4.576327  
    2577A      4.579378  2578A      4.580527  2579A      4.583635  
    2580A      4.585484  2581A      4.585940  2582A      4.592067  
    2583A      4.592976  2584A      4.596079  2585A      4.598583  
    2586A      4.601056  2587A      4.604190  2588A      4.604956  
    2589A      4.606123  2590A      4.608361  2591A      4.611600  
    2592A      4.613182  2593A      4.617612  2594A      4.619920  
    2595A      4.622001  2596A      4.625060  2597A      4.626994  
    2598A      4.627965  2599A      4.630068  2600A      4.632993  
    2601A      4.636239  2602A      4.639848  2603A      4.641250  
    2604A      4.644658  2605A      4.646718  2606A      4.649497  
    2607A      4.651439  2608A      4.653035  2609A      4.655964  
    2610A      4.660121  2611A      4.661799  2612A      4.662519  
    2613A      4.663389  2614A      4.667301  2615A      4.669657  
    2616A      4.670011  2617A      4.675504  2618A      4.676057  
    2619A      4.678488  2620A      4.678863  2621A      4.683237  
    2622A      4.685236  2623A      4.686749  2624A      4.688689  
    2625A      4.690291  2626A      4.694106  2627A      4.695789  
    2628A      4.700167  2629A      4.700584  2630A      4.703019  
    2631A      4.705229  2632A      4.709722  2633A      4.714409  
    2634A      4.715135  2635A      4.718959  2636A      4.720360  
    2637A      4.723137  2638A      4.723497  2639A      4.724928  
    2640A      4.727485  2641A      4.727873  2642A      4.732032  
    2643A      4.736269  2644A      4.739559  2645A      4.741621  
    2646A      4.744361  2647A      4.745472  2648A      4.747821  
    2649A      4.752428  2650A      4.753115  2651A      4.758465  
    2652A      4.759651  2653A      4.761885  2654A      4.764204  
    2655A      4.767696  2656A      4.770610  2657A      4.773715  
    2658A      4.778275  2659A      4.778879  2660A      4.780997  
    2661A      4.782986  2662A      4.785734  2663A      4.790980  
    2664A      4.792573  2665A      4.796105  2666A      4.797213  
    2667A      4.801992  2668A      4.806502  2669A      4.809267  
    2670A      4.811663  2671A      4.813415  2672A      4.815846  
    2673A      4.818071  2674A      4.822582  2675A      4.824454  
    2676A      4.827304  2677A      4.829165  2678A      4.834885  
    2679A      4.837053  2680A      4.839649  2681A      4.843337  
    2682A      4.845658  2683A      4.846923  2684A      4.849305  
    2685A      4.855403  2686A      4.856034  2687A      4.859937  
    2688A      4.862205  2689A      4.863151  2690A      4.867817  
    2691A      4.869899  2692A      4.873859  2693A      4.876595  
    2694A      4.876983  2695A      4.879923  2696A      4.882515  
    2697A      4.886044  2698A      4.886766  2699A      4.892124  
    2700A      4.893178  2701A      4.894768  2702A      4.897747  
    2703A      4.903875  2704A      4.904333  2705A      4.907849  
    2706A      4.913699  2707A      4.914065  2708A      4.917592  
    2709A      4.918460  2710A      4.922040  2711A      4.924757  
    2712A      4.925458  2713A      4.931225  2714A      4.933581  
    2715A      4.934052  2716A      4.936080  2717A      4.939241  
    2718A      4.942019  2719A      4.943080  2720A      4.945674  
    2721A      4.949080  2722A      4.951406  2723A      4.954360  
    2724A      4.961090  2725A      4.964386  2726A      4.968014  
    2727A      4.969631  2728A      4.971996  2729A      4.976005  
    2730A      4.977808  2731A      4.982269  2732A      4.984601  
    2733A      4.985918  2734A      4.991108  2735A      4.993352  
    2736A      4.995257  2737A      4.997011  2738A      5.002402  
    2739A      5.005685  2740A      5.006180  2741A      5.010733  
    2742A      5.011706  2743A      5.014892  2744A      5.020561  
    2745A      5.022014  2746A      5.025988  2747A      5.027073  
    2748A      5.032460  2749A      5.034925  2750A      5.038310  
    2751A      5.041823  2752A      5.042672  2753A      5.046238  
    2754A      5.051061  2755A      5.053855  2756A      5.055788  
    2757A      5.058777  2758A      5.059643  2759A      5.063539  
    2760A      5.070107  2761A      5.071313  2762A      5.075285  
    2763A      5.079007  2764A      5.081028  2765A      5.085203  
    2766A      5.088697  2767A      5.094054  2768A      5.094794  
    2769A      5.097807  2770A      5.100741  2771A      5.102428  
    2772A      5.105423  2773A      5.112942  2774A      5.115315  
    2775A      5.117388  2776A      5.118918  2777A      5.121517  
    2778A      5.126912  2779A      5.127927  2780A      5.131188  
    2781A      5.134714  2782A      5.140343  2783A      5.142530  
    2784A      5.145703  2785A      5.149047  2786A      5.155219  
    2787A      5.156694  2788A      5.159395  2789A      5.162127  
    2790A      5.163369  2791A      5.164891  2792A      5.170353  
    2793A      5.173568  2794A      5.176089  2795A      5.185014  
    2796A      5.185711  2797A      5.193563  2798A      5.195302  
    2799A      5.196904  2800A      5.199485  2801A      5.204148  
    2802A      5.208976  2803A      5.211547  2804A      5.217229  
    2805A      5.220345  2806A      5.224384  2807A      5.226541  
    2808A      5.233987  2809A      5.236226  2810A      5.238479  
    2811A      5.244955  2812A      5.245934  2813A      5.249992  
    2814A      5.252746  2815A      5.258014  2816A      5.261610  
    2817A      5.264814  2818A      5.265643  2819A      5.269459  
    2820A      5.275988  2821A      5.281794  2822A      5.282134  
    2823A      5.288056  2824A      5.288332  2825A      5.294942  
    2826A      5.295930  2827A      5.300577  2828A      5.307103  
    2829A      5.308792  2830A      5.312672  2831A      5.315751  
    2832A      5.319218  2833A      5.323926  2834A      5.325691  
    2835A      5.331486  2836A      5.334894  2837A      5.339324  
    2838A      5.341900  2839A      5.345081  2840A      5.349650  
    2841A      5.353299  2842A      5.355533  2843A      5.362964  
    2844A      5.365343  2845A      5.367609  2846A      5.377834  
    2847A      5.380392  2848A      5.384794  2849A      5.386703  
    2850A      5.388901  2851A      5.393879  2852A      5.395540  
    2853A      5.401218  2854A      5.404625  2855A      5.410405  
    2856A      5.419552  2857A      5.421668  2858A      5.424727  
    2859A      5.433115  2860A      5.436240  2861A      5.441354  
    2862A      5.448813  2863A      5.451719  2864A      5.455867  
    2865A      5.456732  2866A      5.461310  2867A      5.464297  
    2868A      5.466672  2869A      5.470419  2870A      5.475439  
    2871A      5.476641  2872A      5.477265  2873A      5.480950  
    2874A      5.484083  2875A      5.489702  2876A      5.490982  
    2877A      5.495992  2878A      5.500979  2879A      5.508353  
    2880A      5.509979  2881A      5.516057  2882A      5.517727  
    2883A      5.532151  2884A      5.537633  2885A      5.543723  
    2886A      5.546533  2887A      5.551921  2888A      5.556180  
    2889A      5.559941  2890A      5.563815  2891A      5.572856  
    2892A      5.574577  2893A      5.585106  2894A      5.590737  
    2895A      5.598180  2896A      5.605190  2897A      5.611049  
    2898A      5.615178  2899A      5.621685  2900A      5.628972  
    2901A      5.633997  2902A      5.636980  2903A      5.646344  
    2904A      5.658908  2905A      5.666747  2906A      5.675701  
    2907A      5.681625  2908A      5.686484  2909A      5.689728  
    2910A      5.705091  2911A      5.709437  2912A      5.718374  
    2913A      5.723927  2914A      5.731162  2915A      5.742929  
    2916A      5.747296  2917A      5.752917  2918A      5.768271  
    2919A      5.775873  2920A      5.786308  2921A      5.792236  
    2922A      5.795706  2923A      5.801120  2924A      5.821793  
    2925A      5.823689  2926A      5.833170  2927A      5.834495  
    2928A      5.838538  2929A      5.844444  2930A      5.850637  
    2931A      5.856073  2932A      5.874966  2933A      5.880840  
    2934A      5.898913  2935A      5.906920  2936A      5.912340  
    2937A      5.917374  2938A      5.926615  2939A      5.932859  
    2940A      5.939759  2941A      5.949970  2942A      5.953044  
    2943A      5.959634  2944A      5.965235  2945A      5.972885  
    2946A      5.979456  2947A      5.987404  2948A      5.991976  
    2949A      6.000296  2950A      6.001265  2951A      6.009659  
    2952A      6.011676  2953A      6.024410  2954A      6.036937  
    2955A      6.045653  2956A      6.048197  2957A      6.065300  
    2958A      6.073855  2959A      6.085578  2960A      6.089594  
    2961A      6.096129  2962A      6.105434  2963A      6.107877  
    2964A      6.113973  2965A      6.130263  2966A      6.142402  
    2967A      6.149245  2968A      6.159953  2969A      6.177906  
    2970A      6.191350  2971A      6.195520  2972A      6.200214  
    2973A      6.210447  2974A      6.229572  2975A      6.246432  
    2976A      6.249711  2977A      6.259686  2978A      6.274525  
    2979A      6.282197  2980A      6.299602  2981A      6.306705  
    2982A      6.312559  2983A      6.319114  2984A      6.327017  
    2985A      6.330665  2986A      6.346298  2987A      6.349848  
    2988A      6.358365  2989A      6.367923  2990A      6.373282  
    2991A      6.378810  2992A      6.383815  2993A      6.408011  
    2994A      6.418425  2995A      6.422612  2996A      6.429079  
    2997A      6.438808  2998A      6.445078  2999A      6.453178  
    3000A      6.462816  3001A      6.480223  3002A      6.495817  
    3003A      6.501771  3004A      6.506693  3005A      6.533534  
    3006A      6.542520  3007A      6.552336  3008A      6.563076  
    3009A      6.577053  3010A      6.584878  3011A      6.590886  
    3012A      6.608497  3013A      6.612674  3014A      6.617747  
    3015A      6.630157  3016A      6.633191  3017A      6.636033  
    3018A      6.640456  3019A      6.642847  3020A      6.648025  
    3021A      6.652408  3022A      6.675832  3023A      6.683971  
    3024A      6.686351  3025A      6.696948  3026A      6.700414  
    3027A      6.711367  3028A      6.714128  3029A      6.717400  
    3030A      6.744943  3031A      6.751689  3032A      6.764371  
    3033A      6.771005  3034A      6.772212  3035A      6.778213  
    3036A      6.781369  3037A      6.789812  3038A      6.805343  
    3039A      6.806959  3040A      6.816238  3041A      6.823009  
    3042A      6.832836  3043A      6.849628  3044A      6.851223  
    3045A      6.885074  3046A      6.894028  3047A      6.912390  
    3048A      6.963152  3049A      6.965899  3050A      7.045598  
    3051A      7.046446  3052A     15.189910  3053A     15.275073  
    3054A     15.596131  3055A     15.664620  3056A     15.994353  
    3057A     16.038049  3058A     16.444408  3059A     16.487967  
    3060A     16.738402  3061A     16.805647  3062A     17.022682  
    3063A     17.069275  3064A     17.174210  3065A     17.323326  
    3066A     17.547615  3067A     17.664296  3068A     18.024560  
    3069A     18.062519  3070A     18.326759  3071A     18.411665  
    3072A     18.767912  3073A     18.864703  3074A     19.134494  
    3075A     19.207007  3076A     19.524300  3077A     19.595504  
    3078A     20.089582  3079A     20.163561  3080A     20.606589  
    3081A     20.698896  3082A     20.966209  3083A     21.206797  
    3084A     21.329700  3085A     21.462886  3086A     21.624088  
    3087A     21.688635  3088A     21.728439  3089A     21.733743  
    3090A     21.966289  3091A     22.045282  3092A     22.122735  
    3093A     22.193343  3094A     22.692769  3095A     22.742482  
    3096A     22.893367  3097A     23.000113  3098A     23.074820  
    3099A     23.124594  

    Final Occupation by Irrep:
              A 
    DOCC [   164 ]
    NA   [   164 ]
    NB   [   164 ]

  @DF-RKS Final Energy: -1853.46902071749082

   => Energetics <=

    Nuclear Repulsion Energy =           6199.6145026765807415
    One-Electron Energy =              -14852.7227842137472180
    Two-Electron Energy =                6987.9893899064645666
    DFT Exchange-Correlation Energy =    -189.5067577688494396
    Empirical Dispersion Energy =           0.0000000000000000
    VV10 Nonlocal Energy =                  1.1566286820602407
    Total Energy =                      -1853.4690207174910483

Computation Completed


Properties will be evaluated at   0.000000,   0.000000,   0.000000 [a0]

Properties computed using the SCF density matrix


 Multipole Moments:

 ------------------------------------------------------------------------------------
     Multipole            Electronic (a.u.)      Nuclear  (a.u.)        Total (a.u.)
 ------------------------------------------------------------------------------------

 L = 1.  Multiply by 2.5417464519 to convert [e a0] to [Debye]
 Dipole X            :      -9279.8155273         9279.6775776           -0.1379497
 Dipole Y            :      -6403.5937708         6403.4265459           -0.1672248
 Dipole Z            :     -14279.0295636        14279.2482355            0.2186720
 Magnitude           :                                                    0.3079151

 ------------------------------------------------------------------------------------

*** tstop() called on atl1-1-02-004-2-1.pace.gatech.edu at Sat Jun 13 19:27:25 2026
Module time:
	user time   =   95657.82 seconds =    1594.30 minutes
	system time =    5212.23 seconds =      86.87 minutes
	total time  =      14218 seconds =     236.97 minutes
Total time:
	user time   =   95657.82 seconds =    1594.30 minutes
	system time =    5212.23 seconds =      86.87 minutes
	total time  =      14218 seconds =     236.97 minutes

    Psi4 stopped on: Saturday, 13 June 2026 07:27PM
    Psi4 wall time for execution: 3:57:15.56

*** Psi4 exiting successfully. Buy a developer a beer!
