
    -----------------------------------------------------------------------
          Psi4: An Open-Source Ab Initio Electronic Structure Package
                               Psi4 1.9.1 release

                         Git: Rev {} zzzzzzz 


    D. G. A. Smith, L. A. Burns, A. C. Simmonett, R. M. Parrish,
    M. C. Schieber, R. Galvelis, P. Kraus, H. Kruse, R. Di Remigio,
    A. Alenaizan, A. M. James, S. Lehtola, J. P. Misiewicz, M. Scheurer,
    R. A. Shaw, J. B. Schriber, Y. Xie, Z. L. Glick, D. A. Sirianni,
    J. S. O'Brien, J. M. Waldrop, A. Kumar, E. G. Hohenstein,
    B. P. Pritchard, B. R. Brooks, H. F. Schaefer III, A. Yu. Sokolov,
    K. Patkowski, A. E. DePrince III, U. Bozkaya, R. A. King,
    F. A. Evangelista, J. M. Turney, T. D. Crawford, C. D. Sherrill,
    J. Chem. Phys. 152(18) 184108 (2020). https://doi.org/10.1063/5.0006002

                            Additional Code Authors
    E. T. Seidl, C. L. Janssen, E. F. Valeev, M. L. Leininger,
    J. F. Gonthier, R. M. Richard, H. R. McAlexander, M. Saitow, X. Wang,
    P. Verma, M. H. Lechner, A. Jiang, S. Behnle, A. G. Heide,
    M. F. Herbst, and D. L. Poole

             Previous Authors, Complete List of Code Contributors,
                       and Citations for Specific Modules
    https://github.com/psi4/psi4/blob/master/codemeta.json
    https://github.com/psi4/psi4/graphs/contributors
    http://psicode.org/psi4manual/master/introduction.html#citing-psifour

    -----------------------------------------------------------------------


    Psi4 started on: Saturday, 13 June 2026 12:22PM

    Process ID: 498363
    Host:       atl1-1-03-004-11-2.pace.gatech.edu
    PSIDATADIR: /storage/home/hcoda1/5/vlita3/.conda/envs/p4_qcml/share/psi4
    Memory:     250.0 GiB
    Threads:    10
    
  ==> Input QCSchema <==

--------------------------------------------------------------------------
{'driver': 'energy',
 'extras': {},
 'id': '239',
 'keywords': {},
 'model': {'basis': 'aug-cc-pvtz', 'method': 'wb97x-d'},
 'molecule': {'extras': {},
              'fix_com': True,
              'fix_orientation': True,
              'fragment_charges': [0.0, 0.0],
              'fragment_multiplicities': [1, 1],
              'fragments': [[0, 1, 2, 3, 4, 5, 6, 7, 8, 9, 10, 11, 12, 13, 14, 15, 16, 17, 18, 19, 20, 21, 22, 23, 24,
                             25, 26, 27, 28, 29, 30, 31, 32, 33, 34, 35, 36, 37, 38, 39, 40, 41, 42, 43],
                            [44, 45, 46, 47, 48, 49, 50, 51, 52, 53, 54, 55, 56, 57, 58, 59, 60, 61, 62, 63, 64, 65, 66,
                             67, 68, 69, 70, 71, 72, 73, 74, 75, 76, 77, 78, 79, 80, 81, 82, 83, 84, 85, 86, 87]],
              'geometry': [25.47963781, 23.08351049, 43.1296896, 24.89690954, 20.52012331, 43.887087, 25.07057198,
                           18.48699404, 42.07353641, 25.8424877, 19.04880944, 39.52013663, 26.46903607, 21.61452675,
                           38.85199593, 26.30318821, 23.59330066, 40.54460103, 24.46577176, 15.9279092, 42.77036087,
                           23.76811717, 15.37695629, 45.40838081, 23.59859476, 17.38880058, 47.22265844, 24.1081018,
                           20.02007671, 46.44346413, 22.96694077, 16.77267612, 49.77192758, 22.51062738, 14.29130626,
                           50.58597185, 22.67427055, 12.32177999, 48.76231557, 23.27971306, 12.86309326, 46.25226043,
                           25.97467497, 17.0727052, 37.71068154, 25.34789586, 14.59123463, 38.39437083, 24.59969708,
                           14.0277518, 40.88784347, 25.20039992, 25.0588727, 44.92111126, 24.35321071, 24.59525103,
                           47.39946073, 23.84084877, 22.08099208, 48.12795237, 21.86046838, 13.69556932, 53.32235171,
                           24.04555383, 26.76370654, 49.27889773, 26.50915633, 27.41178979, 50.73375129, 26.93108599,
                           26.27094839, 39.72356046, 27.10311578, 21.98163565, 36.89906984, 22.32265299, 10.34583799,
                           49.33666834, 23.39372081, 11.28300305, 44.90489504, 26.57612038, 17.51973959, 35.76596134,
                           25.43664936, 13.06203906, 36.97800898, 24.12002947, 12.05854919, 41.3527408, 25.62817825,
                           27.01761767, 44.36171793, 23.18724332, 21.75219607, 50.07608394, 23.27013145, 12.38510294,
                           54.17857328, 21.79629273, 15.42803966, 54.50687769, 19.98705402, 12.74487252, 53.47527914,
                           22.53167906, 26.28198386, 50.6619148, 23.38069793, 28.48102898, 48.25612267, 27.19569266,
                           25.7565067, 51.83310019, 28.04156267, 27.96965392, 49.40821263, 28.39145441, 27.1428651,
                           40.95513515, 25.23456206, 27.51897461, 39.79892028, 27.66207922, 26.29954115, 37.75755015,
                           26.2022166, 29.00071195, 52.0780899, 22.83611537, 18.29134925, 51.1881473, 30.81342193,
                           18.71017989, 45.99359029, 31.5788239, 19.74555973, 43.58027113, 32.18922921, 22.39746574,
                           43.36009841, 32.04731473, 23.98056161, 45.57578145, 31.25562095, 22.88485355, 47.94186375,
                           30.64065655, 20.36296812, 48.19759324, 32.96098858, 23.46875558, 40.98068543, 32.9776879,
                           21.8498177, 38.71563215, 32.39688051, 19.20754673, 38.92783428, 31.75108262, 18.1119644,
                           41.41040042, 32.38510148, 17.70859001, 36.6883681, 32.89884869, 18.70388423, 34.28627015,
                           33.46045747, 21.32787429, 34.10603582, 33.50020544, 22.84413785, 36.26471359, 32.71084168,
                           26.57519902, 45.39430813, 33.51746054, 27.59229626, 43.0833912, 33.64071365, 26.05933156,
                           40.9078722, 30.26834315, 16.09166271, 46.16720061, 30.49746548, 14.47431826, 44.06910385,
                           31.23964841, 15.50757785, 41.72580743, 32.85245858, 17.05660123, 31.93007182, 30.0352396,
                           11.64386798, 44.33912194, 32.45644731, 10.16276856, 45.08627623, 29.83741229, 19.30937345,
                           50.74453249, 31.15944353, 24.13692378, 49.60598037, 33.86115259, 22.17547238, 32.24063318,
                           33.92403613, 24.86828461, 36.03931452, 32.60693264, 27.77144276, 47.1004289, 34.05705016,
                           29.60331272, 42.95688301, 34.27807476, 26.92308174, 39.12655219, 29.64722791, 15.28713696,
                           47.98302787, 31.38145507, 14.21615321, 40.10268471, 34.735737, 17.01308892, 30.98680081,
                           32.31443775, 15.0754773, 32.37170495, 31.48589123, 17.79122297, 30.50534659, 29.28049933,
                           10.88478084, 42.52649407, 28.54357618, 11.31799443, 45.78690148, 33.97269455, 10.41059171,
                           43.64975571, 33.2192207, 10.84125701, 46.92494523, 31.18221652, 17.84465276, 51.44063809,
                           27.94896357, 18.39273342, 50.64394079, 29.74125873, 20.82714016, 52.19033882, 32.06613232,
                           8.10297733, 45.26704002, 31.91846208, 15.68652669, 36.81860417],
              'id': 16,
              'identifiers': {'molecular_formula': 'C48H40',
                              'molecule_hash': 'c7032f6b2da4c5ceb2b85b46228cc9bc6b33b25c'},
              'masses': [12.0, 12.0, 12.0, 12.0, 12.0, 12.0, 12.0, 12.0, 12.0, 12.0, 12.0, 12.0, 12.0, 12.0, 12.0, 12.0,
                         12.0, 12.0, 12.0, 12.0, 12.0, 12.0, 12.0, 12.0, 1.00782503223, 1.00782503223, 1.00782503223,
                         1.00782503223, 1.00782503223, 1.00782503223, 1.00782503223, 1.00782503223, 1.00782503223,
                         1.00782503223, 1.00782503223, 1.00782503223, 1.00782503223, 1.00782503223, 1.00782503223,
                         1.00782503223, 1.00782503223, 1.00782503223, 1.00782503223, 1.00782503223, 12.0, 12.0, 12.0,
                         12.0, 12.0, 12.0, 12.0, 12.0, 12.0, 12.0, 12.0, 12.0, 12.0, 12.0, 12.0, 12.0, 12.0, 12.0, 12.0,
                         12.0, 12.0, 12.0, 12.0, 12.0, 1.00782503223, 1.00782503223, 1.00782503223, 1.00782503223,
                         1.00782503223, 1.00782503223, 1.00782503223, 1.00782503223, 1.00782503223, 1.00782503223,
                         1.00782503223, 1.00782503223, 1.00782503223, 1.00782503223, 1.00782503223, 1.00782503223,
                         1.00782503223, 1.00782503223, 1.00782503223, 1.00782503223],
              'molecular_charge': 0.0,
              'molecular_multiplicity': 1,
              'name': 'C48H40 ([0],[1])',
              'provenance': {'creator': 'QCElemental',
                             'routine': 'qcelemental.molparse.from_schema',
                             'version': '0.29.0'},
              'real': [True, True, True, True, True, True, True, True, True, True, True, True, True, True, True, True,
                       True, True, True, True, True, True, True, True, True, True, True, True, True, True, True, True,
                       True, True, True, True, True, True, True, True, True, True, True, True, False, False, False,
                       False, False, False, False, False, False, False, False, False, False, False, False, False, False,
                       False, False, False, False, False, False, False, False, False, False, False, False, False, False,
                       False, False, False, False, False, False, False, False, False, False, False, False, False],
              'schema_name': 'qcschema_molecule',
              'schema_version': 2,
              'symbols': ['C', 'C', 'C', 'C', 'C', 'C', 'C', 'C', 'C', 'C', 'C', 'C', 'C', 'C', 'C', 'C', 'C', 'C', 'C',
                          'C', 'C', 'C', 'C', 'C', 'H', 'H', 'H', 'H', 'H', 'H', 'H', 'H', 'H', 'H', 'H', 'H', 'H', 'H',
                          'H', 'H', 'H', 'H', 'H', 'H', 'C', 'C', 'C', 'C', 'C', 'C', 'C', 'C', 'C', 'C', 'C', 'C', 'C',
                          'C', 'C', 'C', 'C', 'C', 'C', 'C', 'C', 'C', 'C', 'C', 'H', 'H', 'H', 'H', 'H', 'H', 'H', 'H',
                          'H', 'H', 'H', 'H', 'H', 'H', 'H', 'H', 'H', 'H', 'H', 'H'],
              'validated': True},
 'protocols': {},
 'provenance': {'creator': 'QCElemental', 'routine': 'qcelemental.models.results', 'version': '0.29.0'},
 'schema_name': 'qcschema_input',
 'schema_version': 1}
--------------------------------------------------------------------------

Scratch directory: /tmp/tmppijyx9vh_psi_scratch/
   => Libint2 <=

    Primary   basis highest AM E, G, H:  6, 6, 3
    Auxiliary basis highest AM E, G, H:  7, 7, 4
    Onebody   basis highest AM E, G, H:  -, -, -
    Solid Harmonics ordering:            Gaussian

*** tstart() called on atl1-1-03-004-11-2.pace.gatech.edu
*** at Sat Jun 13 12:22:48 2026

   => Loading Basis Set <=

    Name: AUG-CC-PVTZ
    Role: ORBITAL
    Keyword: BASIS
    atoms 1-24, 45-68  entry C          line   239 file /storage/home/hcoda1/5/vlita3/.conda/envs/p4_qcml/share/psi4/basis/aug-cc-pvtz.gbs 
    atoms 25-44, 69-88 entry H          line    40 file /storage/home/hcoda1/5/vlita3/.conda/envs/p4_qcml/share/psi4/basis/aug-cc-pvtz.gbs 

   => WB97X-D: Empirical Dispersion <=

    Chai and Head-Gordon Dispersion Correction
    Chai, J.-D.; Head-Gordon, M. (2010), J. Chem. Phys., 132: 6615-6620

        s6 =       1.000000


         ---------------------------------------------------------
                                   SCF
               by Justin Turney, Rob Parrish, Andy Simmonett
                          and Daniel G. A. Smith
                              RKS Reference
                       10 Threads, 256000 MiB Core
         ---------------------------------------------------------

  ==> Geometry <==

    Molecular point group: c1
    Full point group: C1

    Geometry (in Bohr), charge = 0, multiplicity = 1:

       Center              X                  Y                   Z               Mass       
    ------------   -----------------  -----------------  -----------------  -----------------
         C           25.479637810000    23.083510490000    43.129689600000    12.000000000000
         C           24.896909540000    20.520123310000    43.887087000000    12.000000000000
         C           25.070571980000    18.486994040000    42.073536410000    12.000000000000
         C           25.842487700000    19.048809440000    39.520136630000    12.000000000000
         C           26.469036070000    21.614526750000    38.851995930000    12.000000000000
         C           26.303188210000    23.593300660000    40.544601030000    12.000000000000
         C           24.465771760000    15.927909200000    42.770360870000    12.000000000000
         C           23.768117170000    15.376956290000    45.408380810000    12.000000000000
         C           23.598594760000    17.388800580000    47.222658440000    12.000000000000
         C           24.108101800000    20.020076710000    46.443464130000    12.000000000000
         C           22.966940770000    16.772676120000    49.771927580000    12.000000000000
         C           22.510627380000    14.291306260000    50.585971850000    12.000000000000
         C           22.674270550000    12.321779990000    48.762315570000    12.000000000000
         C           23.279713060000    12.863093260000    46.252260430000    12.000000000000
         C           25.974674970000    17.072705200000    37.710681540000    12.000000000000
         C           25.347895860000    14.591234630000    38.394370830000    12.000000000000
         C           24.599697080000    14.027751800000    40.887843470000    12.000000000000
         C           25.200399920000    25.058872700000    44.921111260000    12.000000000000
         C           24.353210710000    24.595251030000    47.399460730000    12.000000000000
         C           23.840848770000    22.080992080000    48.127952370000    12.000000000000
         C           21.860468380000    13.695569320000    53.322351710000    12.000000000000
         C           24.045553830000    26.763706540000    49.278897730000    12.000000000000
         C           26.509156330000    27.411789790000    50.733751290000    12.000000000000
         C           26.931085990000    26.270948390000    39.723560460000    12.000000000000
         H           27.103115780000    21.981635650000    36.899069840000     1.007825032230
         H           22.322652990000    10.345837990000    49.336668340000     1.007825032230
         H           23.393720810000    11.283003050000    44.904895040000     1.007825032230
         H           26.576120380000    17.519739590000    35.765961340000     1.007825032230
         H           25.436649360000    13.062039060000    36.978008980000     1.007825032230
         H           24.120029470000    12.058549190000    41.352740800000     1.007825032230
         H           25.628178250000    27.017617670000    44.361717930000     1.007825032230
         H           23.187243320000    21.752196070000    50.076083940000     1.007825032230
         H           23.270131450000    12.385102940000    54.178573280000     1.007825032230
         H           21.796292730000    15.428039660000    54.506877690000     1.007825032230
         H           19.987054020000    12.744872520000    53.475279140000     1.007825032230
         H           22.531679060000    26.281983860000    50.661914800000     1.007825032230
         H           23.380697930000    28.481028980000    48.256122670000     1.007825032230
         H           27.195692660000    25.756506700000    51.833100190000     1.007825032230
         H           28.041562670000    27.969653920000    49.408212630000     1.007825032230
         H           28.391454410000    27.142865100000    40.955135150000     1.007825032230
         H           25.234562060000    27.518974610000    39.798920280000     1.007825032230
         H           27.662079220000    26.299541150000    37.757550150000     1.007825032230
         H           26.202216600000    29.000711950000    52.078089900000     1.007825032230
         H           22.836115370000    18.291349250000    51.188147300000     1.007825032230
      Gh(C)          30.813421930000    18.710179890000    45.993590290000    12.000000000000
      Gh(C)          31.578823900000    19.745559730000    43.580271130000    12.000000000000
      Gh(C)          32.189229210000    22.397465740000    43.360098410000    12.000000000000
      Gh(C)          32.047314730000    23.980561610000    45.575781450000    12.000000000000
      Gh(C)          31.255620950000    22.884853550000    47.941863750000    12.000000000000
      Gh(C)          30.640656550000    20.362968120000    48.197593240000    12.000000000000
      Gh(C)          32.960988580000    23.468755580000    40.980685430000    12.000000000000
      Gh(C)          32.977687900000    21.849817700000    38.715632150000    12.000000000000
      Gh(C)          32.396880510000    19.207546730000    38.927834280000    12.000000000000
      Gh(C)          31.751082620000    18.111964400000    41.410400420000    12.000000000000
      Gh(C)          32.385101480000    17.708590010000    36.688368100000    12.000000000000
      Gh(C)          32.898848690000    18.703884230000    34.286270150000    12.000000000000
      Gh(C)          33.460457470000    21.327874290000    34.106035820000    12.000000000000
      Gh(C)          33.500205440000    22.844137850000    36.264713590000    12.000000000000
      Gh(C)          32.710841680000    26.575199020000    45.394308130000    12.000000000000
      Gh(C)          33.517460540000    27.592296260000    43.083391200000    12.000000000000
      Gh(C)          33.640713650000    26.059331560000    40.907872200000    12.000000000000
      Gh(C)          30.268343150000    16.091662710000    46.167200610000    12.000000000000
      Gh(C)          30.497465480000    14.474318260000    44.069103850000    12.000000000000
      Gh(C)          31.239648410000    15.507577850000    41.725807430000    12.000000000000
      Gh(C)          32.852458580000    17.056601230000    31.930071820000    12.000000000000
      Gh(C)          30.035239600000    11.643867980000    44.339121940000    12.000000000000
      Gh(C)          32.456447310000    10.162768560000    45.086276230000    12.000000000000
      Gh(C)          29.837412290000    19.309373450000    50.744532490000    12.000000000000
      Gh(H)          31.159443530000    24.136923780000    49.605980370000     1.007825032230
      Gh(H)          33.861152590000    22.175472380000    32.240633180000     1.007825032230
      Gh(H)          33.924036130000    24.868284610000    36.039314520000     1.007825032230
      Gh(H)          32.606932640000    27.771442760000    47.100428900000     1.007825032230
      Gh(H)          34.057050160000    29.603312720000    42.956883010000     1.007825032230
      Gh(H)          34.278074760000    26.923081740000    39.126552190000     1.007825032230
      Gh(H)          29.647227910000    15.287136960000    47.983027870000     1.007825032230
      Gh(H)          31.381455070000    14.216153210000    40.102684710000     1.007825032230
      Gh(H)          34.735737000000    17.013088920000    30.986800810000     1.007825032230
      Gh(H)          32.314437750000    15.075477300000    32.371704950000     1.007825032230
      Gh(H)          31.485891230000    17.791222970000    30.505346590000     1.007825032230
      Gh(H)          29.280499330000    10.884780840000    42.526494070000     1.007825032230
      Gh(H)          28.543576180000    11.317994430000    45.786901480000     1.007825032230
      Gh(H)          33.972694550000    10.410591710000    43.649755710000     1.007825032230
      Gh(H)          33.219220700000    10.841257010000    46.924945230000     1.007825032230
      Gh(H)          31.182216520000    17.844652760000    51.440638090000     1.007825032230
      Gh(H)          27.948963570000    18.392733420000    50.643940790000     1.007825032230
      Gh(H)          29.741258730000    20.827140160000    52.190338820000     1.007825032230
      Gh(H)          32.066132320000     8.102977330000    45.267040020000     1.007825032230
      Gh(H)          31.918462080000    15.686526690000    36.818604170000     1.007825032230

  Running in c1 symmetry.

  Rotational constants: A =      0.00210  B =      0.00003  C =      0.00003 [cm^-1]
  Rotational constants: A =     62.96897  B =      0.94325  C =      0.93874 [MHz]
  Nuclear repulsion = 1863.800486968835230

  Charge       = 0
  Multiplicity = 1
  Electrons    = 164
  Nalpha       = 82
  Nbeta        = 82

  ==> Algorithm <==

  SCF Algorithm Type is DF.
  DIIS enabled.
  MOM disabled.
  Fractional occupation disabled.
  Guess Type is SAD.
  Energy threshold   = 1.00e-06
  Density threshold  = 1.00e-06
  Integral threshold = 1.00e-12

  ==> Primary Basis <==

  Basis Set: AUG-CC-PVTZ
    Blend: AUG-CC-PVTZ
    Number of shells: 1032
    Number of basis functions: 3128
    Number of Cartesian functions: 3640
    Spherical Harmonics?: true
    Max angular momentum: 3

  ==> DFT Potential <==

   => LibXC <=

    Version 7.0.0
    S. Lehtola, C. Steigemann, M. J.T. Oliveira, and M. A.L. Marques.,  SoftwareX 7, 1–5 (2018) (10.1016/j.softx.2017.11.002)

   => Composite Functional: WB97X-D <= 

    wB97X-D Hyb-GGA Exchange-Correlation Functional

    J.-D. Chai and M. Head-Gordon.,  Phys. Chem. Chem. Phys. 10, 6615-6620 (2008) (10.1039/B810189B)

    Deriv               =              1
    GGA                 =           TRUE
    Meta                =          FALSE

    Exchange Hybrid     =           TRUE
    MP2 Hybrid          =          FALSE

   => Exchange-Correlation Functionals <=

    1.0000   wB97X-D range-separated functional

   => Exact (HF) Exchange <=

    0.7780            HF,LR [omega = 0.2000]
    0.2220               HF 

   => LibXC Density Thresholds  <==

    XC_HYB_GGA_XC_WB97X_D:  1.00E-14 

   => Molecular Quadrature <=

    Radial Scheme          =       TREUTLER
    Pruning Scheme         =           NONE
    Nuclear Scheme         =       TREUTLER

    Blocking Scheme        =         OCTREE
    BS radius alpha        =              1
    Pruning alpha          =              1
    Radial Points          =             75
    Spherical Points       =            302
    Total Points           =        1755895
    Total Blocks           =          12038
    Max Points             =            256
    Max Functions          =           2202
    Weights Tolerance      =       1.00E-15

   => Loading Basis Set <=

    Name: (AUG-CC-PVTZ AUX)
    Role: JKFIT
    Keyword: DF_BASIS_SCF
    atoms 1-24, 45-68  entry C          line   162 file /storage/home/hcoda1/5/vlita3/.conda/envs/p4_qcml/share/psi4/basis/aug-cc-pvtz-jkfit.gbs 
    atoms 25-44, 69-88 entry H          line    70 file /storage/home/hcoda1/5/vlita3/.conda/envs/p4_qcml/share/psi4/basis/aug-cc-pvtz-jkfit.gbs 

  ==> Integral Setup <==

  ==> DiskDFJK: Density-Fitted J/K Matrices <==

    J tasked:                  Yes
    K tasked:                  Yes
    wK tasked:                 Yes
    Omega:               2.000E-01
    OpenMP threads:             10
    Integrals threads:          10
    Memory [MiB]:           172800
    Algorithm:                Disk
    Integral Cache:           NONE
    Schwarz Cutoff:          1E-12
    Fitting Condition:       1E-10

   => Auxiliary Basis Set <=

  Basis Set: (AUG-CC-PVTZ AUX)
    Blend: AUG-CC-PVTZ-JKFIT
    Number of shells: 2000
    Number of basis functions: 6832
    Number of Cartesian functions: 8488
    Spherical Harmonics?: true
    Max angular momentum: 4

  Minimum eigenvalue in the overlap matrix is 6.3711160731E-10.
  Reciprocal condition number of the overlap matrix is 1.7895063395E-11.
    Using canonical orthogonalization.
  Overall, 29 of 3128 possible MOs eliminated.


  ==> Pre-Iterations <==

  SCF Guess: Superposition of Atomic Densities via on-the-fly atomic UHF (no occupation information).

   -------------------------
    Irrep   Nso     Nmo    
   -------------------------
     A       3128    3099 
   -------------------------
    Total    3128    3099
   -------------------------

  ==> Iterations <==

                           Total Energy        Delta E     RMS |[F,P]|

   @DF-RKS iter SAD:  -926.02883039130040   -9.26029e+02   0.00000e+00 
   @DF-RKS iter   1:  -925.68265212149743    3.46178e-01   4.27145e-04 DIIS/ADIIS
   @DF-RKS iter   2:  -926.23505202761748   -5.52400e-01   2.88672e-04 DIIS/ADIIS
   @DF-RKS iter   3:  -926.64240815732012   -4.07356e-01   3.01390e-05 DIIS
   @DF-RKS iter   4:  -926.64598418821163   -3.57603e-03   1.83143e-05 DIIS
   @DF-RKS iter   5:  -926.64754780633473   -1.56362e-03   5.13810e-06 DIIS
   @DF-RKS iter   6:  -926.64767541901563   -1.27613e-04   1.80377e-06 DIIS
   @DF-RKS iter   7:  -926.64769297918565   -1.75602e-05   5.23832e-07 DIIS
   @DF-RKS iter   8:  -926.64769503458592   -2.05540e-06   2.13480e-07 DIIS
   @DF-RKS iter   9:  -926.64769545543504   -4.20849e-07   9.06426e-08 DIIS
  Energy and wave function converged.


  ==> Post-Iterations <==

   Electrons on quadrature grid:
      Ntotal   =  164.0007733123 ; deviation = 7.733e-04 

    Orbital Energies [Eh]
    ---------------------

    Doubly Occupied:                                                      

       1A    -10.312698     2A    -10.312328     3A    -10.311309  
       4A    -10.310219     5A    -10.309682     6A    -10.309158  
       7A    -10.309012     8A    -10.308738     9A    -10.307566  
      10A    -10.306768    11A    -10.305763    12A    -10.299029  
      13A    -10.298996    14A    -10.298148    15A    -10.297137  
      16A    -10.296746    17A    -10.296550    18A    -10.295994  
      19A    -10.295829    20A    -10.294932    21A    -10.294686  
      22A    -10.293386    23A    -10.292507    24A    -10.286392  
      25A     -0.990565    26A     -0.957534    27A     -0.949603  
      28A     -0.918609    29A     -0.901210    30A     -0.879528  
      31A     -0.861402    32A     -0.857414    33A     -0.841151  
      34A     -0.816046    35A     -0.810026    36A     -0.781492  
      37A     -0.779578    38A     -0.734689    39A     -0.723983  
      40A     -0.705976    41A     -0.702382    42A     -0.691037  
      43A     -0.667780    44A     -0.631567    45A     -0.620394  
      46A     -0.609767    47A     -0.588986    48A     -0.578635  
      49A     -0.555079    50A     -0.552034    51A     -0.544680  
      52A     -0.532679    53A     -0.530307    54A     -0.517895  
      55A     -0.513344    56A     -0.506610    57A     -0.505618  
      58A     -0.500419    59A     -0.498456    60A     -0.490572  
      61A     -0.489307    62A     -0.482585    63A     -0.468745  
      64A     -0.468604    65A     -0.463273    66A     -0.457968  
      67A     -0.448329    68A     -0.446717    69A     -0.443834  
      70A     -0.437700    71A     -0.430827    72A     -0.425819  
      73A     -0.421693    74A     -0.396185    75A     -0.395060  
      76A     -0.389777    77A     -0.366765    78A     -0.364260  
      79A     -0.318295    80A     -0.317359    81A     -0.285182  
      82A     -0.265863  

    Virtual:                                                              

      83A     -0.004774    84A      0.015903    85A      0.018594  
      86A      0.023107    87A      0.023427    88A      0.028226  
      89A      0.031107    90A      0.031579    91A      0.034098  
      92A      0.035570    93A      0.038042    94A      0.041019  
      95A      0.041474    96A      0.043821    97A      0.046106  
      98A      0.047503    99A      0.048327   100A      0.050920  
     101A      0.054029   102A      0.055326   103A      0.056434  
     104A      0.058861   105A      0.061396   106A      0.062829  
     107A      0.063598   108A      0.066146   109A      0.066630  
     110A      0.069201   111A      0.070774   112A      0.073023  
     113A      0.073333   114A      0.076486   115A      0.078058  
     116A      0.078345   117A      0.082018   118A      0.082416  
     119A      0.084453   120A      0.085944   121A      0.088751  
     122A      0.090311   123A      0.091551   124A      0.091641  
     125A      0.094047   126A      0.094633   127A      0.096720  
     128A      0.098378   129A      0.099988   130A      0.100046  
     131A      0.101398   132A      0.102613   133A      0.103473  
     134A      0.105734   135A      0.107742   136A      0.109507  
     137A      0.112002   138A      0.112556   139A      0.113935  
     140A      0.114212   141A      0.114540   142A      0.116600  
     143A      0.117997   144A      0.119082   145A      0.120488  
     146A      0.122251   147A      0.124016   148A      0.125139  
     149A      0.127845   150A      0.129333   151A      0.130688  
     152A      0.132855   153A      0.134533   154A      0.135885  
     155A      0.136644   156A      0.138094   157A      0.138541  
     158A      0.139486   159A      0.141084   160A      0.142904  
     161A      0.143741   162A      0.144776   163A      0.145495  
     164A      0.147626   165A      0.148474   166A      0.150629  
     167A      0.151133   168A      0.153121   169A      0.154712  
     170A      0.155863   171A      0.156545   172A      0.158350  
     173A      0.160506   174A      0.161906   175A      0.162816  
     176A      0.164071   177A      0.165123   178A      0.166600  
     179A      0.167526   180A      0.169021   181A      0.170322  
     182A      0.171499   183A      0.174261   184A      0.176149  
     185A      0.177104   186A      0.177288   187A      0.178160  
     188A      0.179354   189A      0.180241   190A      0.181548  
     191A      0.182737   192A      0.183776   193A      0.185588  
     194A      0.187250   195A      0.189790   196A      0.190399  
     197A      0.191301   198A      0.192909   199A      0.193168  
     200A      0.196480   201A      0.197267   202A      0.197539  
     203A      0.198951   204A      0.200980   205A      0.201363  
     206A      0.202662   207A      0.205356   208A      0.206212  
     209A      0.208009   210A      0.208646   211A      0.210066  
     212A      0.212036   213A      0.213635   214A      0.214639  
     215A      0.215318   216A      0.216273   217A      0.217272  
     218A      0.219521   219A      0.220555   220A      0.222909  
     221A      0.224103   222A      0.225335   223A      0.226191  
     224A      0.227199   225A      0.229219   226A      0.229717  
     227A      0.230270   228A      0.231590   229A      0.232985  
     230A      0.234063   231A      0.234849   232A      0.236066  
     233A      0.237465   234A      0.238286   235A      0.239933  
     236A      0.240728   237A      0.241506   238A      0.242880  
     239A      0.243180   240A      0.245291   241A      0.245934  
     242A      0.248125   243A      0.248644   244A      0.250144  
     245A      0.251189   246A      0.251929   247A      0.255010  
     248A      0.255032   249A      0.257222   250A      0.257540  
     251A      0.259165   252A      0.260833   253A      0.261823  
     254A      0.263823   255A      0.265086   256A      0.265748  
     257A      0.266083   258A      0.266583   259A      0.271088  
     260A      0.271528   261A      0.272359   262A      0.273832  
     263A      0.275341   264A      0.275843   265A      0.277368  
     266A      0.278878   267A      0.279818   268A      0.280124  
     269A      0.281245   270A      0.282631   271A      0.283933  
     272A      0.285686   273A      0.286648   274A      0.287500  
     275A      0.289479   276A      0.291385   277A      0.292152  
     278A      0.293253   279A      0.294551   280A      0.295379  
     281A      0.296341   282A      0.297254   283A      0.298027  
     284A      0.298716   285A      0.300216   286A      0.300751  
     287A      0.301484   288A      0.303702   289A      0.305721  
     290A      0.306803   291A      0.307468   292A      0.309929  
     293A      0.310799   294A      0.311741   295A      0.312508  
     296A      0.315006   297A      0.315263   298A      0.316192  
     299A      0.318315   300A      0.319273   301A      0.320309  
     302A      0.321780   303A      0.322975   304A      0.326566  
     305A      0.326877   306A      0.328280   307A      0.329483  
     308A      0.330024   309A      0.331907   310A      0.332873  
     311A      0.336024   312A      0.336825   313A      0.337331  
     314A      0.338653   315A      0.340232   316A      0.340648  
     317A      0.342203   318A      0.343131   319A      0.344843  
     320A      0.345678   321A      0.345905   322A      0.346998  
     323A      0.348588   324A      0.349158   325A      0.351106  
     326A      0.351532   327A      0.354116   328A      0.355559  
     329A      0.356435   330A      0.357480   331A      0.358741  
     332A      0.360853   333A      0.362594   334A      0.363673  
     335A      0.366250   336A      0.366833   337A      0.368344  
     338A      0.368800   339A      0.369404   340A      0.371961  
     341A      0.372528   342A      0.373632   343A      0.375774  
     344A      0.378079   345A      0.380134   346A      0.381876  
     347A      0.382007   348A      0.383393   349A      0.384226  
     350A      0.385767   351A      0.387689   352A      0.388539  
     353A      0.389533   354A      0.389855   355A      0.391860  
     356A      0.394337   357A      0.394597   358A      0.397224  
     359A      0.398206   360A      0.399490   361A      0.399981  
     362A      0.401745   363A      0.402473   364A      0.402749  
     365A      0.405081   366A      0.405914   367A      0.408633  
     368A      0.409056   369A      0.410187   370A      0.412152  
     371A      0.413483   372A      0.415793   373A      0.416968  
     374A      0.417816   375A      0.418262   376A      0.419070  
     377A      0.420764   378A      0.421585   379A      0.423497  
     380A      0.425455   381A      0.426341   382A      0.427314  
     383A      0.429561   384A      0.430498   385A      0.432956  
     386A      0.434815   387A      0.436370   388A      0.436692  
     389A      0.437802   390A      0.439428   391A      0.440318  
     392A      0.440468   393A      0.442063   394A      0.446213  
     395A      0.446703   396A      0.449038   397A      0.449565  
     398A      0.450479   399A      0.450688   400A      0.451797  
     401A      0.453731   402A      0.454284   403A      0.455795  
     404A      0.457130   405A      0.459409   406A      0.460883  
     407A      0.461169   408A      0.461907   409A      0.464567  
     410A      0.465400   411A      0.466439   412A      0.467252  
     413A      0.468956   414A      0.470369   415A      0.471515  
     416A      0.473821   417A      0.474374   418A      0.475495  
     419A      0.476662   420A      0.478033   421A      0.479837  
     422A      0.481115   423A      0.481443   424A      0.483750  
     425A      0.484334   426A      0.486439   427A      0.487332  
     428A      0.489089   429A      0.489678   430A      0.490649  
     431A      0.491327   432A      0.492370   433A      0.493624  
     434A      0.495682   435A      0.496619   436A      0.498648  
     437A      0.499152   438A      0.500190   439A      0.501156  
     440A      0.502858   441A      0.503650   442A      0.504290  
     443A      0.506333   444A      0.507121   445A      0.508207  
     446A      0.509471   447A      0.510038   448A      0.510731  
     449A      0.511048   450A      0.512678   451A      0.513612  
     452A      0.514807   453A      0.516469   454A      0.517954  
     455A      0.520126   456A      0.520866   457A      0.521674  
     458A      0.524129   459A      0.524699   460A      0.525306  
     461A      0.526129   462A      0.527785   463A      0.529172  
     464A      0.529513   465A      0.530303   466A      0.533354  
     467A      0.533475   468A      0.535830   469A      0.535999  
     470A      0.537058   471A      0.538108   472A      0.538669  
     473A      0.540438   474A      0.542128   475A      0.543198  
     476A      0.544253   477A      0.545381   478A      0.547357  
     479A      0.548872   480A      0.550073   481A      0.551150  
     482A      0.551723   483A      0.553376   484A      0.554042  
     485A      0.555796   486A      0.556182   487A      0.558890  
     488A      0.559103   489A      0.561503   490A      0.562256  
     491A      0.563450   492A      0.565514   493A      0.567074  
     494A      0.567841   495A      0.569303   496A      0.570588  
     497A      0.572152   498A      0.574485   499A      0.574669  
     500A      0.576823   501A      0.577575   502A      0.579994  
     503A      0.580658   504A      0.581082   505A      0.582170  
     506A      0.583497   507A      0.585169   508A      0.587893  
     509A      0.588313   510A      0.588851   511A      0.590703  
     512A      0.592393   513A      0.595107   514A      0.595844  
     515A      0.596713   516A      0.598353   517A      0.600412  
     518A      0.600958   519A      0.601821   520A      0.603970  
     521A      0.605899   522A      0.607839   523A      0.608857  
     524A      0.610011   525A      0.611185   526A      0.612514  
     527A      0.613790   528A      0.616947   529A      0.617718  
     530A      0.618669   531A      0.620537   532A      0.621612  
     533A      0.622582   534A      0.624546   535A      0.625642  
     536A      0.625996   537A      0.627634   538A      0.629546  
     539A      0.631482   540A      0.633030   541A      0.633912  
     542A      0.635810   543A      0.636597   544A      0.639293  
     545A      0.639994   546A      0.640815   547A      0.644672  
     548A      0.645882   549A      0.647220   550A      0.647602  
     551A      0.649117   552A      0.651141   553A      0.652676  
     554A      0.653015   555A      0.653592   556A      0.655215  
     557A      0.655541   558A      0.657931   559A      0.659386  
     560A      0.662349   561A      0.663527   562A      0.666293  
     563A      0.666973   564A      0.667659   565A      0.669819  
     566A      0.670469   567A      0.671664   568A      0.674372  
     569A      0.674830   570A      0.676127   571A      0.678847  
     572A      0.681359   573A      0.682202   574A      0.684333  
     575A      0.685918   576A      0.686720   577A      0.687421  
     578A      0.688539   579A      0.689872   580A      0.691725  
     581A      0.693282   582A      0.694718   583A      0.697113  
     584A      0.698067   585A      0.699577   586A      0.700795  
     587A      0.702303   588A      0.704543   589A      0.705421  
     590A      0.707476   591A      0.708204   592A      0.710241  
     593A      0.712742   594A      0.713278   595A      0.714397  
     596A      0.715164   597A      0.718226   598A      0.720119  
     599A      0.720924   600A      0.723273   601A      0.724166  
     602A      0.725247   603A      0.727428   604A      0.728768  
     605A      0.729050   606A      0.730764   607A      0.731834  
     608A      0.734176   609A      0.735753   610A      0.739097  
     611A      0.740404   612A      0.741323   613A      0.742375  
     614A      0.743660   615A      0.744675   616A      0.745761  
     617A      0.748286   618A      0.750180   619A      0.751350  
     620A      0.751812   621A      0.752620   622A      0.754403  
     623A      0.755580   624A      0.757069   625A      0.759610  
     626A      0.761273   627A      0.762167   628A      0.764292  
     629A      0.765660   630A      0.766267   631A      0.767927  
     632A      0.769526   633A      0.771109   634A      0.772263  
     635A      0.773615   636A      0.773759   637A      0.776781  
     638A      0.777606   639A      0.778739   640A      0.780373  
     641A      0.781986   642A      0.782869   643A      0.783685  
     644A      0.785999   645A      0.786655   646A      0.789849  
     647A      0.790259   648A      0.791726   649A      0.792975  
     650A      0.793587   651A      0.795014   652A      0.797897  
     653A      0.798698   654A      0.799814   655A      0.801154  
     656A      0.802995   657A      0.804475   658A      0.805506  
     659A      0.807155   660A      0.809135   661A      0.810796  
     662A      0.812227   663A      0.814381   664A      0.816641  
     665A      0.817572   666A      0.818027   667A      0.818936  
     668A      0.820859   669A      0.821249   670A      0.822630  
     671A      0.824990   672A      0.825780   673A      0.827164  
     674A      0.829678   675A      0.832592   676A      0.833416  
     677A      0.834558   678A      0.835037   679A      0.837838  
     680A      0.839629   681A      0.840254   682A      0.842916  
     683A      0.843810   684A      0.844396   685A      0.845565  
     686A      0.846562   687A      0.848535   688A      0.850978  
     689A      0.852219   690A      0.853207   691A      0.855811  
     692A      0.856328   693A      0.858101   694A      0.858894  
     695A      0.861603   696A      0.862832   697A      0.863426  
     698A      0.864074   699A      0.865981   700A      0.867250  
     701A      0.868288   702A      0.869778   703A      0.871054  
     704A      0.871780   705A      0.873933   706A      0.875782  
     707A      0.877860   708A      0.879021   709A      0.880465  
     710A      0.882807   711A      0.883750   712A      0.885137  
     713A      0.886121   714A      0.888657   715A      0.891891  
     716A      0.892194   717A      0.893885   718A      0.894758  
     719A      0.895793   720A      0.896531   721A      0.897905  
     722A      0.900515   723A      0.901793   724A      0.904036  
     725A      0.905737   726A      0.906406   727A      0.907306  
     728A      0.909726   729A      0.910800   730A      0.912727  
     731A      0.913526   732A      0.914489   733A      0.916510  
     734A      0.918133   735A      0.918812   736A      0.920331  
     737A      0.922649   738A      0.923521   739A      0.923923  
     740A      0.926598   741A      0.929589   742A      0.930579  
     743A      0.931897   744A      0.933254   745A      0.934155  
     746A      0.936421   747A      0.937181   748A      0.938286  
     749A      0.939159   750A      0.940404   751A      0.942512  
     752A      0.944216   753A      0.944834   754A      0.946291  
     755A      0.948404   756A      0.950231   757A      0.951844  
     758A      0.952371   759A      0.953663   760A      0.954874  
     761A      0.955765   762A      0.956703   763A      0.958864  
     764A      0.959773   765A      0.962033   766A      0.962292  
     767A      0.963901   768A      0.964948   769A      0.966874  
     770A      0.968262   771A      0.969492   772A      0.971959  
     773A      0.973548   774A      0.976354   775A      0.977456  
     776A      0.978176   777A      0.978743   778A      0.981477  
     779A      0.983282   780A      0.984273   781A      0.985816  
     782A      0.986581   783A      0.989746   784A      0.990616  
     785A      0.992188   786A      0.992931   787A      0.995366  
     788A      0.995730   789A      0.998024   790A      0.998625  
     791A      1.000976   792A      1.002615   793A      1.003971  
     794A      1.004388   795A      1.007025   796A      1.009407  
     797A      1.010554   798A      1.010982   799A      1.011761  
     800A      1.013527   801A      1.015743   802A      1.016931  
     803A      1.018760   804A      1.019743   805A      1.021226  
     806A      1.023051   807A      1.025371   808A      1.026403  
     809A      1.027800   810A      1.028725   811A      1.030874  
     812A      1.034424   813A      1.035416   814A      1.037098  
     815A      1.038361   816A      1.039875   817A      1.041918  
     818A      1.044026   819A      1.045574   820A      1.046340  
     821A      1.048346   822A      1.050575   823A      1.051960  
     824A      1.054768   825A      1.056166   826A      1.056623  
     827A      1.057176   828A      1.058582   829A      1.059558  
     830A      1.062440   831A      1.062672   832A      1.063455  
     833A      1.065502   834A      1.066282   835A      1.069391  
     836A      1.071234   837A      1.073016   838A      1.074084  
     839A      1.074633   840A      1.077252   841A      1.078052  
     842A      1.080193   843A      1.081536   844A      1.081963  
     845A      1.083857   846A      1.085165   847A      1.086183  
     848A      1.088532   849A      1.089981   850A      1.092852  
     851A      1.093092   852A      1.093502   853A      1.094701  
     854A      1.097556   855A      1.100501   856A      1.102329  
     857A      1.103876   858A      1.105693   859A      1.106518  
     860A      1.108933   861A      1.109582   862A      1.110913  
     863A      1.112856   864A      1.114716   865A      1.116301  
     866A      1.118324   867A      1.120174   868A      1.121888  
     869A      1.123245   870A      1.123840   871A      1.124208  
     872A      1.126161   873A      1.129123   874A      1.129587  
     875A      1.130580   876A      1.132196   877A      1.133458  
     878A      1.135206   879A      1.136767   880A      1.138318  
     881A      1.139744   882A      1.141942   883A      1.142497  
     884A      1.142906   885A      1.145103   886A      1.145418  
     887A      1.147806   888A      1.149360   889A      1.150622  
     890A      1.151889   891A      1.152738   892A      1.156274  
     893A      1.157922   894A      1.158353   895A      1.159405  
     896A      1.160943   897A      1.162172   898A      1.164337  
     899A      1.165433   900A      1.166472   901A      1.169444  
     902A      1.171190   903A      1.173695   904A      1.175491  
     905A      1.176354   906A      1.178229   907A      1.178982  
     908A      1.180423   909A      1.181402   910A      1.183411  
     911A      1.185477   912A      1.186439   913A      1.187795  
     914A      1.188188   915A      1.191732   916A      1.193028  
     917A      1.193583   918A      1.195100   919A      1.197308  
     920A      1.198723   921A      1.199959   922A      1.203195  
     923A      1.204953   924A      1.206116   925A      1.207572  
     926A      1.207972   927A      1.212245   928A      1.213787  
     929A      1.214903   930A      1.216205   931A      1.217907  
     932A      1.219196   933A      1.222098   934A      1.223179  
     935A      1.223715   936A      1.225100   937A      1.226821  
     938A      1.227533   939A      1.230632   940A      1.232242  
     941A      1.235338   942A      1.236417   943A      1.237020  
     944A      1.238574   945A      1.241392   946A      1.242133  
     947A      1.244788   948A      1.246592   949A      1.248972  
     950A      1.249921   951A      1.253204   952A      1.253699  
     953A      1.255807   954A      1.256420   955A      1.258137  
     956A      1.259866   957A      1.261199   958A      1.262898  
     959A      1.265092   960A      1.266715   961A      1.268008  
     962A      1.269643   963A      1.271168   964A      1.273917  
     965A      1.274412   966A      1.276252   967A      1.277976  
     968A      1.278879   969A      1.281174   970A      1.281801  
     971A      1.282714   972A      1.284337   973A      1.285025  
     974A      1.288405   975A      1.289822   976A      1.291812  
     977A      1.293186   978A      1.295976   979A      1.296958  
     980A      1.297447   981A      1.300115   982A      1.303358  
     983A      1.303969   984A      1.306064   985A      1.306779  
     986A      1.308707   987A      1.309702   988A      1.310805  
     989A      1.312434   990A      1.313052   991A      1.315584  
     992A      1.316820   993A      1.317518   994A      1.318660  
     995A      1.320495   996A      1.321816   997A      1.323389  
     998A      1.324460   999A      1.325930  1000A      1.327985  
    1001A      1.328603  1002A      1.330778  1003A      1.332522  
    1004A      1.334317  1005A      1.336223  1006A      1.337663  
    1007A      1.339807  1008A      1.340515  1009A      1.342763  
    1010A      1.344972  1011A      1.345594  1012A      1.347481  
    1013A      1.348089  1014A      1.350076  1015A      1.350333  
    1016A      1.351720  1017A      1.352636  1018A      1.354708  
    1019A      1.356472  1020A      1.358618  1021A      1.360920  
    1022A      1.361605  1023A      1.363363  1024A      1.365776  
    1025A      1.368564  1026A      1.370014  1027A      1.370588  
    1028A      1.372563  1029A      1.373831  1030A      1.376367  
    1031A      1.377856  1032A      1.378950  1033A      1.381200  
    1034A      1.382789  1035A      1.383751  1036A      1.385035  
    1037A      1.387389  1038A      1.388036  1039A      1.389626  
    1040A      1.391309  1041A      1.391662  1042A      1.392441  
    1043A      1.394368  1044A      1.396019  1045A      1.397151  
    1046A      1.399332  1047A      1.400989  1048A      1.401962  
    1049A      1.405052  1050A      1.406709  1051A      1.407198  
    1052A      1.407727  1053A      1.409509  1054A      1.413426  
    1055A      1.414950  1056A      1.416348  1057A      1.417283  
    1058A      1.418032  1059A      1.419594  1060A      1.422183  
    1061A      1.424665  1062A      1.427350  1063A      1.428150  
    1064A      1.429509  1065A      1.432052  1066A      1.432323  
    1067A      1.434802  1068A      1.435783  1069A      1.436689  
    1070A      1.441115  1071A      1.441514  1072A      1.442401  
    1073A      1.444113  1074A      1.444590  1075A      1.447453  
    1076A      1.448889  1077A      1.450726  1078A      1.450929  
    1079A      1.452995  1080A      1.453279  1081A      1.457619  
    1082A      1.458293  1083A      1.459980  1084A      1.460715  
    1085A      1.461416  1086A      1.464519  1087A      1.464692  
    1088A      1.465683  1089A      1.467197  1090A      1.469392  
    1091A      1.470965  1092A      1.472563  1093A      1.475065  
    1094A      1.476648  1095A      1.477560  1096A      1.478565  
    1097A      1.479435  1098A      1.481584  1099A      1.484678  
    1100A      1.486257  1101A      1.486957  1102A      1.488690  
    1103A      1.490824  1104A      1.492659  1105A      1.493927  
    1106A      1.494086  1107A      1.496695  1108A      1.496732  
    1109A      1.499831  1110A      1.501405  1111A      1.501986  
    1112A      1.503789  1113A      1.505926  1114A      1.508385  
    1115A      1.509128  1116A      1.511002  1117A      1.512012  
    1118A      1.512512  1119A      1.515749  1120A      1.517796  
    1121A      1.518443  1122A      1.520633  1123A      1.521541  
    1124A      1.521708  1125A      1.524719  1126A      1.526797  
    1127A      1.527561  1128A      1.529521  1129A      1.530842  
    1130A      1.533744  1131A      1.535297  1132A      1.536316  
    1133A      1.537935  1134A      1.539132  1135A      1.541301  
    1136A      1.542237  1137A      1.544416  1138A      1.545846  
    1139A      1.547516  1140A      1.548784  1141A      1.550825  
    1142A      1.551616  1143A      1.552752  1144A      1.555006  
    1145A      1.556585  1146A      1.557278  1147A      1.559520  
    1148A      1.560755  1149A      1.561838  1150A      1.562394  
    1151A      1.564174  1152A      1.566670  1153A      1.568290  
    1154A      1.568587  1155A      1.570765  1156A      1.573425  
    1157A      1.574242  1158A      1.575535  1159A      1.575575  
    1160A      1.576864  1161A      1.579170  1162A      1.581477  
    1163A      1.582401  1164A      1.585396  1165A      1.586364  
    1166A      1.587013  1167A      1.588865  1168A      1.590879  
    1169A      1.592724  1170A      1.593825  1171A      1.595267  
    1172A      1.596639  1173A      1.598216  1174A      1.598517  
    1175A      1.600489  1176A      1.602167  1177A      1.603983  
    1178A      1.604804  1179A      1.606780  1180A      1.608334  
    1181A      1.609970  1182A      1.612138  1183A      1.614453  
    1184A      1.617434  1185A      1.618100  1186A      1.619799  
    1187A      1.621810  1188A      1.623067  1189A      1.625429  
    1190A      1.626392  1191A      1.628044  1192A      1.630141  
    1193A      1.631312  1194A      1.631893  1195A      1.633460  
    1196A      1.635470  1197A      1.635891  1198A      1.639182  
    1199A      1.640698  1200A      1.642606  1201A      1.642827  
    1202A      1.645283  1203A      1.647025  1204A      1.647743  
    1205A      1.648628  1206A      1.649365  1207A      1.650230  
    1208A      1.654510  1209A      1.655787  1210A      1.658674  
    1211A      1.659509  1212A      1.661438  1213A      1.662299  
    1214A      1.664209  1215A      1.665189  1216A      1.666395  
    1217A      1.669352  1218A      1.672229  1219A      1.672514  
    1220A      1.674385  1221A      1.675816  1222A      1.676436  
    1223A      1.678350  1224A      1.680297  1225A      1.680998  
    1226A      1.683081  1227A      1.684789  1228A      1.685576  
    1229A      1.688198  1230A      1.688467  1231A      1.691085  
    1232A      1.691511  1233A      1.693561  1234A      1.695913  
    1235A      1.698670  1236A      1.700263  1237A      1.701733  
    1238A      1.703179  1239A      1.703618  1240A      1.704444  
    1241A      1.706879  1242A      1.707425  1243A      1.709140  
    1244A      1.712833  1245A      1.713546  1246A      1.716078  
    1247A      1.717023  1248A      1.718968  1249A      1.719956  
    1250A      1.720953  1251A      1.723228  1252A      1.725654  
    1253A      1.726087  1254A      1.729074  1255A      1.730329  
    1256A      1.731086  1257A      1.732690  1258A      1.734321  
    1259A      1.736733  1260A      1.738103  1261A      1.741152  
    1262A      1.741581  1263A      1.742075  1264A      1.743025  
    1265A      1.746834  1266A      1.747766  1267A      1.749533  
    1268A      1.750798  1269A      1.752484  1270A      1.754771  
    1271A      1.757137  1272A      1.758349  1273A      1.759061  
    1274A      1.760381  1275A      1.763374  1276A      1.765478  
    1277A      1.765900  1278A      1.768204  1279A      1.769503  
    1280A      1.773489  1281A      1.774696  1282A      1.776068  
    1283A      1.777529  1284A      1.778890  1285A      1.781228  
    1286A      1.782535  1287A      1.782965  1288A      1.786744  
    1289A      1.789857  1290A      1.792732  1291A      1.792930  
    1292A      1.793672  1293A      1.794849  1294A      1.797229  
    1295A      1.799282  1296A      1.801097  1297A      1.802402  
    1298A      1.805553  1299A      1.805893  1300A      1.807318  
    1301A      1.807482  1302A      1.809196  1303A      1.811351  
    1304A      1.812954  1305A      1.814447  1306A      1.815300  
    1307A      1.819376  1308A      1.820883  1309A      1.823031  
    1310A      1.824415  1311A      1.826129  1312A      1.827697  
    1313A      1.828271  1314A      1.830496  1315A      1.833309  
    1316A      1.834567  1317A      1.836349  1318A      1.838209  
    1319A      1.839313  1320A      1.840319  1321A      1.840931  
    1322A      1.843220  1323A      1.846543  1324A      1.850973  
    1325A      1.851230  1326A      1.853982  1327A      1.855701  
    1328A      1.857859  1329A      1.858861  1330A      1.860787  
    1331A      1.861507  1332A      1.862430  1333A      1.864222  
    1334A      1.865879  1335A      1.867739  1336A      1.868967  
    1337A      1.873127  1338A      1.874730  1339A      1.875199  
    1340A      1.876555  1341A      1.881946  1342A      1.883065  
    1343A      1.884235  1344A      1.884737  1345A      1.887078  
    1346A      1.888289  1347A      1.891150  1348A      1.891926  
    1349A      1.893937  1350A      1.894878  1351A      1.897691  
    1352A      1.898656  1353A      1.900472  1354A      1.902473  
    1355A      1.904488  1356A      1.905007  1357A      1.909475  
    1358A      1.910409  1359A      1.912411  1360A      1.915014  
    1361A      1.915843  1362A      1.916108  1363A      1.917470  
    1364A      1.920739  1365A      1.922928  1366A      1.924762  
    1367A      1.925529  1368A      1.926444  1369A      1.928993  
    1370A      1.932101  1371A      1.934869  1372A      1.935313  
    1373A      1.937979  1374A      1.938591  1375A      1.940660  
    1376A      1.943296  1377A      1.945542  1378A      1.945819  
    1379A      1.949462  1380A      1.950556  1381A      1.951307  
    1382A      1.953235  1383A      1.955129  1384A      1.958041  
    1385A      1.960581  1386A      1.961072  1387A      1.963489  
    1388A      1.963757  1389A      1.967666  1390A      1.968599  
    1391A      1.969709  1392A      1.972262  1393A      1.972902  
    1394A      1.975206  1395A      1.976491  1396A      1.977773  
    1397A      1.979665  1398A      1.982048  1399A      1.983747  
    1400A      1.983965  1401A      1.987032  1402A      1.989206  
    1403A      1.992356  1404A      1.994592  1405A      1.996489  
    1406A      1.997629  1407A      1.999267  1408A      2.000796  
    1409A      2.003425  1410A      2.003800  1411A      2.006913  
    1412A      2.008163  1413A      2.009579  1414A      2.012074  
    1415A      2.013443  1416A      2.016157  1417A      2.017056  
    1418A      2.018421  1419A      2.021502  1420A      2.023984  
    1421A      2.027502  1422A      2.028149  1423A      2.028491  
    1424A      2.031317  1425A      2.031984  1426A      2.035227  
    1427A      2.037136  1428A      2.038388  1429A      2.040453  
    1430A      2.041598  1431A      2.043230  1432A      2.045416  
    1433A      2.047003  1434A      2.047247  1435A      2.051122  
    1436A      2.051992  1437A      2.053395  1438A      2.054265  
    1439A      2.057971  1440A      2.060245  1441A      2.061605  
    1442A      2.064801  1443A      2.065618  1444A      2.068498  
    1445A      2.070179  1446A      2.071433  1447A      2.073491  
    1448A      2.074621  1449A      2.076326  1450A      2.077247  
    1451A      2.079877  1452A      2.082359  1453A      2.084226  
    1454A      2.085176  1455A      2.086856  1456A      2.090265  
    1457A      2.091888  1458A      2.095004  1459A      2.095975  
    1460A      2.098208  1461A      2.099470  1462A      2.100829  
    1463A      2.105636  1464A      2.108259  1465A      2.110307  
    1466A      2.111985  1467A      2.112287  1468A      2.113770  
    1469A      2.115603  1470A      2.116710  1471A      2.121020  
    1472A      2.122036  1473A      2.124316  1474A      2.128265  
    1475A      2.129904  1476A      2.131250  1477A      2.132900  
    1478A      2.133633  1479A      2.134966  1480A      2.136482  
    1481A      2.138142  1482A      2.139441  1483A      2.141256  
    1484A      2.143852  1485A      2.145857  1486A      2.149678  
    1487A      2.152025  1488A      2.152919  1489A      2.155997  
    1490A      2.158030  1491A      2.161467  1492A      2.162726  
    1493A      2.165214  1494A      2.166819  1495A      2.167353  
    1496A      2.169830  1497A      2.171813  1498A      2.173712  
    1499A      2.175927  1500A      2.177962  1501A      2.178598  
    1502A      2.180384  1503A      2.182024  1504A      2.183192  
    1505A      2.186582  1506A      2.190235  1507A      2.192335  
    1508A      2.193730  1509A      2.195259  1510A      2.197570  
    1511A      2.198838  1512A      2.200916  1513A      2.205438  
    1514A      2.207678  1515A      2.209455  1516A      2.210617  
    1517A      2.214226  1518A      2.215534  1519A      2.217116  
    1520A      2.219546  1521A      2.220612  1522A      2.223603  
    1523A      2.226654  1524A      2.227325  1525A      2.231723  
    1526A      2.232632  1527A      2.234309  1528A      2.236233  
    1529A      2.237951  1530A      2.238954  1531A      2.240256  
    1532A      2.242984  1533A      2.244265  1534A      2.248711  
    1535A      2.250663  1536A      2.251543  1537A      2.253322  
    1538A      2.257438  1539A      2.261534  1540A      2.262511  
    1541A      2.264710  1542A      2.266536  1543A      2.268963  
    1544A      2.271942  1545A      2.275998  1546A      2.277506  
    1547A      2.280278  1548A      2.281396  1549A      2.284898  
    1550A      2.286391  1551A      2.287727  1552A      2.288398  
    1553A      2.293794  1554A      2.296112  1555A      2.296898  
    1556A      2.300183  1557A      2.303675  1558A      2.304944  
    1559A      2.307304  1560A      2.310859  1561A      2.313453  
    1562A      2.316794  1563A      2.318252  1564A      2.319856  
    1565A      2.321302  1566A      2.325935  1567A      2.326320  
    1568A      2.327490  1569A      2.329661  1570A      2.331741  
    1571A      2.333849  1572A      2.337740  1573A      2.339472  
    1574A      2.340167  1575A      2.343325  1576A      2.344294  
    1577A      2.345217  1578A      2.349713  1579A      2.351714  
    1580A      2.353172  1581A      2.354266  1582A      2.357590  
    1583A      2.362028  1584A      2.362798  1585A      2.365683  
    1586A      2.369958  1587A      2.370357  1588A      2.372437  
    1589A      2.372810  1590A      2.374816  1591A      2.379610  
    1592A      2.382001  1593A      2.382735  1594A      2.383605  
    1595A      2.387246  1596A      2.388811  1597A      2.389730  
    1598A      2.391788  1599A      2.395932  1600A      2.397058  
    1601A      2.398743  1602A      2.399574  1603A      2.401727  
    1604A      2.403897  1605A      2.407903  1606A      2.408449  
    1607A      2.412738  1608A      2.414440  1609A      2.417490  
    1610A      2.417858  1611A      2.420696  1612A      2.422782  
    1613A      2.426756  1614A      2.429543  1615A      2.431918  
    1616A      2.435338  1617A      2.438771  1618A      2.439849  
    1619A      2.441146  1620A      2.441655  1621A      2.444406  
    1622A      2.446810  1623A      2.449751  1624A      2.452875  
    1625A      2.453462  1626A      2.456615  1627A      2.458163  
    1628A      2.460912  1629A      2.464044  1630A      2.466054  
    1631A      2.466808  1632A      2.470937  1633A      2.476327  
    1634A      2.477642  1635A      2.478993  1636A      2.481768  
    1637A      2.486106  1638A      2.486977  1639A      2.489443  
    1640A      2.492420  1641A      2.495992  1642A      2.498313  
    1643A      2.500088  1644A      2.502552  1645A      2.507028  
    1646A      2.508120  1647A      2.510686  1648A      2.513239  
    1649A      2.516624  1650A      2.518741  1651A      2.521164  
    1652A      2.523380  1653A      2.525576  1654A      2.525837  
    1655A      2.531144  1656A      2.532479  1657A      2.533693  
    1658A      2.536959  1659A      2.540305  1660A      2.543096  
    1661A      2.545022  1662A      2.548858  1663A      2.551438  
    1664A      2.553575  1665A      2.555280  1666A      2.556729  
    1667A      2.559149  1668A      2.562627  1669A      2.564279  
    1670A      2.568914  1671A      2.569582  1672A      2.571415  
    1673A      2.573097  1674A      2.576565  1675A      2.579834  
    1676A      2.582487  1677A      2.583726  1678A      2.588000  
    1679A      2.588706  1680A      2.591173  1681A      2.593177  
    1682A      2.594079  1683A      2.600481  1684A      2.602664  
    1685A      2.605281  1686A      2.608169  1687A      2.609284  
    1688A      2.611811  1689A      2.615389  1690A      2.617371  
    1691A      2.620415  1692A      2.622282  1693A      2.623348  
    1694A      2.631548  1695A      2.631815  1696A      2.635397  
    1697A      2.637933  1698A      2.638608  1699A      2.642095  
    1700A      2.643017  1701A      2.649058  1702A      2.651068  
    1703A      2.653954  1704A      2.656108  1705A      2.657554  
    1706A      2.660261  1707A      2.663469  1708A      2.665898  
    1709A      2.669212  1710A      2.672283  1711A      2.674387  
    1712A      2.677444  1713A      2.679913  1714A      2.680269  
    1715A      2.681979  1716A      2.684824  1717A      2.686714  
    1718A      2.693199  1719A      2.695029  1720A      2.696510  
    1721A      2.699869  1722A      2.700482  1723A      2.704673  
    1724A      2.707280  1725A      2.711347  1726A      2.712717  
    1727A      2.716009  1728A      2.718441  1729A      2.720648  
    1730A      2.722226  1731A      2.727024  1732A      2.730800  
    1733A      2.731416  1734A      2.734035  1735A      2.736693  
    1736A      2.741173  1737A      2.742656  1738A      2.743849  
    1739A      2.749961  1740A      2.754004  1741A      2.756527  
    1742A      2.757339  1743A      2.759175  1744A      2.761385  
    1745A      2.762787  1746A      2.766615  1747A      2.769954  
    1748A      2.775224  1749A      2.778432  1750A      2.779536  
    1751A      2.781818  1752A      2.783869  1753A      2.788176  
    1754A      2.788692  1755A      2.790104  1756A      2.794811  
    1757A      2.798866  1758A      2.802696  1759A      2.804037  
    1760A      2.806022  1761A      2.807528  1762A      2.809702  
    1763A      2.813288  1764A      2.817968  1765A      2.819717  
    1766A      2.825568  1767A      2.826127  1768A      2.829140  
    1769A      2.829954  1770A      2.832754  1771A      2.833662  
    1772A      2.841124  1773A      2.841559  1774A      2.845952  
    1775A      2.847145  1776A      2.850356  1777A      2.851169  
    1778A      2.853292  1779A      2.861429  1780A      2.864455  
    1781A      2.867874  1782A      2.868136  1783A      2.871997  
    1784A      2.877650  1785A      2.878668  1786A      2.881247  
    1787A      2.886948  1788A      2.890392  1789A      2.891729  
    1790A      2.895915  1791A      2.899337  1792A      2.899968  
    1793A      2.903252  1794A      2.908663  1795A      2.912369  
    1796A      2.915193  1797A      2.918117  1798A      2.920422  
    1799A      2.925469  1800A      2.926946  1801A      2.931979  
    1802A      2.935349  1803A      2.938891  1804A      2.942407  
    1805A      2.947634  1806A      2.950653  1807A      2.954262  
    1808A      2.958028  1809A      2.960412  1810A      2.961262  
    1811A      2.966502  1812A      2.971437  1813A      2.976410  
    1814A      2.976998  1815A      2.981618  1816A      2.984430  
    1817A      2.988878  1818A      2.990930  1819A      2.998615  
    1820A      3.001629  1821A      3.005081  1822A      3.008739  
    1823A      3.015796  1824A      3.017433  1825A      3.020306  
    1826A      3.023079  1827A      3.028145  1828A      3.035166  
    1829A      3.035534  1830A      3.038762  1831A      3.045162  
    1832A      3.047718  1833A      3.053339  1834A      3.056673  
    1835A      3.059667  1836A      3.063387  1837A      3.065020  
    1838A      3.075013  1839A      3.077961  1840A      3.081343  
    1841A      3.089345  1842A      3.091305  1843A      3.098734  
    1844A      3.100337  1845A      3.107623  1846A      3.119178  
    1847A      3.122585  1848A      3.123199  1849A      3.125566  
    1850A      3.130246  1851A      3.132355  1852A      3.134568  
    1853A      3.137748  1854A      3.142170  1855A      3.145716  
    1856A      3.149324  1857A      3.153158  1858A      3.159787  
    1859A      3.167851  1860A      3.171462  1861A      3.173862  
    1862A      3.180479  1863A      3.182887  1864A      3.188089  
    1865A      3.193144  1866A      3.198814  1867A      3.204090  
    1868A      3.209131  1869A      3.211845  1870A      3.216770  
    1871A      3.221927  1872A      3.223291  1873A      3.227749  
    1874A      3.229259  1875A      3.235422  1876A      3.237093  
    1877A      3.241473  1878A      3.246346  1879A      3.251229  
    1880A      3.254351  1881A      3.258535  1882A      3.264700  
    1883A      3.269041  1884A      3.273982  1885A      3.277107  
    1886A      3.279479  1887A      3.282850  1888A      3.286561  
    1889A      3.293445  1890A      3.295766  1891A      3.300855  
    1892A      3.302446  1893A      3.304285  1894A      3.314275  
    1895A      3.315113  1896A      3.318804  1897A      3.320869  
    1898A      3.323623  1899A      3.327435  1900A      3.333529  
    1901A      3.339569  1902A      3.340049  1903A      3.346095  
    1904A      3.347919  1905A      3.350105  1906A      3.353127  
    1907A      3.360794  1908A      3.364052  1909A      3.367283  
    1910A      3.370048  1911A      3.376382  1912A      3.379201  
    1913A      3.383139  1914A      3.386048  1915A      3.388942  
    1916A      3.394830  1917A      3.396636  1918A      3.399317  
    1919A      3.401420  1920A      3.404964  1921A      3.410295  
    1922A      3.411531  1923A      3.414235  1924A      3.420556  
    1925A      3.422232  1926A      3.423957  1927A      3.426695  
    1928A      3.430913  1929A      3.434523  1930A      3.438494  
    1931A      3.441392  1932A      3.444296  1933A      3.451317  
    1934A      3.453842  1935A      3.455740  1936A      3.459116  
    1937A      3.460529  1938A      3.462110  1939A      3.467872  
    1940A      3.470437  1941A      3.472774  1942A      3.475493  
    1943A      3.477769  1944A      3.484380  1945A      3.486835  
    1946A      3.492717  1947A      3.493126  1948A      3.495189  
    1949A      3.500022  1950A      3.502292  1951A      3.505304  
    1952A      3.508387  1953A      3.509324  1954A      3.511442  
    1955A      3.515413  1956A      3.520509  1957A      3.522303  
    1958A      3.524735  1959A      3.525286  1960A      3.529600  
    1961A      3.532336  1962A      3.534169  1963A      3.538666  
    1964A      3.541118  1965A      3.541927  1966A      3.544350  
    1967A      3.546911  1968A      3.548898  1969A      3.551192  
    1970A      3.553138  1971A      3.560084  1972A      3.563554  
    1973A      3.566127  1974A      3.569084  1975A      3.572306  
    1976A      3.573067  1977A      3.579921  1978A      3.581402  
    1979A      3.583734  1980A      3.585564  1981A      3.590185  
    1982A      3.592096  1983A      3.594248  1984A      3.600053  
    1985A      3.601216  1986A      3.603851  1987A      3.609829  
    1988A      3.610423  1989A      3.614346  1990A      3.615841  
    1991A      3.619409  1992A      3.621836  1993A      3.626172  
    1994A      3.629985  1995A      3.631519  1996A      3.634713  
    1997A      3.639463  1998A      3.643487  1999A      3.646102  
    2000A      3.648234  2001A      3.650034  2002A      3.651157  
    2003A      3.658531  2004A      3.660716  2005A      3.663966  
    2006A      3.667427  2007A      3.668294  2008A      3.668818  
    2009A      3.672323  2010A      3.677863  2011A      3.680096  
    2012A      3.686178  2013A      3.687960  2014A      3.691315  
    2015A      3.693515  2016A      3.696921  2017A      3.699090  
    2018A      3.701034  2019A      3.704341  2020A      3.711153  
    2021A      3.712799  2022A      3.715826  2023A      3.719371  
    2024A      3.720441  2025A      3.727377  2026A      3.728802  
    2027A      3.733124  2028A      3.735342  2029A      3.740054  
    2030A      3.740638  2031A      3.741847  2032A      3.746442  
    2033A      3.751444  2034A      3.753717  2035A      3.753948  
    2036A      3.759913  2037A      3.762707  2038A      3.766210  
    2039A      3.768616  2040A      3.773060  2041A      3.776542  
    2042A      3.780018  2043A      3.783559  2044A      3.785856  
    2045A      3.789263  2046A      3.791818  2047A      3.795562  
    2048A      3.797598  2049A      3.803542  2050A      3.807655  
    2051A      3.811697  2052A      3.812610  2053A      3.813388  
    2054A      3.816532  2055A      3.820373  2056A      3.826258  
    2057A      3.829002  2058A      3.832478  2059A      3.834037  
    2060A      3.837356  2061A      3.839966  2062A      3.841718  
    2063A      3.843420  2064A      3.848815  2065A      3.849426  
    2066A      3.852790  2067A      3.855588  2068A      3.858705  
    2069A      3.862945  2070A      3.867328  2071A      3.871363  
    2072A      3.872462  2073A      3.873076  2074A      3.879567  
    2075A      3.880711  2076A      3.882567  2077A      3.887042  
    2078A      3.893054  2079A      3.897131  2080A      3.900348  
    2081A      3.901506  2082A      3.907250  2083A      3.909291  
    2084A      3.912400  2085A      3.912769  2086A      3.916946  
    2087A      3.919065  2088A      3.922945  2089A      3.924156  
    2090A      3.926436  2091A      3.932901  2092A      3.936336  
    2093A      3.938836  2094A      3.942572  2095A      3.947293  
    2096A      3.949214  2097A      3.951366  2098A      3.955679  
    2099A      3.961145  2100A      3.963435  2101A      3.974610  
    2102A      3.976080  2103A      3.977784  2104A      3.979484  
    2105A      3.984600  2106A      3.987463  2107A      3.991053  
    2108A      3.993023  2109A      3.994740  2110A      3.998543  
    2111A      4.002327  2112A      4.003383  2113A      4.005129  
    2114A      4.010329  2115A      4.012186  2116A      4.016193  
    2117A      4.017915  2118A      4.022109  2119A      4.023441  
    2120A      4.026638  2121A      4.030957  2122A      4.035293  
    2123A      4.038421  2124A      4.042975  2125A      4.044665  
    2126A      4.047510  2127A      4.051792  2128A      4.054453  
    2129A      4.058387  2130A      4.063799  2131A      4.064566  
    2132A      4.067921  2133A      4.070660  2134A      4.073410  
    2135A      4.074323  2136A      4.078203  2137A      4.082562  
    2138A      4.086214  2139A      4.086706  2140A      4.091687  
    2141A      4.093385  2142A      4.096710  2143A      4.100275  
    2144A      4.100982  2145A      4.106581  2146A      4.108584  
    2147A      4.112731  2148A      4.114812  2149A      4.118703  
    2150A      4.121685  2151A      4.124854  2152A      4.126398  
    2153A      4.130324  2154A      4.132377  2155A      4.135714  
    2156A      4.137391  2157A      4.139847  2158A      4.142774  
    2159A      4.143697  2160A      4.148341  2161A      4.150501  
    2162A      4.153627  2163A      4.157858  2164A      4.160509  
    2165A      4.163639  2166A      4.166686  2167A      4.171035  
    2168A      4.174237  2169A      4.177308  2170A      4.179566  
    2171A      4.182181  2172A      4.183457  2173A      4.187143  
    2174A      4.188767  2175A      4.194677  2176A      4.196360  
    2177A      4.197377  2178A      4.203520  2179A      4.205985  
    2180A      4.208007  2181A      4.208817  2182A      4.210491  
    2183A      4.214861  2184A      4.217974  2185A      4.220372  
    2186A      4.222213  2187A      4.226045  2188A      4.226176  
    2189A      4.228348  2190A      4.231182  2191A      4.231520  
    2192A      4.234262  2193A      4.237502  2194A      4.241647  
    2195A      4.245254  2196A      4.246775  2197A      4.250469  
    2198A      4.251583  2199A      4.254028  2200A      4.254511  
    2201A      4.258113  2202A      4.260334  2203A      4.263689  
    2204A      4.264900  2205A      4.267186  2206A      4.271537  
    2207A      4.273896  2208A      4.274723  2209A      4.276113  
    2210A      4.280336  2211A      4.283130  2212A      4.283857  
    2213A      4.286744  2214A      4.288800  2215A      4.291359  
    2216A      4.292921  2217A      4.296623  2218A      4.298845  
    2219A      4.300395  2220A      4.303520  2221A      4.308109  
    2222A      4.309567  2223A      4.310773  2224A      4.314276  
    2225A      4.317116  2226A      4.317949  2227A      4.320652  
    2228A      4.322396  2229A      4.324094  2230A      4.324798  
    2231A      4.329585  2232A      4.330315  2233A      4.331905  
    2234A      4.338429  2235A      4.340969  2236A      4.343485  
    2237A      4.345883  2238A      4.348372  2239A      4.350666  
    2240A      4.351350  2241A      4.355811  2242A      4.359724  
    2243A      4.362431  2244A      4.363606  2245A      4.365355  
    2246A      4.369227  2247A      4.370348  2248A      4.372531  
    2249A      4.378738  2250A      4.380259  2251A      4.381995  
    2252A      4.383288  2253A      4.385631  2254A      4.386451  
    2255A      4.388133  2256A      4.392753  2257A      4.398075  
    2258A      4.398311  2259A      4.400638  2260A      4.402165  
    2261A      4.404567  2262A      4.405974  2263A      4.409500  
    2264A      4.412187  2265A      4.415428  2266A      4.418395  
    2267A      4.420806  2268A      4.422646  2269A      4.424967  
    2270A      4.426340  2271A      4.429594  2272A      4.433237  
    2273A      4.433416  2274A      4.435990  2275A      4.440583  
    2276A      4.442519  2277A      4.445588  2278A      4.446779  
    2279A      4.447854  2280A      4.452096  2281A      4.455032  
    2282A      4.457691  2283A      4.460663  2284A      4.461334  
    2285A      4.463993  2286A      4.465947  2287A      4.467280  
    2288A      4.469046  2289A      4.470554  2290A      4.472954  
    2291A      4.474330  2292A      4.479476  2293A      4.480968  
    2294A      4.482942  2295A      4.487220  2296A      4.488228  
    2297A      4.492951  2298A      4.493728  2299A      4.493829  
    2300A      4.498310  2301A      4.498836  2302A      4.501307  
    2303A      4.503824  2304A      4.506373  2305A      4.509697  
    2306A      4.511510  2307A      4.513928  2308A      4.515038  
    2309A      4.520954  2310A      4.523386  2311A      4.526701  
    2312A      4.528087  2313A      4.529704  2314A      4.532384  
    2315A      4.533047  2316A      4.535835  2317A      4.538543  
    2318A      4.540126  2319A      4.544163  2320A      4.546112  
    2321A      4.549615  2322A      4.550801  2323A      4.552125  
    2324A      4.554460  2325A      4.556185  2326A      4.559667  
    2327A      4.560364  2328A      4.564886  2329A      4.568564  
    2330A      4.570033  2331A      4.571281  2332A      4.573413  
    2333A      4.578479  2334A      4.578982  2335A      4.580088  
    2336A      4.583426  2337A      4.585876  2338A      4.588599  
    2339A      4.590056  2340A      4.598267  2341A      4.599055  
    2342A      4.600765  2343A      4.602011  2344A      4.604381  
    2345A      4.606894  2346A      4.609137  2347A      4.610568  
    2348A      4.614274  2349A      4.616296  2350A      4.620841  
    2351A      4.622185  2352A      4.623352  2353A      4.625665  
    2354A      4.627772  2355A      4.631377  2356A      4.633098  
    2357A      4.635671  2358A      4.637709  2359A      4.640127  
    2360A      4.642387  2361A      4.643436  2362A      4.648099  
    2363A      4.651603  2364A      4.651836  2365A      4.653239  
    2366A      4.660119  2367A      4.662724  2368A      4.669391  
    2369A      4.670836  2370A      4.672365  2371A      4.674127  
    2372A      4.677857  2373A      4.678849  2374A      4.680123  
    2375A      4.683386  2376A      4.685206  2377A      4.686140  
    2378A      4.690279  2379A      4.691566  2380A      4.693628  
    2381A      4.696014  2382A      4.699905  2383A      4.700109  
    2384A      4.704817  2385A      4.707043  2386A      4.708008  
    2387A      4.711786  2388A      4.713920  2389A      4.718748  
    2390A      4.719517  2391A      4.722512  2392A      4.725464  
    2393A      4.727375  2394A      4.729796  2395A      4.732770  
    2396A      4.735410  2397A      4.736667  2398A      4.739636  
    2399A      4.740988  2400A      4.745083  2401A      4.749129  
    2402A      4.751993  2403A      4.752998  2404A      4.754939  
    2405A      4.756768  2406A      4.764007  2407A      4.765312  
    2408A      4.767864  2409A      4.771936  2410A      4.772989  
    2411A      4.777275  2412A      4.778519  2413A      4.781206  
    2414A      4.784563  2415A      4.786333  2416A      4.786486  
    2417A      4.789849  2418A      4.794336  2419A      4.797069  
    2420A      4.798062  2421A      4.802778  2422A      4.804356  
    2423A      4.806139  2424A      4.809287  2425A      4.812175  
    2426A      4.813295  2427A      4.815878  2428A      4.819821  
    2429A      4.824128  2430A      4.825696  2431A      4.829393  
    2432A      4.829812  2433A      4.834193  2434A      4.836049  
    2435A      4.837786  2436A      4.843050  2437A      4.845379  
    2438A      4.848191  2439A      4.850965  2440A      4.853554  
    2441A      4.858461  2442A      4.860156  2443A      4.864278  
    2444A      4.865930  2445A      4.868069  2446A      4.870345  
    2447A      4.872571  2448A      4.874264  2449A      4.876030  
    2450A      4.882015  2451A      4.883937  2452A      4.887054  
    2453A      4.889161  2454A      4.892644  2455A      4.896066  
    2456A      4.897184  2457A      4.898249  2458A      4.903172  
    2459A      4.907205  2460A      4.909761  2461A      4.915013  
    2462A      4.915603  2463A      4.918570  2464A      4.919312  
    2465A      4.920266  2466A      4.924153  2467A      4.925774  
    2468A      4.929155  2469A      4.931335  2470A      4.933235  
    2471A      4.935990  2472A      4.937611  2473A      4.940790  
    2474A      4.945321  2475A      4.948860  2476A      4.949944  
    2477A      4.954866  2478A      4.958016  2479A      4.959060  
    2480A      4.961367  2481A      4.964977  2482A      4.968421  
    2483A      4.970023  2484A      4.973462  2485A      4.976441  
    2486A      4.981593  2487A      4.982729  2488A      4.985218  
    2489A      4.989520  2490A      4.993076  2491A      4.994509  
    2492A      4.998637  2493A      5.000877  2494A      5.001955  
    2495A      5.009685  2496A      5.011386  2497A      5.012742  
    2498A      5.013826  2499A      5.017637  2500A      5.020660  
    2501A      5.022876  2502A      5.023572  2503A      5.028151  
    2504A      5.028859  2505A      5.035702  2506A      5.038883  
    2507A      5.041874  2508A      5.045396  2509A      5.048348  
    2510A      5.050153  2511A      5.051062  2512A      5.057352  
    2513A      5.059771  2514A      5.063179  2515A      5.065501  
    2516A      5.067602  2517A      5.069194  2518A      5.070419  
    2519A      5.072787  2520A      5.077496  2521A      5.078303  
    2522A      5.081731  2523A      5.082920  2524A      5.087624  
    2525A      5.091014  2526A      5.093711  2527A      5.095978  
    2528A      5.101034  2529A      5.103427  2530A      5.107502  
    2531A      5.109368  2532A      5.111348  2533A      5.113172  
    2534A      5.114742  2535A      5.117361  2536A      5.120115  
    2537A      5.124719  2538A      5.129420  2539A      5.130399  
    2540A      5.132871  2541A      5.139073  2542A      5.141478  
    2543A      5.143276  2544A      5.145463  2545A      5.148059  
    2546A      5.151204  2547A      5.151708  2548A      5.155831  
    2549A      5.161747  2550A      5.163969  2551A      5.166387  
    2552A      5.170034  2553A      5.173102  2554A      5.176561  
    2555A      5.179545  2556A      5.182851  2557A      5.186654  
    2558A      5.189649  2559A      5.192958  2560A      5.193180  
    2561A      5.199840  2562A      5.202427  2563A      5.206573  
    2564A      5.210577  2565A      5.211768  2566A      5.215063  
    2567A      5.217891  2568A      5.225414  2569A      5.226182  
    2570A      5.232566  2571A      5.236527  2572A      5.237992  
    2573A      5.241001  2574A      5.247987  2575A      5.249758  
    2576A      5.251875  2577A      5.252761  2578A      5.257869  
    2579A      5.259802  2580A      5.261740  2581A      5.264049  
    2582A      5.269487  2583A      5.271797  2584A      5.272661  
    2585A      5.276856  2586A      5.280500  2587A      5.281894  
    2588A      5.285313  2589A      5.289152  2590A      5.291808  
    2591A      5.292425  2592A      5.296099  2593A      5.297388  
    2594A      5.305882  2595A      5.309540  2596A      5.310368  
    2597A      5.311485  2598A      5.317285  2599A      5.319911  
    2600A      5.321264  2601A      5.326541  2602A      5.330770  
    2603A      5.335325  2604A      5.341146  2605A      5.345229  
    2606A      5.346727  2607A      5.347481  2608A      5.351459  
    2609A      5.353207  2610A      5.359778  2611A      5.360591  
    2612A      5.360911  2613A      5.367924  2614A      5.371805  
    2615A      5.375109  2616A      5.376830  2617A      5.384304  
    2618A      5.387508  2619A      5.388916  2620A      5.391968  
    2621A      5.394988  2622A      5.401230  2623A      5.404705  
    2624A      5.405608  2625A      5.410553  2626A      5.414319  
    2627A      5.416612  2628A      5.419205  2629A      5.423876  
    2630A      5.425641  2631A      5.427833  2632A      5.433084  
    2633A      5.437480  2634A      5.440399  2635A      5.440922  
    2636A      5.444897  2637A      5.447695  2638A      5.448899  
    2639A      5.451228  2640A      5.456922  2641A      5.459857  
    2642A      5.462765  2643A      5.464054  2644A      5.467427  
    2645A      5.473122  2646A      5.475894  2647A      5.477197  
    2648A      5.478797  2649A      5.487607  2650A      5.488700  
    2651A      5.492351  2652A      5.494094  2653A      5.497940  
    2654A      5.498488  2655A      5.510619  2656A      5.514637  
    2657A      5.515715  2658A      5.517019  2659A      5.522087  
    2660A      5.524518  2661A      5.527994  2662A      5.530534  
    2663A      5.538457  2664A      5.541058  2665A      5.544499  
    2666A      5.547668  2667A      5.549796  2668A      5.550971  
    2669A      5.551233  2670A      5.555578  2671A      5.559057  
    2672A      5.563022  2673A      5.569226  2674A      5.570704  
    2675A      5.571643  2676A      5.578478  2677A      5.581651  
    2678A      5.584942  2679A      5.588730  2680A      5.591413  
    2681A      5.592706  2682A      5.597776  2683A      5.600235  
    2684A      5.601934  2685A      5.606438  2686A      5.608177  
    2687A      5.611299  2688A      5.618228  2689A      5.621758  
    2690A      5.622880  2691A      5.627142  2692A      5.628126  
    2693A      5.631562  2694A      5.641148  2695A      5.645423  
    2696A      5.648871  2697A      5.655593  2698A      5.659161  
    2699A      5.663422  2700A      5.663841  2701A      5.670509  
    2702A      5.674196  2703A      5.680255  2704A      5.685147  
    2705A      5.687100  2706A      5.691599  2707A      5.694687  
    2708A      5.697028  2709A      5.699922  2710A      5.703609  
    2711A      5.705688  2712A      5.711877  2713A      5.715663  
    2714A      5.721790  2715A      5.728451  2716A      5.731740  
    2717A      5.733900  2718A      5.738679  2719A      5.739962  
    2720A      5.743637  2721A      5.751766  2722A      5.755742  
    2723A      5.759492  2724A      5.766275  2725A      5.770869  
    2726A      5.777740  2727A      5.781667  2728A      5.784816  
    2729A      5.788802  2730A      5.793622  2731A      5.797545  
    2732A      5.802352  2733A      5.805328  2734A      5.805976  
    2735A      5.811243  2736A      5.814112  2737A      5.817087  
    2738A      5.821886  2739A      5.824519  2740A      5.828991  
    2741A      5.835904  2742A      5.844686  2743A      5.847699  
    2744A      5.850037  2745A      5.852377  2746A      5.856206  
    2747A      5.861055  2748A      5.868107  2749A      5.878276  
    2750A      5.878807  2751A      5.886249  2752A      5.888135  
    2753A      5.889816  2754A      5.897503  2755A      5.897791  
    2756A      5.903287  2757A      5.910398  2758A      5.914345  
    2759A      5.918352  2760A      5.923306  2761A      5.926548  
    2762A      5.932748  2763A      5.935288  2764A      5.938703  
    2765A      5.943222  2766A      5.946668  2767A      5.951367  
    2768A      5.957212  2769A      5.960397  2770A      5.964917  
    2771A      5.966860  2772A      5.970084  2773A      5.977730  
    2774A      5.978576  2775A      5.985157  2776A      5.989027  
    2777A      5.996343  2778A      5.999804  2779A      6.004450  
    2780A      6.010708  2781A      6.017452  2782A      6.024247  
    2783A      6.026666  2784A      6.033619  2785A      6.037519  
    2786A      6.042591  2787A      6.043838  2788A      6.047471  
    2789A      6.051956  2790A      6.064319  2791A      6.065211  
    2792A      6.066102  2793A      6.070226  2794A      6.076892  
    2795A      6.087931  2796A      6.090562  2797A      6.097790  
    2798A      6.102565  2799A      6.108880  2800A      6.114115  
    2801A      6.117851  2802A      6.125283  2803A      6.125800  
    2804A      6.130905  2805A      6.136557  2806A      6.140878  
    2807A      6.149001  2808A      6.160057  2809A      6.168594  
    2810A      6.175452  2811A      6.176419  2812A      6.181038  
    2813A      6.184306  2814A      6.187943  2815A      6.193341  
    2816A      6.202978  2817A      6.210568  2818A      6.217026  
    2819A      6.223273  2820A      6.226556  2821A      6.234928  
    2822A      6.242027  2823A      6.248294  2824A      6.256856  
    2825A      6.259467  2826A      6.263136  2827A      6.271396  
    2828A      6.277756  2829A      6.278972  2830A      6.287747  
    2831A      6.290007  2832A      6.294704  2833A      6.298017  
    2834A      6.303319  2835A      6.305817  2836A      6.313328  
    2837A      6.317794  2838A      6.329645  2839A      6.332120  
    2840A      6.337519  2841A      6.342691  2842A      6.350861  
    2843A      6.353901  2844A      6.358086  2845A      6.365059  
    2846A      6.367161  2847A      6.394931  2848A      6.402973  
    2849A      6.406175  2850A      6.411409  2851A      6.419374  
    2852A      6.432679  2853A      6.434595  2854A      6.442363  
    2855A      6.450286  2856A      6.458685  2857A      6.465444  
    2858A      6.476340  2859A      6.481682  2860A      6.486646  
    2861A      6.504932  2862A      6.521678  2863A      6.545620  
    2864A      6.555534  2865A      6.568771  2866A      6.572450  
    2867A      6.576762  2868A      6.589409  2869A      6.591760  
    2870A      6.608461  2871A      6.616253  2872A      6.616979  
    2873A      6.621496  2874A      6.626734  2875A      6.644971  
    2876A      6.655460  2877A      6.662136  2878A      6.670578  
    2879A      6.677900  2880A      6.688185  2881A      6.691989  
    2882A      6.700927  2883A      6.721877  2884A      6.737622  
    2885A      6.743196  2886A      6.750778  2887A      6.756286  
    2888A      6.760610  2889A      6.765230  2890A      6.779430  
    2891A      6.788144  2892A      6.791890  2893A      6.799264  
    2894A      6.812917  2895A      6.817115  2896A      6.834167  
    2897A      6.843095  2898A      6.849393  2899A      6.862496  
    2900A      6.865232  2901A      6.867492  2902A      6.881535  
    2903A      6.921032  2904A      6.924991  2905A      6.933750  
    2906A      6.943749  2907A      6.960148  2908A      6.974646  
    2909A      7.000263  2910A      7.015807  2911A      7.026065  
    2912A      7.034991  2913A      7.038995  2914A      7.048955  
    2915A      7.068016  2916A      7.087695  2917A      7.099692  
    2918A      7.131432  2919A      7.147684  2920A      7.158266  
    2921A      7.166389  2922A      7.188636  2923A      7.197278  
    2924A      7.216990  2925A      7.223292  2926A      7.244262  
    2927A      7.254077  2928A      7.263202  2929A      7.280160  
    2930A      7.306220  2931A      7.319455  2932A      7.329064  
    2933A      7.361924  2934A      7.376638  2935A      7.396807  
    2936A      7.402340  2937A      7.434197  2938A      7.448393  
    2939A      7.468208  2940A      7.477744  2941A      7.493875  
    2942A      7.507484  2943A      7.513091  2944A      7.532085  
    2945A      7.555227  2946A      7.557777  2947A      7.573624  
    2948A      7.604928  2949A      7.605475  2950A      7.634968  
    2951A      7.647987  2952A      7.673483  2953A      7.697083  
    2954A      7.699227  2955A      7.714852  2956A      7.731758  
    2957A      7.755449  2958A      7.765257  2959A      7.770940  
    2960A      7.780532  2961A      7.786686  2962A      7.791817  
    2963A      7.800806  2964A      7.806688  2965A      7.819290  
    2966A      7.832255  2967A      7.855979  2968A      7.867366  
    2969A      7.897717  2970A      7.909295  2971A      7.921998  
    2972A      7.937531  2973A      7.963587  2974A      7.988240  
    2975A      7.995466  2976A      8.024337  2977A      8.078998  
    2978A      8.108122  2979A      8.147755  2980A      8.176357  
    2981A      8.204156  2982A      8.235354  2983A      8.260695  
    2984A      8.268761  2985A      8.296599  2986A      8.310148  
    2987A      8.326649  2988A      8.346085  2989A      8.384471  
    2990A      8.404425  2991A      8.415888  2992A      8.452091  
    2993A      8.476367  2994A      8.511058  2995A      8.597405  
    2996A      8.615552  2997A      8.659222  2998A      8.681056  
    2999A      8.702175  3000A      8.750617  3001A      8.856904  
    3002A      8.893497  3003A      8.927907  3004A      9.011002  
    3005A      9.032820  3006A      9.099991  3007A      9.230596  
    3008A      9.317710  3009A      9.418751  3010A      9.433625  
    3011A      9.581863  3012A      9.649029  3013A      9.673614  
    3014A      9.738753  3015A      9.772753  3016A      9.830967  
    3017A      9.933224  3018A      9.985688  3019A     10.005726  
    3020A     10.046483  3021A     10.059790  3022A     10.134252  
    3023A     10.161088  3024A     10.251854  3025A     10.299326  
    3026A     10.381635  3027A     10.434945  3028A     10.508752  
    3029A     10.584714  3030A     10.703568  3031A     10.760951  
    3032A     10.836945  3033A     10.996284  3034A     11.074711  
    3035A     11.186033  3036A     11.218786  3037A     11.293710  
    3038A     11.396813  3039A     11.404072  3040A     11.463392  
    3041A     11.667258  3042A     11.857763  3043A     11.867475  
    3044A     11.982201  3045A     12.177020  3046A     12.225726  
    3047A     12.273865  3048A     12.323982  3049A     12.544519  
    3050A     12.659039  3051A     12.709319  3052A     15.220485  
    3053A     15.644271  3054A     16.019333  3055A     16.456155  
    3056A     16.737971  3057A     17.039730  3058A     17.327958  
    3059A     17.610180  3060A     18.025765  3061A     18.326734  
    3062A     18.798841  3063A     19.131153  3064A     19.528687  
    3065A     20.171107  3066A     20.709190  3067A     21.125306  
    3068A     21.265864  3069A     21.677044  3070A     21.736939  
    3071A     21.990220  3072A     22.176144  3073A     22.719839  
    3074A     22.898339  3075A     23.063318  3076A     49.747315  
    3077A     50.627530  3078A     51.405104  3079A     52.254860  
    3080A     52.942679  3081A     53.193294  3082A     53.488091  
    3083A     54.260557  3084A     55.167440  3085A     55.960285  
    3086A     56.706514  3087A     57.579255  3088A     58.123592  
    3089A     58.563945  3090A     59.601197  3091A     60.645452  
    3092A     61.376080  3093A     61.541626  3094A     61.780161  
    3095A     62.400418  3096A     62.644521  3097A     63.551883  
    3098A     64.133705  3099A     64.338222  

    Final Occupation by Irrep:
              A 
    DOCC [    82 ]
    NA   [    82 ]
    NB   [    82 ]

  @DF-RKS Final Energy:  -926.64769545543504

   => Energetics <=

    Nuclear Repulsion Energy =           1863.8004869688352301
    One-Electron Energy =               -4954.7460646095305492
    Two-Electron Energy =                2258.6056276801296008
    DFT Exchange-Correlation Energy =     -94.2740320693352487
    Empirical Dispersion Energy =          -0.0337134255342277
    VV10 Nonlocal Energy =                  0.0000000000000000
    Total Energy =                       -926.6476954554351551

Computation Completed


Properties will be evaluated at   0.000000,   0.000000,   0.000000 [a0]

Properties computed using the SCF density matrix


 Multipole Moments:

 ------------------------------------------------------------------------------------
     Multipole            Electronic (a.u.)      Nuclear  (a.u.)        Total (a.u.)
 ------------------------------------------------------------------------------------

 L = 1.  Multiply by 2.5417464519 to convert [e a0] to [Debye]
 Dipole X            :      -4034.8992862         4034.8790109           -0.0202752
 Dipole Y            :      -3189.3619616         3189.5933564            0.2313948
 Dipole Z            :      -7377.8215669         7378.1192754            0.2977085
 Magnitude           :                                                    0.3776043

 ------------------------------------------------------------------------------------

*** tstop() called on atl1-1-03-004-11-2.pace.gatech.edu at Sat Jun 13 15:27:49 2026
Module time:
	user time   =   65919.90 seconds =    1098.67 minutes
	system time =    4998.30 seconds =      83.30 minutes
	total time  =      11101 seconds =     185.02 minutes
Total time:
	user time   =   65919.90 seconds =    1098.67 minutes
	system time =    4998.30 seconds =      83.30 minutes
	total time  =      11101 seconds =     185.02 minutes

    Psi4 stopped on: Saturday, 13 June 2026 03:28PM
    Psi4 wall time for execution: 3:05:18.81

*** Psi4 exiting successfully. Buy a developer a beer!
