
    -----------------------------------------------------------------------
          Psi4: An Open-Source Ab Initio Electronic Structure Package
                               Psi4 1.9.1 release

                         Git: Rev {} zzzzzzz 


    D. G. A. Smith, L. A. Burns, A. C. Simmonett, R. M. Parrish,
    M. C. Schieber, R. Galvelis, P. Kraus, H. Kruse, R. Di Remigio,
    A. Alenaizan, A. M. James, S. Lehtola, J. P. Misiewicz, M. Scheurer,
    R. A. Shaw, J. B. Schriber, Y. Xie, Z. L. Glick, D. A. Sirianni,
    J. S. O'Brien, J. M. Waldrop, A. Kumar, E. G. Hohenstein,
    B. P. Pritchard, B. R. Brooks, H. F. Schaefer III, A. Yu. Sokolov,
    K. Patkowski, A. E. DePrince III, U. Bozkaya, R. A. King,
    F. A. Evangelista, J. M. Turney, T. D. Crawford, C. D. Sherrill,
    J. Chem. Phys. 152(18) 184108 (2020). https://doi.org/10.1063/5.0006002

                            Additional Code Authors
    E. T. Seidl, C. L. Janssen, E. F. Valeev, M. L. Leininger,
    J. F. Gonthier, R. M. Richard, H. R. McAlexander, M. Saitow, X. Wang,
    P. Verma, M. H. Lechner, A. Jiang, S. Behnle, A. G. Heide,
    M. F. Herbst, and D. L. Poole

             Previous Authors, Complete List of Code Contributors,
                       and Citations for Specific Modules
    https://github.com/psi4/psi4/blob/master/codemeta.json
    https://github.com/psi4/psi4/graphs/contributors
    http://psicode.org/psi4manual/master/introduction.html#citing-psifour

    -----------------------------------------------------------------------


    Psi4 started on: Saturday, 13 June 2026 02:59PM

    Process ID: 1442869
    Host:       atl1-1-03-004-8-1.pace.gatech.edu
    PSIDATADIR: /storage/home/hcoda1/5/vlita3/.conda/envs/p4_qcml/share/psi4
    Memory:     250.0 GiB
    Threads:    10
    
  ==> Input QCSchema <==

--------------------------------------------------------------------------
{'driver': 'energy',
 'extras': {},
 'id': '256',
 'keywords': {},
 'model': {'basis': 'aug-cc-pvtz', 'method': 'wb97x-v'},
 'molecule': {'extras': {},
              'fix_com': True,
              'fix_orientation': True,
              'fragment_charges': [0.0, 0.0],
              'fragment_multiplicities': [1, 1],
              'fragments': [[0, 1, 2, 3, 4, 5, 6, 7, 8, 9, 10, 11, 12, 13, 14, 15, 16, 17, 18, 19, 20, 21, 22, 23, 24,
                             25, 26, 27, 28, 29, 30, 31, 32, 33, 34, 35, 36, 37, 38, 39, 40, 41, 42, 43, 44, 45, 46, 47,
                             48, 49, 50, 51, 52, 53, 54, 55],
                            [56, 57, 58, 59, 60, 61, 62, 63, 64, 65, 66, 67, 68, 69, 70, 71, 72, 73, 74, 75, 76, 77, 78,
                             79, 80, 81, 82, 83, 84, 85, 86, 87, 88, 89, 90, 91, 92, 93, 94, 95, 96, 97, 98, 99, 100,
                             101, 102, 103, 104, 105, 106, 107, 108, 109, 110, 111]],
              'geometry': [39.18725066, 24.74029443, 4.00810911, 37.91546498, 22.14947992, 3.77378307, 35.03363264,
                           22.26853266, 4.05535227, 33.7429497, 19.68527705, 3.82102623, 30.85922763, 19.81566815,
                           4.07613925, 29.56287551, 17.23808172, 3.82858513, 26.67726371, 17.37792145, 4.05535227,
                           25.37335269, 14.80600419, 3.78890088, 22.48774089, 14.95907201, 3.99866048, 21.17249151,
                           12.3909342, 3.72653992, 18.28876944, 12.55534038, 3.93818925, 16.9621817, 9.99287175,
                           3.67551731, 14.08034936, 10.16483683, 3.9060639, 12.74809244, 7.60425793, 3.66417896,
                           9.86814983, 7.77811273, 3.92685089, 8.53400318, 5.21564411, 3.71142211, 5.65595029,
                           5.38571946, 4.00621939, 4.34070091, 2.8138022, 3.80590842, 2.28845834, 3.00088509,
                           4.00432966, 38.81875407, 25.57933283, 5.86570989, 41.23760351, 24.59667525, 3.76811389,
                           38.46915474, 26.04798491, 2.57191726, 38.38222733, 21.31233124, 1.93318983, 38.68647324,
                           20.86635588, 5.21186465, 34.56120111, 23.10568134, 5.89594551, 34.26073465, 23.5516567,
                           2.61538096, 34.22860931, 18.8424592, 1.98610216, 34.50072987, 18.40782219, 5.27044616,
                           30.37356801, 20.65281683, 5.91484277, 30.10333718, 21.10257164, 2.63238849, 30.06365293,
                           16.39337414, 1.99744051, 30.30175842, 15.95495768, 5.28556397, 26.17648629, 18.2131804,
                           5.89027633, 25.94216025, 18.67049412, 2.60593233, 25.88168901, 13.96507607, 1.95964599,
                           26.09711779, 13.51532125, 5.24776945, 21.97940457, 15.79433096, 5.83169482, 21.76586551,
                           16.25353441, 2.54546109, 21.67893811, 11.5518958, 1.89728503, 21.89247716, 11.09647181,
                           5.18351876, 17.78610229, 13.3962685, 5.76933386, 17.56878379, 13.8516925, 2.48310013,
                           17.45540022, 9.14816417, 1.84248297, 17.68594681, 8.69651963, 5.1287167, 13.59468975,
                           11.01521359, 5.73909824, 13.3528048, 11.4574095, 2.45286451, 13.21863425, 6.7557709,
                           1.82925489, 13.48697536, 6.31168526, 5.1135989, 9.4032772, 8.63604839, 5.76177496,
                           9.12359773, 9.0631265, 2.47743095, 8.983758, 4.35959817, 1.87271859, 9.29178336, 3.92874061,
                           5.15517287, 5.21186465, 6.2493243, 5.84114345, 4.90005984, 6.66506404, 2.55868917,
                           4.72431531, 1.92563092, 1.9747638, 5.00966396, 1.52500898, 5.28367425, 9.39004912,
                           8.90249978, -3.87960774, 8.09936617, 6.31924416, -4.11393378, 5.21753383, 6.43829691,
                           -3.83236458, 3.94574815, 3.84748239, -4.06669062, 12.27188146, 8.77210867, -4.13661049,
                           13.57012331, 11.35158484, -3.88716664, 16.45384537, 11.20985538, -4.11393378, 17.75964613,
                           13.78177263, -3.84748239, 20.64525792, 13.62870482, -4.05724199, 21.95861758, 16.19684262,
                           -3.78512143, 24.84422937, 16.03243645, -3.99677076, 26.16892739, 18.5967948, -3.73409882,
                           29.05075973, 18.42294, -3.96464541, 30.38301665, 20.98540862, -3.72276047, 33.26295926,
                           20.80966409, -3.98732212, 34.5971059, 23.37213272, -3.77000362, 37.47515879, 23.20205737,
                           -4.0648009, 38.79040818, 25.77397463, -3.86637965, 40.84265075, 25.58878146, -4.0648009,
                           38.12144513, 27.06276784, -5.34414548, 37.91924443, 22.33845253, -5.89972496, 38.23104924,
                           21.92271278, -2.61727068, 34.14735109, 24.23006838, -1.93318983, 33.83932573, 24.65903621,
                           -5.21564411, 33.72783189, 19.95172843, -5.82035647, 34.00751135, 19.52465033, -2.53601246,
                           29.91247484, 21.83389565, -1.8878364, 29.64413373, 22.27609157, -5.17218041, 29.53641934,
                           17.57256324, -5.79767975, 29.78019401, 17.13225705, -2.51144602, 25.67759859, 19.43961265,
                           -1.90106448, 25.44516228, 19.8912572, -5.18729821, 25.34500679, 15.19150832, -5.82791537,
                           25.5623253, 14.73797405, -2.54168164, 21.45217098, 17.03777075, -1.95586654, 21.24052165,
                           17.49130502, -5.24210027, 21.15359425, 12.79344587, -5.89027633, 21.3671333, 12.33424242,
                           -2.6040426, 17.24942007, 14.62270076, -2.02011723, 17.03588102, 15.07245558, -5.30635096,
                           16.9546228, 10.37459643, -5.95074757, 17.18894884, 9.91728271, -2.66451384, 13.06934588,
                           12.19440269, -2.05791175, 12.82935067, 12.63281915, -5.34414548, 12.75754107, 7.93684973,
                           -5.97531401, 13.02777191, 7.48520518, -2.69285973, 8.9043895, 9.74531763, -2.04468367,
                           8.57179771, 5.48209549, -5.95641675, 8.87037443, 5.03612012, -2.67585219, 4.75077148,
                           7.27544558, -1.99177134, 4.44652557, 7.72142095, -5.27044616, 1.8953953, 3.99110158,
                           -3.82858513, 4.31424474, 3.00844399, -5.92618113, 4.66384408, 2.53979191, -2.63238849,
                           8.63037921, 10.17995464, -5.3309174, 38.40679377, 26.6621459, -2.03334531],
              'id': 13,
              'identifiers': {'molecular_formula': 'C36H76',
                              'molecule_hash': '5a1027ed7a2872ae334f0d27d7734dfd003db69d'},
              'masses': [12.0, 12.0, 12.0, 12.0, 12.0, 12.0, 12.0, 12.0, 12.0, 12.0, 12.0, 12.0, 12.0, 12.0, 12.0, 12.0,
                         12.0, 12.0, 1.00782503223, 1.00782503223, 1.00782503223, 1.00782503223, 1.00782503223,
                         1.00782503223, 1.00782503223, 1.00782503223, 1.00782503223, 1.00782503223, 1.00782503223,
                         1.00782503223, 1.00782503223, 1.00782503223, 1.00782503223, 1.00782503223, 1.00782503223,
                         1.00782503223, 1.00782503223, 1.00782503223, 1.00782503223, 1.00782503223, 1.00782503223,
                         1.00782503223, 1.00782503223, 1.00782503223, 1.00782503223, 1.00782503223, 1.00782503223,
                         1.00782503223, 1.00782503223, 1.00782503223, 1.00782503223, 1.00782503223, 1.00782503223,
                         1.00782503223, 1.00782503223, 1.00782503223, 12.0, 12.0, 12.0, 12.0, 12.0, 12.0, 12.0, 12.0,
                         12.0, 12.0, 12.0, 12.0, 12.0, 12.0, 12.0, 12.0, 12.0, 12.0, 1.00782503223, 1.00782503223,
                         1.00782503223, 1.00782503223, 1.00782503223, 1.00782503223, 1.00782503223, 1.00782503223,
                         1.00782503223, 1.00782503223, 1.00782503223, 1.00782503223, 1.00782503223, 1.00782503223,
                         1.00782503223, 1.00782503223, 1.00782503223, 1.00782503223, 1.00782503223, 1.00782503223,
                         1.00782503223, 1.00782503223, 1.00782503223, 1.00782503223, 1.00782503223, 1.00782503223,
                         1.00782503223, 1.00782503223, 1.00782503223, 1.00782503223, 1.00782503223, 1.00782503223,
                         1.00782503223, 1.00782503223, 1.00782503223, 1.00782503223, 1.00782503223, 1.00782503223],
              'molecular_charge': 0.0,
              'molecular_multiplicity': 1,
              'name': 'C36H76 ([1],[0])',
              'provenance': {'creator': 'QCElemental',
                             'routine': 'qcelemental.molparse.from_schema',
                             'version': '0.29.0'},
              'real': [False, False, False, False, False, False, False, False, False, False, False, False, False, False,
                       False, False, False, False, False, False, False, False, False, False, False, False, False, False,
                       False, False, False, False, False, False, False, False, False, False, False, False, False, False,
                       False, False, False, False, False, False, False, False, False, False, False, False, False, False,
                       True, True, True, True, True, True, True, True, True, True, True, True, True, True, True, True,
                       True, True, True, True, True, True, True, True, True, True, True, True, True, True, True, True,
                       True, True, True, True, True, True, True, True, True, True, True, True, True, True, True, True,
                       True, True, True, True, True, True, True, True],
              'schema_name': 'qcschema_molecule',
              'schema_version': 2,
              'symbols': ['C', 'C', 'C', 'C', 'C', 'C', 'C', 'C', 'C', 'C', 'C', 'C', 'C', 'C', 'C', 'C', 'C', 'C', 'H',
                          'H', 'H', 'H', 'H', 'H', 'H', 'H', 'H', 'H', 'H', 'H', 'H', 'H', 'H', 'H', 'H', 'H', 'H', 'H',
                          'H', 'H', 'H', 'H', 'H', 'H', 'H', 'H', 'H', 'H', 'H', 'H', 'H', 'H', 'H', 'H', 'H', 'H', 'C',
                          'C', 'C', 'C', 'C', 'C', 'C', 'C', 'C', 'C', 'C', 'C', 'C', 'C', 'C', 'C', 'C', 'C', 'H', 'H',
                          'H', 'H', 'H', 'H', 'H', 'H', 'H', 'H', 'H', 'H', 'H', 'H', 'H', 'H', 'H', 'H', 'H', 'H', 'H',
                          'H', 'H', 'H', 'H', 'H', 'H', 'H', 'H', 'H', 'H', 'H', 'H', 'H', 'H', 'H', 'H', 'H'],
              'validated': True},
 'protocols': {},
 'provenance': {'creator': 'QCElemental', 'routine': 'qcelemental.models.results', 'version': '0.29.0'},
 'schema_name': 'qcschema_input',
 'schema_version': 1}
--------------------------------------------------------------------------

Scratch directory: /tmp/tmpsh3kbgjr_psi_scratch/
   => Libint2 <=

    Primary   basis highest AM E, G, H:  6, 6, 3
    Auxiliary basis highest AM E, G, H:  7, 7, 4
    Onebody   basis highest AM E, G, H:  -, -, -
    Solid Harmonics ordering:            Gaussian

*** tstart() called on atl1-1-03-004-8-1.pace.gatech.edu
*** at Sat Jun 13 14:59:58 2026

   => Loading Basis Set <=

    Name: AUG-CC-PVTZ
    Role: ORBITAL
    Keyword: BASIS
    atoms 1-18, 57-74   entry C          line   239 file /storage/home/hcoda1/5/vlita3/.conda/envs/p4_qcml/share/psi4/basis/aug-cc-pvtz.gbs 
    atoms 19-56, 75-112 entry H          line    40 file /storage/home/hcoda1/5/vlita3/.conda/envs/p4_qcml/share/psi4/basis/aug-cc-pvtz.gbs 


         ---------------------------------------------------------
                                   SCF
               by Justin Turney, Rob Parrish, Andy Simmonett
                          and Daniel G. A. Smith
                              RKS Reference
                       10 Threads, 256000 MiB Core
         ---------------------------------------------------------

  ==> Geometry <==

    Molecular point group: c1
    Full point group: C1

    Geometry (in Bohr), charge = 0, multiplicity = 1:

       Center              X                  Y                   Z               Mass       
    ------------   -----------------  -----------------  -----------------  -----------------
      Gh(C)          39.187250660000    24.740294430000     4.008109110000    12.000000000000
      Gh(C)          37.915464980000    22.149479920000     3.773783070000    12.000000000000
      Gh(C)          35.033632640000    22.268532660000     4.055352270000    12.000000000000
      Gh(C)          33.742949700000    19.685277050000     3.821026230000    12.000000000000
      Gh(C)          30.859227630000    19.815668150000     4.076139250000    12.000000000000
      Gh(C)          29.562875510000    17.238081720000     3.828585130000    12.000000000000
      Gh(C)          26.677263710000    17.377921450000     4.055352270000    12.000000000000
      Gh(C)          25.373352690000    14.806004190000     3.788900880000    12.000000000000
      Gh(C)          22.487740890000    14.959072010000     3.998660480000    12.000000000000
      Gh(C)          21.172491510000    12.390934200000     3.726539920000    12.000000000000
      Gh(C)          18.288769440000    12.555340380000     3.938189250000    12.000000000000
      Gh(C)          16.962181700000     9.992871750000     3.675517310000    12.000000000000
      Gh(C)          14.080349360000    10.164836830000     3.906063900000    12.000000000000
      Gh(C)          12.748092440000     7.604257930000     3.664178960000    12.000000000000
      Gh(C)           9.868149830000     7.778112730000     3.926850890000    12.000000000000
      Gh(C)           8.534003180000     5.215644110000     3.711422110000    12.000000000000
      Gh(C)           5.655950290000     5.385719460000     4.006219390000    12.000000000000
      Gh(C)           4.340700910000     2.813802200000     3.805908420000    12.000000000000
      Gh(H)           2.288458340000     3.000885090000     4.004329660000     1.007825032230
      Gh(H)          38.818754070000    25.579332830000     5.865709890000     1.007825032230
      Gh(H)          41.237603510000    24.596675250000     3.768113890000     1.007825032230
      Gh(H)          38.469154740000    26.047984910000     2.571917260000     1.007825032230
      Gh(H)          38.382227330000    21.312331240000     1.933189830000     1.007825032230
      Gh(H)          38.686473240000    20.866355880000     5.211864650000     1.007825032230
      Gh(H)          34.561201110000    23.105681340000     5.895945510000     1.007825032230
      Gh(H)          34.260734650000    23.551656700000     2.615380960000     1.007825032230
      Gh(H)          34.228609310000    18.842459200000     1.986102160000     1.007825032230
      Gh(H)          34.500729870000    18.407822190000     5.270446160000     1.007825032230
      Gh(H)          30.373568010000    20.652816830000     5.914842770000     1.007825032230
      Gh(H)          30.103337180000    21.102571640000     2.632388490000     1.007825032230
      Gh(H)          30.063652930000    16.393374140000     1.997440510000     1.007825032230
      Gh(H)          30.301758420000    15.954957680000     5.285563970000     1.007825032230
      Gh(H)          26.176486290000    18.213180400000     5.890276330000     1.007825032230
      Gh(H)          25.942160250000    18.670494120000     2.605932330000     1.007825032230
      Gh(H)          25.881689010000    13.965076070000     1.959645990000     1.007825032230
      Gh(H)          26.097117790000    13.515321250000     5.247769450000     1.007825032230
      Gh(H)          21.979404570000    15.794330960000     5.831694820000     1.007825032230
      Gh(H)          21.765865510000    16.253534410000     2.545461090000     1.007825032230
      Gh(H)          21.678938110000    11.551895800000     1.897285030000     1.007825032230
      Gh(H)          21.892477160000    11.096471810000     5.183518760000     1.007825032230
      Gh(H)          17.786102290000    13.396268500000     5.769333860000     1.007825032230
      Gh(H)          17.568783790000    13.851692500000     2.483100130000     1.007825032230
      Gh(H)          17.455400220000     9.148164170000     1.842482970000     1.007825032230
      Gh(H)          17.685946810000     8.696519630000     5.128716700000     1.007825032230
      Gh(H)          13.594689750000    11.015213590000     5.739098240000     1.007825032230
      Gh(H)          13.352804800000    11.457409500000     2.452864510000     1.007825032230
      Gh(H)          13.218634250000     6.755770900000     1.829254890000     1.007825032230
      Gh(H)          13.486975360000     6.311685260000     5.113598900000     1.007825032230
      Gh(H)           9.403277200000     8.636048390000     5.761774960000     1.007825032230
      Gh(H)           9.123597730000     9.063126500000     2.477430950000     1.007825032230
      Gh(H)           8.983758000000     4.359598170000     1.872718590000     1.007825032230
      Gh(H)           9.291783360000     3.928740610000     5.155172870000     1.007825032230
      Gh(H)           5.211864650000     6.249324300000     5.841143450000     1.007825032230
      Gh(H)           4.900059840000     6.665064040000     2.558689170000     1.007825032230
      Gh(H)           4.724315310000     1.925630920000     1.974763800000     1.007825032230
      Gh(H)           5.009663960000     1.525008980000     5.283674250000     1.007825032230
         C            9.390049120000     8.902499780000    -3.879607740000    12.000000000000
         C            8.099366170000     6.319244160000    -4.113933780000    12.000000000000
         C            5.217533830000     6.438296910000    -3.832364580000    12.000000000000
         C            3.945748150000     3.847482390000    -4.066690620000    12.000000000000
         C           12.271881460000     8.772108670000    -4.136610490000    12.000000000000
         C           13.570123310000    11.351584840000    -3.887166640000    12.000000000000
         C           16.453845370000    11.209855380000    -4.113933780000    12.000000000000
         C           17.759646130000    13.781772630000    -3.847482390000    12.000000000000
         C           20.645257920000    13.628704820000    -4.057241990000    12.000000000000
         C           21.958617580000    16.196842620000    -3.785121430000    12.000000000000
         C           24.844229370000    16.032436450000    -3.996770760000    12.000000000000
         C           26.168927390000    18.596794800000    -3.734098820000    12.000000000000
         C           29.050759730000    18.422940000000    -3.964645410000    12.000000000000
         C           30.383016650000    20.985408620000    -3.722760470000    12.000000000000
         C           33.262959260000    20.809664090000    -3.987322120000    12.000000000000
         C           34.597105900000    23.372132720000    -3.770003620000    12.000000000000
         C           37.475158790000    23.202057370000    -4.064800900000    12.000000000000
         C           38.790408180000    25.773974630000    -3.866379650000    12.000000000000
         H           40.842650750000    25.588781460000    -4.064800900000     1.007825032230
         H           38.121445130000    27.062767840000    -5.344145480000     1.007825032230
         H           37.919244430000    22.338452530000    -5.899724960000     1.007825032230
         H           38.231049240000    21.922712780000    -2.617270680000     1.007825032230
         H           34.147351090000    24.230068380000    -1.933189830000     1.007825032230
         H           33.839325730000    24.659036210000    -5.215644110000     1.007825032230
         H           33.727831890000    19.951728430000    -5.820356470000     1.007825032230
         H           34.007511350000    19.524650330000    -2.536012460000     1.007825032230
         H           29.912474840000    21.833895650000    -1.887836400000     1.007825032230
         H           29.644133730000    22.276091570000    -5.172180410000     1.007825032230
         H           29.536419340000    17.572563240000    -5.797679750000     1.007825032230
         H           29.780194010000    17.132257050000    -2.511446020000     1.007825032230
         H           25.677598590000    19.439612650000    -1.901064480000     1.007825032230
         H           25.445162280000    19.891257200000    -5.187298210000     1.007825032230
         H           25.345006790000    15.191508320000    -5.827915370000     1.007825032230
         H           25.562325300000    14.737974050000    -2.541681640000     1.007825032230
         H           21.452170980000    17.037770750000    -1.955866540000     1.007825032230
         H           21.240521650000    17.491305020000    -5.242100270000     1.007825032230
         H           21.153594250000    12.793445870000    -5.890276330000     1.007825032230
         H           21.367133300000    12.334242420000    -2.604042600000     1.007825032230
         H           17.249420070000    14.622700760000    -2.020117230000     1.007825032230
         H           17.035881020000    15.072455580000    -5.306350960000     1.007825032230
         H           16.954622800000    10.374596430000    -5.950747570000     1.007825032230
         H           17.188948840000     9.917282710000    -2.664513840000     1.007825032230
         H           13.069345880000    12.194402690000    -2.057911750000     1.007825032230
         H           12.829350670000    12.632819150000    -5.344145480000     1.007825032230
         H           12.757541070000     7.936849730000    -5.975314010000     1.007825032230
         H           13.027771910000     7.485205180000    -2.692859730000     1.007825032230
         H            8.904389500000     9.745317630000    -2.044683670000     1.007825032230
         H            8.571797710000     5.482095490000    -5.956416750000     1.007825032230
         H            8.870374430000     5.036120120000    -2.675852190000     1.007825032230
         H            4.750771480000     7.275445580000    -1.991771340000     1.007825032230
         H            4.446525570000     7.721420950000    -5.270446160000     1.007825032230
         H            1.895395300000     3.991101580000    -3.828585130000     1.007825032230
         H            4.314244740000     3.008443990000    -5.926181130000     1.007825032230
         H            4.663844080000     2.539791910000    -2.632388490000     1.007825032230
         H            8.630379210000    10.179954640000    -5.330917400000     1.007825032230
         H           38.406793770000    26.662145900000    -2.033345310000     1.007825032230

  Running in c1 symmetry.

  Rotational constants: A =      0.00674  B =      0.00014  C =      0.00014 [cm^-1]
  Rotational constants: A =    202.03768  B =      4.27015  C =      4.19674 [MHz]
  Nuclear repulsion = 1177.211817927325001

  Charge       = 0
  Multiplicity = 1
  Electrons    = 146
  Nalpha       = 73
  Nbeta        = 73

  ==> Algorithm <==

  SCF Algorithm Type is DF.
  DIIS enabled.
  MOM disabled.
  Fractional occupation disabled.
  Guess Type is SAD.
  Energy threshold   = 1.00e-06
  Density threshold  = 1.00e-06
  Integral threshold = 1.00e-12

  ==> Primary Basis <==

  Basis Set: AUG-CC-PVTZ
    Blend: AUG-CC-PVTZ
    Number of shells: 1188
    Number of basis functions: 3404
    Number of Cartesian functions: 3880
    Spherical Harmonics?: true
    Max angular momentum: 3

  ==> DFT Potential <==

   => LibXC <=

    Version 7.0.0
    S. Lehtola, C. Steigemann, M. J.T. Oliveira, and M. A.L. Marques.,  SoftwareX 7, 1–5 (2018) (10.1016/j.softx.2017.11.002)

   => Composite Functional: WB97X-V <= 

    wB97X-V Hyb-GGA Exchange-Correlation Functional

    N. Mardirossian and M. Head-Gordon.,  Phys. Chem. Chem. Phys. 16, 9904-9924 (2014) (10.1039/C3CP54374A)

    Deriv               =              1
    GGA                 =           TRUE
    Meta                =          FALSE

    Exchange Hybrid     =           TRUE
    MP2 Hybrid          =          FALSE

   => Exchange-Correlation Functionals <=

    1.0000   wB97X-V range-separated functional

   => Exact (HF) Exchange <=

    0.8330            HF,LR [omega = 0.3000]
    0.1670               HF 

   => LibXC Density Thresholds  <==

    XC_HYB_GGA_XC_WB97X_V:  1.00E-14 

   => VV10 Non-Local Parameters <=

    VV10 B              =     6.0000E+00
    VV10 C              =     1.0000E-02

   => Molecular Quadrature <=

    Radial Scheme          =       TREUTLER
    Pruning Scheme         =           NONE
    Nuclear Scheme         =       TREUTLER

    Blocking Scheme        =         OCTREE
    BS radius alpha        =              1
    Pruning alpha          =              1
    Radial Points          =             75
    Spherical Points       =            302
    Total Points           =        2287807
    Total Blocks           =          15476
    Max Points             =            256
    Max Functions          =           1540
    Weights Tolerance      =       1.00E-15

   => Loading Basis Set <=

    Name: (AUG-CC-PVTZ AUX)
    Role: JKFIT
    Keyword: DF_BASIS_SCF
    atoms 1-18, 57-74   entry C          line   162 file /storage/home/hcoda1/5/vlita3/.conda/envs/p4_qcml/share/psi4/basis/aug-cc-pvtz-jkfit.gbs 
    atoms 19-56, 75-112 entry H          line    70 file /storage/home/hcoda1/5/vlita3/.conda/envs/p4_qcml/share/psi4/basis/aug-cc-pvtz-jkfit.gbs 

  ==> Integral Setup <==

  ==> DiskDFJK: Density-Fitted J/K Matrices <==

    J tasked:                  Yes
    K tasked:                  Yes
    wK tasked:                 Yes
    Omega:               3.000E-01
    OpenMP threads:             10
    Integrals threads:          10
    Memory [MiB]:           172368
    Algorithm:                Disk
    Integral Cache:           NONE
    Schwarz Cutoff:          1E-12
    Fitting Condition:       1E-10

   => Auxiliary Basis Set <=

  Basis Set: (AUG-CC-PVTZ AUX)
    Blend: AUG-CC-PVTZ-JKFIT
    Number of shells: 2144
    Number of basis functions: 7240
    Number of Cartesian functions: 8896
    Spherical Harmonics?: true
    Max angular momentum: 4

  Minimum eigenvalue in the overlap matrix is 2.2061596341E-08.
  Reciprocal condition number of the overlap matrix is 6.8411741151E-10.
    Using canonical orthogonalization.
  Overall, 1 of 3404 possible MOs eliminated.


  ==> Pre-Iterations <==

  SCF Guess: Superposition of Atomic Densities via on-the-fly atomic UHF (no occupation information).

   -------------------------
    Irrep   Nso     Nmo    
   -------------------------
     A       3404    3403 
   -------------------------
    Total    3404    3403
   -------------------------

  ==> Iterations <==

                           Total Energy        Delta E     RMS |[F,P]|

   @DF-RKS iter SAD:  -708.09486057281003   -7.08095e+02   0.00000e+00 
   @DF-RKS iter   1:  -707.64594457943042    4.48916e-01   4.45508e-04 ADIIS/DIIS
   @DF-RKS iter   2:  -708.34135365373993   -6.95409e-01   3.08994e-04 ADIIS/DIIS
   @DF-RKS iter   3:  -708.89407279865907   -5.52719e-01   1.90264e-05 DIIS
   @DF-RKS iter   4:  -708.89838777483408   -4.31498e-03   7.05549e-06 DIIS
   @DF-RKS iter   5:  -708.89870635940190   -3.18585e-04   2.45929e-06 DIIS
   @DF-RKS iter   6:  -708.89874543344479   -3.90740e-05   3.33757e-07 DIIS
   @DF-RKS iter   7:  -708.89874651182674   -1.07838e-06   1.15695e-07 DIIS
   @DF-RKS iter   8:  -708.89874661970646   -1.07880e-07   4.07897e-08 DIIS
  Energy and wave function converged.


  ==> Post-Iterations <==

   Electrons on quadrature grid:
      Ntotal   =  146.0011702554 ; deviation = 1.170e-03 

    Orbital Energies [Eh]
    ---------------------

    Doubly Occupied:                                                      

       1A    -10.262480     2A    -10.262467     3A    -10.260601  
       4A    -10.260582     5A    -10.260528     6A    -10.260503  
       7A    -10.260461     8A    -10.260425     9A    -10.260398  
      10A    -10.260346    11A    -10.260305    12A    -10.260290  
      13A    -10.260256    14A    -10.260224    15A    -10.260187  
      16A    -10.260142    17A    -10.255641    18A    -10.255490  
      19A     -0.950199    20A     -0.944627    21A     -0.935285  
      22A     -0.922317    23A     -0.905785    24A     -0.885868  
      25A     -0.862836    26A     -0.836827    27A     -0.808511  
      28A     -0.778789    29A     -0.748824    30A     -0.721491  
      31A     -0.701604    32A     -0.701302    33A     -0.697471  
      34A     -0.694106    35A     -0.689552    36A     -0.689105  
      37A     -0.604755    38A     -0.599268    39A     -0.590197  
      40A     -0.577843    41A     -0.562554    42A     -0.544833  
      43A     -0.544277    44A     -0.543593    45A     -0.534154  
      46A     -0.528474    47A     -0.525352    48A     -0.517971  
      49A     -0.504892    50A     -0.502026    51A     -0.498091  
      52A     -0.484585    53A     -0.480670    54A     -0.466340  
      55A     -0.465653    56A     -0.462751    57A     -0.449087  
      58A     -0.447498    59A     -0.437074    60A     -0.435940  
      61A     -0.430885    62A     -0.428406    63A     -0.426698  
      64A     -0.423434    65A     -0.421284    66A     -0.421116  
      67A     -0.420037    68A     -0.420007    69A     -0.419423  
      70A     -0.418330    71A     -0.418227    72A     -0.401495  
      73A     -0.380991  

    Virtual:                                                              

      74A      0.019532    75A      0.021264    76A      0.026439  
      77A      0.029142    78A      0.030305    79A      0.031300  
      80A      0.033199    81A      0.034275    82A      0.036746  
      83A      0.040292    84A      0.040718    85A      0.043360  
      86A      0.043998    87A      0.045240    88A      0.047941  
      89A      0.049234    90A      0.051871    91A      0.052194  
      92A      0.053300    93A      0.054889    94A      0.058997  
      95A      0.060299    96A      0.061631    97A      0.063729  
      98A      0.064379    99A      0.064673   100A      0.066631  
     101A      0.067939   102A      0.068520   103A      0.069331  
     104A      0.072930   105A      0.073149   106A      0.074955  
     107A      0.077102   108A      0.077373   109A      0.078835  
     110A      0.080048   111A      0.082497   112A      0.083507  
     113A      0.084667   114A      0.086531   115A      0.087650  
     116A      0.088987   117A      0.090271   118A      0.091091  
     119A      0.091744   120A      0.094032   121A      0.095264  
     122A      0.095428   123A      0.096664   124A      0.097450  
     125A      0.099679   126A      0.100155   127A      0.100573  
     128A      0.100777   129A      0.101409   130A      0.102804  
     131A      0.104313   132A      0.105090   133A      0.108375  
     134A      0.109443   135A      0.110453   136A      0.110845  
     137A      0.111506   138A      0.111782   139A      0.114436  
     140A      0.115150   141A      0.116062   142A      0.116154  
     143A      0.116983   144A      0.119241   145A      0.119544  
     146A      0.121383   147A      0.121767   148A      0.122725  
     149A      0.124545   150A      0.125586   151A      0.126910  
     152A      0.127978   153A      0.128356   154A      0.130412  
     155A      0.132326   156A      0.132437   157A      0.133618  
     158A      0.135727   159A      0.135978   160A      0.136870  
     161A      0.137712   162A      0.139484   163A      0.140349  
     164A      0.141841   165A      0.143924   166A      0.145308  
     167A      0.146665   168A      0.149619   169A      0.150050  
     170A      0.150338   171A      0.150772   172A      0.151258  
     173A      0.151527   174A      0.152975   175A      0.153845  
     176A      0.154996   177A      0.155349   178A      0.155741  
     179A      0.158010   180A      0.158374   181A      0.159696  
     182A      0.160485   183A      0.162362   184A      0.163547  
     185A      0.164806   186A      0.167364   187A      0.168984  
     188A      0.170865   189A      0.171079   190A      0.171556  
     191A      0.172680   192A      0.173607   193A      0.174184  
     194A      0.175907   195A      0.175957   196A      0.176626  
     197A      0.177443   198A      0.179098   199A      0.181392  
     200A      0.182617   201A      0.184976   202A      0.185416  
     203A      0.186020   204A      0.187356   205A      0.187518  
     206A      0.187945   207A      0.188640   208A      0.189443  
     209A      0.189722   210A      0.191300   211A      0.192664  
     212A      0.195634   213A      0.197558   214A      0.198854  
     215A      0.199524   216A      0.200069   217A      0.200828  
     218A      0.201375   219A      0.202823   220A      0.203238  
     221A      0.203620   222A      0.204228   223A      0.204582  
     224A      0.205340   225A      0.206378   226A      0.208458  
     227A      0.209420   228A      0.210632   229A      0.212836  
     230A      0.213950   231A      0.214621   232A      0.216729  
     233A      0.216983   234A      0.218944   235A      0.219782  
     236A      0.220160   237A      0.224412   238A      0.224936  
     239A      0.225613   240A      0.227398   241A      0.228017  
     242A      0.229110   243A      0.229759   244A      0.229955  
     245A      0.230270   246A      0.232517   247A      0.232564  
     248A      0.234188   249A      0.236361   250A      0.237727  
     251A      0.239101   252A      0.239288   253A      0.239981  
     254A      0.241490   255A      0.243326   256A      0.245059  
     257A      0.246792   258A      0.247934   259A      0.248725  
     260A      0.252345   261A      0.253904   262A      0.254081  
     263A      0.254794   264A      0.255521   265A      0.256428  
     266A      0.257499   267A      0.257855   268A      0.259075  
     269A      0.260247   270A      0.261424   271A      0.262469  
     272A      0.263079   273A      0.263573   274A      0.264404  
     275A      0.265264   276A      0.266974   277A      0.268550  
     278A      0.268773   279A      0.270367   280A      0.272411  
     281A      0.272908   282A      0.275158   283A      0.275604  
     284A      0.276538   285A      0.279343   286A      0.279545  
     287A      0.280800   288A      0.281198   289A      0.283239  
     290A      0.283547   291A      0.284591   292A      0.287564  
     293A      0.288780   294A      0.289891   295A      0.291573  
     296A      0.291747   297A      0.293736   298A      0.294055  
     299A      0.294621   300A      0.296337   301A      0.297657  
     302A      0.299094   303A      0.301667   304A      0.301986  
     305A      0.302607   306A      0.303159   307A      0.305413  
     308A      0.306941   309A      0.308996   310A      0.309267  
     311A      0.309986   312A      0.310513   313A      0.311423  
     314A      0.313792   315A      0.315435   316A      0.315779  
     317A      0.318269   318A      0.319994   319A      0.320548  
     320A      0.322390   321A      0.323420   322A      0.324338  
     323A      0.324740   324A      0.326350   325A      0.328390  
     326A      0.329043   327A      0.330841   328A      0.331365  
     329A      0.331924   330A      0.333731   331A      0.334459  
     332A      0.335969   333A      0.338129   334A      0.338728  
     335A      0.339272   336A      0.341796   337A      0.342293  
     338A      0.344021   339A      0.344800   340A      0.346577  
     341A      0.346891   342A      0.347419   343A      0.349008  
     344A      0.349658   345A      0.350463   346A      0.351068  
     347A      0.352010   348A      0.353232   349A      0.355680  
     350A      0.356160   351A      0.358047   352A      0.359235  
     353A      0.359919   354A      0.362200   355A      0.363091  
     356A      0.363974   357A      0.364190   358A      0.365842  
     359A      0.366297   360A      0.367097   361A      0.367792  
     362A      0.369529   363A      0.370682   364A      0.371338  
     365A      0.372817   366A      0.373797   367A      0.374139  
     368A      0.374769   369A      0.376969   370A      0.377657  
     371A      0.379065   372A      0.379609   373A      0.380910  
     374A      0.381508   375A      0.382587   376A      0.383102  
     377A      0.384893   378A      0.385697   379A      0.387272  
     380A      0.388660   381A      0.389472   382A      0.389664  
     383A      0.390589   384A      0.391979   385A      0.392210  
     386A      0.393319   387A      0.393433   388A      0.394140  
     389A      0.395839   390A      0.396291   391A      0.397337  
     392A      0.398211   393A      0.399237   394A      0.399336  
     395A      0.401156   396A      0.402137   397A      0.404201  
     398A      0.404473   399A      0.404986   400A      0.405348  
     401A      0.406531   402A      0.406875   403A      0.409189  
     404A      0.409804   405A      0.411818   406A      0.411958  
     407A      0.412484   408A      0.413186   409A      0.413935  
     410A      0.414759   411A      0.415353   412A      0.417033  
     413A      0.417758   414A      0.420348   415A      0.421912  
     416A      0.422674   417A      0.423401   418A      0.424443  
     419A      0.424976   420A      0.426476   421A      0.426838  
     422A      0.428108   423A      0.429391   424A      0.430185  
     425A      0.432656   426A      0.433761   427A      0.434669  
     428A      0.435733   429A      0.437044   430A      0.438562  
     431A      0.439345   432A      0.441271   433A      0.442173  
     434A      0.442661   435A      0.443694   436A      0.444498  
     437A      0.445140   438A      0.447506   439A      0.448468  
     440A      0.448828   441A      0.450503   442A      0.451734  
     443A      0.452904   444A      0.453965   445A      0.454787  
     446A      0.456527   447A      0.457691   448A      0.458465  
     449A      0.461347   450A      0.461761   451A      0.462772  
     452A      0.463858   453A      0.464608   454A      0.467128  
     455A      0.469481   456A      0.470554   457A      0.470688  
     458A      0.471784   459A      0.473888   460A      0.474446  
     461A      0.475250   462A      0.476026   463A      0.477361  
     464A      0.478458   465A      0.478913   466A      0.480250  
     467A      0.481399   468A      0.484238   469A      0.484499  
     470A      0.485004   471A      0.485408   472A      0.485733  
     473A      0.487419   474A      0.487693   475A      0.488595  
     476A      0.489262   477A      0.490770   478A      0.492136  
     479A      0.493013   480A      0.494079   481A      0.495503  
     482A      0.495901   483A      0.497275   484A      0.497788  
     485A      0.498952   486A      0.500176   487A      0.500638  
     488A      0.501958   489A      0.502407   490A      0.506092  
     491A      0.506627   492A      0.508041   493A      0.508462  
     494A      0.508702   495A      0.509678   496A      0.510411  
     497A      0.511967   498A      0.512393   499A      0.513429  
     500A      0.514537   501A      0.515815   502A      0.515907  
     503A      0.517157   504A      0.518214   505A      0.519296  
     506A      0.521487   507A      0.521949   508A      0.523389  
     509A      0.525076   510A      0.525849   511A      0.527554  
     512A      0.527698   513A      0.529191   514A      0.530870  
     515A      0.531218   516A      0.532800   517A      0.534038  
     518A      0.534685   519A      0.535947   520A      0.536918  
     521A      0.537642   522A      0.539196   523A      0.542202  
     524A      0.542670   525A      0.543597   526A      0.544853  
     527A      0.546137   528A      0.547372   529A      0.549464  
     530A      0.551230   531A      0.551950   532A      0.555451  
     533A      0.555911   534A      0.556366   535A      0.558278  
     536A      0.559860   537A      0.561114   538A      0.561953  
     539A      0.563663   540A      0.564258   541A      0.567975  
     542A      0.569010   543A      0.570290   544A      0.571522  
     545A      0.572915   546A      0.573537   547A      0.575375  
     548A      0.576151   549A      0.576467   550A      0.578481  
     551A      0.579224   552A      0.580898   553A      0.581969  
     554A      0.583209   555A      0.584773   556A      0.585730  
     557A      0.586646   558A      0.587377   559A      0.588690  
     560A      0.589740   561A      0.590000   562A      0.590369  
     563A      0.592665   564A      0.594754   565A      0.595151  
     566A      0.596611   567A      0.597465   568A      0.600907  
     569A      0.602803   570A      0.604143   571A      0.605848  
     572A      0.607043   573A      0.609442   574A      0.610141  
     575A      0.612078   576A      0.612300   577A      0.612422  
     578A      0.614023   579A      0.614783   580A      0.615373  
     581A      0.616044   582A      0.617259   583A      0.618046  
     584A      0.618990   585A      0.619599   586A      0.620116  
     587A      0.621167   588A      0.621346   589A      0.622388  
     590A      0.623931   591A      0.625029   592A      0.626927  
     593A      0.627508   594A      0.627944   595A      0.629144  
     596A      0.630231   597A      0.632397   598A      0.633253  
     599A      0.634505   600A      0.636445   601A      0.637284  
     602A      0.638783   603A      0.640051   604A      0.641149  
     605A      0.642610   606A      0.643318   607A      0.645837  
     608A      0.646412   609A      0.647797   610A      0.649440  
     611A      0.651432   612A      0.651826   613A      0.654680  
     614A      0.654712   615A      0.656195   616A      0.657189  
     617A      0.658257   618A      0.660706   619A      0.661474  
     620A      0.664205   621A      0.664774   622A      0.665567  
     623A      0.666185   624A      0.668189   625A      0.668558  
     626A      0.670036   627A      0.672972   628A      0.673395  
     629A      0.675914   630A      0.676710   631A      0.677173  
     632A      0.680587   633A      0.681147   634A      0.681999  
     635A      0.683890   636A      0.685390   637A      0.686542  
     638A      0.686901   639A      0.687937   640A      0.688669  
     641A      0.690146   642A      0.690497   643A      0.692370  
     644A      0.694570   645A      0.694802   646A      0.695614  
     647A      0.697708   648A      0.698165   649A      0.698619  
     650A      0.700394   651A      0.700761   652A      0.702334  
     653A      0.703240   654A      0.704432   655A      0.704750  
     656A      0.706035   657A      0.706560   658A      0.707969  
     659A      0.709431   660A      0.710820   661A      0.711269  
     662A      0.712951   663A      0.713744   664A      0.714526  
     665A      0.715669   666A      0.718775   667A      0.719872  
     668A      0.720322   669A      0.722866   670A      0.723500  
     671A      0.725886   672A      0.727675   673A      0.728731  
     674A      0.729603   675A      0.730417   676A      0.730995  
     677A      0.732797   678A      0.734219   679A      0.735099  
     680A      0.736654   681A      0.737536   682A      0.737797  
     683A      0.739316   684A      0.740665   685A      0.741442  
     686A      0.743527   687A      0.744035   688A      0.746469  
     689A      0.747241   690A      0.747739   691A      0.750031  
     692A      0.753628   693A      0.755047   694A      0.755939  
     695A      0.756227   696A      0.757868   697A      0.759167  
     698A      0.760606   699A      0.761570   700A      0.764636  
     701A      0.765091   702A      0.766000   703A      0.767037  
     704A      0.768242   705A      0.769216   706A      0.770876  
     707A      0.771581   708A      0.772699   709A      0.774211  
     710A      0.775481   711A      0.777708   712A      0.778366  
     713A      0.779260   714A      0.779919   715A      0.781927  
     716A      0.783234   717A      0.784141   718A      0.785582  
     719A      0.786137   720A      0.788428   721A      0.789093  
     722A      0.789668   723A      0.792314   724A      0.793494  
     725A      0.793995   726A      0.796449   727A      0.799100  
     728A      0.799539   729A      0.799576   730A      0.800857  
     731A      0.802547   732A      0.803433   733A      0.805509  
     734A      0.808715   735A      0.809772   736A      0.811376  
     737A      0.812186   738A      0.814399   739A      0.814911  
     740A      0.815858   741A      0.817464   742A      0.818626  
     743A      0.819403   744A      0.820574   745A      0.822763  
     746A      0.823433   747A      0.823949   748A      0.825082  
     749A      0.826055   750A      0.826626   751A      0.828282  
     752A      0.828446   753A      0.829146   754A      0.831325  
     755A      0.832826   756A      0.834285   757A      0.836002  
     758A      0.838407   759A      0.839279   760A      0.839384  
     761A      0.840930   762A      0.841573   763A      0.843067  
     764A      0.843218   765A      0.845788   766A      0.846637  
     767A      0.848219   768A      0.848720   769A      0.849271  
     770A      0.851802   771A      0.853085   772A      0.854153  
     773A      0.856218   774A      0.856500   775A      0.858190  
     776A      0.860008   777A      0.861190   778A      0.862527  
     779A      0.864060   780A      0.866059   781A      0.868073  
     782A      0.870703   783A      0.871548   784A      0.873024  
     785A      0.873615   786A      0.873994   787A      0.875581  
     788A      0.876683   789A      0.877806   790A      0.881402  
     791A      0.881862   792A      0.881956   793A      0.883574  
     794A      0.885216   795A      0.887198   796A      0.888063  
     797A      0.888418   798A      0.889308   799A      0.891211  
     800A      0.891965   801A      0.893446   802A      0.895401  
     803A      0.896252   804A      0.896888   805A      0.898963  
     806A      0.900231   807A      0.900419   808A      0.901573  
     809A      0.902988   810A      0.903687   811A      0.904845  
     812A      0.905833   813A      0.906599   814A      0.907961  
     815A      0.909300   816A      0.910833   817A      0.911743  
     818A      0.913305   819A      0.913813   820A      0.914351  
     821A      0.915215   822A      0.917511   823A      0.918566  
     824A      0.919279   825A      0.921379   826A      0.922011  
     827A      0.923212   828A      0.925019   829A      0.926159  
     830A      0.927724   831A      0.929233   832A      0.930070  
     833A      0.931153   834A      0.932243   835A      0.932418  
     836A      0.934171   837A      0.936745   838A      0.938518  
     839A      0.939294   840A      0.940852   841A      0.943939  
     842A      0.944672   843A      0.947346   844A      0.948379  
     845A      0.950203   846A      0.950711   847A      0.952324  
     848A      0.952522   849A      0.953014   850A      0.954785  
     851A      0.955728   852A      0.957815   853A      0.960295  
     854A      0.961291   855A      0.962094   856A      0.964665  
     857A      0.964878   858A      0.965612   859A      0.966885  
     860A      0.969531   861A      0.971303   862A      0.971512  
     863A      0.973263   864A      0.974641   865A      0.975537  
     866A      0.978167   867A      0.978918   868A      0.980464  
     869A      0.982058   870A      0.983618   871A      0.984190  
     872A      0.987441   873A      0.988218   874A      0.989543  
     875A      0.991141   876A      0.992269   877A      0.994314  
     878A      0.995627   879A      0.996079   880A      1.001515  
     881A      1.002997   882A      1.004927   883A      1.006254  
     884A      1.008694   885A      1.011821   886A      1.012208  
     887A      1.013080   888A      1.015463   889A      1.016452  
     890A      1.017700   891A      1.018583   892A      1.019982  
     893A      1.020499   894A      1.023004   895A      1.023528  
     896A      1.025197   897A      1.025461   898A      1.027390  
     899A      1.028788   900A      1.029744   901A      1.030354  
     902A      1.031881   903A      1.032562   904A      1.034950  
     905A      1.036357   906A      1.038135   907A      1.039750  
     908A      1.040743   909A      1.041559   910A      1.043073  
     911A      1.045262   912A      1.046278   913A      1.047082  
     914A      1.047583   915A      1.049364   916A      1.051071  
     917A      1.052191   918A      1.053471   919A      1.054996  
     920A      1.055967   921A      1.057487   922A      1.059485  
     923A      1.060461   924A      1.061998   925A      1.063220  
     926A      1.064440   927A      1.066048   928A      1.068304  
     929A      1.069429   930A      1.071537   931A      1.072198  
     932A      1.073315   933A      1.074215   934A      1.075992  
     935A      1.077534   936A      1.079731   937A      1.080338  
     938A      1.081197   939A      1.083432   940A      1.084715  
     941A      1.085294   942A      1.087522   943A      1.088656  
     944A      1.089856   945A      1.091629   946A      1.092616  
     947A      1.094743   948A      1.095615   949A      1.096030  
     950A      1.098018   951A      1.100259   952A      1.101553  
     953A      1.102137   954A      1.103694   955A      1.105913  
     956A      1.108053   957A      1.109496   958A      1.109761  
     959A      1.111289   960A      1.111912   961A      1.113507  
     962A      1.115245   963A      1.115805   964A      1.116529  
     965A      1.120637   966A      1.121235   967A      1.122366  
     968A      1.124832   969A      1.126789   970A      1.129503  
     971A      1.130175   972A      1.130935   973A      1.131010  
     974A      1.132618   975A      1.134969   976A      1.135153  
     977A      1.136422   978A      1.138005   979A      1.138321  
     980A      1.139464   981A      1.140746   982A      1.141501  
     983A      1.145779   984A      1.146558   985A      1.147041  
     986A      1.147744   987A      1.149873   988A      1.150064  
     989A      1.151647   990A      1.153067   991A      1.154877  
     992A      1.156114   993A      1.158068   994A      1.159609  
     995A      1.160282   996A      1.162005   997A      1.163741  
     998A      1.164031   999A      1.165211  1000A      1.166245  
    1001A      1.167804  1002A      1.168766  1003A      1.170225  
    1004A      1.171540  1005A      1.174061  1006A      1.174828  
    1007A      1.176610  1008A      1.177643  1009A      1.178154  
    1010A      1.180512  1011A      1.181346  1012A      1.182547  
    1013A      1.184112  1014A      1.186310  1015A      1.186862  
    1016A      1.188174  1017A      1.189985  1018A      1.190314  
    1019A      1.192750  1020A      1.194959  1021A      1.195512  
    1022A      1.197091  1023A      1.198485  1024A      1.199229  
    1025A      1.199748  1026A      1.200862  1027A      1.203101  
    1028A      1.203558  1029A      1.205171  1030A      1.206203  
    1031A      1.208434  1032A      1.209670  1033A      1.210567  
    1034A      1.212328  1035A      1.213235  1036A      1.214608  
    1037A      1.217589  1038A      1.218438  1039A      1.218711  
    1040A      1.220817  1041A      1.221291  1042A      1.222690  
    1043A      1.223684  1044A      1.224512  1045A      1.224824  
    1046A      1.226176  1047A      1.226702  1048A      1.228301  
    1049A      1.229366  1050A      1.230048  1051A      1.231256  
    1052A      1.233802  1053A      1.234390  1054A      1.236214  
    1055A      1.236836  1056A      1.238977  1057A      1.239194  
    1058A      1.240302  1059A      1.240780  1060A      1.243838  
    1061A      1.245361  1062A      1.246884  1063A      1.247819  
    1064A      1.248579  1065A      1.251024  1066A      1.251670  
    1067A      1.252492  1068A      1.254490  1069A      1.254753  
    1070A      1.257073  1071A      1.257623  1072A      1.260686  
    1073A      1.262039  1074A      1.262606  1075A      1.263247  
    1076A      1.265862  1077A      1.266814  1078A      1.267197  
    1079A      1.268745  1080A      1.269551  1081A      1.270768  
    1082A      1.271815  1083A      1.272385  1084A      1.274451  
    1085A      1.277574  1086A      1.277954  1087A      1.278665  
    1088A      1.279288  1089A      1.281259  1090A      1.281850  
    1091A      1.282855  1092A      1.285620  1093A      1.285702  
    1094A      1.286601  1095A      1.289220  1096A      1.290001  
    1097A      1.291692  1098A      1.292131  1099A      1.294623  
    1100A      1.295865  1101A      1.296891  1102A      1.299197  
    1103A      1.299666  1104A      1.302841  1105A      1.304803  
    1106A      1.307074  1107A      1.308739  1108A      1.310506  
    1109A      1.310777  1110A      1.311545  1111A      1.312895  
    1112A      1.313786  1113A      1.314351  1114A      1.316861  
    1115A      1.317686  1116A      1.319549  1117A      1.319741  
    1118A      1.322413  1119A      1.323363  1120A      1.324080  
    1121A      1.325766  1122A      1.326642  1123A      1.327697  
    1124A      1.328589  1125A      1.329447  1126A      1.331135  
    1127A      1.331921  1128A      1.334907  1129A      1.334949  
    1130A      1.337756  1131A      1.338513  1132A      1.338775  
    1133A      1.341148  1134A      1.342411  1135A      1.343396  
    1136A      1.345031  1137A      1.345940  1138A      1.348352  
    1139A      1.349164  1140A      1.350171  1141A      1.352859  
    1142A      1.355274  1143A      1.355865  1144A      1.357437  
    1145A      1.358086  1146A      1.359380  1147A      1.361906  
    1148A      1.362151  1149A      1.363220  1150A      1.363697  
    1151A      1.364636  1152A      1.367662  1153A      1.368561  
    1154A      1.370478  1155A      1.372013  1156A      1.373615  
    1157A      1.374104  1158A      1.375356  1159A      1.376881  
    1160A      1.377777  1161A      1.378817  1162A      1.379455  
    1163A      1.380944  1164A      1.381642  1165A      1.382901  
    1166A      1.383782  1167A      1.384848  1168A      1.385379  
    1169A      1.386550  1170A      1.388344  1171A      1.388489  
    1172A      1.389788  1173A      1.391416  1174A      1.392027  
    1175A      1.393916  1176A      1.394483  1177A      1.396238  
    1178A      1.397692  1179A      1.398307  1180A      1.399968  
    1181A      1.402255  1182A      1.404116  1183A      1.405244  
    1184A      1.406310  1185A      1.407059  1186A      1.409396  
    1187A      1.409675  1188A      1.410464  1189A      1.411970  
    1190A      1.413453  1191A      1.414048  1192A      1.416895  
    1193A      1.417302  1194A      1.418290  1195A      1.419698  
    1196A      1.421357  1197A      1.422733  1198A      1.424410  
    1199A      1.425847  1200A      1.427969  1201A      1.428530  
    1202A      1.432184  1203A      1.434216  1204A      1.435336  
    1205A      1.436007  1206A      1.437586  1207A      1.440077  
    1208A      1.442811  1209A      1.443036  1210A      1.444693  
    1211A      1.446891  1212A      1.448088  1213A      1.450624  
    1214A      1.452361  1215A      1.453862  1216A      1.454272  
    1217A      1.455706  1218A      1.457501  1219A      1.458182  
    1220A      1.459634  1221A      1.461148  1222A      1.462228  
    1223A      1.465607  1224A      1.466628  1225A      1.467412  
    1226A      1.469543  1227A      1.471205  1228A      1.472080  
    1229A      1.472586  1230A      1.475862  1231A      1.477185  
    1232A      1.478816  1233A      1.479592  1234A      1.481779  
    1235A      1.483922  1236A      1.485314  1237A      1.487519  
    1238A      1.488654  1239A      1.489851  1240A      1.492025  
    1241A      1.494066  1242A      1.496130  1243A      1.497692  
    1244A      1.501618  1245A      1.502356  1246A      1.504367  
    1247A      1.505436  1248A      1.507174  1249A      1.508751  
    1250A      1.510089  1251A      1.511094  1252A      1.511761  
    1253A      1.512295  1254A      1.514250  1255A      1.517422  
    1256A      1.519677  1257A      1.521038  1258A      1.521769  
    1259A      1.524552  1260A      1.526685  1261A      1.528405  
    1262A      1.529472  1263A      1.530912  1264A      1.533775  
    1265A      1.534380  1266A      1.535459  1267A      1.536577  
    1268A      1.538363  1269A      1.539307  1270A      1.541463  
    1271A      1.543277  1272A      1.543916  1273A      1.544992  
    1274A      1.546098  1275A      1.548305  1276A      1.549919  
    1277A      1.550676  1278A      1.551406  1279A      1.553246  
    1280A      1.555598  1281A      1.556179  1282A      1.557509  
    1283A      1.558299  1284A      1.559503  1285A      1.560646  
    1286A      1.561724  1287A      1.564317  1288A      1.565126  
    1289A      1.567000  1290A      1.568494  1291A      1.570016  
    1292A      1.570894  1293A      1.571536  1294A      1.572291  
    1295A      1.573350  1296A      1.576589  1297A      1.578599  
    1298A      1.579209  1299A      1.581872  1300A      1.582858  
    1301A      1.584348  1302A      1.585512  1303A      1.587882  
    1304A      1.589338  1305A      1.590950  1306A      1.592842  
    1307A      1.594358  1308A      1.595327  1309A      1.596931  
    1310A      1.597779  1311A      1.599387  1312A      1.599638  
    1313A      1.601678  1314A      1.602681  1315A      1.604286  
    1316A      1.605360  1317A      1.606925  1318A      1.607387  
    1319A      1.607672  1320A      1.610593  1321A      1.611819  
    1322A      1.613606  1323A      1.615495  1324A      1.616135  
    1325A      1.617952  1326A      1.618059  1327A      1.620354  
    1328A      1.621290  1329A      1.621886  1330A      1.624037  
    1331A      1.624538  1332A      1.626175  1333A      1.627156  
    1334A      1.628233  1335A      1.629125  1336A      1.631837  
    1337A      1.632339  1338A      1.633774  1339A      1.635752  
    1340A      1.637000  1341A      1.638686  1342A      1.640847  
    1343A      1.641865  1344A      1.642883  1345A      1.644209  
    1346A      1.645636  1347A      1.646379  1348A      1.648008  
    1349A      1.648505  1350A      1.650782  1351A      1.651740  
    1352A      1.652138  1353A      1.654638  1354A      1.656478  
    1355A      1.657239  1356A      1.659178  1357A      1.660255  
    1358A      1.661116  1359A      1.662557  1360A      1.664250  
    1361A      1.665598  1362A      1.666552  1363A      1.668043  
    1364A      1.669677  1365A      1.670345  1366A      1.671849  
    1367A      1.673270  1368A      1.677134  1369A      1.678253  
    1370A      1.678978  1371A      1.679664  1372A      1.680698  
    1373A      1.682030  1374A      1.683907  1375A      1.684426  
    1376A      1.686543  1377A      1.687267  1378A      1.688310  
    1379A      1.689326  1380A      1.691230  1381A      1.691994  
    1382A      1.693476  1383A      1.696258  1384A      1.696707  
    1385A      1.698301  1386A      1.698581  1387A      1.700128  
    1388A      1.701780  1389A      1.702972  1390A      1.704270  
    1391A      1.705065  1392A      1.705609  1393A      1.706693  
    1394A      1.707558  1395A      1.709482  1396A      1.710894  
    1397A      1.711543  1398A      1.712613  1399A      1.714306  
    1400A      1.714527  1401A      1.715962  1402A      1.717625  
    1403A      1.720531  1404A      1.720783  1405A      1.722982  
    1406A      1.723901  1407A      1.724882  1408A      1.725917  
    1409A      1.728392  1410A      1.729610  1411A      1.730276  
    1412A      1.731204  1413A      1.731651  1414A      1.732730  
    1415A      1.734760  1416A      1.735213  1417A      1.735991  
    1418A      1.736988  1419A      1.739086  1420A      1.740683  
    1421A      1.741473  1422A      1.742969  1423A      1.744219  
    1424A      1.745040  1425A      1.745837  1426A      1.746875  
    1427A      1.750256  1428A      1.750785  1429A      1.752365  
    1430A      1.753407  1431A      1.755223  1432A      1.756091  
    1433A      1.757384  1434A      1.758073  1435A      1.759721  
    1436A      1.760430  1437A      1.761458  1438A      1.762290  
    1439A      1.763477  1440A      1.764949  1441A      1.766764  
    1442A      1.767962  1443A      1.768684  1444A      1.770418  
    1445A      1.773139  1446A      1.774448  1447A      1.776394  
    1448A      1.776768  1449A      1.779670  1450A      1.780896  
    1451A      1.782414  1452A      1.783402  1453A      1.784682  
    1454A      1.785454  1455A      1.787105  1456A      1.788626  
    1457A      1.791096  1458A      1.791768  1459A      1.793575  
    1460A      1.795447  1461A      1.796768  1462A      1.799412  
    1463A      1.799722  1464A      1.803061  1465A      1.804647  
    1466A      1.805443  1467A      1.805892  1468A      1.807573  
    1469A      1.809322  1470A      1.810924  1471A      1.811726  
    1472A      1.812154  1473A      1.814576  1474A      1.815054  
    1475A      1.819568  1476A      1.820198  1477A      1.822474  
    1478A      1.823739  1479A      1.825576  1480A      1.826253  
    1481A      1.827542  1482A      1.827811  1483A      1.829509  
    1484A      1.830124  1485A      1.830973  1486A      1.832616  
    1487A      1.833301  1488A      1.834617  1489A      1.836654  
    1490A      1.837076  1491A      1.838790  1492A      1.841897  
    1493A      1.843217  1494A      1.843558  1495A      1.844592  
    1496A      1.846776  1497A      1.848156  1498A      1.849555  
    1499A      1.851838  1500A      1.853818  1501A      1.854620  
    1502A      1.858023  1503A      1.858795  1504A      1.860815  
    1505A      1.862964  1506A      1.863394  1507A      1.865429  
    1508A      1.867251  1509A      1.869204  1510A      1.870615  
    1511A      1.872743  1512A      1.874656  1513A      1.874912  
    1514A      1.875928  1515A      1.876978  1516A      1.878262  
    1517A      1.879785  1518A      1.880485  1519A      1.881645  
    1520A      1.884302  1521A      1.886258  1522A      1.887544  
    1523A      1.890731  1524A      1.893011  1525A      1.894668  
    1526A      1.895619  1527A      1.897119  1528A      1.898891  
    1529A      1.901272  1530A      1.901863  1531A      1.903469  
    1532A      1.904865  1533A      1.908716  1534A      1.909773  
    1535A      1.910963  1536A      1.912040  1537A      1.913250  
    1538A      1.916752  1539A      1.918235  1540A      1.918683  
    1541A      1.920708  1542A      1.922200  1543A      1.923771  
    1544A      1.926207  1545A      1.927168  1546A      1.928771  
    1547A      1.930371  1548A      1.932617  1549A      1.936608  
    1550A      1.939865  1551A      1.940483  1552A      1.941245  
    1553A      1.943889  1554A      1.945352  1555A      1.947386  
    1556A      1.949404  1557A      1.950875  1558A      1.951653  
    1559A      1.954034  1560A      1.955256  1561A      1.957363  
    1562A      1.959870  1563A      1.960678  1564A      1.961934  
    1565A      1.962963  1566A      1.965819  1567A      1.966367  
    1568A      1.967615  1569A      1.971762  1570A      1.973646  
    1571A      1.974435  1572A      1.975899  1573A      1.977201  
    1574A      1.978081  1575A      1.980046  1576A      1.982273  
    1577A      1.983430  1578A      1.983905  1579A      1.985685  
    1580A      1.987767  1581A      1.990163  1582A      1.991451  
    1583A      1.996043  1584A      1.997004  1585A      1.997969  
    1586A      1.999923  1587A      2.001760  1588A      2.002401  
    1589A      2.004508  1590A      2.005923  1591A      2.006568  
    1592A      2.007144  1593A      2.008861  1594A      2.010758  
    1595A      2.015153  1596A      2.016374  1597A      2.017050  
    1598A      2.018595  1599A      2.020297  1600A      2.023520  
    1601A      2.025363  1602A      2.026065  1603A      2.028360  
    1604A      2.029372  1605A      2.030708  1606A      2.031047  
    1607A      2.031721  1608A      2.033440  1609A      2.034330  
    1610A      2.037881  1611A      2.040658  1612A      2.041292  
    1613A      2.041592  1614A      2.045043  1615A      2.046061  
    1616A      2.048486  1617A      2.051776  1618A      2.053494  
    1619A      2.053968  1620A      2.056897  1621A      2.058799  
    1622A      2.059995  1623A      2.061675  1624A      2.062916  
    1625A      2.063248  1626A      2.064339  1627A      2.067394  
    1628A      2.068428  1629A      2.070283  1630A      2.071035  
    1631A      2.072804  1632A      2.073862  1633A      2.076843  
    1634A      2.077433  1635A      2.078959  1636A      2.081096  
    1637A      2.083108  1638A      2.084396  1639A      2.085172  
    1640A      2.086826  1641A      2.087673  1642A      2.091287  
    1643A      2.092555  1644A      2.093272  1645A      2.096631  
    1646A      2.097833  1647A      2.100021  1648A      2.100423  
    1649A      2.104638  1650A      2.104732  1651A      2.105002  
    1652A      2.105621  1653A      2.108248  1654A      2.110111  
    1655A      2.110457  1656A      2.113736  1657A      2.114903  
    1658A      2.116446  1659A      2.117393  1660A      2.120351  
    1661A      2.121614  1662A      2.122840  1663A      2.123934  
    1664A      2.125859  1665A      2.127750  1666A      2.129013  
    1667A      2.130710  1668A      2.135554  1669A      2.136000  
    1670A      2.137830  1671A      2.138136  1672A      2.140710  
    1673A      2.145253  1674A      2.146114  1675A      2.147783  
    1676A      2.148872  1677A      2.150920  1678A      2.154415  
    1679A      2.156385  1680A      2.158358  1681A      2.159659  
    1682A      2.161975  1683A      2.163622  1684A      2.166869  
    1685A      2.167653  1686A      2.171264  1687A      2.172755  
    1688A      2.175783  1689A      2.176770  1690A      2.180277  
    1691A      2.181930  1692A      2.185268  1693A      2.187031  
    1694A      2.189956  1695A      2.191827  1696A      2.192516  
    1697A      2.194016  1698A      2.196402  1699A      2.198437  
    1700A      2.201703  1701A      2.203811  1702A      2.204944  
    1703A      2.207622  1704A      2.210985  1705A      2.211627  
    1706A      2.213640  1707A      2.215281  1708A      2.219283  
    1709A      2.221343  1710A      2.223012  1711A      2.224007  
    1712A      2.226385  1713A      2.227748  1714A      2.229890  
    1715A      2.233559  1716A      2.234450  1717A      2.235136  
    1718A      2.237703  1719A      2.239141  1720A      2.241237  
    1721A      2.244791  1722A      2.245883  1723A      2.248074  
    1724A      2.251635  1725A      2.252414  1726A      2.254339  
    1727A      2.254839  1728A      2.257304  1729A      2.257978  
    1730A      2.260800  1731A      2.262002  1732A      2.264770  
    1733A      2.266372  1734A      2.267845  1735A      2.271066  
    1736A      2.272205  1737A      2.273118  1738A      2.273575  
    1739A      2.276512  1740A      2.278402  1741A      2.279273  
    1742A      2.280435  1743A      2.282448  1744A      2.283994  
    1745A      2.286589  1746A      2.288476  1747A      2.289556  
    1748A      2.294199  1749A      2.296585  1750A      2.299420  
    1751A      2.301759  1752A      2.303303  1753A      2.304405  
    1754A      2.307749  1755A      2.309050  1756A      2.310021  
    1757A      2.311385  1758A      2.314373  1759A      2.315185  
    1760A      2.317292  1761A      2.318504  1762A      2.322446  
    1763A      2.324145  1764A      2.327437  1765A      2.327534  
    1766A      2.329870  1767A      2.332308  1768A      2.334006  
    1769A      2.335007  1770A      2.336899  1771A      2.340038  
    1772A      2.342581  1773A      2.343279  1774A      2.345882  
    1775A      2.347472  1776A      2.348517  1777A      2.350366  
    1778A      2.354987  1779A      2.355333  1780A      2.357142  
    1781A      2.357604  1782A      2.359596  1783A      2.361035  
    1784A      2.362860  1785A      2.364662  1786A      2.365093  
    1787A      2.366845  1788A      2.367609  1789A      2.368214  
    1790A      2.370022  1791A      2.371307  1792A      2.373233  
    1793A      2.375845  1794A      2.378368  1795A      2.379465  
    1796A      2.383941  1797A      2.384528  1798A      2.385385  
    1799A      2.387265  1800A      2.388320  1801A      2.393246  
    1802A      2.394908  1803A      2.395712  1804A      2.398131  
    1805A      2.402051  1806A      2.402721  1807A      2.403344  
    1808A      2.406911  1809A      2.408017  1810A      2.409829  
    1811A      2.411547  1812A      2.415857  1813A      2.416436  
    1814A      2.417834  1815A      2.418757  1816A      2.420795  
    1817A      2.420906  1818A      2.422355  1819A      2.423266  
    1820A      2.426228  1821A      2.428872  1822A      2.430116  
    1823A      2.431556  1824A      2.433733  1825A      2.435213  
    1826A      2.436421  1827A      2.438489  1828A      2.441043  
    1829A      2.443933  1830A      2.445443  1831A      2.447237  
    1832A      2.449037  1833A      2.450659  1834A      2.454162  
    1835A      2.456706  1836A      2.457542  1837A      2.460782  
    1838A      2.462043  1839A      2.463072  1840A      2.464462  
    1841A      2.467116  1842A      2.468781  1843A      2.471499  
    1844A      2.474116  1845A      2.478008  1846A      2.480265  
    1847A      2.480810  1848A      2.482131  1849A      2.483929  
    1850A      2.486937  1851A      2.487897  1852A      2.490059  
    1853A      2.492255  1854A      2.494982  1855A      2.498775  
    1856A      2.500201  1857A      2.501629  1858A      2.503699  
    1859A      2.505517  1860A      2.507056  1861A      2.511221  
    1862A      2.515264  1863A      2.518596  1864A      2.519978  
    1865A      2.522879  1866A      2.525177  1867A      2.527075  
    1868A      2.530382  1869A      2.531791  1870A      2.537628  
    1871A      2.538907  1872A      2.540781  1873A      2.542935  
    1874A      2.548307  1875A      2.552714  1876A      2.555818  
    1877A      2.556666  1878A      2.558037  1879A      2.560425  
    1880A      2.563132  1881A      2.564397  1882A      2.568157  
    1883A      2.569753  1884A      2.571663  1885A      2.575045  
    1886A      2.575652  1887A      2.579058  1888A      2.579824  
    1889A      2.583294  1890A      2.587217  1891A      2.590341  
    1892A      2.593866  1893A      2.594717  1894A      2.597749  
    1895A      2.600428  1896A      2.600991  1897A      2.601651  
    1898A      2.604073  1899A      2.608066  1900A      2.608920  
    1901A      2.613454  1902A      2.616035  1903A      2.617471  
    1904A      2.622125  1905A      2.624286  1906A      2.627715  
    1907A      2.630467  1908A      2.631980  1909A      2.632456  
    1910A      2.636361  1911A      2.638954  1912A      2.641537  
    1913A      2.643099  1914A      2.647978  1915A      2.649293  
    1916A      2.654342  1917A      2.654920  1918A      2.657377  
    1919A      2.658764  1920A      2.663604  1921A      2.668061  
    1922A      2.675742  1923A      2.677203  1924A      2.681640  
    1925A      2.685235  1926A      2.686505  1927A      2.687895  
    1928A      2.689881  1929A      2.691767  1930A      2.692691  
    1931A      2.697438  1932A      2.698821  1933A      2.703311  
    1934A      2.706685  1935A      2.707646  1936A      2.709776  
    1937A      2.713105  1938A      2.716181  1939A      2.716488  
    1940A      2.718987  1941A      2.722027  1942A      2.727459  
    1943A      2.729705  1944A      2.735087  1945A      2.736608  
    1946A      2.738674  1947A      2.739675  1948A      2.743576  
    1949A      2.745662  1950A      2.750189  1951A      2.752595  
    1952A      2.754589  1953A      2.759195  1954A      2.761419  
    1955A      2.762162  1956A      2.763645  1957A      2.766216  
    1958A      2.769201  1959A      2.772633  1960A      2.776280  
    1961A      2.780003  1962A      2.783055  1963A      2.785701  
    1964A      2.788399  1965A      2.791294  1966A      2.794720  
    1967A      2.800265  1968A      2.802075  1969A      2.806021  
    1970A      2.808794  1971A      2.812018  1972A      2.814286  
    1973A      2.816646  1974A      2.817083  1975A      2.819282  
    1976A      2.819963  1977A      2.823119  1978A      2.824773  
    1979A      2.826726  1980A      2.832222  1981A      2.836196  
    1982A      2.836475  1983A      2.838619  1984A      2.839940  
    1985A      2.843085  1986A      2.846314  1987A      2.848371  
    1988A      2.850345  1989A      2.853001  1990A      2.854442  
    1991A      2.860827  1992A      2.861613  1993A      2.864787  
    1994A      2.869875  1995A      2.872453  1996A      2.873046  
    1997A      2.875011  1998A      2.879048  1999A      2.881726  
    2000A      2.885685  2001A      2.886740  2002A      2.889251  
    2003A      2.895630  2004A      2.897850  2005A      2.899090  
    2006A      2.905352  2007A      2.906581  2008A      2.906883  
    2009A      2.910115  2010A      2.911112  2011A      2.914590  
    2012A      2.916368  2013A      2.918877  2014A      2.923392  
    2015A      2.925012  2016A      2.929679  2017A      2.931279  
    2018A      2.933718  2019A      2.937102  2020A      2.938250  
    2021A      2.940275  2022A      2.944705  2023A      2.947361  
    2024A      2.949705  2025A      2.951629  2026A      2.952970  
    2027A      2.955102  2028A      2.959217  2029A      2.960126  
    2030A      2.964025  2031A      2.969251  2032A      2.977139  
    2033A      2.980752  2034A      2.986759  2035A      2.989504  
    2036A      2.993438  2037A      2.996628  2038A      2.998774  
    2039A      3.002723  2040A      3.005519  2041A      3.012794  
    2042A      3.017162  2043A      3.018393  2044A      3.024439  
    2045A      3.034629  2046A      3.039509  2047A      3.043802  
    2048A      3.046833  2049A      3.052026  2050A      3.057598  
    2051A      3.061912  2052A      3.065067  2053A      3.068074  
    2054A      3.070825  2055A      3.077220  2056A      3.078709  
    2057A      3.081845  2058A      3.084097  2059A      3.087350  
    2060A      3.091399  2061A      3.092800  2062A      3.098081  
    2063A      3.102277  2064A      3.104126  2065A      3.105726  
    2066A      3.107842  2067A      3.110468  2068A      3.116647  
    2069A      3.125233  2070A      3.126664  2071A      3.128174  
    2072A      3.131434  2073A      3.143758  2074A      3.152190  
    2075A      3.155259  2076A      3.160597  2077A      3.163166  
    2078A      3.177769  2079A      3.180308  2080A      3.182877  
    2081A      3.185891  2082A      3.188031  2083A      3.198665  
    2084A      3.202186  2085A      3.207989  2086A      3.212603  
    2087A      3.223070  2088A      3.224358  2089A      3.234470  
    2090A      3.241296  2091A      3.246920  2092A      3.251861  
    2093A      3.260214  2094A      3.267006  2095A      3.272039  
    2096A      3.274423  2097A      3.282539  2098A      3.288726  
    2099A      3.293514  2100A      3.306049  2101A      3.307786  
    2102A      3.313033  2103A      3.317607  2104A      3.323790  
    2105A      3.325629  2106A      3.327398  2107A      3.332826  
    2108A      3.334029  2109A      3.336130  2110A      3.339795  
    2111A      3.342407  2112A      3.349130  2113A      3.355371  
    2114A      3.359173  2115A      3.364104  2116A      3.374244  
    2117A      3.378000  2118A      3.382997  2119A      3.387030  
    2120A      3.390194  2121A      3.393103  2122A      3.395138  
    2123A      3.399768  2124A      3.404893  2125A      3.407092  
    2126A      3.408710  2127A      3.410585  2128A      3.414327  
    2129A      3.416235  2130A      3.420291  2131A      3.420911  
    2132A      3.427963  2133A      3.433198  2134A      3.442560  
    2135A      3.446363  2136A      3.449895  2137A      3.455025  
    2138A      3.456117  2139A      3.460016  2140A      3.462594  
    2141A      3.465808  2142A      3.467922  2143A      3.480145  
    2144A      3.480580  2145A      3.484488  2146A      3.487295  
    2147A      3.488135  2148A      3.491492  2149A      3.496700  
    2150A      3.498253  2151A      3.501891  2152A      3.504693  
    2153A      3.505078  2154A      3.512894  2155A      3.514132  
    2156A      3.517079  2157A      3.522390  2158A      3.524947  
    2159A      3.532248  2160A      3.534597  2161A      3.538709  
    2162A      3.541957  2163A      3.547622  2164A      3.549938  
    2165A      3.551318  2166A      3.557973  2167A      3.559023  
    2168A      3.563506  2169A      3.566702  2170A      3.569103  
    2171A      3.571646  2172A      3.582058  2173A      3.583435  
    2174A      3.587393  2175A      3.589509  2176A      3.594616  
    2177A      3.600112  2178A      3.610135  2179A      3.611971  
    2180A      3.615512  2181A      3.617133  2182A      3.619307  
    2183A      3.620938  2184A      3.623661  2185A      3.634175  
    2186A      3.635468  2187A      3.639165  2188A      3.641287  
    2189A      3.643375  2190A      3.647222  2191A      3.650285  
    2192A      3.652542  2193A      3.654936  2194A      3.659922  
    2195A      3.662336  2196A      3.663437  2197A      3.668730  
    2198A      3.673201  2199A      3.685086  2200A      3.688588  
    2201A      3.691068  2202A      3.691896  2203A      3.693065  
    2204A      3.698580  2205A      3.702297  2206A      3.707354  
    2207A      3.711688  2208A      3.713412  2209A      3.721702  
    2210A      3.724129  2211A      3.730062  2212A      3.732620  
    2213A      3.734255  2214A      3.735773  2215A      3.737843  
    2216A      3.742457  2217A      3.748081  2218A      3.752983  
    2219A      3.757752  2220A      3.761023  2221A      3.762589  
    2222A      3.766593  2223A      3.769602  2224A      3.770525  
    2225A      3.773006  2226A      3.774562  2227A      3.776518  
    2228A      3.781697  2229A      3.785191  2230A      3.788710  
    2231A      3.791305  2232A      3.798696  2233A      3.803699  
    2234A      3.804804  2235A      3.805975  2236A      3.808226  
    2237A      3.810330  2238A      3.814098  2239A      3.815490  
    2240A      3.816490  2241A      3.817880  2242A      3.820930  
    2243A      3.822008  2244A      3.825630  2245A      3.828759  
    2246A      3.833201  2247A      3.834168  2248A      3.836641  
    2249A      3.840789  2250A      3.842291  2251A      3.844316  
    2252A      3.848654  2253A      3.853008  2254A      3.854953  
    2255A      3.859778  2256A      3.864040  2257A      3.865022  
    2258A      3.866935  2259A      3.870288  2260A      3.872512  
    2261A      3.880766  2262A      3.881103  2263A      3.885038  
    2264A      3.888368  2265A      3.893933  2266A      3.898298  
    2267A      3.901297  2268A      3.901953  2269A      3.906005  
    2270A      3.909054  2271A      3.910869  2272A      3.913061  
    2273A      3.917926  2274A      3.921008  2275A      3.922328  
    2276A      3.925043  2277A      3.929272  2278A      3.931322  
    2279A      3.934943  2280A      3.935835  2281A      3.942749  
    2282A      3.947221  2283A      3.948303  2284A      3.950688  
    2285A      3.952301  2286A      3.954309  2287A      3.958342  
    2288A      3.963085  2289A      3.965151  2290A      3.970726  
    2291A      3.972428  2292A      3.975879  2293A      3.981027  
    2294A      3.983051  2295A      3.987342  2296A      3.992275  
    2297A      3.996847  2298A      3.999883  2299A      4.002147  
    2300A      4.003814  2301A      4.008916  2302A      4.014092  
    2303A      4.015912  2304A      4.017361  2305A      4.021374  
    2306A      4.024910  2307A      4.026549  2308A      4.029607  
    2309A      4.029984  2310A      4.032198  2311A      4.037685  
    2312A      4.038755  2313A      4.044427  2314A      4.048706  
    2315A      4.050747  2316A      4.051638  2317A      4.054588  
    2318A      4.060575  2319A      4.063976  2320A      4.070184  
    2321A      4.080838  2322A      4.083165  2323A      4.089312  
    2324A      4.093266  2325A      4.093531  2326A      4.095197  
    2327A      4.099909  2328A      4.104467  2329A      4.105740  
    2330A      4.110893  2331A      4.116754  2332A      4.120706  
    2333A      4.123827  2334A      4.125955  2335A      4.126888  
    2336A      4.132095  2337A      4.139565  2338A      4.144323  
    2339A      4.146330  2340A      4.148458  2341A      4.151455  
    2342A      4.156103  2343A      4.157268  2344A      4.160489  
    2345A      4.163641  2346A      4.166854  2347A      4.169042  
    2348A      4.172026  2349A      4.172809  2350A      4.174888  
    2351A      4.176950  2352A      4.183656  2353A      4.188372  
    2354A      4.192346  2355A      4.195928  2356A      4.197279  
    2357A      4.198186  2358A      4.201313  2359A      4.206034  
    2360A      4.206375  2361A      4.212769  2362A      4.214150  
    2363A      4.215032  2364A      4.217894  2365A      4.221979  
    2366A      4.225585  2367A      4.225898  2368A      4.231970  
    2369A      4.233107  2370A      4.238808  2371A      4.239541  
    2372A      4.242491  2373A      4.243548  2374A      4.245720  
    2375A      4.248628  2376A      4.253777  2377A      4.254138  
    2378A      4.254732  2379A      4.259987  2380A      4.262596  
    2381A      4.266246  2382A      4.269099  2383A      4.274202  
    2384A      4.276236  2385A      4.277875  2386A      4.281420  
    2387A      4.282361  2388A      4.287549  2389A      4.291964  
    2390A      4.294136  2391A      4.295851  2392A      4.300142  
    2393A      4.301265  2394A      4.303888  2395A      4.307045  
    2396A      4.309854  2397A      4.310994  2398A      4.313517  
    2399A      4.319130  2400A      4.320796  2401A      4.322078  
    2402A      4.323055  2403A      4.326122  2404A      4.326565  
    2405A      4.330458  2406A      4.331363  2407A      4.334106  
    2408A      4.337113  2409A      4.338281  2410A      4.341910  
    2411A      4.342271  2412A      4.343701  2413A      4.344775  
    2414A      4.347295  2415A      4.350052  2416A      4.351529  
    2417A      4.354305  2418A      4.355473  2419A      4.360102  
    2420A      4.363296  2421A      4.365150  2422A      4.366479  
    2423A      4.369038  2424A      4.370281  2425A      4.373758  
    2426A      4.374540  2427A      4.375384  2428A      4.378371  
    2429A      4.380700  2430A      4.382108  2431A      4.383135  
    2432A      4.385892  2433A      4.389542  2434A      4.391326  
    2435A      4.392258  2436A      4.393849  2437A      4.396699  
    2438A      4.398976  2439A      4.400544  2440A      4.408291  
    2441A      4.409736  2442A      4.410755  2443A      4.413459  
    2444A      4.416459  2445A      4.418108  2446A      4.419626  
    2447A      4.420232  2448A      4.424102  2449A      4.428867  
    2450A      4.433869  2451A      4.434810  2452A      4.438181  
    2453A      4.439383  2454A      4.440712  2455A      4.444137  
    2456A      4.447263  2457A      4.450320  2458A      4.451460  
    2459A      4.455781  2460A      4.458118  2461A      4.458602  
    2462A      4.461995  2463A      4.463790  2464A      4.465378  
    2465A      4.471028  2466A      4.471582  2467A      4.475712  
    2468A      4.478113  2469A      4.479447  2470A      4.480420  
    2471A      4.482664  2472A      4.484091  2473A      4.488012  
    2474A      4.489147  2475A      4.492681  2476A      4.494500  
    2477A      4.495570  2478A      4.496997  2479A      4.501098  
    2480A      4.502427  2481A      4.504382  2482A      4.508631  
    2483A      4.509857  2484A      4.511738  2485A      4.513896  
    2486A      4.517691  2487A      4.518510  2488A      4.521537  
    2489A      4.524788  2490A      4.525532  2491A      4.529986  
    2492A      4.535762  2493A      4.538044  2494A      4.538973  
    2495A      4.541166  2496A      4.543109  2497A      4.544238  
    2498A      4.546198  2499A      4.547516  2500A      4.549842  
    2501A      4.550743  2502A      4.553707  2503A      4.554132  
    2504A      4.556353  2505A      4.559188  2506A      4.560345  
    2507A      4.563168  2508A      4.564618  2509A      4.567516  
    2510A      4.569378  2511A      4.572001  2512A      4.576736  
    2513A      4.578271  2514A      4.580287  2515A      4.582671  
    2516A      4.587649  2517A      4.592505  2518A      4.599088  
    2519A      4.600921  2520A      4.601178  2521A      4.607361  
    2522A      4.609059  2523A      4.609909  2524A      4.611803  
    2525A      4.614679  2526A      4.615201  2527A      4.616824  
    2528A      4.618580  2529A      4.620537  2530A      4.621779  
    2531A      4.625086  2532A      4.626205  2533A      4.627861  
    2534A      4.629900  2535A      4.633726  2536A      4.637625  
    2537A      4.638815  2538A      4.640766  2539A      4.644508  
    2540A      4.650557  2541A      4.653005  2542A      4.656377  
    2543A      4.658674  2544A      4.660356  2545A      4.664231  
    2546A      4.667394  2547A      4.669959  2548A      4.672137  
    2549A      4.678168  2550A      4.679053  2551A      4.683560  
    2552A      4.684172  2553A      4.689386  2554A      4.692173  
    2555A      4.698337  2556A      4.699626  2557A      4.701552  
    2558A      4.704015  2559A      4.706340  2560A      4.710992  
    2561A      4.712534  2562A      4.714564  2563A      4.716351  
    2564A      4.720319  2565A      4.723804  2566A      4.725950  
    2567A      4.727569  2568A      4.731137  2569A      4.734900  
    2570A      4.735469  2571A      4.738422  2572A      4.742150  
    2573A      4.748048  2574A      4.749635  2575A      4.750818  
    2576A      4.754927  2577A      4.756705  2578A      4.758056  
    2579A      4.760240  2580A      4.762581  2581A      4.765650  
    2582A      4.769048  2583A      4.771711  2584A      4.774436  
    2585A      4.776721  2586A      4.778246  2587A      4.780725  
    2588A      4.783946  2589A      4.787370  2590A      4.791018  
    2591A      4.791829  2592A      4.793160  2593A      4.800121  
    2594A      4.802905  2595A      4.804476  2596A      4.808291  
    2597A      4.808930  2598A      4.815326  2599A      4.818572  
    2600A      4.823177  2601A      4.826434  2602A      4.828459  
    2603A      4.828831  2604A      4.833383  2605A      4.835716  
    2606A      4.839175  2607A      4.843479  2608A      4.848214  
    2609A      4.849666  2610A      4.851657  2611A      4.852710  
    2612A      4.855571  2613A      4.863045  2614A      4.863518  
    2615A      4.867528  2616A      4.869087  2617A      4.871522  
    2618A      4.873113  2619A      4.874091  2620A      4.878335  
    2621A      4.881305  2622A      4.884201  2623A      4.884390  
    2624A      4.889010  2625A      4.890029  2626A      4.892877  
    2627A      4.894964  2628A      4.895896  2629A      4.899921  
    2630A      4.903860  2631A      4.905417  2632A      4.908207  
    2633A      4.910279  2634A      4.913742  2635A      4.915591  
    2636A      4.917118  2637A      4.922767  2638A      4.925235  
    2639A      4.927795  2640A      4.930664  2641A      4.935338  
    2642A      4.937676  2643A      4.941928  2644A      4.942802  
    2645A      4.944265  2646A      4.946583  2647A      4.949786  
    2648A      4.950632  2649A      4.955533  2650A      4.957287  
    2651A      4.958493  2652A      4.960719  2653A      4.964321  
    2654A      4.966215  2655A      4.968258  2656A      4.970163  
    2657A      4.974820  2658A      4.976263  2659A      4.978827  
    2660A      4.979561  2661A      4.980425  2662A      4.983786  
    2663A      4.986998  2664A      4.988289  2665A      4.991652  
    2666A      4.999059  2667A      5.000749  2668A      5.001645  
    2669A      5.003039  2670A      5.003898  2671A      5.009736  
    2672A      5.010205  2673A      5.014437  2674A      5.016570  
    2675A      5.018136  2676A      5.019883  2677A      5.021274  
    2678A      5.025405  2679A      5.027148  2680A      5.028064  
    2681A      5.031275  2682A      5.033505  2683A      5.035763  
    2684A      5.039088  2685A      5.040733  2686A      5.041751  
    2687A      5.044034  2688A      5.044911  2689A      5.048671  
    2690A      5.051301  2691A      5.052270  2692A      5.053275  
    2693A      5.054175  2694A      5.057693  2695A      5.058664  
    2696A      5.062275  2697A      5.063307  2698A      5.065579  
    2699A      5.066003  2700A      5.068196  2701A      5.070641  
    2702A      5.071715  2703A      5.072979  2704A      5.074109  
    2705A      5.076930  2706A      5.078596  2707A      5.080861  
    2708A      5.083126  2709A      5.084371  2710A      5.085809  
    2711A      5.088598  2712A      5.092520  2713A      5.094448  
    2714A      5.095082  2715A      5.096866  2716A      5.097951  
    2717A      5.100582  2718A      5.101596  2719A      5.102557  
    2720A      5.104475  2721A      5.106426  2722A      5.108252  
    2723A      5.109693  2724A      5.112832  2725A      5.113664  
    2726A      5.114841  2727A      5.117440  2728A      5.117611  
    2729A      5.118765  2730A      5.120379  2731A      5.122061  
    2732A      5.125442  2733A      5.126233  2734A      5.128164  
    2735A      5.128892  2736A      5.130101  2737A      5.132219  
    2738A      5.132665  2739A      5.133996  2740A      5.135539  
    2741A      5.136778  2742A      5.138905  2743A      5.142537  
    2744A      5.145211  2745A      5.145880  2746A      5.149647  
    2747A      5.150935  2748A      5.152810  2749A      5.153228  
    2750A      5.156727  2751A      5.158316  2752A      5.160211  
    2753A      5.160463  2754A      5.164264  2755A      5.166277  
    2756A      5.168972  2757A      5.172224  2758A      5.173908  
    2759A      5.175355  2760A      5.176971  2761A      5.179028  
    2762A      5.180947  2763A      5.183177  2764A      5.185818  
    2765A      5.188849  2766A      5.189415  2767A      5.191034  
    2768A      5.192754  2769A      5.193431  2770A      5.195790  
    2771A      5.199013  2772A      5.199808  2773A      5.204114  
    2774A      5.204851  2775A      5.207423  2776A      5.211965  
    2777A      5.212333  2778A      5.214612  2779A      5.214736  
    2780A      5.216498  2781A      5.219061  2782A      5.220864  
    2783A      5.222540  2784A      5.222582  2785A      5.226454  
    2786A      5.227997  2787A      5.232021  2788A      5.234859  
    2789A      5.236313  2790A      5.238004  2791A      5.242557  
    2792A      5.247027  2793A      5.250801  2794A      5.257187  
    2795A      5.262029  2796A      5.264575  2797A      5.267110  
    2798A      5.267855  2799A      5.274870  2800A      5.277827  
    2801A      5.278355  2802A      5.281310  2803A      5.283390  
    2804A      5.288552  2805A      5.292766  2806A      5.301467  
    2807A      5.304813  2808A      5.308071  2809A      5.312167  
    2810A      5.314119  2811A      5.315327  2812A      5.316875  
    2813A      5.318934  2814A      5.322293  2815A      5.324486  
    2816A      5.325345  2817A      5.327777  2818A      5.330699  
    2819A      5.333214  2820A      5.335476  2821A      5.336654  
    2822A      5.341042  2823A      5.341672  2824A      5.343730  
    2825A      5.345436  2826A      5.347787  2827A      5.348488  
    2828A      5.351283  2829A      5.353799  2830A      5.354496  
    2831A      5.356463  2832A      5.358408  2833A      5.359881  
    2834A      5.363271  2835A      5.364124  2836A      5.364505  
    2837A      5.367231  2838A      5.368944  2839A      5.371467  
    2840A      5.374152  2841A      5.375580  2842A      5.377289  
    2843A      5.381586  2844A      5.384675  2845A      5.386499  
    2846A      5.387860  2847A      5.389065  2848A      5.393166  
    2849A      5.393861  2850A      5.396607  2851A      5.399603  
    2852A      5.404826  2853A      5.408456  2854A      5.411876  
    2855A      5.413719  2856A      5.414368  2857A      5.416822  
    2858A      5.417210  2859A      5.420122  2860A      5.424229  
    2861A      5.427666  2862A      5.430216  2863A      5.431077  
    2864A      5.432927  2865A      5.436889  2866A      5.438560  
    2867A      5.440097  2868A      5.442069  2869A      5.444669  
    2870A      5.448117  2871A      5.448656  2872A      5.453558  
    2873A      5.454769  2874A      5.456219  2875A      5.457642  
    2876A      5.459698  2877A      5.462670  2878A      5.463512  
    2879A      5.465146  2880A      5.470624  2881A      5.472843  
    2882A      5.475205  2883A      5.479048  2884A      5.480161  
    2885A      5.480989  2886A      5.483165  2887A      5.484585  
    2888A      5.486382  2889A      5.491513  2890A      5.492273  
    2891A      5.493758  2892A      5.498467  2893A      5.503959  
    2894A      5.509629  2895A      5.512564  2896A      5.513059  
    2897A      5.520054  2898A      5.520671  2899A      5.524514  
    2900A      5.528888  2901A      5.530200  2902A      5.535705  
    2903A      5.536524  2904A      5.541395  2905A      5.544224  
    2906A      5.546525  2907A      5.550694  2908A      5.551568  
    2909A      5.555956  2910A      5.560118  2911A      5.561874  
    2912A      5.567929  2913A      5.570215  2914A      5.572839  
    2915A      5.576443  2916A      5.580693  2917A      5.583806  
    2918A      5.590332  2919A      5.594477  2920A      5.597056  
    2921A      5.599059  2922A      5.606746  2923A      5.609164  
    2924A      5.610744  2925A      5.613756  2926A      5.615502  
    2927A      5.617258  2928A      5.619778  2929A      5.621536  
    2930A      5.621785  2931A      5.622138  2932A      5.626892  
    2933A      5.629580  2934A      5.631971  2935A      5.633302  
    2936A      5.635700  2937A      5.637921  2938A      5.644439  
    2939A      5.647433  2940A      5.648135  2941A      5.651791  
    2942A      5.657161  2943A      5.661486  2944A      5.665354  
    2945A      5.668858  2946A      5.673516  2947A      5.677847  
    2948A      5.680725  2949A      5.681874  2950A      5.684129  
    2951A      5.685923  2952A      5.689630  2953A      5.691986  
    2954A      5.696408  2955A      5.702330  2956A      5.705033  
    2957A      5.708341  2958A      5.711701  2959A      5.714049  
    2960A      5.715699  2961A      5.721453  2962A      5.722567  
    2963A      5.723189  2964A      5.726663  2965A      5.732152  
    2966A      5.734246  2967A      5.736574  2968A      5.738409  
    2969A      5.741425  2970A      5.742778  2971A      5.744481  
    2972A      5.747433  2973A      5.750322  2974A      5.750852  
    2975A      5.756439  2976A      5.757751  2977A      5.760230  
    2978A      5.763761  2979A      5.766137  2980A      5.768135  
    2981A      5.769643  2982A      5.770610  2983A      5.775574  
    2984A      5.776260  2985A      5.778757  2986A      5.782749  
    2987A      5.785357  2988A      5.786879  2989A      5.789208  
    2990A      5.793586  2991A      5.795163  2992A      5.799948  
    2993A      5.804574  2994A      5.805173  2995A      5.808420  
    2996A      5.813185  2997A      5.815857  2998A      5.818206  
    2999A      5.819936  3000A      5.823127  3001A      5.824571  
    3002A      5.829611  3003A      5.831333  3004A      5.834372  
    3005A      5.835237  3006A      5.838939  3007A      5.839880  
    3008A      5.841461  3009A      5.844999  3010A      5.852633  
    3011A      5.854786  3012A      5.857464  3013A      5.858518  
    3014A      5.862803  3015A      5.866177  3016A      5.870471  
    3017A      5.872693  3018A      5.878383  3019A      5.883609  
    3020A      5.886128  3021A      5.888645  3022A      5.891154  
    3023A      5.894957  3024A      5.898776  3025A      5.899351  
    3026A      5.902842  3027A      5.907364  3028A      5.908304  
    3029A      5.909897  3030A      5.917901  3031A      5.918946  
    3032A      5.919699  3033A      5.922113  3034A      5.925786  
    3035A      5.927248  3036A      5.928587  3037A      5.932187  
    3038A      5.933684  3039A      5.937502  3040A      5.945507  
    3041A      5.948359  3042A      5.950080  3043A      5.952246  
    3044A      5.959006  3045A      5.960852  3046A      5.966263  
    3047A      5.967404  3048A      5.973454  3049A      5.979893  
    3050A      5.981264  3051A      5.983285  3052A      5.989063  
    3053A      5.991213  3054A      5.991523  3055A      5.996306  
    3056A      5.999657  3057A      6.002644  3058A      6.007324  
    3059A      6.008759  3060A      6.011498  3061A      6.013253  
    3062A      6.016933  3063A      6.022817  3064A      6.027048  
    3065A      6.028055  3066A      6.031776  3067A      6.032867  
    3068A      6.035610  3069A      6.037713  3070A      6.042032  
    3071A      6.044834  3072A      6.045695  3073A      6.049446  
    3074A      6.052217  3075A      6.055480  3076A      6.059700  
    3077A      6.062295  3078A      6.066737  3079A      6.067907  
    3080A      6.068804  3081A      6.073550  3082A      6.075756  
    3083A      6.076873  3084A      6.077941  3085A      6.082146  
    3086A      6.085402  3087A      6.088219  3088A      6.088466  
    3089A      6.094218  3090A      6.096766  3091A      6.100312  
    3092A      6.101316  3093A      6.102705  3094A      6.104277  
    3095A      6.108404  3096A      6.109906  3097A      6.112771  
    3098A      6.119342  3099A      6.121368  3100A      6.123433  
    3101A      6.125713  3102A      6.128621  3103A      6.130481  
    3104A      6.135212  3105A      6.137954  3106A      6.143272  
    3107A      6.144579  3108A      6.146911  3109A      6.151000  
    3110A      6.156448  3111A      6.158403  3112A      6.160457  
    3113A      6.165513  3114A      6.171331  3115A      6.175839  
    3116A      6.181795  3117A      6.186140  3118A      6.189853  
    3119A      6.191266  3120A      6.203918  3121A      6.208301  
    3122A      6.212594  3123A      6.215821  3124A      6.218035  
    3125A      6.223036  3126A      6.226130  3127A      6.226534  
    3128A      6.235258  3129A      6.237727  3130A      6.245830  
    3131A      6.247303  3132A      6.247864  3133A      6.255831  
    3134A      6.259000  3135A      6.266278  3136A      6.268439  
    3137A      6.280375  3138A      6.283101  3139A      6.285596  
    3140A      6.290537  3141A      6.291789  3142A      6.295435  
    3143A      6.311535  3144A      6.315484  3145A      6.327596  
    3146A      6.336119  3147A      6.338460  3148A      6.342330  
    3149A      6.347138  3150A      6.348677  3151A      6.358019  
    3152A      6.372672  3153A      6.378908  3154A      6.382947  
    3155A      6.401817  3156A      6.412921  3157A      6.418501  
    3158A      6.423838  3159A      6.426292  3160A      6.430069  
    3161A      6.434406  3162A      6.451190  3163A      6.457536  
    3164A      6.463107  3165A      6.468454  3166A      6.474790  
    3167A      6.494219  3168A      6.504673  3169A      6.518988  
    3170A      6.531071  3171A      6.543001  3172A      6.553672  
    3173A      6.555278  3174A      6.563326  3175A      6.564255  
    3176A      6.571360  3177A      6.576747  3178A      6.584587  
    3179A      6.591571  3180A      6.596466  3181A      6.601412  
    3182A      6.603754  3183A      6.607257  3184A      6.612894  
    3185A      6.618136  3186A      6.622303  3187A      6.631569  
    3188A      6.633464  3189A      6.637742  3190A      6.643232  
    3191A      6.653127  3192A      6.661920  3193A      6.677638  
    3194A      6.689792  3195A      6.704148  3196A      6.711742  
    3197A      6.720940  3198A      6.726989  3199A      6.738798  
    3200A      6.745279  3201A      6.751656  3202A      6.765379  
    3203A      6.774728  3204A      6.784795  3205A      6.791761  
    3206A      6.794192  3207A      6.807043  3208A      6.812767  
    3209A      6.816555  3210A      6.821818  3211A      6.823403  
    3212A      6.839047  3213A      6.842892  3214A      6.862855  
    3215A      6.889357  3216A      6.910866  3217A      6.918619  
    3218A      6.925298  3219A      6.938891  3220A      6.942719  
    3221A      6.950621  3222A      6.956593  3223A      6.961600  
    3224A      6.986664  3225A      6.991290  3226A      7.000792  
    3227A      7.014369  3228A      7.034481  3229A      7.035779  
    3230A      7.060714  3231A      7.062854  3232A      7.086060  
    3233A      7.087882  3234A      7.101556  3235A      7.105485  
    3236A      7.125455  3237A      7.128066  3238A      7.155403  
    3239A      7.158069  3240A      7.185936  3241A      7.188574  
    3242A      7.224747  3243A      7.225294  3244A      7.251536  
    3245A      7.254167  3246A      7.267412  3247A      7.273347  
    3248A      7.298405  3249A      7.302870  3250A      7.314208  
    3251A      7.332472  3252A      7.343145  3253A      7.356720  
    3254A      7.382473  3255A      7.385304  3256A      7.392704  
    3257A      7.440483  3258A      7.444865  3259A      7.460405  
    3260A      7.472899  3261A      7.480098  3262A      7.540037  
    3263A      7.586723  3264A      7.618542  3265A      7.625845  
    3266A      7.652558  3267A      7.657021  3268A      7.675176  
    3269A      7.677136  3270A      7.692721  3271A      7.694344  
    3272A      7.703547  3273A      7.709068  3274A      7.720676  
    3275A      7.724401  3276A      7.732909  3277A      7.757911  
    3278A      7.768727  3279A      7.780889  3280A      7.840635  
    3281A      7.863466  3282A      7.865550  3283A      7.876091  
    3284A      7.881290  3285A      7.904642  3286A      7.914366  
    3287A      7.946880  3288A      7.953210  3289A      7.959544  
    3290A      7.963567  3291A      7.974171  3292A      7.983124  
    3293A      7.996485  3294A      7.999172  3295A      8.010723  
    3296A      8.019349  3297A      8.022905  3298A      8.028723  
    3299A      8.033969  3300A      8.042860  3301A      8.054356  
    3302A      8.064765  3303A      8.084071  3304A      8.085921  
    3305A      8.099675  3306A      8.134811  3307A      8.167765  
    3308A      8.191386  3309A      8.212551  3310A      8.219896  
    3311A      8.237519  3312A      8.239883  3313A      8.355140  
    3314A      8.366707  3315A      8.410230  3316A      8.413659  
    3317A      8.510191  3318A      8.536367  3319A      8.557584  
    3320A      8.565646  3321A      8.589939  3322A      8.599349  
    3323A      8.614936  3324A      8.621725  3325A      8.641492  
    3326A      8.645668  3327A      8.669718  3328A      8.671468  
    3329A      8.700033  3330A      8.701365  3331A      8.753427  
    3332A      8.754521  3333A      9.079678  3334A      9.107004  
    3335A      9.195224  3336A      9.288544  3337A      9.353552  
    3338A      9.398127  3339A      9.417563  3340A      9.450641  
    3341A      9.457767  3342A      9.460203  3343A      9.502106  
    3344A      9.504711  3345A      9.556812  3346A      9.714388  
    3347A      9.880467  3348A     10.021829  3349A     10.124180  
    3350A     10.507065  3351A     10.508555  3352A     10.569005  
    3353A     10.573917  3354A     10.602863  3355A     10.620476  
    3356A     10.639635  3357A     10.680603  3358A     10.709736  
    3359A     10.771371  3360A     10.791790  3361A     10.894524  
    3362A     10.905890  3363A     10.913135  3364A     11.016332  
    3365A     11.071524  3366A     11.123408  3367A     11.135528  
    3368A     17.336636  3369A     17.345427  3370A     17.572817  
    3371A     17.613792  3372A     17.687690  3373A     17.726705  
    3374A     17.823085  3375A     17.874229  3376A     17.921264  
    3377A     17.940165  3378A     18.001333  3379A     18.220249  
    3380A     18.239959  3381A     18.282953  3382A     18.697847  
    3383A     19.017107  3384A     19.271937  3385A     19.281072  
    3386A     53.594022  3387A     53.606224  3388A     54.153202  
    3389A     54.236804  3390A     54.372540  3391A     54.513948  
    3392A     54.716542  3393A     54.747663  3394A     54.818135  
    3395A     54.981171  3396A     55.009509  3397A     55.273240  
    3398A     55.293577  3399A     55.404540  3400A     56.215423  
    3401A     56.863600  3402A     57.394417  3403A     57.402117  

    Final Occupation by Irrep:
              A 
    DOCC [    73 ]
    NA   [    73 ]
    NB   [    73 ]

  @DF-RKS Final Energy:  -708.89874661970646

   => Energetics <=

    Nuclear Repulsion Energy =           1177.2118179273250007
    One-Electron Energy =               -3288.6925572356535667
    Two-Electron Energy =                1477.7304994445612465
    DFT Exchange-Correlation Energy =     -75.6953094465976761
    Empirical Dispersion Energy =           0.0000000000000000
    VV10 Nonlocal Energy =                  0.5468026906584350
    Total Energy =                       -708.8987466197063441

Computation Completed


Properties will be evaluated at   0.000000,   0.000000,   0.000000 [a0]

Properties computed using the SCF density matrix


 Multipole Moments:

 ------------------------------------------------------------------------------------
     Multipole            Electronic (a.u.)      Nuclear  (a.u.)        Total (a.u.)
 ------------------------------------------------------------------------------------

 L = 1.  Multiply by 2.5417464519 to convert [e a0] to [Debye]
 Dipole X            :      -3113.8286920         3113.8283486           -0.0003435
 Dipole Y            :      -2170.7512869         2170.7510770           -0.0002098
 Dipole Z            :        574.6161140         -574.6146922            0.0014218
 Magnitude           :                                                    0.0014776

 ------------------------------------------------------------------------------------

*** tstop() called on atl1-1-03-004-8-1.pace.gatech.edu at Sat Jun 13 18:19:47 2026
Module time:
	user time   =   83325.43 seconds =    1388.76 minutes
	system time =    4076.24 seconds =      67.94 minutes
	total time  =      11989 seconds =     199.82 minutes
Total time:
	user time   =   83325.43 seconds =    1388.76 minutes
	system time =    4076.24 seconds =      67.94 minutes
	total time  =      11989 seconds =     199.82 minutes

    Psi4 stopped on: Saturday, 13 June 2026 06:19PM
    Psi4 wall time for execution: 3:20:00.78

*** Psi4 exiting successfully. Buy a developer a beer!
