
    -----------------------------------------------------------------------
          Psi4: An Open-Source Ab Initio Electronic Structure Package
                               Psi4 1.9.1 release

                         Git: Rev {} zzzzzzz 


    D. G. A. Smith, L. A. Burns, A. C. Simmonett, R. M. Parrish,
    M. C. Schieber, R. Galvelis, P. Kraus, H. Kruse, R. Di Remigio,
    A. Alenaizan, A. M. James, S. Lehtola, J. P. Misiewicz, M. Scheurer,
    R. A. Shaw, J. B. Schriber, Y. Xie, Z. L. Glick, D. A. Sirianni,
    J. S. O'Brien, J. M. Waldrop, A. Kumar, E. G. Hohenstein,
    B. P. Pritchard, B. R. Brooks, H. F. Schaefer III, A. Yu. Sokolov,
    K. Patkowski, A. E. DePrince III, U. Bozkaya, R. A. King,
    F. A. Evangelista, J. M. Turney, T. D. Crawford, C. D. Sherrill,
    J. Chem. Phys. 152(18) 184108 (2020). https://doi.org/10.1063/5.0006002

                            Additional Code Authors
    E. T. Seidl, C. L. Janssen, E. F. Valeev, M. L. Leininger,
    J. F. Gonthier, R. M. Richard, H. R. McAlexander, M. Saitow, X. Wang,
    P. Verma, M. H. Lechner, A. Jiang, S. Behnle, A. G. Heide,
    M. F. Herbst, and D. L. Poole

             Previous Authors, Complete List of Code Contributors,
                       and Citations for Specific Modules
    https://github.com/psi4/psi4/blob/master/codemeta.json
    https://github.com/psi4/psi4/graphs/contributors
    http://psicode.org/psi4manual/master/introduction.html#citing-psifour

    -----------------------------------------------------------------------


    Psi4 started on: Saturday, 13 June 2026 04:20PM

    Process ID: 2266195
    Host:       atl1-1-02-003-20-2.pace.gatech.edu
    PSIDATADIR: /storage/home/hcoda1/5/vlita3/.conda/envs/p4_qcml/share/psi4
    Memory:     250.0 GiB
    Threads:    10
    
  ==> Input QCSchema <==

--------------------------------------------------------------------------
{'driver': 'energy',
 'extras': {},
 'id': '262',
 'keywords': {},
 'model': {'basis': 'aug-cc-pvtz', 'method': 'wb97x-v'},
 'molecule': {'extras': {},
              'fix_com': True,
              'fix_orientation': True,
              'fragment_charges': [0.0, 0.0],
              'fragment_multiplicities': [1, 1],
              'fragments': [[0, 1, 2, 3, 4, 5, 6, 7, 8, 9, 10, 11, 12, 13, 14, 15, 16, 17, 18, 19, 20, 21, 22, 23, 24,
                             25, 26, 27, 28, 29, 30, 31, 32, 33, 34, 35, 36, 37, 38, 39, 40, 41, 42, 43, 44, 45, 46, 47,
                             48, 49, 50, 51, 52, 53, 54, 55, 56, 57, 58, 59, 60, 61, 62, 63, 64, 65, 66, 67],
                            [68, 69, 70, 71, 72, 73, 74, 75, 76, 77, 78, 79, 80, 81, 82, 83]],
              'geometry': [-5.34620642, -4.85206741, -0.42040662, -6.29696543, -3.97249137, -2.73196591, -7.16652857,
                           -1.39360971, -2.91024059, -7.07225732, 0.1478346, -0.75712917, -6.06055521, -0.70522859,
                           1.52779916, -5.14660825, -3.28275871, 1.6937689, -8.00940954, -0.47795161, -5.29622845,
                           -8.00389532, -2.01265111, -7.39175445, -7.1739962, -4.55869367, -7.20967896, -6.3482405,
                           -5.51081404, -4.93971915, -5.79174545, 0.94432733, 3.66064233, -4.5983628, 0.0799819,
                           5.76970066, -3.62293398, -2.4551662, 5.90550866, -3.92400421, -4.11631993, 3.96419018,
                           -2.16569152, -2.61945029, 8.3885177, 0.07636213, -0.84617571, 7.95116799, -0.9078112,
                           1.61784783, 7.8674416, -3.76570071, 1.39135281, 8.20497635, -3.85671125, -0.88804523,
                           10.06281411, 2.58001171, -1.3655127, 7.31184057, 4.1057488, 0.7110172, 6.7716308, 3.12911434,
                           3.1826792, 6.68292857, 0.58226752, 3.66820181, 7.1546987, 5.22477035, 4.85680231, 5.5947568,
                           5.45773257, 3.95265056, 2.86034162, 6.48712479, 1.44012834, 2.99187034, 6.82098554,
                           0.8515344, 5.79382301, 7.56885523, 3.52377684, 6.77238443, 6.80325367, 0.01007923,
                           0.87853632, 6.01230407, 0.99764822, -1.51581981, 4.9476594, 3.51769873, -1.64633715,
                           4.72513697, 4.9862546, 0.62058001, 6.12205861, -0.46131862, -3.71310038, 5.15756848,
                           0.40687221, -6.02295948, 4.08395781, 2.91056166, -6.14884699, 4.05329983, 4.41018879,
                           -3.96462935, 5.13306837, -1.12454068, -8.23614739, 4.07851898, -0.25961114, -10.44460058,
                           2.99478619, 2.19392857, -10.56107574, 3.00851807, 3.73807424, -8.47334713, 3.50361025,
                           -3.823107, 7.21233591, -0.52564981, 6.01194181, 6.93361699, 5.05829719, 6.89567715,
                           5.87089814, 8.0356414, -0.74107273, 6.26352729, 7.58901842, 3.63875572, 8.83518962,
                           9.35421802, 4.19783591, 5.97522954, -5.76611566, -1.64188193, 10.31542343, -2.98864212,
                           -0.45542891, 11.88758146, -4.77253092, 3.11242428, 8.71181923, -1.70891184, -4.50721847,
                           9.0671295, 7.55489696, -1.89976737, 0.96862939, 3.89947197, 6.86430373, 0.5027639,
                           -6.46680418, 2.87873678, 3.51311765, -3.18323648, -6.03153223, 4.04964208, 3.22722344,
                           6.29110633, -4.05969977, 6.91726822, -2.35617478, -3.61337858, 2.17488807, 5.6139636,
                           -8.5558299, 2.15939666, 2.84829877, -12.31851423, 4.06363758, -1.45295543, -12.11512622,
                           5.94772646, -3.00842661, -8.1365677, -4.65219392, -6.78410677, -0.29846731, -7.72607119,
                           2.09308409, -0.89347536, -5.69192784, -7.45269585, -4.79824367, -8.63836085, 1.47325902,
                           -5.4323305, -8.64382367, -1.28398557, -9.20131008, -7.19028923, -5.75067773, -8.88116704,
                           0.69471926, 7.16657411, 6.19908801, 3.21943853, -4.43255237, 5.4924338, -1.01804176,
                           -2.06721752, -6.41424693, -0.04006805, -3.69463605, -4.59993014, 0.29508244, -2.88730801,
                           -2.09508758, -0.32679714, -0.42272984, -1.41690966, -1.32071561, 1.15392876, -3.24915277,
                           -1.68814035, 0.37514049, -5.74325186, 0.62349756, -6.02367305, -5.33266218, 1.25684872,
                           -4.55988854, -0.10878832, -2.01790096, 3.74535177, -2.52671085, -2.46962752, 1.68011751,
                           -7.10722613, -0.06092458, 0.2181685, 0.50639917, -1.23619836, -2.74752497, -8.33105453,
                           2.06085935, -3.52195874, 1.83306118, 1.18336559, -6.86024705, -0.44470452, -2.90698951,
                           5.11929396, -4.19647021, -1.67462389, 4.39177019, -0.3135118],
              'id': 17,
              'identifiers': {'molecular_formula': 'C46FH29N2O6',
                              'molecule_hash': '59738d88b4c3ae26f379ce911c1eb398fc0895bc'},
              'masses': [12.0, 12.0, 12.0, 12.0, 12.0, 12.0, 12.0, 12.0, 12.0, 12.0, 12.0, 12.0, 12.0, 12.0, 12.0, 12.0,
                         12.0, 12.0, 12.0, 12.0, 12.0, 12.0, 12.0, 12.0, 12.0, 12.0, 12.0, 12.0, 12.0, 12.0, 12.0, 12.0,
                         12.0, 12.0, 12.0, 12.0, 12.0, 12.0, 12.0, 12.0, 15.99491461957, 15.99491461957, 1.00782503223,
                         1.00782503223, 1.00782503223, 1.00782503223, 1.00782503223, 1.00782503223, 1.00782503223,
                         1.00782503223, 1.00782503223, 1.00782503223, 1.00782503223, 1.00782503223, 1.00782503223,
                         1.00782503223, 1.00782503223, 1.00782503223, 1.00782503223, 1.00782503223, 1.00782503223,
                         1.00782503223, 1.00782503223, 1.00782503223, 1.00782503223, 1.00782503223, 1.00782503223,
                         1.00782503223, 12.0, 12.0, 12.0, 12.0, 12.0, 12.0, 18.99840316273, 14.00307400443,
                         14.00307400443, 1.00782503223, 1.00782503223, 1.00782503223, 15.99491461957, 15.99491461957,
                         15.99491461957, 15.99491461957],
              'molecular_charge': 0.0,
              'molecular_multiplicity': 1,
              'name': 'C46FH29N2O6 ([1],[0])',
              'provenance': {'creator': 'QCElemental',
                             'routine': 'qcelemental.molparse.from_schema',
                             'version': '0.29.0'},
              'real': [False, False, False, False, False, False, False, False, False, False, False, False, False, False,
                       False, False, False, False, False, False, False, False, False, False, False, False, False, False,
                       False, False, False, False, False, False, False, False, False, False, False, False, False, False,
                       False, False, False, False, False, False, False, False, False, False, False, False, False, False,
                       False, False, False, False, False, False, False, False, False, False, False, False, True, True,
                       True, True, True, True, True, True, True, True, True, True, True, True, True, True],
              'schema_name': 'qcschema_molecule',
              'schema_version': 2,
              'symbols': ['C', 'C', 'C', 'C', 'C', 'C', 'C', 'C', 'C', 'C', 'C', 'C', 'C', 'C', 'C', 'C', 'C', 'C', 'C',
                          'C', 'C', 'C', 'C', 'C', 'C', 'C', 'C', 'C', 'C', 'C', 'C', 'C', 'C', 'C', 'C', 'C', 'C', 'C',
                          'C', 'C', 'O', 'O', 'H', 'H', 'H', 'H', 'H', 'H', 'H', 'H', 'H', 'H', 'H', 'H', 'H', 'H', 'H',
                          'H', 'H', 'H', 'H', 'H', 'H', 'H', 'H', 'H', 'H', 'H', 'C', 'C', 'C', 'C', 'C', 'C', 'F', 'N',
                          'N', 'H', 'H', 'H', 'O', 'O', 'O', 'O'],
              'validated': True},
 'protocols': {},
 'provenance': {'creator': 'QCElemental', 'routine': 'qcelemental.models.results', 'version': '0.29.0'},
 'schema_name': 'qcschema_input',
 'schema_version': 1}
--------------------------------------------------------------------------

Scratch directory: /tmp/tmpvdrlmjfg_psi_scratch/
   => Libint2 <=

    Primary   basis highest AM E, G, H:  6, 6, 3
    Auxiliary basis highest AM E, G, H:  7, 7, 4
    Onebody   basis highest AM E, G, H:  -, -, -
    Solid Harmonics ordering:            Gaussian

*** tstart() called on atl1-1-02-003-20-2.pace.gatech.edu
*** at Sat Jun 13 16:20:33 2026

   => Loading Basis Set <=

    Name: AUG-CC-PVTZ
    Role: ORBITAL
    Keyword: BASIS
    atoms 1-40, 69-74  entry C          line   239 file /storage/home/hcoda1/5/vlita3/.conda/envs/p4_qcml/share/psi4/basis/aug-cc-pvtz.gbs 
    atoms 41-42, 81-84 entry O          line   331 file /storage/home/hcoda1/5/vlita3/.conda/envs/p4_qcml/share/psi4/basis/aug-cc-pvtz.gbs 
    atoms 43-68, 78-80 entry H          line    40 file /storage/home/hcoda1/5/vlita3/.conda/envs/p4_qcml/share/psi4/basis/aug-cc-pvtz.gbs 
    atoms 75           entry F          line   377 file /storage/home/hcoda1/5/vlita3/.conda/envs/p4_qcml/share/psi4/basis/aug-cc-pvtz.gbs 
    atoms 76-77        entry N          line   285 file /storage/home/hcoda1/5/vlita3/.conda/envs/p4_qcml/share/psi4/basis/aug-cc-pvtz.gbs 


         ---------------------------------------------------------
                                   SCF
               by Justin Turney, Rob Parrish, Andy Simmonett
                          and Daniel G. A. Smith
                              RKS Reference
                       10 Threads, 256000 MiB Core
         ---------------------------------------------------------

  ==> Geometry <==

    Molecular point group: c1
    Full point group: C1

    Geometry (in Bohr), charge = 0, multiplicity = 1:

       Center              X                  Y                   Z               Mass       
    ------------   -----------------  -----------------  -----------------  -----------------
      Gh(C)          -5.346206420000    -4.852067410000    -0.420406620000    12.000000000000
      Gh(C)          -6.296965430000    -3.972491370000    -2.731965910000    12.000000000000
      Gh(C)          -7.166528570000    -1.393609710000    -2.910240590000    12.000000000000
      Gh(C)          -7.072257320000     0.147834600000    -0.757129170000    12.000000000000
      Gh(C)          -6.060555210000    -0.705228590000     1.527799160000    12.000000000000
      Gh(C)          -5.146608250000    -3.282758710000     1.693768900000    12.000000000000
      Gh(C)          -8.009409540000    -0.477951610000    -5.296228450000    12.000000000000
      Gh(C)          -8.003895320000    -2.012651110000    -7.391754450000    12.000000000000
      Gh(C)          -7.173996200000    -4.558693670000    -7.209678960000    12.000000000000
      Gh(C)          -6.348240500000    -5.510814040000    -4.939719150000    12.000000000000
      Gh(C)          -5.791745450000     0.944327330000     3.660642330000    12.000000000000
      Gh(C)          -4.598362800000     0.079981900000     5.769700660000    12.000000000000
      Gh(C)          -3.622933980000    -2.455166200000     5.905508660000    12.000000000000
      Gh(C)          -3.924004210000    -4.116319930000     3.964190180000    12.000000000000
      Gh(C)          -2.165691520000    -2.619450290000     8.388517700000    12.000000000000
      Gh(C)           0.076362130000    -0.846175710000     7.951167990000    12.000000000000
      Gh(C)          -0.907811200000     1.617847830000     7.867441600000    12.000000000000
      Gh(C)          -3.765700710000     1.391352810000     8.204976350000    12.000000000000
      Gh(C)          -3.856711250000    -0.888045230000    10.062814110000    12.000000000000
      Gh(C)           2.580011710000    -1.365512700000     7.311840570000    12.000000000000
      Gh(C)           4.105748800000     0.711017200000     6.771630800000    12.000000000000
      Gh(C)           3.129114340000     3.182679200000     6.682928570000    12.000000000000
      Gh(C)           0.582267520000     3.668201810000     7.154698700000    12.000000000000
      Gh(C)           5.224770350000     4.856802310000     5.594756800000    12.000000000000
      Gh(C)           5.457732570000     3.952650560000     2.860341620000    12.000000000000
      Gh(C)           6.487124790000     1.440128340000     2.991870340000    12.000000000000
      Gh(C)           6.820985540000     0.851534400000     5.793823010000    12.000000000000
      Gh(C)           7.568855230000     3.523776840000     6.772384430000    12.000000000000
      Gh(C)           6.803253670000     0.010079230000     0.878536320000    12.000000000000
      Gh(C)           6.012304070000     0.997648220000    -1.515819810000    12.000000000000
      Gh(C)           4.947659400000     3.517698730000    -1.646337150000    12.000000000000
      Gh(C)           4.725136970000     4.986254600000     0.620580010000    12.000000000000
      Gh(C)           6.122058610000    -0.461318620000    -3.713100380000    12.000000000000
      Gh(C)           5.157568480000     0.406872210000    -6.022959480000    12.000000000000
      Gh(C)           4.083957810000     2.910561660000    -6.148846990000    12.000000000000
      Gh(C)           4.053299830000     4.410188790000    -3.964629350000    12.000000000000
      Gh(C)           5.133068370000    -1.124540680000    -8.236147390000    12.000000000000
      Gh(C)           4.078518980000    -0.259611140000   -10.444600580000    12.000000000000
      Gh(C)           2.994786190000     2.193928570000   -10.561075740000    12.000000000000
      Gh(C)           3.008518070000     3.738074240000    -8.473347130000    12.000000000000
      Gh(O)           3.503610250000    -3.823107000000     7.212335910000    15.994914619570
      Gh(O)          -0.525649810000     6.011941810000     6.933616990000    15.994914619570
      Gh(H)           5.058297190000     6.895677150000     5.870898140000     1.007825032230
      Gh(H)           8.035641400000    -0.741072730000     6.263527290000     1.007825032230
      Gh(H)           7.589018420000     3.638755720000     8.835189620000     1.007825032230
      Gh(H)           9.354218020000     4.197835910000     5.975229540000     1.007825032230
      Gh(H)          -5.766115660000    -1.641881930000    10.315423430000     1.007825032230
      Gh(H)          -2.988642120000    -0.455428910000    11.887581460000     1.007825032230
      Gh(H)          -4.772530920000     3.112424280000     8.711819230000     1.007825032230
      Gh(H)          -1.708911840000    -4.507218470000     9.067129500000     1.007825032230
      Gh(H)           7.554896960000    -1.899767370000     0.968629390000     1.007825032230
      Gh(H)           3.899471970000     6.864303730000     0.502763900000     1.007825032230
      Gh(H)          -6.466804180000     2.878736780000     3.513117650000     1.007825032230
      Gh(H)          -3.183236480000    -6.031532230000     4.049642080000     1.007825032230
      Gh(H)           3.227223440000     6.291106330000    -4.059699770000     1.007825032230
      Gh(H)           6.917268220000    -2.356174780000    -3.613378580000     1.007825032230
      Gh(H)           2.174888070000     5.613963600000    -8.555829900000     1.007825032230
      Gh(H)           2.159396660000     2.848298770000   -12.318514230000     1.007825032230
      Gh(H)           4.063637580000    -1.452955430000   -12.115126220000     1.007825032230
      Gh(H)           5.947726460000    -3.008426610000    -8.136567700000     1.007825032230
      Gh(H)          -4.652193920000    -6.784106770000    -0.298467310000     1.007825032230
      Gh(H)          -7.726071190000     2.093084090000    -0.893475360000     1.007825032230
      Gh(H)          -5.691927840000    -7.452695850000    -4.798243670000     1.007825032230
      Gh(H)          -8.638360850000     1.473259020000    -5.432330500000     1.007825032230
      Gh(H)          -8.643823670000    -1.283985570000    -9.201310080000     1.007825032230
      Gh(H)          -7.190289230000    -5.750677730000    -8.881167040000     1.007825032230
      Gh(H)           0.694719260000     7.166574110000     6.199088010000     1.007825032230
      Gh(H)           3.219438530000    -4.432552370000     5.492433800000     1.007825032230
         C           -1.018041760000    -2.067217520000    -6.414246930000    12.000000000000
         C           -0.040068050000    -3.694636050000    -4.599930140000    12.000000000000
         C            0.295082440000    -2.887308010000    -2.095087580000    12.000000000000
         C           -0.326797140000    -0.422729840000    -1.416909660000    12.000000000000
         C           -1.320715610000     1.153928760000    -3.249152770000    12.000000000000
         C           -1.688140350000     0.375140490000    -5.743251860000    12.000000000000
         F            0.623497560000    -6.023673050000    -5.332662180000    18.998403162730
         N            1.256848720000    -4.559888540000    -0.108788320000    14.003074004430
         N           -2.017900960000     3.745351770000    -2.526710850000    14.003074004430
         H           -2.469627520000     1.680117510000    -7.107226130000     1.007825032230
         H           -0.060924580000     0.218168500000     0.506399170000     1.007825032230
         H           -1.236198360000    -2.747524970000    -8.331054530000     1.007825032230
         O            2.060859350000    -3.521958740000     1.833061180000    15.994914619570
         O            1.183365590000    -6.860247050000    -0.444704520000    15.994914619570
         O           -2.906989510000     5.119293960000    -4.196470210000    15.994914619570
         O           -1.674623890000     4.391770190000    -0.313511800000    15.994914619570

  Running in c1 symmetry.

  Rotational constants: A =      0.00269  B =      0.00202  C =      0.00154 [cm^-1]
  Rotational constants: A =     80.53073  B =     60.67005  C =     46.28054 [MHz]
  Nuclear repulsion =  775.513772342646689

  Charge       = 0
  Multiplicity = 1
  Electrons    = 94
  Nalpha       = 47
  Nbeta        = 47

  ==> Algorithm <==

  SCF Algorithm Type is DF.
  DIIS enabled.
  MOM disabled.
  Fractional occupation disabled.
  Guess Type is SAD.
  Energy threshold   = 1.00e-06
  Density threshold  = 1.00e-06
  Integral threshold = 1.00e-12

  ==> Primary Basis <==

  Basis Set: AUG-CC-PVTZ
    Blend: AUG-CC-PVTZ
    Number of shells: 1031
    Number of basis functions: 3197
    Number of Cartesian functions: 3750
    Spherical Harmonics?: true
    Max angular momentum: 3

  ==> DFT Potential <==

   => LibXC <=

    Version 7.0.0
    S. Lehtola, C. Steigemann, M. J.T. Oliveira, and M. A.L. Marques.,  SoftwareX 7, 1–5 (2018) (10.1016/j.softx.2017.11.002)

   => Composite Functional: WB97X-V <= 

    wB97X-V Hyb-GGA Exchange-Correlation Functional

    N. Mardirossian and M. Head-Gordon.,  Phys. Chem. Chem. Phys. 16, 9904-9924 (2014) (10.1039/C3CP54374A)

    Deriv               =              1
    GGA                 =           TRUE
    Meta                =          FALSE

    Exchange Hybrid     =           TRUE
    MP2 Hybrid          =          FALSE

   => Exchange-Correlation Functionals <=

    1.0000   wB97X-V range-separated functional

   => Exact (HF) Exchange <=

    0.8330            HF,LR [omega = 0.3000]
    0.1670               HF 

   => LibXC Density Thresholds  <==

    XC_HYB_GGA_XC_WB97X_V:  1.00E-14 

   => VV10 Non-Local Parameters <=

    VV10 B              =     6.0000E+00
    VV10 C              =     1.0000E-02

   => Molecular Quadrature <=

    Radial Scheme          =       TREUTLER
    Pruning Scheme         =           NONE
    Nuclear Scheme         =       TREUTLER

    Blocking Scheme        =         OCTREE
    BS radius alpha        =              1
    Pruning alpha          =              1
    Radial Points          =             75
    Spherical Points       =            302
    Total Points           =        1660585
    Total Blocks           =          11397
    Max Points             =            256
    Max Functions          =           2139
    Weights Tolerance      =       1.00E-15

   => Loading Basis Set <=

    Name: (AUG-CC-PVTZ AUX)
    Role: JKFIT
    Keyword: DF_BASIS_SCF
    atoms 1-40, 69-74  entry C          line   162 file /storage/home/hcoda1/5/vlita3/.conda/envs/p4_qcml/share/psi4/basis/aug-cc-pvtz-jkfit.gbs 
    atoms 41-42, 81-84 entry O          line   286 file /storage/home/hcoda1/5/vlita3/.conda/envs/p4_qcml/share/psi4/basis/aug-cc-pvtz-jkfit.gbs 
    atoms 43-68, 78-80 entry H          line    70 file /storage/home/hcoda1/5/vlita3/.conda/envs/p4_qcml/share/psi4/basis/aug-cc-pvtz-jkfit.gbs 
    atoms 75           entry F          line   348 file /storage/home/hcoda1/5/vlita3/.conda/envs/p4_qcml/share/psi4/basis/aug-cc-pvtz-jkfit.gbs 
    atoms 76-77        entry N          line   224 file /storage/home/hcoda1/5/vlita3/.conda/envs/p4_qcml/share/psi4/basis/aug-cc-pvtz-jkfit.gbs 

  ==> Integral Setup <==

  ==> DiskDFJK: Density-Fitted J/K Matrices <==

    J tasked:                  Yes
    K tasked:                  Yes
    wK tasked:                 Yes
    Omega:               3.000E-01
    OpenMP threads:             10
    Integrals threads:          10
    Memory [MiB]:           172800
    Algorithm:                Disk
    Integral Cache:           NONE
    Schwarz Cutoff:          1E-12
    Fitting Condition:       1E-10

   => Auxiliary Basis Set <=

  Basis Set: (AUG-CC-PVTZ AUX)
    Blend: AUG-CC-PVTZ-JKFIT
    Number of shells: 2056
    Number of basis functions: 7054
    Number of Cartesian functions: 8800
    Spherical Harmonics?: true
    Max angular momentum: 4

  Minimum eigenvalue in the overlap matrix is 8.4696743678E-09.
  Reciprocal condition number of the overlap matrix is 2.5542464085E-10.
    Using canonical orthogonalization.
  Overall, 16 of 3197 possible MOs eliminated.


  ==> Pre-Iterations <==

  SCF Guess: Superposition of Atomic Densities via on-the-fly atomic UHF (no occupation information).

   -------------------------
    Irrep   Nso     Nmo    
   -------------------------
     A       3197    3181 
   -------------------------
    Total    3197    3181
   -------------------------

  ==> Iterations <==

                           Total Energy        Delta E     RMS |[F,P]|

   @DF-RKS iter SAD:  -739.99505477123091   -7.39995e+02   0.00000e+00 
   @DF-RKS iter   1:  -740.07471941876281   -7.96646e-02   3.45106e-04 ADIIS/DIIS
   @DF-RKS iter   2:  -739.99931400355285    7.54054e-02   4.05293e-04 ADIIS/DIIS
   @DF-RKS iter   3:  -740.51641113104154   -5.17097e-01   4.29445e-05 DIIS
   @DF-RKS iter   4:  -740.52325933306395   -6.84820e-03   1.69648e-05 DIIS
   @DF-RKS iter   5:  -740.52440059944854   -1.14127e-03   6.36017e-06 DIIS
   @DF-RKS iter   6:  -740.52453916789057   -1.38568e-04   2.78320e-06 DIIS
   @DF-RKS iter   7:  -740.52456795024796   -2.87824e-05   9.59110e-07 DIIS
   @DF-RKS iter   8:  -740.52457284268667   -4.89244e-06   2.61626e-07 DIIS
   @DF-RKS iter   9:  -740.52457353953037   -6.96844e-07   1.29407e-07 DIIS
  Energy and wave function converged.


  ==> Post-Iterations <==

   Electrons on quadrature grid:
      Ntotal   =   93.9997537173 ; deviation = -2.463e-04 

    Orbital Energies [Eh]
    ---------------------

    Doubly Occupied:                                                      

       1A    -24.827761     2A    -19.280624     3A    -19.280457  
       4A    -19.279553     5A    -19.276773     6A    -14.690138  
       7A    -14.688206     8A    -10.438676     9A    -10.389473  
      10A    -10.381057    11A    -10.356403    12A    -10.355050  
      13A    -10.343444    14A     -1.412212    15A     -1.386374  
      16A     -1.385616    17A     -1.209714    18A     -1.208249  
      19A     -1.083923    20A     -1.000013    21A     -0.973863  
      22A     -0.880741    23A     -0.867731    24A     -0.800536  
      25A     -0.749735    26A     -0.725329    27A     -0.700853  
      28A     -0.692919    29A     -0.684253    30A     -0.679002  
      31A     -0.676269    32A     -0.651835    33A     -0.640397  
      34A     -0.635862    35A     -0.613734    36A     -0.586922  
      37A     -0.570395    38A     -0.540372    39A     -0.527563  
      40A     -0.453137    41A     -0.446939    42A     -0.443853  
      43A     -0.440275    44A     -0.435118    45A     -0.434057  
      46A     -0.417361    47A     -0.406574  

    Virtual:                                                              

      48A     -0.049225    49A     -0.039336    50A      0.010685  
      51A      0.020667    52A      0.021019    53A      0.024853  
      54A      0.026754    55A      0.030282    56A      0.030763  
      57A      0.035785    58A      0.036127    59A      0.042815  
      60A      0.044680    61A      0.045795    62A      0.046695  
      63A      0.047376    64A      0.048353    65A      0.050750  
      66A      0.056803    67A      0.057539    68A      0.058594  
      69A      0.058922    70A      0.061374    71A      0.063040  
      72A      0.063904    73A      0.065637    74A      0.067001  
      75A      0.069067    76A      0.071514    77A      0.072176  
      78A      0.074426    79A      0.076136    80A      0.077264  
      81A      0.078676    82A      0.079533    83A      0.084317  
      84A      0.086333    85A      0.087581    86A      0.090418  
      87A      0.091301    88A      0.091941    89A      0.093752  
      90A      0.096497    91A      0.097777    92A      0.099500  
      93A      0.101022    94A      0.101935    95A      0.102700  
      96A      0.103542    97A      0.103724    98A      0.107790  
      99A      0.108613   100A      0.111286   101A      0.113758  
     102A      0.115849   103A      0.116382   104A      0.120304  
     105A      0.121495   106A      0.122201   107A      0.124131  
     108A      0.124474   109A      0.125901   110A      0.126594  
     111A      0.127176   112A      0.129655   113A      0.130207  
     114A      0.132857   115A      0.133586   116A      0.135213  
     117A      0.135650   118A      0.138885   119A      0.139162  
     120A      0.140109   121A      0.141259   122A      0.143107  
     123A      0.145418   124A      0.148564   125A      0.150849  
     126A      0.151308   127A      0.152740   128A      0.153620  
     129A      0.154644   130A      0.155935   131A      0.156595  
     132A      0.157509   133A      0.159087   134A      0.159452  
     135A      0.161523   136A      0.162530   137A      0.163180  
     138A      0.164130   139A      0.165353   140A      0.165895  
     141A      0.166649   142A      0.170244   143A      0.171010  
     144A      0.171706   145A      0.173579   146A      0.176984  
     147A      0.177465   148A      0.179577   149A      0.179868  
     150A      0.180679   151A      0.181220   152A      0.182725  
     153A      0.184132   154A      0.184680   155A      0.187892  
     156A      0.188849   157A      0.190049   158A      0.191629  
     159A      0.192153   160A      0.193513   161A      0.194449  
     162A      0.194909   163A      0.195785   164A      0.197271  
     165A      0.198510   166A      0.200359   167A      0.202027  
     168A      0.202376   169A      0.204264   170A      0.205039  
     171A      0.206533   172A      0.207597   173A      0.209439  
     174A      0.212427   175A      0.212523   176A      0.213640  
     177A      0.213953   178A      0.215583   179A      0.216897  
     180A      0.217539   181A      0.218893   182A      0.219289  
     183A      0.220674   184A      0.222886   185A      0.223953  
     186A      0.226470   187A      0.227700   188A      0.228827  
     189A      0.229471   190A      0.230109   191A      0.230722  
     192A      0.232551   193A      0.233732   194A      0.234358  
     195A      0.235956   196A      0.237555   197A      0.238151  
     198A      0.239305   199A      0.239908   200A      0.242204  
     201A      0.244060   202A      0.244867   203A      0.246064  
     204A      0.249166   205A      0.250182   206A      0.251359  
     207A      0.254053   208A      0.254434   209A      0.256321  
     210A      0.257051   211A      0.258321   212A      0.261336  
     213A      0.261612   214A      0.262149   215A      0.263703  
     216A      0.264637   217A      0.265729   218A      0.267664  
     219A      0.268116   220A      0.268918   221A      0.269172  
     222A      0.269766   223A      0.272098   224A      0.272932  
     225A      0.275477   226A      0.278063   227A      0.278912  
     228A      0.279888   229A      0.280624   230A      0.281661  
     231A      0.282286   232A      0.282863   233A      0.283829  
     234A      0.284687   235A      0.285306   236A      0.287918  
     237A      0.288541   238A      0.290723   239A      0.293597  
     240A      0.293866   241A      0.295832   242A      0.296761  
     243A      0.298848   244A      0.300078   245A      0.300885  
     246A      0.303174   247A      0.304782   248A      0.305192  
     249A      0.306664   250A      0.307745   251A      0.309039  
     252A      0.310218   253A      0.312868   254A      0.314593  
     255A      0.314906   256A      0.315198   257A      0.317158  
     258A      0.317647   259A      0.319127   260A      0.321150  
     261A      0.322253   262A      0.323538   263A      0.325358  
     264A      0.326183   265A      0.327901   266A      0.328352  
     267A      0.330297   268A      0.331221   269A      0.331981  
     270A      0.333610   271A      0.334508   272A      0.336095  
     273A      0.336817   274A      0.337261   275A      0.338625  
     276A      0.341688   277A      0.342730   278A      0.342969  
     279A      0.344132   280A      0.347342   281A      0.348914  
     282A      0.349960   283A      0.351102   284A      0.353337  
     285A      0.354969   286A      0.356267   287A      0.357463  
     288A      0.358424   289A      0.359010   290A      0.361417  
     291A      0.362885   292A      0.364114   293A      0.365107  
     294A      0.366540   295A      0.368530   296A      0.369170  
     297A      0.370445   298A      0.371989   299A      0.373849  
     300A      0.375820   301A      0.379524   302A      0.380291  
     303A      0.381647   304A      0.382706   305A      0.383108  
     306A      0.384529   307A      0.385269   308A      0.387426  
     309A      0.389549   310A      0.390849   311A      0.393819  
     312A      0.394344   313A      0.394813   314A      0.396995  
     315A      0.398208   316A      0.401035   317A      0.402218  
     318A      0.402605   319A      0.404507   320A      0.406299  
     321A      0.408244   322A      0.409752   323A      0.411029  
     324A      0.412363   325A      0.414420   326A      0.415202  
     327A      0.416123   328A      0.417000   329A      0.417791  
     330A      0.418691   331A      0.420842   332A      0.421962  
     333A      0.422969   334A      0.424200   335A      0.427471  
     336A      0.429083   337A      0.429705   338A      0.431463  
     339A      0.432015   340A      0.433080   341A      0.435153  
     342A      0.436478   343A      0.437872   344A      0.438297  
     345A      0.439534   346A      0.441176   347A      0.442009  
     348A      0.442678   349A      0.444674   350A      0.446764  
     351A      0.448236   352A      0.449708   353A      0.452604  
     354A      0.454203   355A      0.455885   356A      0.456839  
     357A      0.458493   358A      0.460939   359A      0.461313  
     360A      0.462917   361A      0.463698   362A      0.464898  
     363A      0.465513   364A      0.467891   365A      0.468918  
     366A      0.470510   367A      0.472354   368A      0.472489  
     369A      0.473823   370A      0.475501   371A      0.477766  
     372A      0.478946   373A      0.479652   374A      0.480548  
     375A      0.482551   376A      0.484612   377A      0.486172  
     378A      0.487307   379A      0.487662   380A      0.489248  
     381A      0.489812   382A      0.491677   383A      0.492981  
     384A      0.493956   385A      0.496810   386A      0.497973  
     387A      0.499213   388A      0.499777   389A      0.501219  
     390A      0.503285   391A      0.503732   392A      0.504746  
     393A      0.506314   394A      0.507527   395A      0.508035  
     396A      0.509552   397A      0.510984   398A      0.511145  
     399A      0.512485   400A      0.513420   401A      0.514811  
     402A      0.515819   403A      0.517723   404A      0.518442  
     405A      0.520461   406A      0.521344   407A      0.521803  
     408A      0.523756   409A      0.526130   410A      0.526799  
     411A      0.527513   412A      0.529107   413A      0.530142  
     414A      0.531403   415A      0.532187   416A      0.533420  
     417A      0.535141   418A      0.536487   419A      0.537244  
     420A      0.538935   421A      0.540647   422A      0.542454  
     423A      0.543963   424A      0.545211   425A      0.547541  
     426A      0.549408   427A      0.550380   428A      0.551693  
     429A      0.553372   430A      0.554464   431A      0.556143  
     432A      0.558141   433A      0.561037   434A      0.561958  
     435A      0.564443   436A      0.564729   437A      0.566188  
     438A      0.568405   439A      0.569530   440A      0.571348  
     441A      0.572333   442A      0.573179   443A      0.575155  
     444A      0.576857   445A      0.577870   446A      0.580897  
     447A      0.581492   448A      0.582410   449A      0.583616  
     450A      0.583997   451A      0.586278   452A      0.587114  
     453A      0.588074   454A      0.591248   455A      0.592010  
     456A      0.593074   457A      0.594764   458A      0.596089  
     459A      0.597863   460A      0.597929   461A      0.602015  
     462A      0.602676   463A      0.603945   464A      0.605099  
     465A      0.605997   466A      0.607578   467A      0.609115  
     468A      0.611846   469A      0.614039   470A      0.615922  
     471A      0.617382   472A      0.618480   473A      0.619477  
     474A      0.621112   475A      0.622234   476A      0.623256  
     477A      0.624336   478A      0.625262   479A      0.627032  
     480A      0.629235   481A      0.630967   482A      0.633102  
     483A      0.633534   484A      0.636326   485A      0.638272  
     486A      0.638905   487A      0.640732   488A      0.642410  
     489A      0.642745   490A      0.643069   491A      0.644679  
     492A      0.646357   493A      0.647623   494A      0.648583  
     495A      0.649429   496A      0.650756   497A      0.652677  
     498A      0.654494   499A      0.656030   500A      0.657165  
     501A      0.660196   502A      0.660620   503A      0.662831  
     504A      0.665446   505A      0.666442   506A      0.667439  
     507A      0.668394   508A      0.669288   509A      0.670620  
     510A      0.672090   511A      0.672562   512A      0.674864  
     513A      0.676853   514A      0.678667   515A      0.678854  
     516A      0.680527   517A      0.683313   518A      0.684387  
     519A      0.685660   520A      0.686363   521A      0.687920  
     522A      0.688375   523A      0.690378   524A      0.691949  
     525A      0.694555   526A      0.694748   527A      0.696565  
     528A      0.697486   529A      0.699492   530A      0.700573  
     531A      0.702029   532A      0.704667   533A      0.704799  
     534A      0.708409   535A      0.708774   536A      0.709490  
     537A      0.710936   538A      0.711441   539A      0.713486  
     540A      0.714632   541A      0.717197   542A      0.718719  
     543A      0.719019   544A      0.721763   545A      0.722459  
     546A      0.723506   547A      0.724154   548A      0.724700  
     549A      0.726588   550A      0.727252   551A      0.729677  
     552A      0.731394   553A      0.732077   554A      0.732453  
     555A      0.733726   556A      0.735413   557A      0.735786  
     558A      0.738523   559A      0.740639   560A      0.741792  
     561A      0.743322   562A      0.744019   563A      0.745863  
     564A      0.747816   565A      0.749115   566A      0.750683  
     567A      0.751979   568A      0.753955   569A      0.756555  
     570A      0.757318   571A      0.758781   572A      0.761299  
     573A      0.763595   574A      0.765446   575A      0.766338  
     576A      0.768293   577A      0.769012   578A      0.770816  
     579A      0.771876   580A      0.773655   581A      0.775197  
     582A      0.776261   583A      0.776591   584A      0.778531  
     585A      0.782266   586A      0.784004   587A      0.785058  
     588A      0.785285   589A      0.787026   590A      0.788630  
     591A      0.789755   592A      0.791383   593A      0.792531  
     594A      0.793257   595A      0.795361   596A      0.796829  
     597A      0.797733   598A      0.799966   599A      0.800721  
     600A      0.801758   601A      0.804643   602A      0.806591  
     603A      0.807731   604A      0.810159   605A      0.810700  
     606A      0.811569   607A      0.812863   608A      0.814089  
     609A      0.815102   610A      0.817821   611A      0.820405  
     612A      0.821953   613A      0.822620   614A      0.823434  
     615A      0.824544   616A      0.826677   617A      0.828003  
     618A      0.830006   619A      0.831564   620A      0.833369  
     621A      0.834894   622A      0.835489   623A      0.837062  
     624A      0.838450   625A      0.841065   626A      0.841616  
     627A      0.842443   628A      0.844720   629A      0.847733  
     630A      0.850083   631A      0.851305   632A      0.851891  
     633A      0.854987   634A      0.856323   635A      0.856882  
     636A      0.859838   637A      0.860831   638A      0.863335  
     639A      0.864410   640A      0.865409   641A      0.867253  
     642A      0.868462   643A      0.871488   644A      0.872418  
     645A      0.875416   646A      0.876942   647A      0.878746  
     648A      0.880339   649A      0.882556   650A      0.883392  
     651A      0.884609   652A      0.885807   653A      0.887418  
     654A      0.887771   655A      0.888635   656A      0.891916  
     657A      0.892921   658A      0.894381   659A      0.896398  
     660A      0.897540   661A      0.898475   662A      0.899951  
     663A      0.901277   664A      0.903704   665A      0.905081  
     666A      0.906522   667A      0.907092   668A      0.909030  
     669A      0.910779   670A      0.911300   671A      0.913671  
     672A      0.914895   673A      0.916149   674A      0.917995  
     675A      0.919329   676A      0.920261   677A      0.923458  
     678A      0.924143   679A      0.925910   680A      0.927226  
     681A      0.928615   682A      0.929957   683A      0.931892  
     684A      0.933471   685A      0.936216   686A      0.939002  
     687A      0.940842   688A      0.942840   689A      0.943649  
     690A      0.944518   691A      0.946567   692A      0.947884  
     693A      0.949646   694A      0.950389   695A      0.950999  
     696A      0.953536   697A      0.956148   698A      0.958546  
     699A      0.959619   700A      0.960449   701A      0.962116  
     702A      0.964142   703A      0.966257   704A      0.968106  
     705A      0.968770   706A      0.969779   707A      0.972021  
     708A      0.972238   709A      0.972725   710A      0.975426  
     711A      0.978711   712A      0.979563   713A      0.982099  
     714A      0.983685   715A      0.984401   716A      0.985290  
     717A      0.987939   718A      0.989639   719A      0.990473  
     720A      0.991621   721A      0.993227   722A      0.995623  
     723A      0.997010   724A      0.998846   725A      1.001277  
     726A      1.002809   727A      1.003626   728A      1.004822  
     729A      1.007115   730A      1.009754   731A      1.011365  
     732A      1.012197   733A      1.013601   734A      1.014033  
     735A      1.016909   736A      1.017711   737A      1.021433  
     738A      1.022173   739A      1.024174   740A      1.026453  
     741A      1.027832   742A      1.028703   743A      1.029328  
     744A      1.030578   745A      1.031856   746A      1.033839  
     747A      1.034268   748A      1.036414   749A      1.037096  
     750A      1.038577   751A      1.039283   752A      1.042188  
     753A      1.042960   754A      1.044853   755A      1.047747  
     756A      1.049847   757A      1.051225   758A      1.054025  
     759A      1.054905   760A      1.056883   761A      1.058168  
     762A      1.060030   763A      1.060701   764A      1.063284  
     765A      1.064342   766A      1.064923   767A      1.065676  
     768A      1.068167   769A      1.070635   770A      1.074772  
     771A      1.077753   772A      1.078720   773A      1.080713  
     774A      1.081269   775A      1.082254   776A      1.085272  
     777A      1.086528   778A      1.089526   779A      1.091114  
     780A      1.091311   781A      1.093195   782A      1.095447  
     783A      1.097575   784A      1.099085   785A      1.100063  
     786A      1.101762   787A      1.102917   788A      1.104641  
     789A      1.106802   790A      1.108563   791A      1.109762  
     792A      1.112859   793A      1.114058   794A      1.115696  
     795A      1.117338   796A      1.118996   797A      1.121620  
     798A      1.123062   799A      1.125579   800A      1.127119  
     801A      1.128886   802A      1.129181   803A      1.130506  
     804A      1.133105   805A      1.134131   806A      1.135020  
     807A      1.138371   808A      1.139405   809A      1.140884  
     810A      1.143106   811A      1.144342   812A      1.145808  
     813A      1.146005   814A      1.149590   815A      1.153512  
     816A      1.156210   817A      1.158705   818A      1.159169  
     819A      1.161191   820A      1.163303   821A      1.164597  
     822A      1.165023   823A      1.167243   824A      1.170154  
     825A      1.170671   826A      1.172309   827A      1.174794  
     828A      1.176240   829A      1.177440   830A      1.178402  
     831A      1.179746   832A      1.182239   833A      1.183102  
     834A      1.183828   835A      1.186452   836A      1.187363  
     837A      1.190113   838A      1.190558   839A      1.191781  
     840A      1.193160   841A      1.196005   842A      1.198045  
     843A      1.200214   844A      1.201538   845A      1.204333  
     846A      1.205786   847A      1.206631   848A      1.208507  
     849A      1.210992   850A      1.211654   851A      1.213607  
     852A      1.215362   853A      1.216035   854A      1.217927  
     855A      1.221553   856A      1.222418   857A      1.223448  
     858A      1.224955   859A      1.226767   860A      1.226970  
     861A      1.228809   862A      1.231257   863A      1.232119  
     864A      1.233651   865A      1.235050   866A      1.236386  
     867A      1.239584   868A      1.241361   869A      1.242464  
     870A      1.243801   871A      1.244667   872A      1.245548  
     873A      1.246353   874A      1.248580   875A      1.251799  
     876A      1.253205   877A      1.253939   878A      1.255461  
     879A      1.256984   880A      1.259861   881A      1.262639  
     882A      1.264480   883A      1.264974   884A      1.266760  
     885A      1.267770   886A      1.270675   887A      1.271562  
     888A      1.272948   889A      1.274965   890A      1.278256  
     891A      1.282523   892A      1.283114   893A      1.283271  
     894A      1.286585   895A      1.287064   896A      1.288503  
     897A      1.290163   898A      1.291572   899A      1.292453  
     900A      1.294343   901A      1.295768   902A      1.297888  
     903A      1.301073   904A      1.302238   905A      1.303421  
     906A      1.305312   907A      1.308082   908A      1.308719  
     909A      1.310720   910A      1.311483   911A      1.313259  
     912A      1.314865   913A      1.316336   914A      1.318378  
     915A      1.319579   916A      1.321181   917A      1.324361  
     918A      1.324810   919A      1.326874   920A      1.329028  
     921A      1.331092   922A      1.332764   923A      1.334352  
     924A      1.335716   925A      1.339171   926A      1.339693  
     927A      1.342556   928A      1.344356   929A      1.345590  
     930A      1.345737   931A      1.348473   932A      1.351372  
     933A      1.352809   934A      1.353492   935A      1.356352  
     936A      1.357276   937A      1.359569   938A      1.360173  
     939A      1.361317   940A      1.362153   941A      1.364998  
     942A      1.366444   943A      1.368858   944A      1.370486  
     945A      1.372532   946A      1.374097   947A      1.375981  
     948A      1.376920   949A      1.378750   950A      1.380620  
     951A      1.382335   952A      1.383605   953A      1.384015  
     954A      1.386956   955A      1.388106   956A      1.389856  
     957A      1.392180   958A      1.393734   959A      1.394549  
     960A      1.396035   961A      1.397229   962A      1.399177  
     963A      1.401394   964A      1.403364   965A      1.404308  
     966A      1.407067   967A      1.410193   968A      1.411314  
     969A      1.412077   970A      1.414439   971A      1.415123  
     972A      1.416238   973A      1.417832   974A      1.419812  
     975A      1.421098   976A      1.421604   977A      1.422276  
     978A      1.424851   979A      1.427895   980A      1.428325  
     981A      1.430471   982A      1.432230   983A      1.436025  
     984A      1.437566   985A      1.438807   986A      1.439428  
     987A      1.442265   988A      1.443591   989A      1.445100  
     990A      1.446763   991A      1.448537   992A      1.448695  
     993A      1.449298   994A      1.451465   995A      1.455059  
     996A      1.456114   997A      1.457402   998A      1.459186  
     999A      1.461178  1000A      1.465108  1001A      1.465947  
    1002A      1.467368  1003A      1.469011  1004A      1.471673  
    1005A      1.473107  1006A      1.474746  1007A      1.476903  
    1008A      1.477608  1009A      1.478711  1010A      1.480121  
    1011A      1.482955  1012A      1.484516  1013A      1.487401  
    1014A      1.489339  1015A      1.489470  1016A      1.490542  
    1017A      1.491049  1018A      1.493230  1019A      1.494145  
    1020A      1.496152  1021A      1.498395  1022A      1.498995  
    1023A      1.500263  1024A      1.504364  1025A      1.504845  
    1026A      1.505531  1027A      1.508133  1028A      1.508561  
    1029A      1.510976  1030A      1.514850  1031A      1.515667  
    1032A      1.516575  1033A      1.519516  1034A      1.520203  
    1035A      1.522669  1036A      1.524266  1037A      1.525357  
    1038A      1.527630  1039A      1.528895  1040A      1.530827  
    1041A      1.532300  1042A      1.534101  1043A      1.536219  
    1044A      1.536987  1045A      1.538456  1046A      1.540774  
    1047A      1.541420  1048A      1.542157  1049A      1.543345  
    1050A      1.545213  1051A      1.546959  1052A      1.547785  
    1053A      1.549053  1054A      1.551109  1055A      1.553638  
    1056A      1.553856  1057A      1.557529  1058A      1.559603  
    1059A      1.560879  1060A      1.563615  1061A      1.564032  
    1062A      1.565920  1063A      1.568113  1064A      1.569160  
    1065A      1.570385  1066A      1.572681  1067A      1.573838  
    1068A      1.574833  1069A      1.578237  1070A      1.579062  
    1071A      1.579889  1072A      1.580692  1073A      1.583611  
    1074A      1.585932  1075A      1.586157  1076A      1.588916  
    1077A      1.589908  1078A      1.590268  1079A      1.592671  
    1080A      1.594901  1081A      1.595621  1082A      1.596906  
    1083A      1.599633  1084A      1.600068  1085A      1.601311  
    1086A      1.604120  1087A      1.605736  1088A      1.608474  
    1089A      1.609545  1090A      1.610422  1091A      1.611324  
    1092A      1.612323  1093A      1.615300  1094A      1.617535  
    1095A      1.618259  1096A      1.619945  1097A      1.622669  
    1098A      1.623094  1099A      1.625049  1100A      1.626572  
    1101A      1.627837  1102A      1.628767  1103A      1.629918  
    1104A      1.633203  1105A      1.634630  1106A      1.635318  
    1107A      1.637172  1108A      1.637926  1109A      1.640587  
    1110A      1.641613  1111A      1.642285  1112A      1.644741  
    1113A      1.646111  1114A      1.647162  1115A      1.649645  
    1116A      1.650705  1117A      1.652340  1118A      1.654857  
    1119A      1.656247  1120A      1.658579  1121A      1.659597  
    1122A      1.660399  1123A      1.661168  1124A      1.663264  
    1125A      1.666224  1126A      1.667333  1127A      1.669353  
    1128A      1.670764  1129A      1.671317  1130A      1.673541  
    1131A      1.676252  1132A      1.677447  1133A      1.679175  
    1134A      1.680443  1135A      1.682015  1136A      1.683380  
    1137A      1.684334  1138A      1.686358  1139A      1.687711  
    1140A      1.691466  1141A      1.692132  1142A      1.692726  
    1143A      1.695062  1144A      1.695652  1145A      1.697739  
    1146A      1.699333  1147A      1.702727  1148A      1.704032  
    1149A      1.705079  1150A      1.708144  1151A      1.708940  
    1152A      1.709766  1153A      1.711787  1154A      1.712493  
    1155A      1.715315  1156A      1.716197  1157A      1.718377  
    1158A      1.719504  1159A      1.721053  1160A      1.721808  
    1161A      1.724377  1162A      1.726576  1163A      1.728598  
    1164A      1.730392  1165A      1.731024  1166A      1.731361  
    1167A      1.735284  1168A      1.735339  1169A      1.736642  
    1170A      1.738426  1171A      1.740320  1172A      1.743082  
    1173A      1.744068  1174A      1.746470  1175A      1.746991  
    1176A      1.751259  1177A      1.752687  1178A      1.754412  
    1179A      1.755179  1180A      1.758178  1181A      1.759142  
    1182A      1.761805  1183A      1.762716  1184A      1.763580  
    1185A      1.764422  1186A      1.766068  1187A      1.768187  
    1188A      1.768903  1189A      1.772033  1190A      1.772682  
    1191A      1.773843  1192A      1.774236  1193A      1.776457  
    1194A      1.778570  1195A      1.781076  1196A      1.782685  
    1197A      1.784003  1198A      1.785794  1199A      1.786552  
    1200A      1.787929  1201A      1.788774  1202A      1.789913  
    1203A      1.791762  1204A      1.795140  1205A      1.796002  
    1206A      1.800124  1207A      1.800355  1208A      1.802328  
    1209A      1.804136  1210A      1.805492  1211A      1.807334  
    1212A      1.808842  1213A      1.810202  1214A      1.811153  
    1215A      1.812453  1216A      1.813688  1217A      1.815907  
    1218A      1.818829  1219A      1.821856  1220A      1.822426  
    1221A      1.824937  1222A      1.827076  1223A      1.828868  
    1224A      1.829334  1225A      1.830034  1226A      1.834541  
    1227A      1.837067  1228A      1.838817  1229A      1.839089  
    1230A      1.841433  1231A      1.843099  1232A      1.845402  
    1233A      1.847052  1234A      1.851457  1235A      1.854841  
    1236A      1.855413  1237A      1.856209  1238A      1.856769  
    1239A      1.858204  1240A      1.859624  1241A      1.862587  
    1242A      1.864452  1243A      1.865903  1244A      1.866833  
    1245A      1.868809  1246A      1.871220  1247A      1.873369  
    1248A      1.874154  1249A      1.877537  1250A      1.878323  
    1251A      1.880404  1252A      1.881598  1253A      1.882965  
    1254A      1.884524  1255A      1.887184  1256A      1.890276  
    1257A      1.892432  1258A      1.893322  1259A      1.895547  
    1260A      1.897465  1261A      1.899191  1262A      1.900161  
    1263A      1.900986  1264A      1.903184  1265A      1.904073  
    1266A      1.905553  1267A      1.907181  1268A      1.909412  
    1269A      1.910971  1270A      1.913707  1271A      1.917144  
    1272A      1.917912  1273A      1.918669  1274A      1.921614  
    1275A      1.923914  1276A      1.924964  1277A      1.928426  
    1278A      1.929286  1279A      1.930141  1280A      1.931578  
    1281A      1.933604  1282A      1.935853  1283A      1.939136  
    1284A      1.940189  1285A      1.943191  1286A      1.944622  
    1287A      1.945804  1288A      1.947764  1289A      1.948690  
    1290A      1.951976  1291A      1.952785  1292A      1.953134  
    1293A      1.955358  1294A      1.957885  1295A      1.958739  
    1296A      1.960425  1297A      1.963440  1298A      1.964053  
    1299A      1.966892  1300A      1.968168  1301A      1.969332  
    1302A      1.970560  1303A      1.973274  1304A      1.975873  
    1305A      1.978485  1306A      1.979184  1307A      1.980644  
    1308A      1.982751  1309A      1.985883  1310A      1.986011  
    1311A      1.990333  1312A      1.991109  1313A      1.993311  
    1314A      1.996113  1315A      1.996677  1316A      1.998257  
    1317A      2.001330  1318A      2.003547  1319A      2.005204  
    1320A      2.008614  1321A      2.011564  1322A      2.012800  
    1323A      2.014507  1324A      2.017879  1325A      2.018839  
    1326A      2.020105  1327A      2.023928  1328A      2.025464  
    1329A      2.026533  1330A      2.028424  1331A      2.032907  
    1332A      2.035613  1333A      2.037462  1334A      2.038552  
    1335A      2.041132  1336A      2.043002  1337A      2.043270  
    1338A      2.046801  1339A      2.047231  1340A      2.049979  
    1341A      2.050537  1342A      2.052854  1343A      2.054294  
    1344A      2.057600  1345A      2.058326  1346A      2.060662  
    1347A      2.064164  1348A      2.065468  1349A      2.068268  
    1350A      2.069648  1351A      2.072164  1352A      2.073732  
    1353A      2.076576  1354A      2.077602  1355A      2.082217  
    1356A      2.082770  1357A      2.086634  1358A      2.087217  
    1359A      2.091344  1360A      2.091982  1361A      2.095150  
    1362A      2.097490  1363A      2.099135  1364A      2.101156  
    1365A      2.103897  1366A      2.105398  1367A      2.105800  
    1368A      2.109182  1369A      2.110659  1370A      2.112286  
    1371A      2.114069  1372A      2.116284  1373A      2.117264  
    1374A      2.119745  1375A      2.123165  1376A      2.123854  
    1377A      2.124359  1378A      2.130067  1379A      2.131513  
    1380A      2.133305  1381A      2.135611  1382A      2.137711  
    1383A      2.139529  1384A      2.140599  1385A      2.144355  
    1386A      2.146049  1387A      2.148354  1388A      2.149698  
    1389A      2.150780  1390A      2.153899  1391A      2.157557  
    1392A      2.160154  1393A      2.160694  1394A      2.161670  
    1395A      2.162753  1396A      2.165944  1397A      2.169246  
    1398A      2.170327  1399A      2.172509  1400A      2.175060  
    1401A      2.176574  1402A      2.178827  1403A      2.182794  
    1404A      2.185631  1405A      2.187689  1406A      2.190373  
    1407A      2.191161  1408A      2.193568  1409A      2.195443  
    1410A      2.196031  1411A      2.197202  1412A      2.198388  
    1413A      2.202237  1414A      2.204544  1415A      2.207361  
    1416A      2.209990  1417A      2.212806  1418A      2.214396  
    1419A      2.215605  1420A      2.216529  1421A      2.219899  
    1422A      2.220894  1423A      2.222522  1424A      2.227249  
    1425A      2.228846  1426A      2.230043  1427A      2.231679  
    1428A      2.235236  1429A      2.236683  1430A      2.239743  
    1431A      2.243454  1432A      2.244442  1433A      2.247067  
    1434A      2.250642  1435A      2.252459  1436A      2.253668  
    1437A      2.255880  1438A      2.258631  1439A      2.260778  
    1440A      2.264773  1441A      2.265330  1442A      2.267054  
    1443A      2.268530  1444A      2.272839  1445A      2.274228  
    1446A      2.276126  1447A      2.280134  1448A      2.280240  
    1449A      2.281758  1450A      2.284503  1451A      2.289522  
    1452A      2.291492  1453A      2.293352  1454A      2.295569  
    1455A      2.298600  1456A      2.300342  1457A      2.302201  
    1458A      2.302944  1459A      2.303902  1460A      2.306198  
    1461A      2.307156  1462A      2.311164  1463A      2.312370  
    1464A      2.317336  1465A      2.318138  1466A      2.319754  
    1467A      2.323003  1468A      2.325296  1469A      2.327570  
    1470A      2.328005  1471A      2.330569  1472A      2.331372  
    1473A      2.338486  1474A      2.340173  1475A      2.341446  
    1476A      2.345486  1477A      2.347694  1478A      2.349307  
    1479A      2.350226  1480A      2.352067  1481A      2.356420  
    1482A      2.358600  1483A      2.360528  1484A      2.362481  
    1485A      2.364686  1486A      2.365246  1487A      2.366893  
    1488A      2.371034  1489A      2.371916  1490A      2.373148  
    1491A      2.374451  1492A      2.379315  1493A      2.383018  
    1494A      2.383872  1495A      2.385214  1496A      2.386249  
    1497A      2.391680  1498A      2.394174  1499A      2.394785  
    1500A      2.397958  1501A      2.398195  1502A      2.399276  
    1503A      2.401544  1504A      2.403669  1505A      2.404667  
    1506A      2.406877  1507A      2.408207  1508A      2.411911  
    1509A      2.414460  1510A      2.416680  1511A      2.419768  
    1512A      2.421126  1513A      2.423500  1514A      2.426608  
    1515A      2.428924  1516A      2.430150  1517A      2.431538  
    1518A      2.434083  1519A      2.436170  1520A      2.436829  
    1521A      2.438227  1522A      2.442185  1523A      2.442379  
    1524A      2.444003  1525A      2.446379  1526A      2.449005  
    1527A      2.452847  1528A      2.453743  1529A      2.456903  
    1530A      2.458700  1531A      2.459540  1532A      2.464065  
    1533A      2.465548  1534A      2.470064  1535A      2.471933  
    1536A      2.474247  1537A      2.476672  1538A      2.477356  
    1539A      2.478684  1540A      2.480420  1541A      2.486105  
    1542A      2.487048  1543A      2.488192  1544A      2.490078  
    1545A      2.491554  1546A      2.496002  1547A      2.497337  
    1548A      2.499511  1549A      2.503721  1550A      2.506080  
    1551A      2.507810  1552A      2.510186  1553A      2.516135  
    1554A      2.517908  1555A      2.519455  1556A      2.523701  
    1557A      2.524300  1558A      2.525695  1559A      2.528120  
    1560A      2.528988  1561A      2.531507  1562A      2.533140  
    1563A      2.535852  1564A      2.538219  1565A      2.539047  
    1566A      2.544394  1567A      2.545200  1568A      2.545528  
    1569A      2.548370  1570A      2.549185  1571A      2.550801  
    1572A      2.552085  1573A      2.556854  1574A      2.557214  
    1575A      2.558370  1576A      2.562558  1577A      2.565846  
    1578A      2.567306  1579A      2.568746  1580A      2.569697  
    1581A      2.574569  1582A      2.575346  1583A      2.576152  
    1584A      2.579538  1585A      2.581920  1586A      2.583109  
    1587A      2.584274  1588A      2.587054  1589A      2.587646  
    1590A      2.591766  1591A      2.592423  1592A      2.594063  
    1593A      2.598106  1594A      2.599174  1595A      2.603924  
    1596A      2.605329  1597A      2.606319  1598A      2.606970  
    1599A      2.610677  1600A      2.611316  1601A      2.613253  
    1602A      2.615904  1603A      2.617162  1604A      2.618946  
    1605A      2.620512  1606A      2.621784  1607A      2.625064  
    1608A      2.627931  1609A      2.629362  1610A      2.631538  
    1611A      2.635889  1612A      2.638524  1613A      2.640174  
    1614A      2.643022  1615A      2.643928  1616A      2.645910  
    1617A      2.646862  1618A      2.647439  1619A      2.652380  
    1620A      2.654036  1621A      2.657675  1622A      2.658488  
    1623A      2.660169  1624A      2.661914  1625A      2.664226  
    1626A      2.667694  1627A      2.670369  1628A      2.671321  
    1629A      2.674119  1630A      2.674987  1631A      2.679346  
    1632A      2.680592  1633A      2.681803  1634A      2.683794  
    1635A      2.688057  1636A      2.689939  1637A      2.690151  
    1638A      2.693931  1639A      2.694794  1640A      2.698759  
    1641A      2.699441  1642A      2.701291  1643A      2.703987  
    1644A      2.706123  1645A      2.708361  1646A      2.709288  
    1647A      2.712861  1648A      2.715247  1649A      2.717246  
    1650A      2.721568  1651A      2.722775  1652A      2.726989  
    1653A      2.727986  1654A      2.730340  1655A      2.733052  
    1656A      2.734947  1657A      2.736847  1658A      2.737962  
    1659A      2.740505  1660A      2.743272  1661A      2.745515  
    1662A      2.746958  1663A      2.748780  1664A      2.751562  
    1665A      2.754202  1666A      2.755972  1667A      2.759621  
    1668A      2.760575  1669A      2.763377  1670A      2.765313  
    1671A      2.765730  1672A      2.768641  1673A      2.773270  
    1674A      2.774340  1675A      2.775609  1676A      2.779321  
    1677A      2.781732  1678A      2.783756  1679A      2.786340  
    1680A      2.789357  1681A      2.791144  1682A      2.792985  
    1683A      2.796069  1684A      2.797937  1685A      2.801606  
    1686A      2.804244  1687A      2.807693  1688A      2.808538  
    1689A      2.810216  1690A      2.813856  1691A      2.814469  
    1692A      2.817215  1693A      2.819794  1694A      2.822474  
    1695A      2.825386  1696A      2.829555  1697A      2.830511  
    1698A      2.830835  1699A      2.836654  1700A      2.838143  
    1701A      2.840019  1702A      2.843895  1703A      2.845785  
    1704A      2.847802  1705A      2.849146  1706A      2.850460  
    1707A      2.852933  1708A      2.855808  1709A      2.857197  
    1710A      2.863326  1711A      2.864062  1712A      2.866953  
    1713A      2.871375  1714A      2.873297  1715A      2.876155  
    1716A      2.878474  1717A      2.879410  1718A      2.882414  
    1719A      2.882854  1720A      2.887226  1721A      2.887744  
    1722A      2.889789  1723A      2.896482  1724A      2.899411  
    1725A      2.901452  1726A      2.904187  1727A      2.905007  
    1728A      2.907557  1729A      2.909609  1730A      2.911432  
    1731A      2.916409  1732A      2.917952  1733A      2.920598  
    1734A      2.924311  1735A      2.925787  1736A      2.930061  
    1737A      2.930458  1738A      2.933210  1739A      2.933775  
    1740A      2.939164  1741A      2.940856  1742A      2.944172  
    1743A      2.946889  1744A      2.953174  1745A      2.954060  
    1746A      2.956756  1747A      2.958104  1748A      2.960090  
    1749A      2.963470  1750A      2.965338  1751A      2.970844  
    1752A      2.973270  1753A      2.974606  1754A      2.978198  
    1755A      2.981893  1756A      2.984801  1757A      2.986076  
    1758A      2.988442  1759A      2.990783  1760A      2.993267  
    1761A      2.995481  1762A      2.998271  1763A      2.999191  
    1764A      3.003490  1765A      3.005274  1766A      3.009627  
    1767A      3.013914  1768A      3.019022  1769A      3.022832  
    1770A      3.025953  1771A      3.029571  1772A      3.030333  
    1773A      3.033609  1774A      3.036971  1775A      3.039743  
    1776A      3.044392  1777A      3.047186  1778A      3.048689  
    1779A      3.049780  1780A      3.053692  1781A      3.058614  
    1782A      3.059881  1783A      3.061440  1784A      3.063066  
    1785A      3.066693  1786A      3.070771  1787A      3.075855  
    1788A      3.080153  1789A      3.081548  1790A      3.086614  
    1791A      3.087725  1792A      3.089315  1793A      3.090960  
    1794A      3.093435  1795A      3.096653  1796A      3.098708  
    1797A      3.105776  1798A      3.109545  1799A      3.111752  
    1800A      3.113115  1801A      3.115267  1802A      3.118625  
    1803A      3.119854  1804A      3.125983  1805A      3.130198  
    1806A      3.133281  1807A      3.135227  1808A      3.140570  
    1809A      3.143580  1810A      3.145984  1811A      3.147657  
    1812A      3.151558  1813A      3.157574  1814A      3.159953  
    1815A      3.163932  1816A      3.165585  1817A      3.170082  
    1818A      3.173577  1819A      3.176107  1820A      3.178246  
    1821A      3.182108  1822A      3.187026  1823A      3.189381  
    1824A      3.195720  1825A      3.199255  1826A      3.201184  
    1827A      3.204595  1828A      3.206360  1829A      3.210885  
    1830A      3.213909  1831A      3.220067  1832A      3.222591  
    1833A      3.230337  1834A      3.231001  1835A      3.235673  
    1836A      3.240092  1837A      3.241438  1838A      3.244674  
    1839A      3.248662  1840A      3.251221  1841A      3.255967  
    1842A      3.257773  1843A      3.260393  1844A      3.262959  
    1845A      3.265422  1846A      3.270803  1847A      3.272208  
    1848A      3.278691  1849A      3.283616  1850A      3.288150  
    1851A      3.291324  1852A      3.296356  1853A      3.303403  
    1854A      3.305538  1855A      3.309738  1856A      3.315543  
    1857A      3.321792  1858A      3.324947  1859A      3.328394  
    1860A      3.332941  1861A      3.334317  1862A      3.342514  
    1863A      3.343408  1864A      3.348241  1865A      3.350044  
    1866A      3.354235  1867A      3.364629  1868A      3.365778  
    1869A      3.371539  1870A      3.375406  1871A      3.378598  
    1872A      3.380596  1873A      3.384279  1874A      3.389657  
    1875A      3.392859  1876A      3.394275  1877A      3.398895  
    1878A      3.402307  1879A      3.404942  1880A      3.410268  
    1881A      3.412593  1882A      3.417176  1883A      3.419593  
    1884A      3.426061  1885A      3.431322  1886A      3.436050  
    1887A      3.439328  1888A      3.441048  1889A      3.444293  
    1890A      3.447743  1891A      3.453110  1892A      3.454705  
    1893A      3.459335  1894A      3.462226  1895A      3.463954  
    1896A      3.468737  1897A      3.473258  1898A      3.474929  
    1899A      3.480469  1900A      3.484027  1901A      3.488351  
    1902A      3.492087  1903A      3.495864  1904A      3.507799  
    1905A      3.510357  1906A      3.513775  1907A      3.516065  
    1908A      3.518870  1909A      3.522897  1910A      3.526178  
    1911A      3.530196  1912A      3.534054  1913A      3.537771  
    1914A      3.540975  1915A      3.544468  1916A      3.547800  
    1917A      3.559638  1918A      3.562315  1919A      3.564286  
    1920A      3.568693  1921A      3.572806  1922A      3.580063  
    1923A      3.584860  1924A      3.588501  1925A      3.596381  
    1926A      3.597359  1927A      3.603026  1928A      3.607567  
    1929A      3.610914  1930A      3.615776  1931A      3.617882  
    1932A      3.623003  1933A      3.628084  1934A      3.632344  
    1935A      3.633172  1936A      3.638020  1937A      3.642417  
    1938A      3.652767  1939A      3.656341  1940A      3.659397  
    1941A      3.662193  1942A      3.669781  1943A      3.671413  
    1944A      3.677223  1945A      3.687364  1946A      3.690379  
    1947A      3.693514  1948A      3.701607  1949A      3.706673  
    1950A      3.709094  1951A      3.711039  1952A      3.718592  
    1953A      3.724778  1954A      3.727955  1955A      3.733122  
    1956A      3.737184  1957A      3.743490  1958A      3.749244  
    1959A      3.758653  1960A      3.765196  1961A      3.774100  
    1962A      3.779372  1963A      3.785252  1964A      3.790969  
    1965A      3.799253  1966A      3.804917  1967A      3.806144  
    1968A      3.810876  1969A      3.815263  1970A      3.820638  
    1971A      3.823293  1972A      3.829886  1973A      3.831660  
    1974A      3.839918  1975A      3.844958  1976A      3.851503  
    1977A      3.854676  1978A      3.857218  1979A      3.862023  
    1980A      3.862385  1981A      3.872293  1982A      3.873629  
    1983A      3.876578  1984A      3.881808  1985A      3.887938  
    1986A      3.894876  1987A      3.901674  1988A      3.902477  
    1989A      3.904909  1990A      3.913188  1991A      3.917763  
    1992A      3.921549  1993A      3.928085  1994A      3.936065  
    1995A      3.939232  1996A      3.942305  1997A      3.946461  
    1998A      3.953565  1999A      3.956475  2000A      3.962839  
    2001A      3.964605  2002A      3.983164  2003A      3.985771  
    2004A      3.990418  2005A      3.991622  2006A      3.998996  
    2007A      4.003438  2008A      4.004351  2009A      4.010891  
    2010A      4.015642  2011A      4.023020  2012A      4.025558  
    2013A      4.029543  2014A      4.041456  2015A      4.043391  
    2016A      4.046238  2017A      4.054803  2018A      4.059746  
    2019A      4.060632  2020A      4.065253  2021A      4.069905  
    2022A      4.073460  2023A      4.079082  2024A      4.082796  
    2025A      4.087618  2026A      4.095988  2027A      4.099896  
    2028A      4.104206  2029A      4.106060  2030A      4.110240  
    2031A      4.114876  2032A      4.120972  2033A      4.122016  
    2034A      4.131329  2035A      4.133744  2036A      4.140174  
    2037A      4.141676  2038A      4.144893  2039A      4.151830  
    2040A      4.157445  2041A      4.161453  2042A      4.164451  
    2043A      4.166698  2044A      4.173241  2045A      4.175578  
    2046A      4.178314  2047A      4.181701  2048A      4.187891  
    2049A      4.188411  2050A      4.191772  2051A      4.193611  
    2052A      4.198207  2053A      4.201981  2054A      4.207828  
    2055A      4.209577  2056A      4.211636  2057A      4.212866  
    2058A      4.218212  2059A      4.221530  2060A      4.224716  
    2061A      4.227332  2062A      4.230790  2063A      4.233044  
    2064A      4.238379  2065A      4.238913  2066A      4.239128  
    2067A      4.243961  2068A      4.246642  2069A      4.249271  
    2070A      4.253277  2071A      4.255412  2072A      4.258688  
    2073A      4.263192  2074A      4.263955  2075A      4.268253  
    2076A      4.271955  2077A      4.274522  2078A      4.278245  
    2079A      4.279352  2080A      4.282010  2081A      4.284558  
    2082A      4.291974  2083A      4.292149  2084A      4.293957  
    2085A      4.301120  2086A      4.302714  2087A      4.305126  
    2088A      4.308441  2089A      4.313762  2090A      4.316805  
    2091A      4.319939  2092A      4.321423  2093A      4.322596  
    2094A      4.324715  2095A      4.328460  2096A      4.329609  
    2097A      4.335831  2098A      4.337417  2099A      4.339602  
    2100A      4.342750  2101A      4.345672  2102A      4.347838  
    2103A      4.351339  2104A      4.354432  2105A      4.355531  
    2106A      4.356430  2107A      4.360923  2108A      4.364019  
    2109A      4.365527  2110A      4.370119  2111A      4.372398  
    2112A      4.375658  2113A      4.377687  2114A      4.379910  
    2115A      4.383565  2116A      4.385714  2117A      4.387558  
    2118A      4.391718  2119A      4.395748  2120A      4.397401  
    2121A      4.399348  2122A      4.401242  2123A      4.403087  
    2124A      4.411935  2125A      4.414434  2126A      4.415555  
    2127A      4.419143  2128A      4.422593  2129A      4.424452  
    2130A      4.425769  2131A      4.429541  2132A      4.434489  
    2133A      4.436236  2134A      4.439686  2135A      4.443691  
    2136A      4.447349  2137A      4.451139  2138A      4.453054  
    2139A      4.454365  2140A      4.454974  2141A      4.457800  
    2142A      4.460734  2143A      4.466253  2144A      4.467478  
    2145A      4.468973  2146A      4.469331  2147A      4.476682  
    2148A      4.478052  2149A      4.481714  2150A      4.484562  
    2151A      4.487380  2152A      4.489782  2153A      4.492056  
    2154A      4.495971  2155A      4.498610  2156A      4.500436  
    2157A      4.504027  2158A      4.508728  2159A      4.512961  
    2160A      4.513159  2161A      4.514913  2162A      4.516212  
    2163A      4.518437  2164A      4.522486  2165A      4.525000  
    2166A      4.527171  2167A      4.527839  2168A      4.531026  
    2169A      4.535506  2170A      4.536481  2171A      4.538534  
    2172A      4.541325  2173A      4.544841  2174A      4.545939  
    2175A      4.549349  2176A      4.551776  2177A      4.553351  
    2178A      4.555674  2179A      4.557102  2180A      4.558369  
    2181A      4.562296  2182A      4.562776  2183A      4.569203  
    2184A      4.572563  2185A      4.573101  2186A      4.579427  
    2187A      4.582074  2188A      4.585456  2189A      4.586996  
    2190A      4.589008  2191A      4.590402  2192A      4.594305  
    2193A      4.596824  2194A      4.599207  2195A      4.600913  
    2196A      4.604074  2197A      4.606055  2198A      4.611740  
    2199A      4.612787  2200A      4.615778  2201A      4.619062  
    2202A      4.622175  2203A      4.622812  2204A      4.624344  
    2205A      4.631173  2206A      4.632969  2207A      4.635094  
    2208A      4.637818  2209A      4.639395  2210A      4.642308  
    2211A      4.645322  2212A      4.646925  2213A      4.650438  
    2214A      4.654773  2215A      4.657933  2216A      4.660631  
    2217A      4.662142  2218A      4.668295  2219A      4.670828  
    2220A      4.672653  2221A      4.674668  2222A      4.676984  
    2223A      4.681253  2224A      4.683582  2225A      4.686545  
    2226A      4.689966  2227A      4.691605  2228A      4.693526  
    2229A      4.695198  2230A      4.697638  2231A      4.700690  
    2232A      4.703584  2233A      4.709083  2234A      4.712086  
    2235A      4.715153  2236A      4.716820  2237A      4.717995  
    2238A      4.723930  2239A      4.727758  2240A      4.729770  
    2241A      4.730952  2242A      4.734568  2243A      4.735982  
    2244A      4.740615  2245A      4.741672  2246A      4.745627  
    2247A      4.747867  2248A      4.749979  2249A      4.752522  
    2250A      4.754998  2251A      4.757641  2252A      4.760169  
    2253A      4.760229  2254A      4.763201  2255A      4.766001  
    2256A      4.767802  2257A      4.772696  2258A      4.774026  
    2259A      4.778669  2260A      4.781176  2261A      4.784077  
    2262A      4.788140  2263A      4.790862  2264A      4.792846  
    2265A      4.795103  2266A      4.801889  2267A      4.802571  
    2268A      4.803171  2269A      4.806661  2270A      4.810376  
    2271A      4.812625  2272A      4.813774  2273A      4.815806  
    2274A      4.822281  2275A      4.822748  2276A      4.826657  
    2277A      4.830390  2278A      4.831841  2279A      4.833535  
    2280A      4.836425  2281A      4.837856  2282A      4.839681  
    2283A      4.843142  2284A      4.845952  2285A      4.848872  
    2286A      4.850828  2287A      4.852861  2288A      4.856310  
    2289A      4.860285  2290A      4.864124  2291A      4.867370  
    2292A      4.869196  2293A      4.872731  2294A      4.874410  
    2295A      4.875622  2296A      4.876481  2297A      4.881666  
    2298A      4.885629  2299A      4.888068  2300A      4.889236  
    2301A      4.893517  2302A      4.894668  2303A      4.897548  
    2304A      4.899397  2305A      4.904560  2306A      4.909049  
    2307A      4.912485  2308A      4.914515  2309A      4.917291  
    2310A      4.920082  2311A      4.923316  2312A      4.925199  
    2313A      4.928035  2314A      4.931605  2315A      4.934746  
    2316A      4.936092  2317A      4.939185  2318A      4.943922  
    2319A      4.946581  2320A      4.951227  2321A      4.954091  
    2322A      4.956668  2323A      4.958235  2324A      4.960199  
    2325A      4.962267  2326A      4.967946  2327A      4.971532  
    2328A      4.975009  2329A      4.977918  2330A      4.980781  
    2331A      4.982068  2332A      4.984348  2333A      4.986707  
    2334A      4.993806  2335A      4.994025  2336A      4.996774  
    2337A      4.997601  2338A      5.001779  2339A      5.001934  
    2340A      5.006085  2341A      5.010784  2342A      5.013311  
    2343A      5.016240  2344A      5.019083  2345A      5.020848  
    2346A      5.023429  2347A      5.028397  2348A      5.032539  
    2349A      5.036153  2350A      5.042700  2351A      5.044547  
    2352A      5.048179  2353A      5.049853  2354A      5.054657  
    2355A      5.056169  2356A      5.059165  2357A      5.064157  
    2358A      5.065587  2359A      5.068685  2360A      5.074332  
    2361A      5.077821  2362A      5.081404  2363A      5.089656  
    2364A      5.091500  2365A      5.092797  2366A      5.097137  
    2367A      5.098267  2368A      5.102306  2369A      5.103040  
    2370A      5.105689  2371A      5.110503  2372A      5.114045  
    2373A      5.118492  2374A      5.119257  2375A      5.125719  
    2376A      5.128749  2377A      5.129412  2378A      5.132855  
    2379A      5.134454  2380A      5.137304  2381A      5.141206  
    2382A      5.143230  2383A      5.146179  2384A      5.149625  
    2385A      5.152018  2386A      5.153360  2387A      5.155711  
    2388A      5.157731  2389A      5.158423  2390A      5.162026  
    2391A      5.163976  2392A      5.165912  2393A      5.169430  
    2394A      5.170522  2395A      5.172029  2396A      5.174556  
    2397A      5.176933  2398A      5.182019  2399A      5.184891  
    2400A      5.186828  2401A      5.188847  2402A      5.190229  
    2403A      5.195147  2404A      5.198484  2405A      5.199417  
    2406A      5.201634  2407A      5.203777  2408A      5.206376  
    2409A      5.209230  2410A      5.210953  2411A      5.216235  
    2412A      5.219462  2413A      5.220713  2414A      5.225500  
    2415A      5.228104  2416A      5.229396  2417A      5.233316  
    2418A      5.234978  2419A      5.237124  2420A      5.241050  
    2421A      5.242087  2422A      5.246783  2423A      5.247533  
    2424A      5.250799  2425A      5.252244  2426A      5.253110  
    2427A      5.256851  2428A      5.258543  2429A      5.259925  
    2430A      5.264539  2431A      5.267433  2432A      5.274977  
    2433A      5.278291  2434A      5.280209  2435A      5.281503  
    2436A      5.283132  2437A      5.286428  2438A      5.292461  
    2439A      5.297160  2440A      5.298460  2441A      5.301018  
    2442A      5.305982  2443A      5.306341  2444A      5.311572  
    2445A      5.313642  2446A      5.316424  2447A      5.322551  
    2448A      5.322932  2449A      5.327420  2450A      5.330098  
    2451A      5.331270  2452A      5.334767  2453A      5.338731  
    2454A      5.343863  2455A      5.345211  2456A      5.348648  
    2457A      5.356002  2458A      5.359324  2459A      5.362399  
    2460A      5.364024  2461A      5.367215  2462A      5.368248  
    2463A      5.376131  2464A      5.380844  2465A      5.386856  
    2466A      5.392641  2467A      5.397886  2468A      5.400347  
    2469A      5.403237  2470A      5.404211  2471A      5.407858  
    2472A      5.413755  2473A      5.416864  2474A      5.420628  
    2475A      5.421401  2476A      5.426339  2477A      5.429234  
    2478A      5.432764  2479A      5.433302  2480A      5.438176  
    2481A      5.440962  2482A      5.443601  2483A      5.446897  
    2484A      5.452287  2485A      5.454340  2486A      5.457846  
    2487A      5.462448  2488A      5.463721  2489A      5.466682  
    2490A      5.468137  2491A      5.471118  2492A      5.476924  
    2493A      5.483738  2494A      5.484446  2495A      5.487165  
    2496A      5.488325  2497A      5.490474  2498A      5.492925  
    2499A      5.496096  2500A      5.498886  2501A      5.500875  
    2502A      5.506498  2503A      5.507269  2504A      5.508772  
    2505A      5.513462  2506A      5.514567  2507A      5.521536  
    2508A      5.522912  2509A      5.524625  2510A      5.527934  
    2511A      5.528945  2512A      5.535039  2513A      5.536136  
    2514A      5.540359  2515A      5.542334  2516A      5.545850  
    2517A      5.548566  2518A      5.551810  2519A      5.553940  
    2520A      5.559644  2521A      5.562589  2522A      5.565221  
    2523A      5.567662  2524A      5.569690  2525A      5.573887  
    2526A      5.575505  2527A      5.576848  2528A      5.579011  
    2529A      5.581855  2530A      5.588628  2531A      5.591057  
    2532A      5.593677  2533A      5.595735  2534A      5.598835  
    2535A      5.600484  2536A      5.604614  2537A      5.606627  
    2538A      5.608816  2539A      5.612280  2540A      5.614834  
    2541A      5.620061  2542A      5.621324  2543A      5.627494  
    2544A      5.631589  2545A      5.634940  2546A      5.636073  
    2547A      5.639731  2548A      5.640850  2549A      5.646285  
    2550A      5.648476  2551A      5.649886  2552A      5.652213  
    2553A      5.656350  2554A      5.657162  2555A      5.661689  
    2556A      5.662789  2557A      5.666191  2558A      5.669938  
    2559A      5.673074  2560A      5.673611  2561A      5.678641  
    2562A      5.680897  2563A      5.681405  2564A      5.684732  
    2565A      5.689189  2566A      5.691773  2567A      5.694534  
    2568A      5.695362  2569A      5.701231  2570A      5.703160  
    2571A      5.705644  2572A      5.707898  2573A      5.711964  
    2574A      5.713452  2575A      5.720268  2576A      5.721225  
    2577A      5.725750  2578A      5.729375  2579A      5.732127  
    2580A      5.733687  2581A      5.735709  2582A      5.739418  
    2583A      5.745046  2584A      5.746564  2585A      5.751949  
    2586A      5.753222  2587A      5.755311  2588A      5.760081  
    2589A      5.764711  2590A      5.768316  2591A      5.769752  
    2592A      5.771652  2593A      5.778354  2594A      5.782266  
    2595A      5.786085  2596A      5.786934  2597A      5.791446  
    2598A      5.794166  2599A      5.800033  2600A      5.801107  
    2601A      5.805775  2602A      5.807243  2603A      5.810621  
    2604A      5.815141  2605A      5.818975  2606A      5.823450  
    2607A      5.827695  2608A      5.831423  2609A      5.834553  
    2610A      5.835917  2611A      5.837007  2612A      5.842462  
    2613A      5.845260  2614A      5.849011  2615A      5.850309  
    2616A      5.855942  2617A      5.860239  2618A      5.863482  
    2619A      5.865841  2620A      5.869964  2621A      5.871878  
    2622A      5.874876  2623A      5.877978  2624A      5.882666  
    2625A      5.887376  2626A      5.891751  2627A      5.893849  
    2628A      5.894734  2629A      5.896970  2630A      5.899617  
    2631A      5.903621  2632A      5.909443  2633A      5.917932  
    2634A      5.920522  2635A      5.925404  2636A      5.932433  
    2637A      5.936486  2638A      5.938969  2639A      5.941965  
    2640A      5.944626  2641A      5.952207  2642A      5.955089  
    2643A      5.957689  2644A      5.962809  2645A      5.964076  
    2646A      5.965409  2647A      5.970048  2648A      5.972103  
    2649A      5.972962  2650A      5.974941  2651A      5.977697  
    2652A      5.984034  2653A      5.989289  2654A      5.991913  
    2655A      5.997670  2656A      6.003532  2657A      6.005625  
    2658A      6.011303  2659A      6.012586  2660A      6.013822  
    2661A      6.015254  2662A      6.019960  2663A      6.021303  
    2664A      6.024044  2665A      6.028948  2666A      6.032429  
    2667A      6.036420  2668A      6.047304  2669A      6.049420  
    2670A      6.050561  2671A      6.055946  2672A      6.058758  
    2673A      6.066004  2674A      6.067345  2675A      6.068829  
    2676A      6.075792  2677A      6.079145  2678A      6.085233  
    2679A      6.089083  2680A      6.090052  2681A      6.096621  
    2682A      6.102667  2683A      6.109351  2684A      6.112944  
    2685A      6.114647  2686A      6.119616  2687A      6.122320  
    2688A      6.123971  2689A      6.125269  2690A      6.127964  
    2691A      6.134066  2692A      6.134362  2693A      6.145541  
    2694A      6.148328  2695A      6.150701  2696A      6.156026  
    2697A      6.156845  2698A      6.158930  2699A      6.162174  
    2700A      6.169316  2701A      6.173811  2702A      6.180007  
    2703A      6.190115  2704A      6.191907  2705A      6.202798  
    2706A      6.203019  2707A      6.205857  2708A      6.208717  
    2709A      6.210949  2710A      6.216292  2711A      6.225733  
    2712A      6.230414  2713A      6.235775  2714A      6.239561  
    2715A      6.255705  2716A      6.260813  2717A      6.270368  
    2718A      6.272912  2719A      6.275042  2720A      6.277604  
    2721A      6.288519  2722A      6.294962  2723A      6.299623  
    2724A      6.308153  2725A      6.312021  2726A      6.315350  
    2727A      6.324819  2728A      6.328421  2729A      6.334286  
    2730A      6.342339  2731A      6.344691  2732A      6.348978  
    2733A      6.356137  2734A      6.363760  2735A      6.367452  
    2736A      6.369217  2737A      6.373262  2738A      6.376478  
    2739A      6.380695  2740A      6.387678  2741A      6.397546  
    2742A      6.399632  2743A      6.402002  2744A      6.405309  
    2745A      6.407641  2746A      6.413395  2747A      6.417874  
    2748A      6.425859  2749A      6.428105  2750A      6.433626  
    2751A      6.438121  2752A      6.446169  2753A      6.453085  
    2754A      6.456464  2755A      6.462694  2756A      6.466188  
    2757A      6.468515  2758A      6.472690  2759A      6.476807  
    2760A      6.486501  2761A      6.487583  2762A      6.492746  
    2763A      6.501845  2764A      6.505099  2765A      6.516962  
    2766A      6.529905  2767A      6.531321  2768A      6.534558  
    2769A      6.537837  2770A      6.545031  2771A      6.553074  
    2772A      6.561938  2773A      6.563330  2774A      6.566122  
    2775A      6.586086  2776A      6.593681  2777A      6.601831  
    2778A      6.602962  2779A      6.611382  2780A      6.614610  
    2781A      6.616514  2782A      6.619783  2783A      6.628386  
    2784A      6.635613  2785A      6.638335  2786A      6.657587  
    2787A      6.674739  2788A      6.679206  2789A      6.685617  
    2790A      6.691571  2791A      6.713488  2792A      6.721064  
    2793A      6.732148  2794A      6.737332  2795A      6.747119  
    2796A      6.751632  2797A      6.754752  2798A      6.773828  
    2799A      6.780727  2800A      6.786333  2801A      6.803391  
    2802A      6.807070  2803A      6.813697  2804A      6.819495  
    2805A      6.821487  2806A      6.827946  2807A      6.829374  
    2808A      6.833907  2809A      6.847625  2810A      6.851816  
    2811A      6.866410  2812A      6.881143  2813A      6.887280  
    2814A      6.888956  2815A      6.897079  2816A      6.902649  
    2817A      6.904729  2818A      6.906153  2819A      6.913152  
    2820A      6.923237  2821A      6.928505  2822A      6.936729  
    2823A      6.946575  2824A      6.951571  2825A      6.968553  
    2826A      6.973449  2827A      6.989141  2828A      7.015885  
    2829A      7.024937  2830A      7.030524  2831A      7.036549  
    2832A      7.041308  2833A      7.048522  2834A      7.055702  
    2835A      7.066020  2836A      7.074189  2837A      7.077562  
    2838A      7.085319  2839A      7.101846  2840A      7.107047  
    2841A      7.110337  2842A      7.117545  2843A      7.125681  
    2844A      7.131048  2845A      7.143086  2846A      7.154444  
    2847A      7.156014  2848A      7.159909  2849A      7.171731  
    2850A      7.180176  2851A      7.188590  2852A      7.192071  
    2853A      7.198338  2854A      7.210260  2855A      7.214636  
    2856A      7.217439  2857A      7.223311  2858A      7.241142  
    2859A      7.250120  2860A      7.261120  2861A      7.265555  
    2862A      7.282962  2863A      7.287023  2864A      7.290663  
    2865A      7.296683  2866A      7.311231  2867A      7.314690  
    2868A      7.330430  2869A      7.336996  2870A      7.343816  
    2871A      7.352975  2872A      7.359926  2873A      7.366968  
    2874A      7.373922  2875A      7.385376  2876A      7.391424  
    2877A      7.399134  2878A      7.400164  2879A      7.411484  
    2880A      7.415118  2881A      7.418146  2882A      7.426263  
    2883A      7.453691  2884A      7.468119  2885A      7.472674  
    2886A      7.483463  2887A      7.487164  2888A      7.493935  
    2889A      7.496415  2890A      7.502258  2891A      7.505950  
    2892A      7.520852  2893A      7.523115  2894A      7.532687  
    2895A      7.542654  2896A      7.546734  2897A      7.554142  
    2898A      7.555740  2899A      7.593661  2900A      7.596421  
    2901A      7.602626  2902A      7.608111  2903A      7.621155  
    2904A      7.626977  2905A      7.635252  2906A      7.643248  
    2907A      7.646552  2908A      7.656898  2909A      7.660342  
    2910A      7.669080  2911A      7.672176  2912A      7.679336  
    2913A      7.679891  2914A      7.687820  2915A      7.691219  
    2916A      7.691573  2917A      7.704470  2918A      7.715677  
    2919A      7.721437  2920A      7.723892  2921A      7.728291  
    2922A      7.729210  2923A      7.734444  2924A      7.743969  
    2925A      7.753291  2926A      7.773286  2927A      7.784303  
    2928A      7.795216  2929A      7.798728  2930A      7.815010  
    2931A      7.819736  2932A      7.836955  2933A      7.847560  
    2934A      7.853468  2935A      7.859259  2936A      7.867877  
    2937A      7.876206  2938A      7.891304  2939A      7.897258  
    2940A      7.909568  2941A      7.938874  2942A      7.940470  
    2943A      7.947601  2944A      7.969572  2945A      7.973972  
    2946A      7.983656  2947A      7.990421  2948A      8.003169  
    2949A      8.009359  2950A      8.015630  2951A      8.026686  
    2952A      8.035734  2953A      8.052072  2954A      8.059359  
    2955A      8.072069  2956A      8.097432  2957A      8.100213  
    2958A      8.105536  2959A      8.111769  2960A      8.114481  
    2961A      8.117165  2962A      8.124208  2963A      8.151063  
    2964A      8.163540  2965A      8.180918  2966A      8.186654  
    2967A      8.188697  2968A      8.215725  2969A      8.220171  
    2970A      8.225923  2971A      8.235763  2972A      8.256195  
    2973A      8.261305  2974A      8.272056  2975A      8.283150  
    2976A      8.321169  2977A      8.324874  2978A      8.340179  
    2979A      8.352225  2980A      8.360624  2981A      8.380724  
    2982A      8.393425  2983A      8.404568  2984A      8.415754  
    2985A      8.425772  2986A      8.430174  2987A      8.432248  
    2988A      8.446975  2989A      8.455586  2990A      8.481347  
    2991A      8.484012  2992A      8.489759  2993A      8.498957  
    2994A      8.514079  2995A      8.547264  2996A      8.555672  
    2997A      8.577640  2998A      8.590213  2999A      8.603109  
    3000A      8.637735  3001A      8.684693  3002A      8.702163  
    3003A      8.719895  3004A      8.742056  3005A      8.749800  
    3006A      8.777845  3007A      8.796022  3008A      8.830824  
    3009A      8.853069  3010A      8.863970  3011A      8.881655  
    3012A      8.891697  3013A      8.916549  3014A      8.919178  
    3015A      8.970759  3016A      8.980458  3017A      9.002826  
    3018A      9.037718  3019A      9.059474  3020A      9.086694  
    3021A      9.160476  3022A      9.185527  3023A      9.199786  
    3024A      9.216124  3025A      9.236910  3026A      9.249578  
    3027A      9.274494  3028A      9.304041  3029A      9.307187  
    3030A      9.323753  3031A      9.327327  3032A      9.382956  
    3033A      9.402840  3034A      9.406916  3035A      9.425834  
    3036A      9.433071  3037A      9.461641  3038A      9.474584  
    3039A      9.518608  3040A      9.550073  3041A      9.575285  
    3042A      9.682332  3043A      9.688582  3044A      9.759310  
    3045A      9.856422  3046A      9.863678  3047A      9.879058  
    3048A      9.886070  3049A      9.901359  3050A      9.914308  
    3051A      9.920027  3052A      9.964328  3053A      9.982486  
    3054A     10.017237  3055A     10.043042  3056A     10.062639  
    3057A     10.106252  3058A     10.131422  3059A     10.147887  
    3060A     10.156638  3061A     10.169855  3062A     10.187197  
    3063A     10.201580  3064A     10.207960  3065A     10.224398  
    3066A     10.241814  3067A     10.258011  3068A     10.305378  
    3069A     10.340726  3070A     10.376827  3071A     10.452392  
    3072A     10.538107  3073A     10.547081  3074A     10.551810  
    3075A     10.555033  3076A     10.645440  3077A     10.722303  
    3078A     10.801599  3079A     10.826628  3080A     10.841071  
    3081A     10.844304  3082A     10.868175  3083A     10.897341  
    3084A     10.902486  3085A     10.954823  3086A     11.042351  
    3087A     11.097276  3088A     11.137235  3089A     11.151791  
    3090A     11.230875  3091A     11.255449  3092A     11.268536  
    3093A     11.287390  3094A     11.295134  3095A     11.371107  
    3096A     11.425177  3097A     11.566761  3098A     11.613310  
    3099A     11.619949  3100A     11.632463  3101A     11.677251  
    3102A     11.758506  3103A     11.865955  3104A     11.914652  
    3105A     11.934859  3106A     11.957202  3107A     11.962333  
    3108A     12.004801  3109A     12.054684  3110A     12.109651  
    3111A     12.150733  3112A     12.164355  3113A     12.180804  
    3114A     12.223070  3115A     12.223979  3116A     12.375544  
    3117A     12.381209  3118A     12.424839  3119A     12.431223  
    3120A     12.721699  3121A     13.371498  3122A     13.506953  
    3123A     13.688248  3124A     13.722989  3125A     14.511807  
    3126A     14.626740  3127A     15.885845  3128A     16.327762  
    3129A     16.607207  3130A     16.854080  3131A     17.079549  
    3132A     17.203377  3133A     17.902154  3134A     19.683517  
    3135A     20.927589  3136A     21.194763  3137A     21.919414  
    3138A     22.108553  3139A     22.448355  3140A     50.146989  
    3141A     50.250453  3142A     51.629250  3143A     51.767383  
    3144A     51.891230  3145A     52.061602  3146A     52.124598  
    3147A     54.217363  3148A     54.466251  3149A     54.478933  
    3150A     54.629826  3151A     54.987790  3152A     55.160329  
    3153A     55.294611  3154A     55.498993  3155A     55.793376  
    3156A     56.891131  3157A     56.946095  3158A     57.383671  
    3159A     57.468550  3160A     58.269675  3161A     59.603846  
    3162A     59.690655  3163A     59.747959  3164A     60.285817  
    3165A     60.449302  3166A     60.469121  3167A     60.677829  
    3168A     60.750613  3169A     60.829635  3170A     61.206946  
    3171A     61.343846  3172A     61.506035  3173A     61.652586  
    3174A     61.765876  3175A     62.023643  3176A     62.599244  
    3177A     62.827976  3178A     63.448059  3179A     63.463716  
    3180A     71.128970  3181A     73.355412  

    Final Occupation by Irrep:
              A 
    DOCC [    47 ]
    NA   [    47 ]
    NB   [    47 ]

  @DF-RKS Final Energy:  -740.52457353953037

   => Energetics <=

    Nuclear Repulsion Energy =            775.5137723426466891
    One-Electron Energy =               -2550.4808716536977045
    Two-Electron Energy =                1099.2273651968905597
    DFT Exchange-Correlation Energy =     -65.1492788977841997
    Empirical Dispersion Energy =           0.0000000000000000
    VV10 Nonlocal Energy =                  0.3644394724142062
    Total Energy =                       -740.5245735395303655

Computation Completed


Properties will be evaluated at   0.000000,   0.000000,   0.000000 [a0]

Properties computed using the SCF density matrix


 Multipole Moments:

 ------------------------------------------------------------------------------------
     Multipole            Electronic (a.u.)      Nuclear  (a.u.)        Total (a.u.)
 ------------------------------------------------------------------------------------

 L = 1.  Multiply by 2.5417464519 to convert [e a0] to [Debye]
 Dipole X            :         38.4673324          -38.7738286           -0.3064962
 Dipole Y            :        112.8556182         -112.9901199           -0.1345018
 Dipole Z            :        245.9124827         -247.4588117           -1.5463291
 Magnitude           :                                                    1.5821391

 ------------------------------------------------------------------------------------

*** tstop() called on atl1-1-02-003-20-2.pace.gatech.edu at Sat Jun 13 19:48:40 2026
Module time:
	user time   =   80551.39 seconds =    1342.52 minutes
	system time =    4809.31 seconds =      80.16 minutes
	total time  =      12487 seconds =     208.12 minutes
Total time:
	user time   =   80551.39 seconds =    1342.52 minutes
	system time =    4809.31 seconds =      80.16 minutes
	total time  =      12487 seconds =     208.12 minutes

    Psi4 stopped on: Saturday, 13 June 2026 07:48PM
    Psi4 wall time for execution: 3:28:24.49

*** Psi4 exiting successfully. Buy a developer a beer!
