
    -----------------------------------------------------------------------
          Psi4: An Open-Source Ab Initio Electronic Structure Package
                               Psi4 1.9.1 release

                         Git: Rev {} zzzzzzz 


    D. G. A. Smith, L. A. Burns, A. C. Simmonett, R. M. Parrish,
    M. C. Schieber, R. Galvelis, P. Kraus, H. Kruse, R. Di Remigio,
    A. Alenaizan, A. M. James, S. Lehtola, J. P. Misiewicz, M. Scheurer,
    R. A. Shaw, J. B. Schriber, Y. Xie, Z. L. Glick, D. A. Sirianni,
    J. S. O'Brien, J. M. Waldrop, A. Kumar, E. G. Hohenstein,
    B. P. Pritchard, B. R. Brooks, H. F. Schaefer III, A. Yu. Sokolov,
    K. Patkowski, A. E. DePrince III, U. Bozkaya, R. A. King,
    F. A. Evangelista, J. M. Turney, T. D. Crawford, C. D. Sherrill,
    J. Chem. Phys. 152(18) 184108 (2020). https://doi.org/10.1063/5.0006002

                            Additional Code Authors
    E. T. Seidl, C. L. Janssen, E. F. Valeev, M. L. Leininger,
    J. F. Gonthier, R. M. Richard, H. R. McAlexander, M. Saitow, X. Wang,
    P. Verma, M. H. Lechner, A. Jiang, S. Behnle, A. G. Heide,
    M. F. Herbst, and D. L. Poole

             Previous Authors, Complete List of Code Contributors,
                       and Citations for Specific Modules
    https://github.com/psi4/psi4/blob/master/codemeta.json
    https://github.com/psi4/psi4/graphs/contributors
    http://psicode.org/psi4manual/master/introduction.html#citing-psifour

    -----------------------------------------------------------------------


    Psi4 started on: Saturday, 13 June 2026 12:08PM

    Process ID: 3978429
    Host:       atl1-1-03-004-19-1.pace.gatech.edu
    PSIDATADIR: /storage/home/hcoda1/5/vlita3/.conda/envs/p4_qcml/share/psi4
    Memory:     250.0 GiB
    Threads:    10
    
  ==> Input QCSchema <==

--------------------------------------------------------------------------
{'driver': 'energy',
 'extras': {},
 'id': '232',
 'keywords': {},
 'model': {'basis': 'aug-cc-pvtz', 'method': 'wb97x-d'},
 'molecule': {'extras': {},
              'fix_com': True,
              'fix_orientation': True,
              'fragment_charges': [0.0, 0.0],
              'fragment_multiplicities': [1, 1],
              'fragments': [[0, 1, 2, 3, 4, 5, 6, 7, 8, 9, 10, 11, 12, 13, 14, 15, 16, 17, 18, 19, 20, 21, 22, 23, 24,
                             25, 26, 27, 28, 29, 30, 31, 32, 33, 34, 35],
                            [36, 37, 38, 39, 40, 41, 42, 43, 44, 45, 46, 47, 48, 49, 50, 51, 52, 53, 54, 55, 56, 57, 58,
                             59, 60, 61, 62, 63, 64, 65, 66, 67, 68, 69, 70, 71]],
              'geometry': [-2.81102804, -2.32727976, -3.26733672, -0.12371685, -2.32727976, -3.26733672, 1.21993874,
                           0.0, -3.26733672, -0.12371685, 2.32727976, -3.26733672, -2.81102804, 2.32727976, -3.26733672,
                           -4.15468364, 0.0, -3.26733672, 1.21375609, -4.64385085, -3.26733672, -0.17645855,
                           -6.93684965, -3.26733672, -2.75828635, -6.93684965, -3.26733672, -4.14850099, -4.64385085,
                           -3.26733672, -6.82962953, 0.0, -3.26733672, -8.12031742, -2.3504606, -3.26733672,
                           -6.82940352, -4.58638906, -3.26733672, -8.12031742, 2.3504606, -3.26733672, -6.82940352,
                           4.58638906, -3.26733672, -4.14850099, 4.64385085, -3.26733672, -2.75828635, 6.93684965,
                           -3.26733672, -0.17645855, 6.93684965, -3.26733672, 1.21375609, 4.64385085, -3.26733672,
                           3.89465863, 4.58638906, -3.26733672, 5.18557252, 2.3504606, -3.26733672, 3.89488463, 0.0,
                           -3.26733672, 5.18557252, -2.3504606, -3.26733672, 3.89465863, -4.58638906, -3.26733672,
                           0.84958395, -8.70675598, -3.26733672, -3.78432885, -8.70675598, -3.26733672, -7.84916611,
                           -6.35992109, -3.26733672, -10.16612251, -2.34683489, -3.26733672, -10.16612251, 2.34683489,
                           -3.26733672, -7.84916611, 6.35992109, -3.26733672, -3.78432885, 8.70675598, -3.26733672,
                           0.84958395, 8.70675598, -3.26733672, 4.91442121, 6.35992109, -3.26733672, 7.23137761,
                           2.34683489, -3.26733672, 7.23137761, -2.34683489, -3.26733672, 4.91442121, -6.35992109,
                           -3.26733672, 0.12371685, -2.32727976, 3.26733672, 2.81102804, -2.32727976, 3.26733672,
                           4.15468364, 0.0, 3.26733672, 2.81102804, 2.32727976, 3.26733672, 0.12371685, 2.32727976,
                           3.26733672, -1.21993874, 0.0, 3.26733672, 4.14850099, -4.64385085, 3.26733672, 2.75828635,
                           -6.93684965, 3.26733672, 0.17645855, -6.93684965, 3.26733672, -1.21375609, -4.64385085,
                           3.26733672, -3.89488463, 0.0, 3.26733672, -5.18557252, -2.3504606, 3.26733672, -3.89465863,
                           -4.58638906, 3.26733672, -5.18557252, 2.3504606, 3.26733672, -3.89465863, 4.58638906,
                           3.26733672, -1.21375609, 4.64385085, 3.26733672, 0.17645855, 6.93684965, 3.26733672,
                           2.75828635, 6.93684965, 3.26733672, 4.14850099, 4.64385085, 3.26733672, 6.82940352,
                           4.58638906, 3.26733672, 8.12031742, 2.3504606, 3.26733672, 6.82962953, 0.0, 3.26733672,
                           8.12031742, -2.3504606, 3.26733672, 6.82940352, -4.58638906, 3.26733672, 3.78432885,
                           -8.70675598, 3.26733672, -0.84958395, -8.70675598, 3.26733672, -4.91442121, -6.35992109,
                           3.26733672, -7.23137761, -2.34683489, 3.26733672, -7.23137761, 2.34683489, 3.26733672,
                           -4.91442121, 6.35992109, 3.26733672, -0.84958395, 8.70675598, 3.26733672, 3.78432885,
                           8.70675598, 3.26733672, 7.84916611, 6.35992109, 3.26733672, 10.16612251, 2.34683489,
                           3.26733672, 10.16612251, -2.34683489, 3.26733672, 7.84916611, -6.35992109, 3.26733672],
              'id': 10,
              'identifiers': {'molecular_formula': 'C48H24',
                              'molecule_hash': 'c1dab0bff2b2c78f2e4529631a3bee8a50d4ce93'},
              'masses': [12.0, 12.0, 12.0, 12.0, 12.0, 12.0, 12.0, 12.0, 12.0, 12.0, 12.0, 12.0, 12.0, 12.0, 12.0, 12.0,
                         12.0, 12.0, 12.0, 12.0, 12.0, 12.0, 12.0, 12.0, 1.00782503223, 1.00782503223, 1.00782503223,
                         1.00782503223, 1.00782503223, 1.00782503223, 1.00782503223, 1.00782503223, 1.00782503223,
                         1.00782503223, 1.00782503223, 1.00782503223, 12.0, 12.0, 12.0, 12.0, 12.0, 12.0, 12.0, 12.0,
                         12.0, 12.0, 12.0, 12.0, 12.0, 12.0, 12.0, 12.0, 12.0, 12.0, 12.0, 12.0, 12.0, 12.0, 12.0, 12.0,
                         1.00782503223, 1.00782503223, 1.00782503223, 1.00782503223, 1.00782503223, 1.00782503223,
                         1.00782503223, 1.00782503223, 1.00782503223, 1.00782503223, 1.00782503223, 1.00782503223],
              'molecular_charge': 0.0,
              'molecular_multiplicity': 1,
              'name': 'C48H24 ([1],[0])',
              'provenance': {'creator': 'QCElemental',
                             'routine': 'qcelemental.molparse.from_schema',
                             'version': '0.29.0'},
              'real': [False, False, False, False, False, False, False, False, False, False, False, False, False, False,
                       False, False, False, False, False, False, False, False, False, False, False, False, False, False,
                       False, False, False, False, False, False, False, False, True, True, True, True, True, True, True,
                       True, True, True, True, True, True, True, True, True, True, True, True, True, True, True, True,
                       True, True, True, True, True, True, True, True, True, True, True, True, True],
              'schema_name': 'qcschema_molecule',
              'schema_version': 2,
              'symbols': ['C', 'C', 'C', 'C', 'C', 'C', 'C', 'C', 'C', 'C', 'C', 'C', 'C', 'C', 'C', 'C', 'C', 'C', 'C',
                          'C', 'C', 'C', 'C', 'C', 'H', 'H', 'H', 'H', 'H', 'H', 'H', 'H', 'H', 'H', 'H', 'H', 'C', 'C',
                          'C', 'C', 'C', 'C', 'C', 'C', 'C', 'C', 'C', 'C', 'C', 'C', 'C', 'C', 'C', 'C', 'C', 'C', 'C',
                          'C', 'C', 'C', 'H', 'H', 'H', 'H', 'H', 'H', 'H', 'H', 'H', 'H', 'H', 'H'],
              'validated': True},
 'protocols': {},
 'provenance': {'creator': 'QCElemental', 'routine': 'qcelemental.models.results', 'version': '0.29.0'},
 'schema_name': 'qcschema_input',
 'schema_version': 1}
--------------------------------------------------------------------------

Scratch directory: /tmp/tmpqh_aiyyk_psi_scratch/
   => Libint2 <=

    Primary   basis highest AM E, G, H:  6, 6, 3
    Auxiliary basis highest AM E, G, H:  7, 7, 4
    Onebody   basis highest AM E, G, H:  -, -, -
    Solid Harmonics ordering:            Gaussian

*** tstart() called on atl1-1-03-004-19-1.pace.gatech.edu
*** at Sat Jun 13 12:08:42 2026

   => Loading Basis Set <=

    Name: AUG-CC-PVTZ
    Role: ORBITAL
    Keyword: BASIS
    atoms 1-24, 37-60  entry C          line   239 file /storage/home/hcoda1/5/vlita3/.conda/envs/p4_qcml/share/psi4/basis/aug-cc-pvtz.gbs 
    atoms 25-36, 61-72 entry H          line    40 file /storage/home/hcoda1/5/vlita3/.conda/envs/p4_qcml/share/psi4/basis/aug-cc-pvtz.gbs 

   => WB97X-D: Empirical Dispersion <=

    Chai and Head-Gordon Dispersion Correction
    Chai, J.-D.; Head-Gordon, M. (2010), J. Chem. Phys., 132: 6615-6620

        s6 =       1.000000


         ---------------------------------------------------------
                                   SCF
               by Justin Turney, Rob Parrish, Andy Simmonett
                          and Daniel G. A. Smith
                              RKS Reference
                       10 Threads, 256000 MiB Core
         ---------------------------------------------------------

  ==> Geometry <==

    Molecular point group: cs
    Full point group: Cs

    Geometry (in Bohr), charge = 0, multiplicity = 1:

       Center              X                  Y                   Z               Mass       
    ------------   -----------------  -----------------  -----------------  -----------------
      Gh(C)          -2.811028040000    -2.327279760000    -3.267336720000    12.000000000000
      Gh(C)          -0.123716850000    -2.327279760000    -3.267336720000    12.000000000000
      Gh(C)           1.219938740000     0.000000000000    -3.267336720000    12.000000000000
      Gh(C)          -0.123716850000     2.327279760000    -3.267336720000    12.000000000000
      Gh(C)          -2.811028040000     2.327279760000    -3.267336720000    12.000000000000
      Gh(C)          -4.154683640000     0.000000000000    -3.267336720000    12.000000000000
      Gh(C)           1.213756090000    -4.643850850000    -3.267336720000    12.000000000000
      Gh(C)          -0.176458550000    -6.936849650000    -3.267336720000    12.000000000000
      Gh(C)          -2.758286350000    -6.936849650000    -3.267336720000    12.000000000000
      Gh(C)          -4.148500990000    -4.643850850000    -3.267336720000    12.000000000000
      Gh(C)          -6.829629530000     0.000000000000    -3.267336720000    12.000000000000
      Gh(C)          -8.120317420000    -2.350460600000    -3.267336720000    12.000000000000
      Gh(C)          -6.829403520000    -4.586389060000    -3.267336720000    12.000000000000
      Gh(C)          -8.120317420000     2.350460600000    -3.267336720000    12.000000000000
      Gh(C)          -6.829403520000     4.586389060000    -3.267336720000    12.000000000000
      Gh(C)          -4.148500990000     4.643850850000    -3.267336720000    12.000000000000
      Gh(C)          -2.758286350000     6.936849650000    -3.267336720000    12.000000000000
      Gh(C)          -0.176458550000     6.936849650000    -3.267336720000    12.000000000000
      Gh(C)           1.213756090000     4.643850850000    -3.267336720000    12.000000000000
      Gh(C)           3.894658630000     4.586389060000    -3.267336720000    12.000000000000
      Gh(C)           5.185572520000     2.350460600000    -3.267336720000    12.000000000000
      Gh(C)           3.894884630000     0.000000000000    -3.267336720000    12.000000000000
      Gh(C)           5.185572520000    -2.350460600000    -3.267336720000    12.000000000000
      Gh(C)           3.894658630000    -4.586389060000    -3.267336720000    12.000000000000
      Gh(H)           0.849583950000    -8.706755980000    -3.267336720000     1.007825032230
      Gh(H)          -3.784328850000    -8.706755980000    -3.267336720000     1.007825032230
      Gh(H)          -7.849166110000    -6.359921090000    -3.267336720000     1.007825032230
      Gh(H)         -10.166122510000    -2.346834890000    -3.267336720000     1.007825032230
      Gh(H)         -10.166122510000     2.346834890000    -3.267336720000     1.007825032230
      Gh(H)          -7.849166110000     6.359921090000    -3.267336720000     1.007825032230
      Gh(H)          -3.784328850000     8.706755980000    -3.267336720000     1.007825032230
      Gh(H)           0.849583950000     8.706755980000    -3.267336720000     1.007825032230
      Gh(H)           4.914421210000     6.359921090000    -3.267336720000     1.007825032230
      Gh(H)           7.231377610000     2.346834890000    -3.267336720000     1.007825032230
      Gh(H)           7.231377610000    -2.346834890000    -3.267336720000     1.007825032230
      Gh(H)           4.914421210000    -6.359921090000    -3.267336720000     1.007825032230
         C            0.123716850000    -2.327279760000     3.267336720000    12.000000000000
         C            2.811028040000    -2.327279760000     3.267336720000    12.000000000000
         C            4.154683640000     0.000000000000     3.267336720000    12.000000000000
         C            2.811028040000     2.327279760000     3.267336720000    12.000000000000
         C            0.123716850000     2.327279760000     3.267336720000    12.000000000000
         C           -1.219938740000     0.000000000000     3.267336720000    12.000000000000
         C            4.148500990000    -4.643850850000     3.267336720000    12.000000000000
         C            2.758286350000    -6.936849650000     3.267336720000    12.000000000000
         C            0.176458550000    -6.936849650000     3.267336720000    12.000000000000
         C           -1.213756090000    -4.643850850000     3.267336720000    12.000000000000
         C           -3.894884630000     0.000000000000     3.267336720000    12.000000000000
         C           -5.185572520000    -2.350460600000     3.267336720000    12.000000000000
         C           -3.894658630000    -4.586389060000     3.267336720000    12.000000000000
         C           -5.185572520000     2.350460600000     3.267336720000    12.000000000000
         C           -3.894658630000     4.586389060000     3.267336720000    12.000000000000
         C           -1.213756090000     4.643850850000     3.267336720000    12.000000000000
         C            0.176458550000     6.936849650000     3.267336720000    12.000000000000
         C            2.758286350000     6.936849650000     3.267336720000    12.000000000000
         C            4.148500990000     4.643850850000     3.267336720000    12.000000000000
         C            6.829403520000     4.586389060000     3.267336720000    12.000000000000
         C            8.120317420000     2.350460600000     3.267336720000    12.000000000000
         C            6.829629530000     0.000000000000     3.267336720000    12.000000000000
         C            8.120317420000    -2.350460600000     3.267336720000    12.000000000000
         C            6.829403520000    -4.586389060000     3.267336720000    12.000000000000
         H            3.784328850000    -8.706755980000     3.267336720000     1.007825032230
         H           -0.849583950000    -8.706755980000     3.267336720000     1.007825032230
         H           -4.914421210000    -6.359921090000     3.267336720000     1.007825032230
         H           -7.231377610000    -2.346834890000     3.267336720000     1.007825032230
         H           -7.231377610000     2.346834890000     3.267336720000     1.007825032230
         H           -4.914421210000     6.359921090000     3.267336720000     1.007825032230
         H           -0.849583950000     8.706755980000     3.267336720000     1.007825032230
         H            3.784328850000     8.706755980000     3.267336720000     1.007825032230
         H            7.849166110000     6.359921090000     3.267336720000     1.007825032230
         H           10.166122510000     2.346834890000     3.267336720000     1.007825032230
         H           10.166122510000    -2.346834890000     3.267336720000     1.007825032230
         H            7.849166110000    -6.359921090000     3.267336720000     1.007825032230

  Running in cs symmetry.

  Rotational constants: A =      0.00378  B =      0.00326  C =      0.00251 [cm^-1]
  Rotational constants: A =    113.23902  B =     97.86670  C =     75.24221 [MHz]
  Nuclear repulsion = 1837.330664984319583

  Charge       = 0
  Multiplicity = 1
  Electrons    = 156
  Nalpha       = 78
  Nbeta        = 78

  ==> Algorithm <==

  SCF Algorithm Type is DF.
  DIIS enabled.
  MOM disabled.
  Fractional occupation disabled.
  Guess Type is SAD.
  Energy threshold   = 1.00e-06
  Density threshold  = 1.00e-06
  Integral threshold = 1.00e-12

  ==> Primary Basis <==

  Basis Set: AUG-CC-PVTZ
    Blend: AUG-CC-PVTZ
    Number of shells: 888
    Number of basis functions: 2760
    Number of Cartesian functions: 3240
    Spherical Harmonics?: true
    Max angular momentum: 3

  ==> DFT Potential <==

   => LibXC <=

    Version 7.0.0
    S. Lehtola, C. Steigemann, M. J.T. Oliveira, and M. A.L. Marques.,  SoftwareX 7, 1–5 (2018) (10.1016/j.softx.2017.11.002)

   => Composite Functional: WB97X-D <= 

    wB97X-D Hyb-GGA Exchange-Correlation Functional

    J.-D. Chai and M. Head-Gordon.,  Phys. Chem. Chem. Phys. 10, 6615-6620 (2008) (10.1039/B810189B)

    Deriv               =              1
    GGA                 =           TRUE
    Meta                =          FALSE

    Exchange Hybrid     =           TRUE
    MP2 Hybrid          =          FALSE

   => Exchange-Correlation Functionals <=

    1.0000   wB97X-D range-separated functional

   => Exact (HF) Exchange <=

    0.7780            HF,LR [omega = 0.2000]
    0.2220               HF 

   => LibXC Density Thresholds  <==

    XC_HYB_GGA_XC_WB97X_D:  1.00E-14 

   => Molecular Quadrature <=

    Radial Scheme          =       TREUTLER
    Pruning Scheme         =           NONE
    Nuclear Scheme         =       TREUTLER

    Blocking Scheme        =         OCTREE
    BS radius alpha        =              1
    Pruning alpha          =              1
    Radial Points          =             75
    Spherical Points       =            302
    Total Points           =        1423706
    Total Blocks           =           9482
    Max Points             =            256
    Max Functions          =           2109
    Weights Tolerance      =       1.00E-15

   => Loading Basis Set <=

    Name: (AUG-CC-PVTZ AUX)
    Role: JKFIT
    Keyword: DF_BASIS_SCF
    atoms 1-24, 37-60  entry C          line   162 file /storage/home/hcoda1/5/vlita3/.conda/envs/p4_qcml/share/psi4/basis/aug-cc-pvtz-jkfit.gbs 
    atoms 25-36, 61-72 entry H          line    70 file /storage/home/hcoda1/5/vlita3/.conda/envs/p4_qcml/share/psi4/basis/aug-cc-pvtz-jkfit.gbs 

  ==> Integral Setup <==

  ==> DiskDFJK: Density-Fitted J/K Matrices <==

    J tasked:                  Yes
    K tasked:                  Yes
    wK tasked:                 Yes
    Omega:               2.000E-01
    OpenMP threads:             10
    Integrals threads:          10
    Memory [MiB]:           147036
    Algorithm:                Disk
    Integral Cache:           NONE
    Schwarz Cutoff:          1E-12
    Fitting Condition:       1E-10

   => Auxiliary Basis Set <=

  Basis Set: (AUG-CC-PVTZ AUX)
    Blend: AUG-CC-PVTZ-JKFIT
    Number of shells: 1776
    Number of basis functions: 6096
    Number of Cartesian functions: 7608
    Spherical Harmonics?: true
    Max angular momentum: 4

  Cached 50.0% of DFT collocation blocks in 28.297 [GiB].

  Minimum eigenvalue in the overlap matrix is 1.2243416004E-10.
  Reciprocal condition number of the overlap matrix is 3.5504774292E-12.
    Using canonical orthogonalization.
  Overall, 29 of 2760 possible MOs eliminated.


  ==> Pre-Iterations <==

  SCF Guess: Superposition of Atomic Densities via on-the-fly atomic UHF (no occupation information).

   -------------------------
    Irrep   Nso     Nmo    
   -------------------------
     A'      1436    1421 
     A"      1324    1310 
   -------------------------
    Total    2760    2731
   -------------------------

  ==> Iterations <==

                           Total Energy        Delta E     RMS |[F,P]|

   @DF-RKS iter SAD:  -922.75893773107259   -9.22759e+02   0.00000e+00 
   @DF-RKS iter   1:  -921.09870230521608    1.66024e+00   6.12588e-04 DIIS/ADIIS
   @DF-RKS iter   2:  -921.56736401474257   -4.68662e-01   3.86296e-04 DIIS/ADIIS
   @DF-RKS iter   3:  -921.84909101903725   -2.81727e-01   7.08549e-05 DIIS
   @DF-RKS iter   4:  -921.85663461647550   -7.54360e-03   3.80645e-05 DIIS
   @DF-RKS iter   5:  -921.85943923041270   -2.80461e-03   9.13416e-06 DIIS
   @DF-RKS iter   6:  -921.85959248745246   -1.53257e-04   3.17317e-06 DIIS
   @DF-RKS iter   7:  -921.85961286035513   -2.03729e-05   5.09239e-07 DIIS
   @DF-RKS iter   8:  -921.85961529057511   -2.43022e-06   1.82819e-07 DIIS
   @DF-RKS iter   9:  -921.85961580689002   -5.16315e-07   6.06768e-08 DIIS
  Energy and wave function converged.


  ==> Post-Iterations <==

   Electrons on quadrature grid:
      Ntotal   =  156.0002794768 ; deviation = 2.795e-04 

    Orbital Energies [Eh]
    ---------------------

    Doubly Occupied:                                                      

       1Ap   -10.305949     1App  -10.305766     2Ap   -10.305765  
       2App  -10.305462     3Ap   -10.305461     4Ap   -10.305392  
       5Ap   -10.305099     3App  -10.305087     6Ap   -10.305085  
       4App  -10.304893     7Ap   -10.304892     8Ap   -10.304753  
       5App  -10.296570     9Ap   -10.296565     6App  -10.296565  
       7App  -10.296546    10Ap   -10.296545    11Ap   -10.296534  
       8App  -10.295801    12Ap   -10.295801    13Ap   -10.295800  
       9App  -10.295793    14Ap   -10.295793    10App  -10.295791  
      15Ap    -1.014701    11App   -0.977213    16Ap    -0.977211  
      17Ap    -0.929079    12App   -0.929077    18Ap    -0.912207  
      13App   -0.880228    19Ap    -0.865174    14App   -0.847308  
      20Ap    -0.847307    21Ap    -0.814268    15App   -0.814266  
      22Ap    -0.734766    16App   -0.734764    17App   -0.730947  
      23Ap    -0.730944    24Ap    -0.723670    18App   -0.658539  
      25Ap    -0.650893    19App   -0.634320    26Ap    -0.634319  
      20App   -0.632350    27Ap    -0.610616    28Ap    -0.567051  
      21App   -0.567049    22App   -0.549731    29Ap    -0.549729  
      30Ap    -0.546277    23App   -0.546276    31Ap    -0.525830  
      32Ap    -0.516518    24App   -0.509330    33Ap    -0.509325  
      25App   -0.505382    26App   -0.489488    34Ap    -0.489485  
      27App   -0.480789    35Ap    -0.480788    36Ap    -0.460060  
      28App   -0.459835    29App   -0.444978    37Ap    -0.444338  
      30App   -0.444338    31App   -0.421874    38Ap    -0.421873  
      39Ap    -0.404167    32App   -0.398033    40Ap    -0.398032  
      33App   -0.354873    41Ap    -0.347862    34App   -0.330647  
      42Ap    -0.330639    43Ap    -0.271368    35App   -0.271358  

    Virtual:                                                              

      36App   -0.005596    44Ap    -0.005583    45Ap     0.020985  
      37App    0.025080    46Ap     0.025932    38App    0.033195  
      47Ap     0.033251    48Ap     0.034061    39App    0.039074  
      49Ap     0.039139    40App    0.039293    50Ap     0.039419  
      51Ap     0.044252    41App    0.044869    52Ap     0.050631  
      42App    0.051001    53Ap     0.054569    54Ap     0.057230  
      55Ap     0.058023    43App    0.058876    56Ap     0.065015  
      44App    0.065975    57Ap     0.068420    45App    0.068438  
      58Ap     0.073388    46App    0.075198    59Ap     0.075362  
      60Ap     0.076152    47App    0.079398    61Ap     0.083051  
      62Ap     0.083658    48App    0.084080    49App    0.085548  
      50App    0.088239    63Ap     0.088383    64Ap     0.092400  
      51App    0.093248    52App    0.093641    65Ap     0.096258  
      53App    0.096622    66Ap     0.097302    67Ap     0.101215  
      54App    0.103633    68Ap     0.105611    69Ap     0.107669  
      55App    0.107910    70Ap     0.108973    56App    0.109461  
      71Ap     0.112851    72Ap     0.114704    57App    0.115060  
      58App    0.115453    73Ap     0.118244    74Ap     0.122844  
      59App    0.123068    60App    0.123223    75Ap     0.125226  
      76Ap     0.127796    61App    0.127858    62App    0.128750  
      77Ap     0.130012    78Ap     0.131449    63App    0.137389  
      79Ap     0.138154    64App    0.138326    80Ap     0.141142  
      81Ap     0.146440    82Ap     0.147877    65App    0.148342  
      66App    0.150372    83Ap     0.150827    84Ap     0.152060  
      85Ap     0.152702    67App    0.153801    68App    0.154738  
      86Ap     0.155119    87Ap     0.157909    69App    0.160623  
      70App    0.161468    88Ap     0.162355    71App    0.162819  
      89Ap     0.163163    90Ap     0.165896    91Ap     0.168443  
      72App    0.170131    92Ap     0.172228    73App    0.173310  
      74App    0.175764    93Ap     0.176458    94Ap     0.178686  
      75App    0.181667    95Ap     0.182904    76App    0.183022  
      96Ap     0.183976    97Ap     0.185196    98Ap     0.186787  
      77App    0.189004    78App    0.191546    99Ap     0.191548  
     100Ap     0.192949    79App    0.193989   101Ap     0.195895  
      80App    0.196182   102Ap     0.197997    81App    0.198372  
     103Ap     0.199373    82App    0.199935   104Ap     0.201915  
      83App    0.203735    84App    0.204460   105Ap     0.205242  
      85App    0.206867    86App    0.212273   106Ap     0.213526  
      87App    0.214710   107Ap     0.215989    88App    0.217174  
     108Ap     0.217788   109Ap     0.220415   110Ap     0.222538  
      89App    0.223602   111Ap     0.224406    90App    0.225106  
     112Ap     0.226278   113Ap     0.229015   114Ap     0.230913  
      91App    0.230931    92App    0.232890    93App    0.233696  
     115Ap     0.233746    94App    0.234389   116Ap     0.235170  
     117Ap     0.236519    95App    0.238137   118Ap     0.239053  
     119Ap     0.243129    96App    0.244288    97App    0.245883  
     120Ap     0.246661   121Ap     0.248189   122Ap     0.248705  
      98App    0.248785    99App    0.250139   123Ap     0.252373  
     124Ap     0.252948   100App    0.254114   125Ap     0.255712  
     101App    0.257114   102App    0.258201   126Ap     0.258739  
     103App    0.259683   104App    0.261681   127Ap     0.262416  
     128Ap     0.262945   105App    0.267218   129Ap     0.267465  
     130Ap     0.267854   106App    0.269177   107App    0.271335  
     131Ap     0.273527   108App    0.274300   132Ap     0.274933  
     109App    0.278821   110App    0.279102   133Ap     0.279410  
     134Ap     0.280827   135Ap     0.283647   111App    0.284590  
     136Ap     0.285149   137Ap     0.286621   112App    0.286974  
     113App    0.287860   138Ap     0.289232   139Ap     0.290234  
     114App    0.290874   115App    0.293824   140Ap     0.295022  
     141Ap     0.297316   142Ap     0.299198   116App    0.299488  
     117App    0.302169   143Ap     0.305399   118App    0.306207  
     144Ap     0.306736   119App    0.306928   145Ap     0.308910  
     120App    0.308959   121App    0.309228   146Ap     0.309401  
     122App    0.314087   147Ap     0.315101   148Ap     0.315882  
     149Ap     0.316048   123App    0.316244   150Ap     0.318695  
     151Ap     0.322744   124App    0.322765   125App    0.324280  
     152Ap     0.325935   153Ap     0.328280   126App    0.329236  
     154Ap     0.329645   127App    0.330034   155Ap     0.331004  
     156Ap     0.331769   157Ap     0.332896   128App    0.333190  
     129App    0.334323   158Ap     0.334551   130App    0.338429  
     159Ap     0.339380   131App    0.339697   132App    0.343065  
     160Ap     0.344538   133App    0.345179   161Ap     0.345834  
     162Ap     0.349184   134App    0.350518   163Ap     0.351361  
     135App    0.353081   164Ap     0.355029   136App    0.356993  
     165Ap     0.357604   137App    0.361080   166Ap     0.361650  
     167Ap     0.363735   168Ap     0.366581   169Ap     0.367245  
     138App    0.367400   139App    0.367925   140App    0.369012  
     170Ap     0.372812   171Ap     0.373859   141App    0.376233  
     172Ap     0.377609   142App    0.377908   173Ap     0.379432  
     143App    0.381102   174Ap     0.383004   144App    0.383663  
     145App    0.385179   175Ap     0.386412   176Ap     0.390279  
     146App    0.390875   177Ap     0.392606   147App    0.393894  
     178Ap     0.394860   179Ap     0.397484   148App    0.398282  
     149App    0.400580   180Ap     0.401955   150App    0.404024  
     181Ap     0.404217   182Ap     0.405521   151App    0.406790  
     183Ap     0.410383   184Ap     0.412552   152App    0.414744  
     185Ap     0.415612   153App    0.416095   154App    0.420232  
     186Ap     0.421750   187Ap     0.421961   155App    0.422894  
     156App    0.425430   188Ap     0.425956   157App    0.428408  
     158App    0.431759   189Ap     0.432161   190Ap     0.434201  
     159App    0.436171   191Ap     0.437958   192Ap     0.441173  
     193Ap     0.441694   160App    0.443881   194Ap     0.445379  
     161App    0.446806   195Ap     0.450134   162App    0.450415  
     196Ap     0.453285   197Ap     0.454733   198Ap     0.455936  
     163App    0.456025   199Ap     0.457800   164App    0.458353  
     165App    0.460895   200Ap     0.461374   201Ap     0.462827  
     166App    0.464352   202Ap     0.467151   167App    0.467664  
     168App    0.469810   203Ap     0.473002   204Ap     0.474779  
     205Ap     0.475037   169App    0.475190   206Ap     0.477733  
     170App    0.478813   207Ap     0.480040   171App    0.480163  
     172App    0.482592   208Ap     0.482770   173App    0.484938  
     209Ap     0.486039   210Ap     0.487655   211Ap     0.488217  
     174App    0.488276   175App    0.491879   212Ap     0.493292  
     176App    0.493317   177App    0.496330   213Ap     0.497452  
     178App    0.497963   214Ap     0.499587   179App    0.501570  
     215Ap     0.502636   216Ap     0.505372   180App    0.505802  
     181App    0.506680   182App    0.507594   217Ap     0.508731  
     183App    0.509614   218Ap     0.510700   219Ap     0.512639  
     184App    0.513022   220Ap     0.513687   185App    0.516752  
     221Ap     0.517457   222Ap     0.519571   223Ap     0.520720  
     186App    0.521148   187App    0.523080   224Ap     0.525783  
     188App    0.527823   225Ap     0.528117   189App    0.530963  
     226Ap     0.531059   227Ap     0.531757   228Ap     0.532970  
     190App    0.534534   191App    0.535729   229Ap     0.535842  
     230Ap     0.537111   192App    0.539488   231Ap     0.540659  
     193App    0.541233   232Ap     0.542357   233Ap     0.543413  
     234Ap     0.544492   194App    0.544699   195App    0.549127  
     235Ap     0.549382   196App    0.550417   197App    0.553526  
     236Ap     0.553769   198App    0.555764   237Ap     0.557950  
     238Ap     0.558523   199App    0.560493   239Ap     0.563058  
     200App    0.563448   240Ap     0.564039   201App    0.564317  
     202App    0.568051   241Ap     0.568616   242Ap     0.570844  
     203App    0.572751   243Ap     0.574335   204App    0.574861  
     244Ap     0.576182   205App    0.577889   245Ap     0.579481  
     246Ap     0.581007   206App    0.583085   207App    0.585070  
     247Ap     0.585504   248Ap     0.589411   208App    0.591277  
     249Ap     0.592135   209App    0.593836   210App    0.594636  
     211App    0.597837   250Ap     0.597975   251Ap     0.599894  
     212App    0.600502   252Ap     0.601746   213App    0.605587  
     214App    0.606187   253Ap     0.606764   215App    0.608082  
     254Ap     0.609493   216App    0.611073   255Ap     0.613015  
     256Ap     0.617550   257Ap     0.619227   217App    0.620101  
     218App    0.622306   219App    0.624067   258Ap     0.625132  
     259Ap     0.626021   260Ap     0.627317   220App    0.627907  
     261Ap     0.631172   221App    0.631874   262Ap     0.632870  
     222App    0.633798   223App    0.636373   224App    0.638710  
     263Ap     0.638933   264Ap     0.642254   225App    0.642709  
     226App    0.647742   265Ap     0.647754   266Ap     0.651710  
     227App    0.654487   267Ap     0.655051   268Ap     0.658771  
     228App    0.659812   229App    0.662527   269Ap     0.663220  
     230App    0.663905   270Ap     0.664177   231App    0.668189  
     271Ap     0.669034   272Ap     0.671454   232App    0.673689  
     273Ap     0.674011   233App    0.675964   274Ap     0.679089  
     234App    0.680970   275Ap     0.681976   276Ap     0.684436  
     235App    0.687057   277Ap     0.687701   236App    0.691241  
     278Ap     0.691698   237App    0.692939   279Ap     0.693630  
     238App    0.695357   280Ap     0.695739   239App    0.701417  
     281Ap     0.702580   282Ap     0.704856   240App    0.706346  
     283Ap     0.708113   241App    0.710334   242App    0.712078  
     284Ap     0.713901   285Ap     0.715113   243App    0.716005  
     286Ap     0.717681   287Ap     0.718512   244App    0.720128  
     245App    0.722021   288Ap     0.722974   289Ap     0.724651  
     246App    0.725019   290Ap     0.727375   247App    0.729581  
     291Ap     0.730162   292Ap     0.733274   248App    0.734312  
     293Ap     0.735047   249App    0.735401   250App    0.737907  
     294Ap     0.738344   251App    0.740796   295Ap     0.743169  
     252App    0.743893   296Ap     0.745674   297Ap     0.748997  
     253App    0.751531   298Ap     0.752270   254App    0.754875  
     299Ap     0.757004   255App    0.758144   300Ap     0.758156  
     256App    0.758610   257App    0.761087   301Ap     0.761269  
     258App    0.763041   302Ap     0.765261   259App    0.765315  
     303Ap     0.769097   260App    0.769676   304Ap     0.770136  
     305Ap     0.771348   306Ap     0.776843   261App    0.777649  
     262App    0.780016   307Ap     0.780845   263App    0.783751  
     308Ap     0.784246   309Ap     0.786964   264App    0.787950  
     310Ap     0.788180   265App    0.788598   311Ap     0.790750  
     266App    0.792976   312Ap     0.793395   267App    0.795055  
     313Ap     0.799660   268App    0.801380   314Ap     0.803296  
     315Ap     0.803697   269App    0.804197   316Ap     0.810719  
     270App    0.811654   317Ap     0.812623   271App    0.813756  
     318Ap     0.814303   272App    0.815783   319Ap     0.817796  
     273App    0.818229   320Ap     0.819787   274App    0.821771  
     321Ap     0.824943   322Ap     0.826600   275App    0.827231  
     323Ap     0.828067   276App    0.828248   277App    0.831214  
     324Ap     0.836627   278App    0.841088   325Ap     0.842085  
     326Ap     0.843650   279App    0.844304   280App    0.846082  
     327Ap     0.846206   281App    0.847638   328Ap     0.848872  
     329Ap     0.850979   330Ap     0.854088   331Ap     0.856649  
     282App    0.857701   283App    0.859054   284App    0.859398  
     332Ap     0.860463   333Ap     0.864834   334Ap     0.866988  
     285App    0.867370   335Ap     0.868692   286App    0.870194  
     287App    0.874328   336Ap     0.874431   288App    0.875015  
     337Ap     0.877115   289App    0.878910   338Ap     0.881167  
     290App    0.882179   339Ap     0.883643   291App    0.885248  
     340Ap     0.887145   292App    0.887670   341Ap     0.889189  
     342Ap     0.892813   293App    0.893187   294App    0.893875  
     343Ap     0.894384   295App    0.895042   296App    0.897338  
     344Ap     0.899142   297App    0.899542   345Ap     0.900989  
     298App    0.901931   346Ap     0.902457   299App    0.904527  
     347Ap     0.906419   348Ap     0.909593   300App    0.909864  
     349Ap     0.910873   350Ap     0.913188   301App    0.913269  
     351Ap     0.913808   302App    0.914834   303App    0.917559  
     352Ap     0.917625   304App    0.919414   353Ap     0.921399  
     305App    0.923056   306App    0.923126   354Ap     0.924255  
     355Ap     0.927163   356Ap     0.928799   307App    0.929513  
     308App    0.932674   309App    0.933786   357Ap     0.934494  
     310App    0.937749   358Ap     0.938078   311App    0.939946  
     359Ap     0.940977   360Ap     0.942489   361Ap     0.943996  
     312App    0.944435   313App    0.946663   314App    0.948362  
     362Ap     0.950094   363Ap     0.954147   364Ap     0.955449  
     315App    0.955889   365Ap     0.956731   316App    0.959495  
     366Ap     0.962153   317App    0.962933   367Ap     0.963257  
     368Ap     0.964365   318App    0.968715   369Ap     0.970299  
     319App    0.972724   370Ap     0.974233   320App    0.976571  
     371Ap     0.977966   372Ap     0.980490   321App    0.983037  
     322App    0.983325   323App    0.985793   373Ap     0.989537  
     324App    0.992938   325App    0.993927   374Ap     0.995462  
     326App    0.997198   375Ap     0.997214   376Ap     1.000397  
     327App    1.002445   377Ap     1.004897   378Ap     1.007601  
     328App    1.009579   329App    1.011530   379Ap     1.012978  
     380Ap     1.015503   330App    1.015536   381Ap     1.018767  
     331App    1.019113   382Ap     1.022798   332App    1.022952  
     383Ap     1.024004   384Ap     1.025666   333App    1.026206  
     385Ap     1.028388   334App    1.029226   335App    1.030345  
     386Ap     1.032147   336App    1.033157   337App    1.037010  
     387Ap     1.038037   388Ap     1.041321   338App    1.041468  
     389Ap     1.042053   390Ap     1.045568   339App    1.045621  
     391Ap     1.046443   340App    1.046634   341App    1.051009  
     342App    1.051962   392Ap     1.052661   393Ap     1.054777  
     394Ap     1.056442   343App    1.057009   344App    1.060930  
     395Ap     1.062703   345App    1.063088   396Ap     1.067585  
     346App    1.068255   347App    1.069956   397Ap     1.072237  
     348App    1.072480   398Ap     1.074124   349App    1.075422  
     350App    1.078060   399Ap     1.079313   400Ap     1.082246  
     401Ap     1.083048   351App    1.085910   352App    1.090596  
     402Ap     1.091024   403Ap     1.091285   404Ap     1.093666  
     405Ap     1.097584   353App    1.098343   354App    1.100345  
     406Ap     1.100609   407Ap     1.102424   355App    1.103173  
     408Ap     1.106228   356App    1.107954   409Ap     1.110646  
     357App    1.111003   358App    1.112853   410Ap     1.113426  
     411Ap     1.115670   412Ap     1.116503   413Ap     1.118888  
     359App    1.119329   360App    1.124181   414Ap     1.124899  
     361App    1.125497   362App    1.128292   415Ap     1.129489  
     363App    1.132261   416Ap     1.132672   417Ap     1.135556  
     364App    1.136123   418Ap     1.136536   419Ap     1.140420  
     365App    1.143802   366App    1.144912   420Ap     1.147488  
     421Ap     1.148816   422Ap     1.150552   367App    1.151239  
     368App    1.154785   423Ap     1.156094   424Ap     1.156451  
     369App    1.156564   425Ap     1.162697   370App    1.164422  
     426Ap     1.164437   371App    1.168758   427Ap     1.170041  
     372App    1.174368   428Ap     1.174809   373App    1.178729  
     429Ap     1.179259   374App    1.180177   375App    1.184492  
     430Ap     1.187891   376App    1.189070   431Ap     1.189545  
     432Ap     1.190682   377App    1.190882   433Ap     1.192598  
     434Ap     1.193652   378App    1.199367   435Ap     1.199570  
     379App    1.200549   436Ap     1.201016   380App    1.202306  
     381App    1.205471   382App    1.207315   437Ap     1.209259  
     383App    1.211261   438Ap     1.211895   384App    1.214380  
     439Ap     1.214587   440Ap     1.217045   385App    1.218739  
     441Ap     1.222331   386App    1.222607   442Ap     1.224889  
     387App    1.227656   443Ap     1.228603   444Ap     1.230817  
     445Ap     1.234314   388App    1.234938   389App    1.236406  
     390App    1.240607   446Ap     1.242958   447Ap     1.245296  
     448Ap     1.248610   391App    1.248800   449Ap     1.250948  
     450Ap     1.252242   392App    1.253119   393App    1.254884  
     394App    1.256438   451Ap     1.257290   395App    1.260537  
     452Ap     1.263168   453Ap     1.263883   396App    1.264809  
     454Ap     1.269697   455Ap     1.271761   456Ap     1.275002  
     397App    1.275316   398App    1.276472   457Ap     1.277730  
     399App    1.280470   400App    1.282481   458Ap     1.283236  
     459Ap     1.285489   460Ap     1.287908   401App    1.288902  
     461Ap     1.291311   402App    1.293685   403App    1.294798  
     462Ap     1.297761   404App    1.299451   463Ap     1.303444  
     464Ap     1.303989   405App    1.304447   465Ap     1.307446  
     466Ap     1.309782   406App    1.311077   407App    1.312233  
     467Ap     1.314862   408App    1.314939   468Ap     1.318301  
     409App    1.320035   469Ap     1.320478   410App    1.323419  
     470Ap     1.323622   411App    1.326781   471Ap     1.329252  
     412App    1.330605   413App    1.331459   472Ap     1.331551  
     473Ap     1.336958   414App    1.337746   474Ap     1.337988  
     475Ap     1.340780   415App    1.341003   476Ap     1.344211  
     416App    1.345548   477Ap     1.349211   417App    1.350261  
     478Ap     1.352038   418App    1.354366   479Ap     1.355712  
     419App    1.357518   480Ap     1.358426   420App    1.358562  
     481Ap     1.360828   421App    1.364584   482Ap     1.367086  
     422App    1.367757   483Ap     1.373133   423App    1.374894  
     424App    1.376669   484Ap     1.378886   425App    1.383134  
     485Ap     1.384902   426App    1.386885   486Ap     1.390221  
     487Ap     1.391207   488Ap     1.392843   427App    1.393872  
     489Ap     1.395808   428App    1.396727   429App    1.397852  
     490Ap     1.398231   430App    1.398378   491Ap     1.403074  
     431App    1.405424   492Ap     1.409462   432App    1.410135  
     493Ap     1.411230   494Ap     1.418013   433App    1.418745  
     434App    1.419196   495Ap     1.420559   435App    1.420933  
     436App    1.421966   496Ap     1.422159   497Ap     1.425454  
     437App    1.425481   498Ap     1.428618   438App    1.431727  
     439App    1.434646   499Ap     1.435291   440App    1.440534  
     500Ap     1.440928   501Ap     1.443476   441App    1.443972  
     442App    1.446321   502Ap     1.446686   503Ap     1.447702  
     443App    1.449197   504Ap     1.452351   505Ap     1.452531  
     444App    1.453443   445App    1.457590   506Ap     1.458347  
     446App    1.460582   507Ap     1.461062   447App    1.465075  
     508Ap     1.466097   509Ap     1.467018   448App    1.467064  
     510Ap     1.471973   449App    1.472046   450App    1.473708  
     451App    1.474889   511Ap     1.476115   452App    1.480279  
     512Ap     1.480360   453App    1.481274   513Ap     1.482156  
     514Ap     1.482443   515Ap     1.487019   454App    1.487921  
     516Ap     1.490705   455App    1.490898   517Ap     1.493842  
     456App    1.494995   457App    1.496270   458App    1.500309  
     518Ap     1.501221   519Ap     1.504021   459App    1.507156  
     460App    1.507757   520Ap     1.508621   461App    1.509964  
     521Ap     1.513110   462App    1.515207   522Ap     1.516206  
     523Ap     1.517313   524Ap     1.518246   463App    1.518349  
     525Ap     1.519211   464App    1.520656   465App    1.522602  
     526Ap     1.523853   527Ap     1.529258   466App    1.529628  
     467App    1.530277   528Ap     1.531215   529Ap     1.536807  
     468App    1.537910   469App    1.542201   530Ap     1.543339  
     531Ap     1.545424   470App    1.547704   532Ap     1.548902  
     533Ap     1.552353   471App    1.552999   472App    1.553806  
     534Ap     1.556822   535Ap     1.558073   536Ap     1.560421  
     473App    1.560902   474App    1.564461   537Ap     1.565316  
     538Ap     1.567421   475App    1.570527   539Ap     1.570840  
     476App    1.572894   540Ap     1.575343   477App    1.576509  
     541Ap     1.577364   542Ap     1.577751   478App    1.579412  
     479App    1.583312   543Ap     1.584852   480App    1.586775  
     544Ap     1.587670   481App    1.590195   545Ap     1.590301  
     482App    1.594146   546Ap     1.595192   483App    1.597561  
     547Ap     1.598432   484App    1.601978   548Ap     1.604667  
     485App    1.607257   486App    1.608966   549Ap     1.610860  
     550Ap     1.612441   487App    1.614092   551Ap     1.618067  
     488App    1.618330   489App    1.618964   552Ap     1.624593  
     490App    1.627395   553Ap     1.628090   491App    1.628426  
     554Ap     1.630721   492App    1.631957   555Ap     1.634958  
     493App    1.634975   556Ap     1.637303   557Ap     1.637695  
     494App    1.639476   558Ap     1.641154   495App    1.641574  
     496App    1.646296   559Ap     1.646477   560Ap     1.648401  
     497App    1.649054   561Ap     1.652560   498App    1.654543  
     562Ap     1.654981   499App    1.655228   500App    1.659747  
     563Ap     1.662637   564Ap     1.664329   501App    1.666258  
     565Ap     1.666948   502App    1.669202   503App    1.670630  
     566Ap     1.672967   504App    1.676581   567Ap     1.677803  
     568Ap     1.679479   569Ap     1.682199   505App    1.682563  
     570Ap     1.684226   571Ap     1.687661   506App    1.688441  
     572Ap     1.693576   507App    1.693745   508App    1.695377  
     573Ap     1.698555   509App    1.698846   510App    1.699825  
     574Ap     1.701656   511App    1.704014   512App    1.706904  
     575Ap     1.709109   513App    1.709298   514App    1.714010  
     576Ap     1.715887   577Ap     1.717517   515App    1.717649  
     516App    1.718980   578Ap     1.719236   579Ap     1.721556  
     580Ap     1.724216   581Ap     1.728096   582Ap     1.730957  
     583Ap     1.732400   517App    1.734363   584Ap     1.735662  
     585Ap     1.736247   518App    1.737099   519App    1.740935  
     586Ap     1.741262   520App    1.742049   521App    1.748808  
     587Ap     1.749293   522App    1.751295   523App    1.753242  
     588Ap     1.754935   589Ap     1.755449   590Ap     1.756058  
     524App    1.758039   591Ap     1.759184   525App    1.762279  
     592Ap     1.763654   526App    1.765851   527App    1.768562  
     593Ap     1.768647   594Ap     1.770510   528App    1.771817  
     595Ap     1.774236   529App    1.776747   596Ap     1.776847  
     597Ap     1.778415   530App    1.779520   598Ap     1.779910  
     531App    1.781993   532App    1.785835   599Ap     1.786421  
     600Ap     1.789758   601Ap     1.792469   533App    1.793918  
     602Ap     1.794670   534App    1.798449   535App    1.801880  
     603Ap     1.802343   604Ap     1.803218   536App    1.805540  
     605Ap     1.805544   606Ap     1.808863   537App    1.809021  
     538App    1.810538   539App    1.812619   607Ap     1.814679  
     608Ap     1.819684   609Ap     1.822935   540App    1.823802  
     610Ap     1.824061   541App    1.824908   542App    1.828439  
     543App    1.829362   611Ap     1.830016   544App    1.832040  
     612Ap     1.835877   613Ap     1.836910   545App    1.840188  
     614Ap     1.840999   615Ap     1.843275   546App    1.846405  
     616Ap     1.848410   547App    1.853431   617Ap     1.854289  
     548App    1.855175   618Ap     1.856298   619Ap     1.861658  
     549App    1.862642   550App    1.865394   620Ap     1.869646  
     551App    1.871295   621Ap     1.872382   552App    1.876513  
     622Ap     1.876821   553App    1.879868   623Ap     1.883482  
     624Ap     1.884329   554App    1.884336   625Ap     1.888006  
     555App    1.888257   556App    1.890463   626Ap     1.894464  
     557App    1.894584   627Ap     1.896973   558App    1.897613  
     559App    1.900165   628Ap     1.900543   629Ap     1.902939  
     560App    1.906820   630Ap     1.911027   561App    1.911130  
     631Ap     1.913321   632Ap     1.913956   562App    1.917573  
     563App    1.918358   633Ap     1.924556   564App    1.924767  
     565App    1.927649   634Ap     1.929950   635Ap     1.931114  
     566App    1.933459   636Ap     1.936866   567App    1.937790  
     637Ap     1.939060   568App    1.945071   638Ap     1.946027  
     569App    1.946084   570App    1.951497   639Ap     1.953108  
     640Ap     1.954404   571App    1.955827   572App    1.957617  
     641Ap     1.959031   573App    1.962598   642Ap     1.962838  
     643Ap     1.969754   574App    1.970176   644Ap     1.971349  
     575App    1.973057   576App    1.978674   645Ap     1.979189  
     577App    1.982765   578App    1.983113   646Ap     1.983417  
     647Ap     1.988029   579App    1.988989   580App    1.992231  
     648Ap     1.993629   649Ap     1.996606   581App    1.996807  
     582App    1.998814   650Ap     1.999187   583App    2.003290  
     651Ap     2.003714   584App    2.004096   652Ap     2.006350  
     585App    2.013634   653Ap     2.015442   654Ap     2.016142  
     586App    2.016205   655Ap     2.019414   587App    2.019911  
     656Ap     2.022429   588App    2.025890   657Ap     2.027552  
     589App    2.032006   658Ap     2.032363   590App    2.035471  
     659Ap     2.036657   591App    2.037633   592App    2.044605  
     660Ap     2.045297   593App    2.045997   661Ap     2.046624  
     662Ap     2.055722   594App    2.057963   663Ap     2.060744  
     595App    2.062678   664Ap     2.063997   596App    2.065041  
     665Ap     2.068639   666Ap     2.071154   597App    2.071303  
     667Ap     2.076910   598App    2.077060   668Ap     2.078655  
     599App    2.079034   669Ap     2.083370   600App    2.083496  
     670Ap     2.087471   601App    2.088165   671Ap     2.090342  
     672Ap     2.091789   602App    2.092268   673Ap     2.095815  
     603App    2.099968   674Ap     2.101852   675Ap     2.103220  
     676Ap     2.105084   604App    2.105092   605App    2.107980  
     677Ap     2.108364   678Ap     2.110915   606App    2.114232  
     679Ap     2.115786   607App    2.120220   608App    2.122500  
     680Ap     2.123150   681Ap     2.129699   682Ap     2.132447  
     609App    2.132751   610App    2.133775   611App    2.134868  
     683Ap     2.138324   612App    2.140445   684Ap     2.140556  
     613App    2.144894   685Ap     2.149127   686Ap     2.150294  
     614App    2.152825   615App    2.154427   616App    2.158296  
     687Ap     2.160056   617App    2.163828   688Ap     2.164805  
     689Ap     2.168086   618App    2.169663   619App    2.171602  
     620App    2.173884   621App    2.176791   690Ap     2.178503  
     691Ap     2.181026   622App    2.186706   692Ap     2.188216  
     693Ap     2.189442   623App    2.191549   624App    2.195001  
     694Ap     2.197666   625App    2.200341   695Ap     2.203393  
     626App    2.205202   627App    2.209892   696Ap     2.210325  
     697Ap     2.214584   698Ap     2.218005   628App    2.219198  
     629App    2.224179   630App    2.227101   699Ap     2.227447  
     700Ap     2.229428   631App    2.230374   701Ap     2.232435  
     632App    2.234425   702Ap     2.237284   633App    2.245088  
     703Ap     2.247191   634App    2.249307   704Ap     2.251963  
     705Ap     2.253028   635App    2.254597   636App    2.258646  
     706Ap     2.259136   637App    2.262847   707Ap     2.266076  
     708Ap     2.278033   709Ap     2.281105   638App    2.283614  
     639App    2.288802   710Ap     2.290695   640App    2.294000  
     711Ap     2.297738   641App    2.298533   712Ap     2.302045  
     642App    2.303476   713Ap     2.305813   643App    2.308290  
     644App    2.311230   714Ap     2.312297   645App    2.318747  
     715Ap     2.319819   646App    2.322513   716Ap     2.324314  
     717Ap     2.326041   647App    2.328443   718Ap     2.333627  
     648App    2.336164   719Ap     2.339703   649App    2.340292  
     720Ap     2.342971   650App    2.345690   651App    2.345915  
     721Ap     2.347829   722Ap     2.351407   652App    2.353598  
     723Ap     2.359565   653App    2.359735   724Ap     2.363005  
     654App    2.365267   725Ap     2.365442   655App    2.367070  
     726Ap     2.370770   656App    2.371363   727Ap     2.377768  
     657App    2.380869   728Ap     2.381954   729Ap     2.385626  
     658App    2.385798   659App    2.389349   730Ap     2.390373  
     731Ap     2.393990   660App    2.394797   732Ap     2.398307  
     661App    2.399425   733Ap     2.405040   662App    2.405484  
     663App    2.407280   734Ap     2.407810   664App    2.414927  
     735Ap     2.415835   665App    2.419518   736Ap     2.421801  
     737Ap     2.425288   666App    2.431071   738Ap     2.433513  
     739Ap     2.435048   667App    2.435449   668App    2.440221  
     740Ap     2.441350   741Ap     2.447447   669App    2.447824  
     742Ap     2.451135   670App    2.453599   743Ap     2.455720  
     671App    2.460667   744Ap     2.465180   672App    2.466033  
     673App    2.468333   745Ap     2.472020   746Ap     2.472635  
     674App    2.475317   675App    2.481313   747Ap     2.483325  
     748Ap     2.484156   676App    2.488043   749Ap     2.491209  
     677App    2.496183   750Ap     2.500356   678App    2.502968  
     751Ap     2.507051   679App    2.508164   752Ap     2.511549  
     680App    2.515508   753Ap     2.515715   754Ap     2.518574  
     681App    2.522773   755Ap     2.523142   756Ap     2.524818  
     682App    2.526618   757Ap     2.529500   683App    2.530533  
     684App    2.534159   758Ap     2.534274   759Ap     2.538299  
     685App    2.539116   760Ap     2.544408   686App    2.546007  
     761Ap     2.547143   762Ap     2.555016   687App    2.558213  
     688App    2.559075   763Ap     2.560714   764Ap     2.564454  
     689App    2.566476   690App    2.569000   765Ap     2.571148  
     691App    2.573207   692App    2.574944   766Ap     2.577928  
     767Ap     2.581651   693App    2.588959   768Ap     2.589998  
     769Ap     2.592346   694App    2.594347   695App    2.598878  
     770Ap     2.600079   771Ap     2.603546   696App    2.604186  
     697App    2.605978   772Ap     2.608097   773Ap     2.613835  
     774Ap     2.615874   698App    2.617405   775Ap     2.618362  
     699App    2.620448   700App    2.622936   701App    2.626696  
     776Ap     2.628637   702App    2.632849   777Ap     2.634545  
     703App    2.641381   778Ap     2.644722   704App    2.649395  
     779Ap     2.650453   705App    2.654549   780Ap     2.657272  
     706App    2.660093   707App    2.664200   781Ap     2.665264  
     782Ap     2.668766   708App    2.669290   783Ap     2.670974  
     784Ap     2.674901   709App    2.676605   785Ap     2.679552  
     710App    2.682074   786Ap     2.686100   787Ap     2.690070  
     711App    2.690235   712App    2.698374   713App    2.699065  
     788Ap     2.705774   789Ap     2.706448   714App    2.710529  
     790Ap     2.712066   715App    2.714431   791Ap     2.714801  
     716App    2.715456   792Ap     2.720046   793Ap     2.725129  
     717App    2.725467   718App    2.730152   719App    2.730523  
     794Ap     2.730588   795Ap     2.736966   720App    2.739629  
     796Ap     2.740608   797Ap     2.745452   721App    2.748029  
     722App    2.749078   798Ap     2.751091   723App    2.752401  
     724App    2.756508   799Ap     2.758279   800Ap     2.765230  
     801Ap     2.768354   725App    2.769954   802Ap     2.770172  
     726App    2.772585   727App    2.775623   728App    2.779479  
     803Ap     2.785341   729App    2.785909   804Ap     2.787832  
     805Ap     2.792028   730App    2.792965   806Ap     2.794711  
     731App    2.796101   807Ap     2.800211   732App    2.809017  
     808Ap     2.810859   809Ap     2.811295   733App    2.814706  
     734App    2.817047   810Ap     2.818204   735App    2.821050  
     736App    2.823037   811Ap     2.823625   737App    2.827987  
     812Ap     2.832111   738App    2.834032   813Ap     2.836122  
     739App    2.842860   740App    2.844929   741App    2.850449  
     814Ap     2.851420   815Ap     2.852993   816Ap     2.855454  
     742App    2.859355   817Ap     2.863918   743App    2.868188  
     818Ap     2.870076   744App    2.872266   819Ap     2.874066  
     820Ap     2.881916   745App    2.884405   746App    2.886898  
     821Ap     2.894381   747App    2.897922   822Ap     2.899008  
     748App    2.901923   823Ap     2.909846   749App    2.911724  
     824Ap     2.915410   750App    2.917557   825Ap     2.920387  
     751App    2.929899   826Ap     2.930361   752App    2.940600  
     827Ap     2.941199   828Ap     2.950928   753App    2.953462  
     829Ap     2.955312   754App    2.960604   830Ap     2.963074  
     755App    2.965843   831Ap     2.968109   756App    2.971417  
     757App    2.981388   832Ap     2.985433   758App    2.987043  
     833Ap     2.989032   759App    2.989428   834Ap     2.998553  
     835Ap     3.010394   760App    3.020312   761App    3.024886  
     836Ap     3.025217   762App    3.028481   837Ap     3.028619  
     763App    3.040620   838Ap     3.044236   764App    3.053511  
     839Ap     3.062185   765App    3.063339   840Ap     3.067622  
     841Ap     3.069648   766App    3.080210   767App    3.082673  
     842Ap     3.084578   768App    3.086574   769App    3.088950  
     843Ap     3.097650   844Ap     3.099753   770App    3.103102  
     845Ap     3.106327   846Ap     3.111042   771App    3.111531  
     847Ap     3.115522   848Ap     3.116875   772App    3.118939  
     849Ap     3.123302   773App    3.130818   774App    3.133733  
     850Ap     3.141570   775App    3.143313   851Ap     3.144042  
     852Ap     3.152567   776App    3.152993   853Ap     3.154986  
     777App    3.164250   854Ap     3.167202   778App    3.167564  
     779App    3.169817   780App    3.181521   855Ap     3.185782  
     856Ap     3.188634   781App    3.189224   857Ap     3.191860  
     782App    3.198357   858Ap     3.202985   783App    3.203231  
     859Ap     3.207216   860Ap     3.214271   784App    3.218246  
     861Ap     3.219977   862Ap     3.227592   785App    3.228835  
     863Ap     3.232538   786App    3.234314   864Ap     3.240333  
     787App    3.247203   788App    3.249284   865Ap     3.253666  
     866Ap     3.254965   789App    3.263259   790App    3.271861  
     867Ap     3.273545   868Ap     3.278939   791App    3.283608  
     869Ap     3.286764   792App    3.288279   793App    3.295509  
     870Ap     3.295778   871Ap     3.304139   794App    3.306304  
     872Ap     3.309629   873Ap     3.310668   795App    3.311177  
     874Ap     3.317166   796App    3.323104   875Ap     3.323283  
     797App    3.328093   798App    3.331621   876Ap     3.334412  
     877Ap     3.341422   799App    3.344818   878Ap     3.350597  
     800App    3.350787   879Ap     3.357256   801App    3.362666  
     880Ap     3.363991   802App    3.365554   881Ap     3.370636  
     882Ap     3.375010   803App    3.378420   804App    3.381354  
     883Ap     3.382544   884Ap     3.386059   885Ap     3.389356  
     805App    3.390247   886Ap     3.398361   887Ap     3.401673  
     806App    3.407462   807App    3.413863   888Ap     3.414756  
     808App    3.415979   889Ap     3.417916   890Ap     3.422991  
     891Ap     3.425153   809App    3.430040   892Ap     3.431621  
     810App    3.432224   893Ap     3.442194   894Ap     3.445243  
     811App    3.447220   812App    3.453317   895Ap     3.454032  
     813App    3.455493   896Ap     3.458585   814App    3.463266  
     897Ap     3.466941   815App    3.467612   898Ap     3.473262  
     899Ap     3.478206   816App    3.481525   900Ap     3.483162  
     817App    3.484173   818App    3.486768   901Ap     3.489433  
     902Ap     3.495438   819App    3.498057   820App    3.499190  
     821App    3.503020   903Ap     3.503173   904Ap     3.505722  
     905Ap     3.506621   822App    3.506876   906Ap     3.512967  
     823App    3.514793   907Ap     3.521728   824App    3.523866  
     825App    3.529905   908Ap     3.534094   826App    3.537234  
     909Ap     3.540356   827App    3.540630   910Ap     3.546940  
     828App    3.554919   911Ap     3.560297   829App    3.563103  
     830App    3.567348   912Ap     3.568185   913Ap     3.573782  
     914Ap     3.577506   915Ap     3.581340   831App    3.582484  
     832App    3.586228   833App    3.589141   916Ap     3.591410  
     834App    3.597076   835App    3.599943   917Ap     3.605728  
     836App    3.608132   918Ap     3.610108   919Ap     3.611506  
     837App    3.613050   920Ap     3.616015   838App    3.622543  
     839App    3.632487   921Ap     3.633816   840App    3.636929  
     922Ap     3.638372   923Ap     3.643306   841App    3.644504  
     924Ap     3.649506   842App    3.650494   925Ap     3.652117  
     843App    3.654373   926Ap     3.658029   844App    3.658067  
     927Ap     3.666157   845App    3.671661   928Ap     3.675391  
     929Ap     3.682980   846App    3.684071   930Ap     3.685404  
     847App    3.688433   848App    3.692767   849App    3.697755  
     931Ap     3.700663   932Ap     3.706674   850App    3.709835  
     933Ap     3.713406   851App    3.717523   934Ap     3.718106  
     935Ap     3.726112   852App    3.733519   853App    3.734520  
     936Ap     3.737021   937Ap     3.740748   854App    3.741145  
     855App    3.745172   938Ap     3.746006   856App    3.750673  
     857App    3.752976   939Ap     3.757576   858App    3.759839  
     940Ap     3.760290   941Ap     3.772248   859App    3.772323  
     942Ap     3.778184   860App    3.788763   943Ap     3.789303  
     944Ap     3.794326   945Ap     3.798494   861App    3.802952  
     862App    3.807571   946Ap     3.812179   863App    3.813045  
     947Ap     3.816267   864App    3.822862   948Ap     3.826550  
     949Ap     3.828664   950Ap     3.831917   865App    3.831926  
     866App    3.838851   867App    3.839881   951Ap     3.840643  
     952Ap     3.847056   953Ap     3.848982   868App    3.849357  
     954Ap     3.851561   869App    3.853898   870App    3.858815  
     955Ap     3.860697   956Ap     3.864830   871App    3.866624  
     872App    3.870256   957Ap     3.879028   873App    3.882518  
     958Ap     3.887159   874App    3.888697   959Ap     3.889291  
     875App    3.896584   960Ap     3.899210   876App    3.899314  
     961Ap     3.900197   962Ap     3.906332   877App    3.908253  
     878App    3.909472   963Ap     3.912217   879App    3.916040  
     964Ap     3.919566   965Ap     3.922112   880App    3.926328  
     881App    3.927196   966Ap     3.929939   882App    3.937355  
     967Ap     3.937462   968Ap     3.948617   883App    3.950636  
     969Ap     3.952817   970Ap     3.957018   884App    3.958826  
     885App    3.960172   971Ap     3.962067   972Ap     3.966470  
     886App    3.967768   973Ap     3.975370   974Ap     3.979860  
     887App    3.980913   975Ap     3.984112   888App    3.989995  
     976Ap     3.994490   889App    3.996137   977Ap     3.997233  
     890App    4.004863   891App    4.008210   892App    4.008447  
     893App    4.013298   894App    4.020078   978Ap     4.021010  
     979Ap     4.028794   980Ap     4.034521   895App    4.038177  
     981Ap     4.046792   896App    4.054511   982Ap     4.055501  
     983Ap     4.057652   897App    4.061369   984Ap     4.069971  
     898App    4.070885   899App    4.074607   985Ap     4.076059  
     986Ap     4.078297   900App    4.078557   901App    4.088851  
     987Ap     4.089255   902App    4.093099   988Ap     4.095078  
     903App    4.096749   989Ap     4.103182   990Ap     4.105772  
     904App    4.110557   905App    4.116964   906App    4.118947  
     991Ap     4.125168   907App    4.129504   992Ap     4.129799  
     908App    4.131387   993Ap     4.135331   994Ap     4.138754  
     909App    4.141705   995Ap     4.147354   996Ap     4.151627  
     910App    4.151634   997Ap     4.155150   911App    4.157300  
     998Ap     4.161336   999Ap     4.170723   912App    4.171099  
     913App    4.174151  1000Ap     4.176344   914App    4.177653  
     915App    4.181613  1001Ap     4.181650  1002Ap     4.187283  
    1003Ap     4.189060   916App    4.191391  1004Ap     4.193722  
     917App    4.194740   918App    4.196386   919App    4.202351  
    1005Ap     4.203165  1006Ap     4.204575  1007Ap     4.209408  
     920App    4.210940  1008Ap     4.214029   921App    4.214590  
     922App    4.219542   923App    4.223248  1009Ap     4.223933  
    1010Ap     4.230973   924App    4.232541   925App    4.234189  
    1011Ap     4.235329  1012Ap     4.238499  1013Ap     4.242311  
     926App    4.242737   927App    4.248468  1014Ap     4.248481  
    1015Ap     4.250159   928App    4.251506  1016Ap     4.253126  
     929App    4.253645   930App    4.259966  1017Ap     4.260512  
    1018Ap     4.261174   931App    4.266032   932App    4.268421  
     933App    4.273324  1019Ap     4.273576  1020Ap     4.275742  
     934App    4.281219  1021Ap     4.282591  1022Ap     4.283926  
     935App    4.285580   936App    4.289870  1023Ap     4.295100  
    1024Ap     4.298831   937App    4.299187   938App    4.307042  
    1025Ap     4.308896  1026Ap     4.310666   939App    4.311526  
     940App    4.313667  1027Ap     4.314898   941App    4.318592  
    1028Ap     4.319884   942App    4.322490  1029Ap     4.329888  
    1030Ap     4.331658  1031Ap     4.334567   943App    4.335457  
    1032Ap     4.339210   944App    4.340226  1033Ap     4.345407  
     945App    4.349693  1034Ap     4.352593   946App    4.353607  
    1035Ap     4.354417   947App    4.357098   948App    4.359310  
     949App    4.362565  1036Ap     4.363792  1037Ap     4.370561  
     950App    4.371734   951App    4.376184  1038Ap     4.378248  
    1039Ap     4.380674   952App    4.380889   953App    4.384039  
    1040Ap     4.384883   954App    4.388473   955App    4.391118  
    1041Ap     4.391681   956App    4.395691  1042Ap     4.396762  
    1043Ap     4.400606   957App    4.403976  1044Ap     4.405706  
     958App    4.410600  1045Ap     4.412282  1046Ap     4.420722  
    1047Ap     4.426336  1048Ap     4.428077  1049Ap     4.429733  
     959App    4.430004   960App    4.434970   961App    4.440475  
    1050Ap     4.440791   962App    4.445487  1051Ap     4.445898  
    1052Ap     4.450337   963App    4.450584  1053Ap     4.454796  
     964App    4.456333  1054Ap     4.456522  1055Ap     4.460045  
     965App    4.462052   966App    4.464860  1056Ap     4.468821  
     967App    4.473324  1057Ap     4.479191   968App    4.483344  
    1058Ap     4.483823  1059Ap     4.487543  1060Ap     4.491273  
     969App    4.493771   970App    4.496449  1061Ap     4.497758  
     971App    4.498929   972App    4.501553  1062Ap     4.502844  
    1063Ap     4.506257  1064Ap     4.510024   973App    4.512822  
    1065Ap     4.513675  1066Ap     4.516372   974App    4.520343  
     975App    4.522401   976App    4.523787  1067Ap     4.524092  
    1068Ap     4.528208  1069Ap     4.528942   977App    4.535010  
    1070Ap     4.535437   978App    4.538037   979App    4.540498  
    1071Ap     4.541018   980App    4.544980  1072Ap     4.549847  
    1073Ap     4.551989   981App    4.555153  1074Ap     4.557494  
     982App    4.557798  1075Ap     4.559822   983App    4.563297  
     984App    4.564186  1076Ap     4.568627   985App    4.570687  
     986App    4.579163  1077Ap     4.580683   987App    4.582877  
    1078Ap     4.589299  1079Ap     4.590347   988App    4.593108  
     989App    4.599815  1080Ap     4.602058   990App    4.602793  
    1081Ap     4.606113  1082Ap     4.609637  1083Ap     4.615109  
     991App    4.616731   992App    4.620137   993App    4.620917  
    1084Ap     4.621657  1085Ap     4.624222  1086Ap     4.625721  
     994App    4.629350  1087Ap     4.632099  1088Ap     4.635403  
     995App    4.637655  1089Ap     4.639024   996App    4.640594  
    1090Ap     4.641973   997App    4.646636  1091Ap     4.650843  
    1092Ap     4.655675   998App    4.656119   999App    4.659861  
    1000App    4.662585  1001App    4.665660  1093Ap     4.666453  
    1094Ap     4.673145  1002App    4.674918  1095Ap     4.679045  
    1096Ap     4.686225  1003App    4.687535  1004App    4.690905  
    1097Ap     4.691390  1098Ap     4.692334  1005App    4.693486  
    1099Ap     4.695323  1100Ap     4.700993  1101Ap     4.703286  
    1006App    4.703599  1007App    4.707798  1102Ap     4.715828  
    1008App    4.719947  1009App    4.720815  1103Ap     4.724991  
    1010App    4.728294  1104Ap     4.728577  1105Ap     4.734774  
    1011App    4.735237  1106Ap     4.742929  1012App    4.746382  
    1013App    4.746589  1107Ap     4.747741  1014App    4.749535  
    1015App    4.753075  1108Ap     4.753820  1109Ap     4.755818  
    1016App    4.765498  1110Ap     4.766335  1017App    4.770456  
    1018App    4.771541  1111Ap     4.773604  1112Ap     4.778383  
    1019App    4.783745  1113Ap     4.786102  1020App    4.789425  
    1021App    4.793349  1114Ap     4.798322  1115Ap     4.799320  
    1022App    4.801487  1116Ap     4.804905  1023App    4.807383  
    1117Ap     4.809630  1024App    4.812601  1025App    4.814616  
    1026App    4.818552  1118Ap     4.821345  1027App    4.828469  
    1119Ap     4.830194  1028App    4.837348  1029App    4.840371  
    1120Ap     4.840961  1121Ap     4.842553  1030App    4.844302  
    1122Ap     4.846360  1031App    4.851059  1123Ap     4.851794  
    1124Ap     4.853976  1032App    4.855315  1125Ap     4.859096  
    1033App    4.860171  1034App    4.871431  1126Ap     4.871893  
    1035App    4.874432  1127Ap     4.876533  1036App    4.879557  
    1128Ap     4.882425  1037App    4.885664  1129Ap     4.887174  
    1130Ap     4.893247  1038App    4.894370  1039App    4.896969  
    1131Ap     4.898484  1132Ap     4.900587  1040App    4.900940  
    1133Ap     4.905501  1041App    4.907765  1042App    4.910547  
    1134Ap     4.917505  1135Ap     4.919989  1043App    4.922316  
    1136Ap     4.926285  1044App    4.927545  1137Ap     4.937525  
    1045App    4.937867  1138Ap     4.939305  1046App    4.942877  
    1139Ap     4.945919  1047App    4.950691  1140Ap     4.953789  
    1048App    4.958535  1141Ap     4.961366  1049App    4.965000  
    1142Ap     4.970699  1143Ap     4.975572  1050App    4.977078  
    1144Ap     4.980142  1051App    4.980633  1052App    4.981527  
    1145Ap     4.985879  1053App    4.992660  1146Ap     4.992796  
    1147Ap     4.995377  1054App    4.996243  1148Ap     4.998666  
    1149Ap     5.003493  1055App    5.004582  1056App    5.008833  
    1150Ap     5.010710  1151Ap     5.020599  1057App    5.021426  
    1152Ap     5.021630  1058App    5.024588  1153Ap     5.031235  
    1059App    5.033364  1154Ap     5.038555  1060App    5.041502  
    1155Ap     5.043437  1061App    5.048419  1156Ap     5.051890  
    1062App    5.053641  1063App    5.056658  1157Ap     5.059925  
    1158Ap     5.063062  1159Ap     5.066786  1064App    5.070005  
    1065App    5.072435  1160Ap     5.077264  1161Ap     5.083729  
    1066App    5.085305  1067App    5.087799  1162Ap     5.094391  
    1068App    5.095134  1069App    5.103304  1163Ap     5.103930  
    1164Ap     5.108063  1070App    5.108464  1165Ap     5.111524  
    1071App    5.113842  1072App    5.119456  1166Ap     5.121984  
    1167Ap     5.124993  1073App    5.131181  1168Ap     5.131841  
    1074App    5.136213  1075App    5.140509  1169Ap     5.141557  
    1076App    5.147159  1170Ap     5.149909  1077App    5.153076  
    1171Ap     5.158930  1078App    5.162111  1172Ap     5.172653  
    1079App    5.174049  1173Ap     5.177942  1080App    5.179741  
    1174Ap     5.183973  1081App    5.184687  1175Ap     5.188757  
    1082App    5.193530  1176Ap     5.202573  1083App    5.203296  
    1084App    5.205808  1177Ap     5.209440  1085App    5.210499  
    1178Ap     5.215239  1086App    5.216692  1179Ap     5.221259  
    1087App    5.223425  1180Ap     5.225107  1181Ap     5.226328  
    1088App    5.234439  1182Ap     5.236943  1183Ap     5.241889  
    1089App    5.243420  1184Ap     5.252241  1090App    5.252346  
    1091App    5.255952  1185Ap     5.258529  1186Ap     5.261877  
    1092App    5.263138  1187Ap     5.265689  1188Ap     5.269975  
    1093App    5.277905  1189Ap     5.279590  1094App    5.280129  
    1190Ap     5.288790  1095App    5.294442  1191Ap     5.297812  
    1096App    5.305570  1192Ap     5.311336  1193Ap     5.315899  
    1097App    5.323175  1194Ap     5.326149  1098App    5.328961  
    1099App    5.331794  1195Ap     5.336717  1196Ap     5.343169  
    1100App    5.344483  1197Ap     5.347707  1101App    5.349386  
    1102App    5.359406  1103App    5.366586  1198Ap     5.367863  
    1199Ap     5.371148  1104App    5.381141  1200Ap     5.391413  
    1105App    5.393214  1201Ap     5.394205  1202Ap     5.397742  
    1106App    5.404820  1203Ap     5.409779  1204Ap     5.417735  
    1107App    5.417953  1205Ap     5.420571  1108App    5.424158  
    1206Ap     5.428844  1109App    5.430443  1110App    5.435665  
    1207Ap     5.442316  1111App    5.446017  1208Ap     5.449704  
    1112App    5.469960  1209Ap     5.470660  1210Ap     5.477434  
    1113App    5.477756  1211Ap     5.489727  1114App    5.490617  
    1212Ap     5.494250  1115App    5.498185  1116App    5.509941  
    1213Ap     5.512649  1117App    5.513228  1214Ap     5.518891  
    1118App    5.525660  1119App    5.529788  1215Ap     5.532589  
    1216Ap     5.536137  1120App    5.536344  1217Ap     5.541273  
    1121App    5.544450  1218Ap     5.548634  1122App    5.549440  
    1219Ap     5.551653  1123App    5.555682  1220Ap     5.555800  
    1221Ap     5.562005  1124App    5.563027  1222Ap     5.570490  
    1125App    5.571350  1223Ap     5.578440  1126App    5.580998  
    1224Ap     5.584139  1127App    5.588563  1128App    5.592428  
    1225Ap     5.593424  1129App    5.599911  1226Ap     5.600520  
    1130App    5.602824  1227Ap     5.610867  1131App    5.613944  
    1228Ap     5.622503  1132App    5.626078  1229Ap     5.629306  
    1133App    5.631510  1230Ap     5.634384  1134App    5.639602  
    1231Ap     5.641033  1135App    5.645484  1136App    5.654824  
    1232Ap     5.659584  1137App    5.665470  1233Ap     5.668214  
    1138App    5.674970  1234Ap     5.675307  1235Ap     5.684920  
    1139App    5.685165  1140App    5.692228  1236Ap     5.693532  
    1141App    5.694485  1237Ap     5.698711  1142App    5.706560  
    1238Ap     5.708187  1239Ap     5.711637  1143App    5.719500  
    1240Ap     5.722114  1241Ap     5.725134  1144App    5.732455  
    1242Ap     5.733043  1145App    5.737756  1243Ap     5.740678  
    1244Ap     5.750316  1146App    5.752726  1147App    5.762758  
    1245Ap     5.770737  1148App    5.779903  1246Ap     5.784903  
    1149App    5.786153  1247Ap     5.789829  1248Ap     5.798784  
    1150App    5.798922  1151App    5.802859  1249Ap     5.813790  
    1250Ap     5.816782  1152App    5.827241  1251Ap     5.833983  
    1153App    5.837743  1252Ap     5.840344  1154App    5.841563  
    1253Ap     5.850871  1155App    5.853534  1254Ap     5.870484  
    1156App    5.870754  1157App    5.874382  1255Ap     5.875984  
    1158App    5.887996  1159App    5.896958  1256Ap     5.897298  
    1257Ap     5.911090  1160App    5.917645  1161App    5.918480  
    1258Ap     5.920519  1162App    5.935689  1259Ap     5.936203  
    1163App    5.945269  1260Ap     5.954591  1164App    5.954944  
    1261Ap     5.960970  1165App    5.972492  1262Ap     5.973698  
    1263Ap     5.978810  1264Ap     5.983593  1166App    5.988927  
    1167App    5.997723  1265Ap     6.000010  1168App    6.006181  
    1266Ap     6.008861  1267Ap     6.018786  1169App    6.020099  
    1170App    6.025833  1268Ap     6.026723  1269Ap     6.032181  
    1171App    6.038739  1270Ap     6.049756  1172App    6.061839  
    1173App    6.067010  1174App    6.068667  1271Ap     6.069907  
    1272Ap     6.075894  1175App    6.087495  1273Ap     6.091643  
    1176App    6.099315  1274Ap     6.109195  1177App    6.111342  
    1275Ap     6.114376  1178App    6.117852  1276Ap     6.143249  
    1179App    6.146373  1277Ap     6.150388  1180App    6.162413  
    1278Ap     6.172638  1181App    6.179221  1182App    6.191648  
    1279Ap     6.194102  1183App    6.204030  1280Ap     6.204127  
    1281Ap     6.216012  1184App    6.219059  1282Ap     6.222224  
    1283Ap     6.226632  1185App    6.228891  1186App    6.239615  
    1284Ap     6.255110  1285Ap     6.261271  1187App    6.272370  
    1188App    6.285207  1189App    6.289179  1286Ap     6.290499  
    1190App    6.294118  1287Ap     6.294726  1191App    6.312485  
    1288Ap     6.312752  1289Ap     6.316210  1192App    6.320316  
    1290Ap     6.329069  1193App    6.351693  1291Ap     6.365085  
    1194App    6.368026  1292Ap     6.375730  1195App    6.378592  
    1196App    6.385545  1197App    6.392298  1293Ap     6.395495  
    1294Ap     6.397419  1198App    6.401507  1295Ap     6.402013  
    1199App    6.405928  1200App    6.416368  1296Ap     6.419610  
    1201App    6.423483  1297Ap     6.460851  1202App    6.472271  
    1298Ap     6.475173  1299Ap     6.482584  1203App    6.489892  
    1300Ap     6.494805  1301Ap     6.511597  1204App    6.519070  
    1302Ap     6.524772  1205App    6.535826  1303Ap     6.539489  
    1304Ap     6.548809  1206App    6.549112  1305Ap     6.552216  
    1207App    6.552854  1208App    6.562323  1209App    6.569005  
    1306Ap     6.569356  1210App    6.570045  1307Ap     6.669742  
    1308Ap     6.674610  1211App    6.675620  1309Ap     6.678743  
    1212App    6.685704  1310Ap     6.688896  1213App    6.700290  
    1311Ap     6.700389  1214App    6.711742  1312Ap     6.722183  
    1313Ap     6.730011  1215App    6.739872  1216App    6.744029  
    1314Ap     6.769259  1217App    6.779396  1315Ap     6.781508  
    1316Ap     6.792743  1218App    6.802246  1219App    6.810617  
    1317Ap     6.822524  1220App    6.826758  1318Ap     6.833863  
    1221App    6.850822  1319Ap     6.858382  1320Ap     6.897898  
    1222App    6.898579  1223App    6.907221  1321Ap     6.928626  
    1322Ap     6.951788  1224App    6.954654  1323Ap     6.975729  
    1225App    6.981634  1324Ap     6.982324  1226App    6.990929  
    1325Ap     7.082200  1227App    7.083893  1326Ap     7.087617  
    1228App    7.116524  1327Ap     7.116564  1229App    7.164900  
    1328Ap     7.218440  1230App    7.240362  1231App    7.241347  
    1329Ap     7.255620  1330Ap     7.273708  1232App    7.286438  
    1233App    7.290144  1331Ap     7.291986  1234App    7.307189  
    1332Ap     7.310525  1235App    7.314738  1333Ap     7.328394  
    1236App    7.374225  1334Ap     7.466618  1335Ap     7.470286  
    1237App    7.482574  1238App    7.483557  1336Ap     7.495746  
    1239App    7.498534  1337Ap     7.517176  1240App    7.519469  
    1241App    7.524225  1338Ap     7.528839  1339Ap     7.533681  
    1340Ap     7.549371  1341Ap     7.571549  1242App    7.577149  
    1342Ap     7.595255  1243App    7.597871  1343Ap     7.600290  
    1244App    7.611528  1344Ap     7.666044  1245App    7.666639  
    1246App    7.680583  1345Ap     7.765983  1247App    7.769465  
    1248App    7.780464  1346Ap     7.793794  1249App    7.804757  
    1347Ap     7.834085  1250App    7.848833  1348Ap     7.867990  
    1251App    7.868862  1349Ap     7.889858  1252App    7.891198  
    1253App    7.915738  1350Ap     7.939987  1254App    7.952888  
    1351Ap     7.956518  1352Ap     8.028279  1353Ap     8.046439  
    1354Ap     8.049936  1255App    8.050137  1355Ap     8.068287  
    1256App    8.072056  1356Ap     8.215693  1257App    8.221249  
    1357Ap     8.268610  1358Ap     8.271877  1258App    8.274950  
    1259App    8.280674  1359Ap     8.290244  1360Ap     8.335460  
    1260App    8.346104  1361Ap     8.418049  1261App    8.430306  
    1362Ap     8.521175  1363Ap     8.532579  1262App    8.534444  
    1263App    8.536041  1364Ap     8.538741  1365Ap     8.572518  
    1264App    8.582874  1265App    8.639303  1366Ap     8.928239  
    1266App    8.928892  1267App    8.971417  1367Ap     9.108643  
    1268App    9.123274  1368Ap     9.130611  1269App    9.140674  
    1369Ap     9.227923  1370Ap     9.500862  1270App    9.516851  
    1371Ap     9.728297  1372Ap     9.733250  1271App    9.733954  
    1272App    9.749922  1373Ap     9.919606  1374Ap     9.950620  
    1273App    9.956075  1274App    9.972016  1375Ap    10.009110  
    1275App   10.046276  1376Ap    10.047370  1377Ap    10.267969  
    1276App   10.275118  1378Ap    10.339170  1277App   10.358778  
    1379Ap    10.426880  1278App   10.432573  1380Ap    10.547840  
    1279App   10.571909  1381Ap    11.022333  1280App   11.036086  
    1281App   11.166978  1382Ap    11.167064  1282App   11.378409  
    1383Ap    11.392456  1283App   11.403487  1384Ap    11.434953  
    1385Ap    11.464719  1284App   11.466081  1386Ap    11.844757  
    1285App   11.865741  1387Ap    11.969378  1286App   12.038211  
    1388Ap    12.098851  1389Ap    12.112939  1287App   12.117707  
    1288App   12.157322  1390Ap    12.382186  1391Ap    12.500032  
    1289App   12.512748  1392Ap    12.724912  1393Ap    12.754284  
    1290App   12.759236  1394Ap    15.193258  1395Ap    16.004357  
    1291App   16.009928  1396Ap    17.200642  1292App   17.268874  
    1397Ap    17.618718  1293App   17.671424  1398Ap    18.335785  
    1294App   18.343361  1399Ap    19.935720  1295App   19.944367  
    1400Ap    20.477499  1296App   20.794325  1401Ap    21.089901  
    1297App   21.181340  1402Ap    21.314889  1298App   21.415791  
    1403Ap    21.908506  1404Ap    22.007799  1405Ap    22.792833  
    1299App   22.826435  1406Ap    23.257152  1407Ap    23.429808  
    1300App   23.529602  1408Ap    49.933958  1409Ap    51.292211  
    1301App   51.301088  1410Ap    53.723127  1302App   53.865895  
    1411Ap    54.577021  1303App   54.614734  1412Ap    55.767825  
    1304App   55.774768  1413Ap    58.845846  1414Ap    58.978371  
    1305App   58.988726  1306App   59.781358  1415Ap    60.514717  
    1307App   60.652740  1416Ap    60.830096  1308App   61.038884  
    1417Ap    61.977335  1418Ap    62.608943  1419Ap    63.725147  
    1309App   63.789486  1420Ap    64.577416  1421Ap    64.909682  
    1310App   65.108993  

    Final Occupation by Irrep:
             Ap   App 
    DOCC [    43,   35 ]
    NA   [    43,   35 ]
    NB   [    43,   35 ]

  @DF-RKS Final Energy:  -921.85961580689002

   => Energetics <=

    Nuclear Repulsion Energy =           1837.3306649843195828
    One-Electron Energy =               -4896.1251494483221904
    Two-Electron Energy =                2229.8920920668870167
    DFT Exchange-Correlation Energy =     -92.9281590728188007
    Empirical Dispersion Energy =          -0.0290643369556759
    VV10 Nonlocal Energy =                  0.0000000000000000
    Total Energy =                       -921.8596158068897921

Computation Completed


Properties will be evaluated at   0.000000,   0.000000,   0.000000 [a0]

Properties computed using the SCF density matrix


 Multipole Moments:

 ------------------------------------------------------------------------------------
     Multipole            Electronic (a.u.)      Nuclear  (a.u.)        Total (a.u.)
 ------------------------------------------------------------------------------------

 L = 1.  Multiply by 2.5417464519 to convert [e a0] to [Debye]
 Dipole X            :       -228.9099976          228.9101020            0.0001043
 Dipole Y            :          0.0000000           -0.0000000           -0.0000000
 Dipole Z            :       -509.7025032          509.7045283            0.0020251
 Magnitude           :                                                    0.0020278

 ------------------------------------------------------------------------------------

*** tstop() called on atl1-1-03-004-19-1.pace.gatech.edu at Sat Jun 13 16:28:54 2026
Module time:
	user time   =   48139.77 seconds =     802.33 minutes
	system time =    3682.11 seconds =      61.37 minutes
	total time  =      15612 seconds =     260.20 minutes
Total time:
	user time   =   48139.77 seconds =     802.33 minutes
	system time =    3682.11 seconds =      61.37 minutes
	total time  =      15612 seconds =     260.20 minutes

    Psi4 stopped on: Saturday, 13 June 2026 04:29PM
    Psi4 wall time for execution: 4:20:25.84

*** Psi4 exiting successfully. Buy a developer a beer!
