
    -----------------------------------------------------------------------
          Psi4: An Open-Source Ab Initio Electronic Structure Package
                               Psi4 1.9.1 release

                         Git: Rev {} zzzzzzz 


    D. G. A. Smith, L. A. Burns, A. C. Simmonett, R. M. Parrish,
    M. C. Schieber, R. Galvelis, P. Kraus, H. Kruse, R. Di Remigio,
    A. Alenaizan, A. M. James, S. Lehtola, J. P. Misiewicz, M. Scheurer,
    R. A. Shaw, J. B. Schriber, Y. Xie, Z. L. Glick, D. A. Sirianni,
    J. S. O'Brien, J. M. Waldrop, A. Kumar, E. G. Hohenstein,
    B. P. Pritchard, B. R. Brooks, H. F. Schaefer III, A. Yu. Sokolov,
    K. Patkowski, A. E. DePrince III, U. Bozkaya, R. A. King,
    F. A. Evangelista, J. M. Turney, T. D. Crawford, C. D. Sherrill,
    J. Chem. Phys. 152(18) 184108 (2020). https://doi.org/10.1063/5.0006002

                            Additional Code Authors
    E. T. Seidl, C. L. Janssen, E. F. Valeev, M. L. Leininger,
    J. F. Gonthier, R. M. Richard, H. R. McAlexander, M. Saitow, X. Wang,
    P. Verma, M. H. Lechner, A. Jiang, S. Behnle, A. G. Heide,
    M. F. Herbst, and D. L. Poole

             Previous Authors, Complete List of Code Contributors,
                       and Citations for Specific Modules
    https://github.com/psi4/psi4/blob/master/codemeta.json
    https://github.com/psi4/psi4/graphs/contributors
    http://psicode.org/psi4manual/master/introduction.html#citing-psifour

    -----------------------------------------------------------------------


    Psi4 started on: Saturday, 13 June 2026 12:52PM

    Process ID: 3385899
    Host:       atl1-1-02-004-4-1.pace.gatech.edu
    PSIDATADIR: /storage/home/hcoda1/5/vlita3/.conda/envs/p4_qcml/share/psi4
    Memory:     250.0 GiB
    Threads:    10
    
  ==> Input QCSchema <==

--------------------------------------------------------------------------
{'driver': 'energy',
 'extras': {},
 'id': '244',
 'keywords': {},
 'model': {'basis': 'aug-cc-pvtz', 'method': 'wb97x-d'},
 'molecule': {'extras': {},
              'fix_com': True,
              'fix_orientation': True,
              'fragment_charges': [0.0, 0.0],
              'fragment_multiplicities': [1, 1],
              'fragments': [[0, 1, 2, 3, 4, 5, 6, 7, 8, 9, 10, 11, 12, 13, 14, 15, 16, 17, 18, 19, 20, 21, 22, 23, 24,
                             25, 26, 27, 28, 29, 30, 31, 32, 33, 34, 35, 36, 37, 38, 39, 40, 41, 42, 43, 44, 45, 46, 47,
                             48, 49, 50, 51, 52, 53, 54, 55, 56, 57, 58, 59, 60, 61, 62, 63, 64, 65, 66, 67],
                            [68, 69, 70, 71, 72, 73, 74, 75, 76, 77, 78, 79, 80, 81, 82, 83]],
              'geometry': [-5.34620642, -4.85206741, -0.42040662, -6.29696543, -3.97249137, -2.73196591, -7.16652857,
                           -1.39360971, -2.91024059, -7.07225732, 0.1478346, -0.75712917, -6.06055521, -0.70522859,
                           1.52779916, -5.14660825, -3.28275871, 1.6937689, -8.00940954, -0.47795161, -5.29622845,
                           -8.00389532, -2.01265111, -7.39175445, -7.1739962, -4.55869367, -7.20967896, -6.3482405,
                           -5.51081404, -4.93971915, -5.79174545, 0.94432733, 3.66064233, -4.5983628, 0.0799819,
                           5.76970066, -3.62293398, -2.4551662, 5.90550866, -3.92400421, -4.11631993, 3.96419018,
                           -2.16569152, -2.61945029, 8.3885177, 0.07636213, -0.84617571, 7.95116799, -0.9078112,
                           1.61784783, 7.8674416, -3.76570071, 1.39135281, 8.20497635, -3.85671125, -0.88804523,
                           10.06281411, 2.58001171, -1.3655127, 7.31184057, 4.1057488, 0.7110172, 6.7716308, 3.12911434,
                           3.1826792, 6.68292857, 0.58226752, 3.66820181, 7.1546987, 5.22477035, 4.85680231, 5.5947568,
                           5.45773257, 3.95265056, 2.86034162, 6.48712479, 1.44012834, 2.99187034, 6.82098554,
                           0.8515344, 5.79382301, 7.56885523, 3.52377684, 6.77238443, 6.80325367, 0.01007923,
                           0.87853632, 6.01230407, 0.99764822, -1.51581981, 4.9476594, 3.51769873, -1.64633715,
                           4.72513697, 4.9862546, 0.62058001, 6.12205861, -0.46131862, -3.71310038, 5.15756848,
                           0.40687221, -6.02295948, 4.08395781, 2.91056166, -6.14884699, 4.05329983, 4.41018879,
                           -3.96462935, 5.13306837, -1.12454068, -8.23614739, 4.07851898, -0.25961114, -10.44460058,
                           2.99478619, 2.19392857, -10.56107574, 3.00851807, 3.73807424, -8.47334713, 3.50361025,
                           -3.823107, 7.21233591, -0.52564981, 6.01194181, 6.93361699, 5.05829719, 6.89567715,
                           5.87089814, 8.0356414, -0.74107273, 6.26352729, 7.58901842, 3.63875572, 8.83518962,
                           9.35421802, 4.19783591, 5.97522954, -5.76611566, -1.64188193, 10.31542343, -2.98864212,
                           -0.45542891, 11.88758146, -4.77253092, 3.11242428, 8.71181923, -1.70891184, -4.50721847,
                           9.0671295, 7.55489696, -1.89976737, 0.96862939, 3.89947197, 6.86430373, 0.5027639,
                           -6.46680418, 2.87873678, 3.51311765, -3.18323648, -6.03153223, 4.04964208, 3.22722344,
                           6.29110633, -4.05969977, 6.91726822, -2.35617478, -3.61337858, 2.17488807, 5.6139636,
                           -8.5558299, 2.15939666, 2.84829877, -12.31851423, 4.06363758, -1.45295543, -12.11512622,
                           5.94772646, -3.00842661, -8.1365677, -4.65219392, -6.78410677, -0.29846731, -7.72607119,
                           2.09308409, -0.89347536, -5.69192784, -7.45269585, -4.79824367, -8.63836085, 1.47325902,
                           -5.4323305, -8.64382367, -1.28398557, -9.20131008, -7.19028923, -5.75067773, -8.88116704,
                           0.69471926, 7.16657411, 6.19908801, 3.21943853, -4.43255237, 5.4924338, -1.01804176,
                           -2.06721752, -6.41424693, -0.04006805, -3.69463605, -4.59993014, 0.29508244, -2.88730801,
                           -2.09508758, -0.32679714, -0.42272984, -1.41690966, -1.32071561, 1.15392876, -3.24915277,
                           -1.68814035, 0.37514049, -5.74325186, 0.62349756, -6.02367305, -5.33266218, 1.25684872,
                           -4.55988854, -0.10878832, -2.01790096, 3.74535177, -2.52671085, -2.46962752, 1.68011751,
                           -7.10722613, -0.06092458, 0.2181685, 0.50639917, -1.23619836, -2.74752497, -8.33105453,
                           2.06085935, -3.52195874, 1.83306118, 1.18336559, -6.86024705, -0.44470452, -2.90698951,
                           5.11929396, -4.19647021, -1.67462389, 4.39177019, -0.3135118],
              'id': 17,
              'identifiers': {'molecular_formula': 'C46FH29N2O6',
                              'molecule_hash': '59738d88b4c3ae26f379ce911c1eb398fc0895bc'},
              'masses': [12.0, 12.0, 12.0, 12.0, 12.0, 12.0, 12.0, 12.0, 12.0, 12.0, 12.0, 12.0, 12.0, 12.0, 12.0, 12.0,
                         12.0, 12.0, 12.0, 12.0, 12.0, 12.0, 12.0, 12.0, 12.0, 12.0, 12.0, 12.0, 12.0, 12.0, 12.0, 12.0,
                         12.0, 12.0, 12.0, 12.0, 12.0, 12.0, 12.0, 12.0, 15.99491461957, 15.99491461957, 1.00782503223,
                         1.00782503223, 1.00782503223, 1.00782503223, 1.00782503223, 1.00782503223, 1.00782503223,
                         1.00782503223, 1.00782503223, 1.00782503223, 1.00782503223, 1.00782503223, 1.00782503223,
                         1.00782503223, 1.00782503223, 1.00782503223, 1.00782503223, 1.00782503223, 1.00782503223,
                         1.00782503223, 1.00782503223, 1.00782503223, 1.00782503223, 1.00782503223, 1.00782503223,
                         1.00782503223, 12.0, 12.0, 12.0, 12.0, 12.0, 12.0, 18.99840316273, 14.00307400443,
                         14.00307400443, 1.00782503223, 1.00782503223, 1.00782503223, 15.99491461957, 15.99491461957,
                         15.99491461957, 15.99491461957],
              'molecular_charge': 0.0,
              'molecular_multiplicity': 1,
              'name': 'C46FH29N2O6 ([1],[0])',
              'provenance': {'creator': 'QCElemental',
                             'routine': 'qcelemental.molparse.from_schema',
                             'version': '0.29.0'},
              'real': [False, False, False, False, False, False, False, False, False, False, False, False, False, False,
                       False, False, False, False, False, False, False, False, False, False, False, False, False, False,
                       False, False, False, False, False, False, False, False, False, False, False, False, False, False,
                       False, False, False, False, False, False, False, False, False, False, False, False, False, False,
                       False, False, False, False, False, False, False, False, False, False, False, False, True, True,
                       True, True, True, True, True, True, True, True, True, True, True, True, True, True],
              'schema_name': 'qcschema_molecule',
              'schema_version': 2,
              'symbols': ['C', 'C', 'C', 'C', 'C', 'C', 'C', 'C', 'C', 'C', 'C', 'C', 'C', 'C', 'C', 'C', 'C', 'C', 'C',
                          'C', 'C', 'C', 'C', 'C', 'C', 'C', 'C', 'C', 'C', 'C', 'C', 'C', 'C', 'C', 'C', 'C', 'C', 'C',
                          'C', 'C', 'O', 'O', 'H', 'H', 'H', 'H', 'H', 'H', 'H', 'H', 'H', 'H', 'H', 'H', 'H', 'H', 'H',
                          'H', 'H', 'H', 'H', 'H', 'H', 'H', 'H', 'H', 'H', 'H', 'C', 'C', 'C', 'C', 'C', 'C', 'F', 'N',
                          'N', 'H', 'H', 'H', 'O', 'O', 'O', 'O'],
              'validated': True},
 'protocols': {},
 'provenance': {'creator': 'QCElemental', 'routine': 'qcelemental.models.results', 'version': '0.29.0'},
 'schema_name': 'qcschema_input',
 'schema_version': 1}
--------------------------------------------------------------------------

Scratch directory: /tmp/tmp64he7o5u_psi_scratch/
   => Libint2 <=

    Primary   basis highest AM E, G, H:  6, 6, 3
    Auxiliary basis highest AM E, G, H:  7, 7, 4
    Onebody   basis highest AM E, G, H:  -, -, -
    Solid Harmonics ordering:            Gaussian

*** tstart() called on atl1-1-02-004-4-1.pace.gatech.edu
*** at Sat Jun 13 12:52:04 2026

   => Loading Basis Set <=

    Name: AUG-CC-PVTZ
    Role: ORBITAL
    Keyword: BASIS
    atoms 1-40, 69-74  entry C          line   239 file /storage/home/hcoda1/5/vlita3/.conda/envs/p4_qcml/share/psi4/basis/aug-cc-pvtz.gbs 
    atoms 41-42, 81-84 entry O          line   331 file /storage/home/hcoda1/5/vlita3/.conda/envs/p4_qcml/share/psi4/basis/aug-cc-pvtz.gbs 
    atoms 43-68, 78-80 entry H          line    40 file /storage/home/hcoda1/5/vlita3/.conda/envs/p4_qcml/share/psi4/basis/aug-cc-pvtz.gbs 
    atoms 75           entry F          line   377 file /storage/home/hcoda1/5/vlita3/.conda/envs/p4_qcml/share/psi4/basis/aug-cc-pvtz.gbs 
    atoms 76-77        entry N          line   285 file /storage/home/hcoda1/5/vlita3/.conda/envs/p4_qcml/share/psi4/basis/aug-cc-pvtz.gbs 

   => WB97X-D: Empirical Dispersion <=

    Chai and Head-Gordon Dispersion Correction
    Chai, J.-D.; Head-Gordon, M. (2010), J. Chem. Phys., 132: 6615-6620

        s6 =       1.000000


         ---------------------------------------------------------
                                   SCF
               by Justin Turney, Rob Parrish, Andy Simmonett
                          and Daniel G. A. Smith
                              RKS Reference
                       10 Threads, 256000 MiB Core
         ---------------------------------------------------------

  ==> Geometry <==

    Molecular point group: c1
    Full point group: C1

    Geometry (in Bohr), charge = 0, multiplicity = 1:

       Center              X                  Y                   Z               Mass       
    ------------   -----------------  -----------------  -----------------  -----------------
      Gh(C)          -5.346206420000    -4.852067410000    -0.420406620000    12.000000000000
      Gh(C)          -6.296965430000    -3.972491370000    -2.731965910000    12.000000000000
      Gh(C)          -7.166528570000    -1.393609710000    -2.910240590000    12.000000000000
      Gh(C)          -7.072257320000     0.147834600000    -0.757129170000    12.000000000000
      Gh(C)          -6.060555210000    -0.705228590000     1.527799160000    12.000000000000
      Gh(C)          -5.146608250000    -3.282758710000     1.693768900000    12.000000000000
      Gh(C)          -8.009409540000    -0.477951610000    -5.296228450000    12.000000000000
      Gh(C)          -8.003895320000    -2.012651110000    -7.391754450000    12.000000000000
      Gh(C)          -7.173996200000    -4.558693670000    -7.209678960000    12.000000000000
      Gh(C)          -6.348240500000    -5.510814040000    -4.939719150000    12.000000000000
      Gh(C)          -5.791745450000     0.944327330000     3.660642330000    12.000000000000
      Gh(C)          -4.598362800000     0.079981900000     5.769700660000    12.000000000000
      Gh(C)          -3.622933980000    -2.455166200000     5.905508660000    12.000000000000
      Gh(C)          -3.924004210000    -4.116319930000     3.964190180000    12.000000000000
      Gh(C)          -2.165691520000    -2.619450290000     8.388517700000    12.000000000000
      Gh(C)           0.076362130000    -0.846175710000     7.951167990000    12.000000000000
      Gh(C)          -0.907811200000     1.617847830000     7.867441600000    12.000000000000
      Gh(C)          -3.765700710000     1.391352810000     8.204976350000    12.000000000000
      Gh(C)          -3.856711250000    -0.888045230000    10.062814110000    12.000000000000
      Gh(C)           2.580011710000    -1.365512700000     7.311840570000    12.000000000000
      Gh(C)           4.105748800000     0.711017200000     6.771630800000    12.000000000000
      Gh(C)           3.129114340000     3.182679200000     6.682928570000    12.000000000000
      Gh(C)           0.582267520000     3.668201810000     7.154698700000    12.000000000000
      Gh(C)           5.224770350000     4.856802310000     5.594756800000    12.000000000000
      Gh(C)           5.457732570000     3.952650560000     2.860341620000    12.000000000000
      Gh(C)           6.487124790000     1.440128340000     2.991870340000    12.000000000000
      Gh(C)           6.820985540000     0.851534400000     5.793823010000    12.000000000000
      Gh(C)           7.568855230000     3.523776840000     6.772384430000    12.000000000000
      Gh(C)           6.803253670000     0.010079230000     0.878536320000    12.000000000000
      Gh(C)           6.012304070000     0.997648220000    -1.515819810000    12.000000000000
      Gh(C)           4.947659400000     3.517698730000    -1.646337150000    12.000000000000
      Gh(C)           4.725136970000     4.986254600000     0.620580010000    12.000000000000
      Gh(C)           6.122058610000    -0.461318620000    -3.713100380000    12.000000000000
      Gh(C)           5.157568480000     0.406872210000    -6.022959480000    12.000000000000
      Gh(C)           4.083957810000     2.910561660000    -6.148846990000    12.000000000000
      Gh(C)           4.053299830000     4.410188790000    -3.964629350000    12.000000000000
      Gh(C)           5.133068370000    -1.124540680000    -8.236147390000    12.000000000000
      Gh(C)           4.078518980000    -0.259611140000   -10.444600580000    12.000000000000
      Gh(C)           2.994786190000     2.193928570000   -10.561075740000    12.000000000000
      Gh(C)           3.008518070000     3.738074240000    -8.473347130000    12.000000000000
      Gh(O)           3.503610250000    -3.823107000000     7.212335910000    15.994914619570
      Gh(O)          -0.525649810000     6.011941810000     6.933616990000    15.994914619570
      Gh(H)           5.058297190000     6.895677150000     5.870898140000     1.007825032230
      Gh(H)           8.035641400000    -0.741072730000     6.263527290000     1.007825032230
      Gh(H)           7.589018420000     3.638755720000     8.835189620000     1.007825032230
      Gh(H)           9.354218020000     4.197835910000     5.975229540000     1.007825032230
      Gh(H)          -5.766115660000    -1.641881930000    10.315423430000     1.007825032230
      Gh(H)          -2.988642120000    -0.455428910000    11.887581460000     1.007825032230
      Gh(H)          -4.772530920000     3.112424280000     8.711819230000     1.007825032230
      Gh(H)          -1.708911840000    -4.507218470000     9.067129500000     1.007825032230
      Gh(H)           7.554896960000    -1.899767370000     0.968629390000     1.007825032230
      Gh(H)           3.899471970000     6.864303730000     0.502763900000     1.007825032230
      Gh(H)          -6.466804180000     2.878736780000     3.513117650000     1.007825032230
      Gh(H)          -3.183236480000    -6.031532230000     4.049642080000     1.007825032230
      Gh(H)           3.227223440000     6.291106330000    -4.059699770000     1.007825032230
      Gh(H)           6.917268220000    -2.356174780000    -3.613378580000     1.007825032230
      Gh(H)           2.174888070000     5.613963600000    -8.555829900000     1.007825032230
      Gh(H)           2.159396660000     2.848298770000   -12.318514230000     1.007825032230
      Gh(H)           4.063637580000    -1.452955430000   -12.115126220000     1.007825032230
      Gh(H)           5.947726460000    -3.008426610000    -8.136567700000     1.007825032230
      Gh(H)          -4.652193920000    -6.784106770000    -0.298467310000     1.007825032230
      Gh(H)          -7.726071190000     2.093084090000    -0.893475360000     1.007825032230
      Gh(H)          -5.691927840000    -7.452695850000    -4.798243670000     1.007825032230
      Gh(H)          -8.638360850000     1.473259020000    -5.432330500000     1.007825032230
      Gh(H)          -8.643823670000    -1.283985570000    -9.201310080000     1.007825032230
      Gh(H)          -7.190289230000    -5.750677730000    -8.881167040000     1.007825032230
      Gh(H)           0.694719260000     7.166574110000     6.199088010000     1.007825032230
      Gh(H)           3.219438530000    -4.432552370000     5.492433800000     1.007825032230
         C           -1.018041760000    -2.067217520000    -6.414246930000    12.000000000000
         C           -0.040068050000    -3.694636050000    -4.599930140000    12.000000000000
         C            0.295082440000    -2.887308010000    -2.095087580000    12.000000000000
         C           -0.326797140000    -0.422729840000    -1.416909660000    12.000000000000
         C           -1.320715610000     1.153928760000    -3.249152770000    12.000000000000
         C           -1.688140350000     0.375140490000    -5.743251860000    12.000000000000
         F            0.623497560000    -6.023673050000    -5.332662180000    18.998403162730
         N            1.256848720000    -4.559888540000    -0.108788320000    14.003074004430
         N           -2.017900960000     3.745351770000    -2.526710850000    14.003074004430
         H           -2.469627520000     1.680117510000    -7.107226130000     1.007825032230
         H           -0.060924580000     0.218168500000     0.506399170000     1.007825032230
         H           -1.236198360000    -2.747524970000    -8.331054530000     1.007825032230
         O            2.060859350000    -3.521958740000     1.833061180000    15.994914619570
         O            1.183365590000    -6.860247050000    -0.444704520000    15.994914619570
         O           -2.906989510000     5.119293960000    -4.196470210000    15.994914619570
         O           -1.674623890000     4.391770190000    -0.313511800000    15.994914619570

  Running in c1 symmetry.

  Rotational constants: A =      0.00269  B =      0.00202  C =      0.00154 [cm^-1]
  Rotational constants: A =     80.53073  B =     60.67005  C =     46.28054 [MHz]
  Nuclear repulsion =  775.513772342646689

  Charge       = 0
  Multiplicity = 1
  Electrons    = 94
  Nalpha       = 47
  Nbeta        = 47

  ==> Algorithm <==

  SCF Algorithm Type is DF.
  DIIS enabled.
  MOM disabled.
  Fractional occupation disabled.
  Guess Type is SAD.
  Energy threshold   = 1.00e-06
  Density threshold  = 1.00e-06
  Integral threshold = 1.00e-12

  ==> Primary Basis <==

  Basis Set: AUG-CC-PVTZ
    Blend: AUG-CC-PVTZ
    Number of shells: 1031
    Number of basis functions: 3197
    Number of Cartesian functions: 3750
    Spherical Harmonics?: true
    Max angular momentum: 3

  ==> DFT Potential <==

   => LibXC <=

    Version 7.0.0
    S. Lehtola, C. Steigemann, M. J.T. Oliveira, and M. A.L. Marques.,  SoftwareX 7, 1–5 (2018) (10.1016/j.softx.2017.11.002)

   => Composite Functional: WB97X-D <= 

    wB97X-D Hyb-GGA Exchange-Correlation Functional

    J.-D. Chai and M. Head-Gordon.,  Phys. Chem. Chem. Phys. 10, 6615-6620 (2008) (10.1039/B810189B)

    Deriv               =              1
    GGA                 =           TRUE
    Meta                =          FALSE

    Exchange Hybrid     =           TRUE
    MP2 Hybrid          =          FALSE

   => Exchange-Correlation Functionals <=

    1.0000   wB97X-D range-separated functional

   => Exact (HF) Exchange <=

    0.7780            HF,LR [omega = 0.2000]
    0.2220               HF 

   => LibXC Density Thresholds  <==

    XC_HYB_GGA_XC_WB97X_D:  1.00E-14 

   => Molecular Quadrature <=

    Radial Scheme          =       TREUTLER
    Pruning Scheme         =           NONE
    Nuclear Scheme         =       TREUTLER

    Blocking Scheme        =         OCTREE
    BS radius alpha        =              1
    Pruning alpha          =              1
    Radial Points          =             75
    Spherical Points       =            302
    Total Points           =        1660585
    Total Blocks           =          11397
    Max Points             =            256
    Max Functions          =           2139
    Weights Tolerance      =       1.00E-15

   => Loading Basis Set <=

    Name: (AUG-CC-PVTZ AUX)
    Role: JKFIT
    Keyword: DF_BASIS_SCF
    atoms 1-40, 69-74  entry C          line   162 file /storage/home/hcoda1/5/vlita3/.conda/envs/p4_qcml/share/psi4/basis/aug-cc-pvtz-jkfit.gbs 
    atoms 41-42, 81-84 entry O          line   286 file /storage/home/hcoda1/5/vlita3/.conda/envs/p4_qcml/share/psi4/basis/aug-cc-pvtz-jkfit.gbs 
    atoms 43-68, 78-80 entry H          line    70 file /storage/home/hcoda1/5/vlita3/.conda/envs/p4_qcml/share/psi4/basis/aug-cc-pvtz-jkfit.gbs 
    atoms 75           entry F          line   348 file /storage/home/hcoda1/5/vlita3/.conda/envs/p4_qcml/share/psi4/basis/aug-cc-pvtz-jkfit.gbs 
    atoms 76-77        entry N          line   224 file /storage/home/hcoda1/5/vlita3/.conda/envs/p4_qcml/share/psi4/basis/aug-cc-pvtz-jkfit.gbs 

  ==> Integral Setup <==

  ==> DiskDFJK: Density-Fitted J/K Matrices <==

    J tasked:                  Yes
    K tasked:                  Yes
    wK tasked:                 Yes
    Omega:               2.000E-01
    OpenMP threads:             10
    Integrals threads:          10
    Memory [MiB]:           172800
    Algorithm:                Disk
    Integral Cache:           NONE
    Schwarz Cutoff:          1E-12
    Fitting Condition:       1E-10

   => Auxiliary Basis Set <=

  Basis Set: (AUG-CC-PVTZ AUX)
    Blend: AUG-CC-PVTZ-JKFIT
    Number of shells: 2056
    Number of basis functions: 7054
    Number of Cartesian functions: 8800
    Spherical Harmonics?: true
    Max angular momentum: 4

  Minimum eigenvalue in the overlap matrix is 8.4696743678E-09.
  Reciprocal condition number of the overlap matrix is 2.5542464085E-10.
    Using canonical orthogonalization.
  Overall, 16 of 3197 possible MOs eliminated.


  ==> Pre-Iterations <==

  SCF Guess: Superposition of Atomic Densities via on-the-fly atomic UHF (no occupation information).

   -------------------------
    Irrep   Nso     Nmo    
   -------------------------
     A       3197    3181 
   -------------------------
    Total    3197    3181
   -------------------------

  ==> Iterations <==

                           Total Energy        Delta E     RMS |[F,P]|

   @DF-RKS iter SAD:  -739.98971094033880   -7.39990e+02   0.00000e+00 
   @DF-RKS iter   1:  -740.04234213529253   -5.26312e-02   3.50763e-04 ADIIS/DIIS
   @DF-RKS iter   2:  -739.90759705588755    1.34745e-01   4.29151e-04 ADIIS/DIIS
   @DF-RKS iter   3:  -740.49576655317856   -5.88169e-01   5.32505e-05 DIIS
   @DF-RKS iter   4:  -740.50586990209149   -1.01033e-02   1.93700e-05 DIIS
   @DF-RKS iter   5:  -740.50720306117717   -1.33316e-03   8.09027e-06 DIIS
   @DF-RKS iter   6:  -740.50740451414697   -2.01453e-04   3.57828e-06 DIIS
   @DF-RKS iter   7:  -740.50744972079622   -4.52066e-05   1.05498e-06 DIIS
   @DF-RKS iter   8:  -740.50745488653320   -5.16574e-06   2.70666e-07 DIIS
   @DF-RKS iter   9:  -740.50745542621405   -5.39681e-07   1.44425e-07 DIIS
  Energy and wave function converged.


  ==> Post-Iterations <==

   Electrons on quadrature grid:
      Ntotal   =   93.9997637146 ; deviation = -2.363e-04 

    Orbital Energies [Eh]
    ---------------------

    Doubly Occupied:                                                      

       1A    -24.875065     2A    -19.315689     3A    -19.315561  
       4A    -19.314787     5A    -19.312140     6A    -14.712615  
       7A    -14.710689     8A    -10.453262     9A    -10.405134  
      10A    -10.396769    11A    -10.370692    12A    -10.369404  
      13A    -10.358905    14A     -1.385940    15A     -1.355139  
      16A     -1.354572    17A     -1.180916    18A     -1.179508  
      19A     -1.048736    20A     -0.967373    21A     -0.941299  
      22A     -0.851177    23A     -0.838691    24A     -0.771908  
      25A     -0.723699    26A     -0.698953    27A     -0.676110  
      28A     -0.666253    29A     -0.656277    30A     -0.652655  
      31A     -0.650308    32A     -0.628034    33A     -0.616535  
      34A     -0.610570    35A     -0.589782    36A     -0.564987  
      37A     -0.548118    38A     -0.515697    39A     -0.506224  
      40A     -0.430712    41A     -0.426016    42A     -0.423947  
      43A     -0.421599    44A     -0.414056    45A     -0.411337  
      46A     -0.399746    47A     -0.391255  

    Virtual:                                                              

      48A     -0.062729    49A     -0.053869    50A      0.010638  
      51A      0.010942    52A      0.019214    53A      0.019619  
      54A      0.025906    55A      0.027288    56A      0.029432  
      57A      0.033591    58A      0.034241    59A      0.040556  
      60A      0.042234    61A      0.042745    62A      0.044782  
      63A      0.045692    64A      0.046302    65A      0.046536  
      66A      0.049727    67A      0.054675    68A      0.056920  
      69A      0.057348    70A      0.058120    71A      0.060011  
      72A      0.062348    73A      0.063632    74A      0.064957  
      75A      0.067730    76A      0.070382    77A      0.070628  
      78A      0.073089    79A      0.075707    80A      0.075957  
      81A      0.076044    82A      0.077831    83A      0.082122  
      84A      0.085530    85A      0.086259    86A      0.088470  
      87A      0.089563    88A      0.089753    89A      0.091511  
      90A      0.095257    91A      0.096031    92A      0.098511  
      93A      0.100012    94A      0.100563    95A      0.101237  
      96A      0.101991    97A      0.103403    98A      0.105862  
      99A      0.106889   100A      0.110871   101A      0.112108  
     102A      0.113052   103A      0.114160   104A      0.117883  
     105A      0.120807   106A      0.120880   107A      0.122407  
     108A      0.122716   109A      0.124165   110A      0.124685  
     111A      0.124924   112A      0.127920   113A      0.128828  
     114A      0.131184   115A      0.131923   116A      0.134008  
     117A      0.135148   118A      0.137379   119A      0.138149  
     120A      0.138633   121A      0.139990   122A      0.141555  
     123A      0.144253   124A      0.147129   125A      0.149404  
     126A      0.150324   127A      0.150982   128A      0.152132  
     129A      0.153489   130A      0.154797   131A      0.155204  
     132A      0.156349   133A      0.157109   134A      0.157976  
     135A      0.159551   136A      0.160959   137A      0.161426  
     138A      0.163307   139A      0.164238   140A      0.164623  
     141A      0.165426   142A      0.168454   143A      0.169208  
     144A      0.169984   145A      0.172627   146A      0.173587  
     147A      0.175447   148A      0.177390   149A      0.178650  
     150A      0.178981   151A      0.179062   152A      0.181300  
     153A      0.182617   154A      0.183032   155A      0.184227  
     156A      0.185594   157A      0.188397   158A      0.189208  
     159A      0.189645   160A      0.191232   161A      0.192015  
     162A      0.192802   163A      0.194032   164A      0.196476  
     165A      0.196819   166A      0.198167   167A      0.199368  
     168A      0.200557   169A      0.200871   170A      0.202864  
     171A      0.204274   172A      0.206905   173A      0.207934  
     174A      0.209012   175A      0.210693   176A      0.211502  
     177A      0.212770   178A      0.214004   179A      0.215821  
     180A      0.216302   181A      0.216852   182A      0.218078  
     183A      0.219749   184A      0.220820   185A      0.222737  
     186A      0.224557   187A      0.225797   188A      0.227063  
     189A      0.227552   190A      0.227819   191A      0.229614  
     192A      0.231265   193A      0.231641   194A      0.232880  
     195A      0.233736   196A      0.236050   197A      0.236556  
     198A      0.238113   199A      0.238672   200A      0.240262  
     201A      0.242391   202A      0.242879   203A      0.244104  
     204A      0.247852   205A      0.249221   206A      0.250076  
     207A      0.251773   208A      0.253641   209A      0.255015  
     210A      0.255667   211A      0.257613   212A      0.259738  
     213A      0.259947   214A      0.260441   215A      0.261984  
     216A      0.262878   217A      0.264154   218A      0.265906  
     219A      0.266631   220A      0.267260   221A      0.267802  
     222A      0.269132   223A      0.270646   224A      0.271048  
     225A      0.273364   226A      0.276292   227A      0.277502  
     228A      0.278506   229A      0.279084   230A      0.280255  
     231A      0.281575   232A      0.281939   233A      0.282758  
     234A      0.283273   235A      0.284148   236A      0.285859  
     237A      0.286934   238A      0.289190   239A      0.291758  
     240A      0.292606   241A      0.294093   242A      0.294654  
     243A      0.296627   244A      0.297886   245A      0.298958  
     246A      0.301847   247A      0.303318   248A      0.303698  
     249A      0.304864   250A      0.305790   251A      0.307361  
     252A      0.308486   253A      0.310223   254A      0.312294  
     255A      0.313013   256A      0.313906   257A      0.314242  
     258A      0.316317   259A      0.317251   260A      0.318681  
     261A      0.320699   262A      0.321521   263A      0.323600  
     264A      0.324685   265A      0.325887   266A      0.326830  
     267A      0.328572   268A      0.329484   269A      0.330879  
     270A      0.332171   271A      0.332626   272A      0.334049  
     273A      0.335221   274A      0.335654   275A      0.336574  
     276A      0.339709   277A      0.340648   278A      0.341228  
     279A      0.342529   280A      0.345222   281A      0.347413  
     282A      0.347923   283A      0.349303   284A      0.351530  
     285A      0.353973   286A      0.354767   287A      0.355523  
     288A      0.357279   289A      0.357890   290A      0.359133  
     291A      0.359598   292A      0.361991   293A      0.363154  
     294A      0.363412   295A      0.366656   296A      0.367863  
     297A      0.368341   298A      0.370993   299A      0.371552  
     300A      0.374023   301A      0.378079   302A      0.378753  
     303A      0.379305   304A      0.380992   305A      0.381493  
     306A      0.383250   307A      0.384490   308A      0.386699  
     309A      0.388338   310A      0.389900   311A      0.392290  
     312A      0.392569   313A      0.393974   314A      0.395236  
     315A      0.397533   316A      0.399066   317A      0.401174  
     318A      0.401715   319A      0.403520   320A      0.403989  
     321A      0.405528   322A      0.407445   323A      0.409762  
     324A      0.410860   325A      0.413342   326A      0.413805  
     327A      0.414732   328A      0.415568   329A      0.417444  
     330A      0.417800   331A      0.420592   332A      0.421438  
     333A      0.422350   334A      0.422935   335A      0.427273  
     336A      0.427943   337A      0.429097   338A      0.429824  
     339A      0.430198   340A      0.432121   341A      0.433647  
     342A      0.435257   343A      0.436907   344A      0.437303  
     345A      0.438964   346A      0.440256   347A      0.440765  
     348A      0.442331   349A      0.443850   350A      0.445331  
     351A      0.447013   352A      0.448741   353A      0.450857  
     354A      0.453612   355A      0.454464   356A      0.455698  
     357A      0.456392   358A      0.459357   359A      0.459997  
     360A      0.462151   361A      0.462398   362A      0.463544  
     363A      0.464558   364A      0.466017   365A      0.467496  
     366A      0.467881   367A      0.470766   368A      0.471480  
     369A      0.473300   370A      0.474705   371A      0.475526  
     372A      0.476796   373A      0.478250   374A      0.479123  
     375A      0.481412   376A      0.483297   377A      0.484742  
     378A      0.486086   379A      0.486531   380A      0.487070  
     381A      0.488621   382A      0.490255   383A      0.491672  
     384A      0.492639   385A      0.495222   386A      0.496265  
     387A      0.497229   388A      0.499071   389A      0.499807  
     390A      0.502042   391A      0.502627   392A      0.504019  
     393A      0.504338   394A      0.505751   395A      0.506732  
     396A      0.508403   397A      0.508970   398A      0.509820  
     399A      0.511702   400A      0.512590   401A      0.512866  
     402A      0.514275   403A      0.516363   404A      0.517024  
     405A      0.517857   406A      0.520421   407A      0.520674  
     408A      0.522902   409A      0.524523   410A      0.525025  
     411A      0.526174   412A      0.528053   413A      0.529000  
     414A      0.530711   415A      0.531267   416A      0.532522  
     417A      0.534204   418A      0.534567   419A      0.536112  
     420A      0.537371   421A      0.539403   422A      0.541102  
     423A      0.543366   424A      0.544159   425A      0.547082  
     426A      0.548184   427A      0.548974   428A      0.550375  
     429A      0.552241   430A      0.553918   431A      0.555569  
     432A      0.556812   433A      0.560632   434A      0.561159  
     435A      0.563476   436A      0.563804   437A      0.565373  
     438A      0.567613   439A      0.568796   440A      0.570208  
     441A      0.571600   442A      0.572171   443A      0.574066  
     444A      0.576103   445A      0.576680   446A      0.579776  
     447A      0.580544   448A      0.581641   449A      0.582313  
     450A      0.583721   451A      0.585476   452A      0.586257  
     453A      0.587261   454A      0.590417   455A      0.591486  
     456A      0.591926   457A      0.593824   458A      0.595702  
     459A      0.596647   460A      0.597082   461A      0.600585  
     462A      0.602333   463A      0.603023   464A      0.604181  
     465A      0.605425   466A      0.607163   467A      0.608860  
     468A      0.611140   469A      0.612623   470A      0.615409  
     471A      0.616635   472A      0.617451   473A      0.618734  
     474A      0.620551   475A      0.622056   476A      0.622879  
     477A      0.623643   478A      0.624649   479A      0.626176  
     480A      0.627113   481A      0.630405   482A      0.631774  
     483A      0.633365   484A      0.635975   485A      0.636433  
     486A      0.638130   487A      0.639946   488A      0.640800  
     489A      0.641632   490A      0.642685   491A      0.644453  
     492A      0.645258   493A      0.646765   494A      0.648135  
     495A      0.648465   496A      0.650033   497A      0.651357  
     498A      0.652908   499A      0.654740   500A      0.656208  
     501A      0.658428   502A      0.660184   503A      0.662433  
     504A      0.664343   505A      0.664948   506A      0.666726  
     507A      0.667254   508A      0.668435   509A      0.669706  
     510A      0.670737   511A      0.671129   512A      0.673958  
     513A      0.675877   514A      0.676970   515A      0.678232  
     516A      0.680157   517A      0.682369   518A      0.682816  
     519A      0.685414   520A      0.685838   521A      0.686832  
     522A      0.687064   523A      0.689381   524A      0.691354  
     525A      0.692183   526A      0.694093   527A      0.695763  
     528A      0.696652   529A      0.698926   530A      0.699395  
     531A      0.700451   532A      0.703277   533A      0.704341  
     534A      0.705093   535A      0.706769   536A      0.707594  
     537A      0.708049   538A      0.709876   539A      0.711824  
     540A      0.713456   541A      0.715954   542A      0.716889  
     543A      0.717871   544A      0.720199   545A      0.721019  
     546A      0.721757   547A      0.722873   548A      0.723288  
     549A      0.725472   550A      0.726002   551A      0.728732  
     552A      0.730279   553A      0.730670   554A      0.731115  
     555A      0.732737   556A      0.734654   557A      0.734929  
     558A      0.736614   559A      0.739031   560A      0.741205  
     561A      0.742352   562A      0.743560   563A      0.744916  
     564A      0.746109   565A      0.747616   566A      0.749564  
     567A      0.750349   568A      0.753497   569A      0.755119  
     570A      0.756388   571A      0.757353   572A      0.760115  
     573A      0.761769   574A      0.763727   575A      0.765264  
     576A      0.767312   577A      0.767764   578A      0.770228  
     579A      0.771110   580A      0.772966   581A      0.774064  
     582A      0.775370   583A      0.775589   584A      0.777493  
     585A      0.781482   586A      0.783075   587A      0.783789  
     588A      0.784756   589A      0.786195   590A      0.787313  
     591A      0.789092   592A      0.790737   593A      0.791799  
     594A      0.792975   595A      0.794892   596A      0.795403  
     597A      0.797456   598A      0.798976   599A      0.800154  
     600A      0.800834   601A      0.802584   602A      0.804745  
     603A      0.806328   604A      0.809019   605A      0.809753  
     606A      0.809886   607A      0.811262   608A      0.813236  
     609A      0.813752   610A      0.816586   611A      0.819055  
     612A      0.820996   613A      0.821180   614A      0.822494  
     615A      0.823767   616A      0.825654   617A      0.826896  
     618A      0.828458   619A      0.830952   620A      0.832376  
     621A      0.833155   622A      0.834987   623A      0.835877  
     624A      0.836472   625A      0.840325   626A      0.840486  
     627A      0.841344   628A      0.843386   629A      0.846290  
     630A      0.848992   631A      0.850271   632A      0.850697  
     633A      0.853425   634A      0.855030   635A      0.855823  
     636A      0.858433   637A      0.860360   638A      0.862751  
     639A      0.863069   640A      0.864266   641A      0.866272  
     642A      0.867923   643A      0.870109   644A      0.871543  
     645A      0.873653   646A      0.874955   647A      0.876469  
     648A      0.878724   649A      0.880353   650A      0.882048  
     651A      0.883106   652A      0.883995   653A      0.886570  
     654A      0.886681   655A      0.886940   656A      0.890426  
     657A      0.892379   658A      0.893521   659A      0.894966  
     660A      0.896598   661A      0.897840   662A      0.898463  
     663A      0.900174   664A      0.902390   665A      0.904309  
     666A      0.905225   667A      0.905967   668A      0.907445  
     669A      0.909185   670A      0.909782   671A      0.912268  
     672A      0.913906   673A      0.914711   674A      0.916350  
     675A      0.918627   676A      0.919023   677A      0.922163  
     678A      0.922564   679A      0.924295   680A      0.925125  
     681A      0.928217   682A      0.929138   683A      0.930353  
     684A      0.932904   685A      0.934756   686A      0.936851  
     687A      0.939117   688A      0.941718   689A      0.942574  
     690A      0.943106   691A      0.945061   692A      0.946819  
     693A      0.947842   694A      0.948850   695A      0.949913  
     696A      0.951895   697A      0.955670   698A      0.957984  
     699A      0.958944   700A      0.959445   701A      0.961546  
     702A      0.962781   703A      0.965482   704A      0.967088  
     705A      0.968023   706A      0.968772   707A      0.970189  
     708A      0.971281   709A      0.971982   710A      0.974454  
     711A      0.978046   712A      0.978883   713A      0.980355  
     714A      0.982633   715A      0.983124   716A      0.984689  
     717A      0.986704   718A      0.988634   719A      0.989718  
     720A      0.990662   721A      0.992080   722A      0.994634  
     723A      0.995589   724A      0.997681   725A      1.000820  
     726A      1.001600   727A      1.002899   728A      1.004055  
     729A      1.005587   730A      1.008505   731A      1.010910  
     732A      1.011092   733A      1.012076   734A      1.013063  
     735A      1.015353   736A      1.017094   737A      1.019959  
     738A      1.021288   739A      1.023228   740A      1.024972  
     741A      1.026356   742A      1.027836   743A      1.028669  
     744A      1.029754   745A      1.031080   746A      1.032683  
     747A      1.033473   748A      1.034505   749A      1.035947  
     750A      1.037521   751A      1.038180   752A      1.040060  
     753A      1.042360   754A      1.043309   755A      1.047115  
     756A      1.049055   757A      1.049568   758A      1.052328  
     759A      1.053923   760A      1.055133   761A      1.057085  
     762A      1.058564   763A      1.059597   764A      1.062317  
     765A      1.062996   766A      1.063235   767A      1.064750  
     768A      1.066596   769A      1.069578   770A      1.073578  
     771A      1.077041   772A      1.078072   773A      1.079366  
     774A      1.079851   775A      1.081224   776A      1.084218  
     777A      1.085593   778A      1.088397   779A      1.089275  
     780A      1.089806   781A      1.091020   782A      1.093900  
     783A      1.096307   784A      1.097520   785A      1.098686  
     786A      1.100260   787A      1.101008   788A      1.102869  
     789A      1.106486   790A      1.107333   791A      1.107753  
     792A      1.110236   793A      1.112470   794A      1.113781  
     795A      1.115431   796A      1.118152   797A      1.120356  
     798A      1.121279   799A      1.123393   800A      1.125754  
     801A      1.127292   802A      1.127590   803A      1.128951  
     804A      1.131294   805A      1.132929   806A      1.134017  
     807A      1.137268   808A      1.138058   809A      1.138638  
     810A      1.141821   811A      1.143203   812A      1.143849  
     813A      1.144244   814A      1.148656   815A      1.151760  
     816A      1.154435   817A      1.157437   818A      1.158023  
     819A      1.160422   820A      1.162008   821A      1.162941  
     822A      1.163403   823A      1.166273   824A      1.168467  
     825A      1.168885   826A      1.171386   827A      1.173191  
     828A      1.174940   829A      1.175301   830A      1.177315  
     831A      1.177853   832A      1.181010   833A      1.181914  
     834A      1.182666   835A      1.184997   836A      1.185564  
     837A      1.188708   838A      1.189415   839A      1.190398  
     840A      1.191104   841A      1.194879   842A      1.197004  
     843A      1.198067   844A      1.200495   845A      1.202636  
     846A      1.203485   847A      1.205529   848A      1.207187  
     849A      1.209744   850A      1.210536   851A      1.212390  
     852A      1.213509   853A      1.214186   854A      1.215941  
     855A      1.220001   856A      1.221151   857A      1.221758  
     858A      1.223539   859A      1.224553   860A      1.225126  
     861A      1.227888   862A      1.229976   863A      1.230726  
     864A      1.231825   865A      1.233596   866A      1.234809  
     867A      1.238590   868A      1.239957   869A      1.241405  
     870A      1.242233   871A      1.243460   872A      1.244399  
     873A      1.245317   874A      1.246633   875A      1.250623  
     876A      1.251306   877A      1.252322   878A      1.253181  
     879A      1.255580   880A      1.258708   881A      1.261507  
     882A      1.263492   883A      1.263554   884A      1.265320  
     885A      1.266039   886A      1.269311   887A      1.269957  
     888A      1.272344   889A      1.273170   890A      1.277720  
     891A      1.281025   892A      1.281236   893A      1.281951  
     894A      1.285052   895A      1.285527   896A      1.287105  
     897A      1.289107   898A      1.290033   899A      1.291371  
     900A      1.293604   901A      1.293890   902A      1.296163  
     903A      1.299364   904A      1.300561   905A      1.302044  
     906A      1.303396   907A      1.306343   908A      1.307575  
     909A      1.309625   910A      1.309797   911A      1.311155  
     912A      1.313527   913A      1.315342   914A      1.317437  
     915A      1.318143   916A      1.319305   917A      1.322464  
     918A      1.323276   919A      1.325769   920A      1.327418  
     921A      1.329330   922A      1.331386   923A      1.332938  
     924A      1.334332   925A      1.337576   926A      1.338499  
     927A      1.340881   928A      1.343240   929A      1.343714  
     930A      1.344817   931A      1.346844   932A      1.349978  
     933A      1.351224   934A      1.352231   935A      1.354482  
     936A      1.356413   937A      1.358442   938A      1.358905  
     939A      1.359525   940A      1.360781   941A      1.363521  
     942A      1.365338   943A      1.366960   944A      1.369029  
     945A      1.371502   946A      1.373254   947A      1.374628  
     948A      1.375725   949A      1.377608   950A      1.379196  
     951A      1.380841   952A      1.381784   953A      1.382770  
     954A      1.385161   955A      1.386423   956A      1.387943  
     957A      1.390825   958A      1.392449   959A      1.393394  
     960A      1.394371   961A      1.395804   962A      1.397506  
     963A      1.399348   964A      1.402007   965A      1.403416  
     966A      1.405826   967A      1.409451   968A      1.410333  
     969A      1.411170   970A      1.412956   971A      1.414022  
     972A      1.415020   973A      1.416837   974A      1.418883  
     975A      1.419579   976A      1.420286   977A      1.421971  
     978A      1.423886   979A      1.426869   980A      1.427022  
     981A      1.428824   982A      1.431021   983A      1.434243  
     984A      1.436559   985A      1.437461   986A      1.438320  
     987A      1.440981   988A      1.442693   989A      1.444546  
     990A      1.445646   991A      1.446906   992A      1.447552  
     993A      1.447873   994A      1.450387   995A      1.453328  
     996A      1.454353   997A      1.456400   998A      1.457684  
     999A      1.460299  1000A      1.463100  1001A      1.464427  
    1002A      1.466185  1003A      1.467712  1004A      1.470566  
    1005A      1.471607  1006A      1.473976  1007A      1.475109  
    1008A      1.476291  1009A      1.477337  1010A      1.478998  
    1011A      1.481589  1012A      1.482644  1013A      1.485602  
    1014A      1.487558  1015A      1.488732  1016A      1.489159  
    1017A      1.490126  1018A      1.491849  1019A      1.492517  
    1020A      1.494222  1021A      1.497137  1022A      1.497752  
    1023A      1.499415  1024A      1.502503  1025A      1.503790  
    1026A      1.505192  1027A      1.506788  1028A      1.506988  
    1029A      1.510229  1030A      1.513861  1031A      1.514122  
    1032A      1.515531  1033A      1.518135  1034A      1.518968  
    1035A      1.521306  1036A      1.522448  1037A      1.523797  
    1038A      1.525152  1039A      1.528310  1040A      1.529350  
    1041A      1.531224  1042A      1.532238  1043A      1.534681  
    1044A      1.536245  1045A      1.537317  1046A      1.539742  
    1047A      1.539862  1048A      1.540690  1049A      1.541648  
    1050A      1.543794  1051A      1.546040  1052A      1.547019  
    1053A      1.547693  1054A      1.549498  1055A      1.551874  
    1056A      1.553256  1057A      1.556534  1058A      1.557852  
    1059A      1.559558  1060A      1.562157  1061A      1.563712  
    1062A      1.564718  1063A      1.566164  1064A      1.567945  
    1065A      1.569088  1066A      1.570868  1067A      1.573041  
    1068A      1.574079  1069A      1.577352  1070A      1.578119  
    1071A      1.579080  1072A      1.579671  1073A      1.582263  
    1074A      1.584711  1075A      1.585377  1076A      1.587443  
    1077A      1.588524  1078A      1.589169  1079A      1.591505  
    1080A      1.593950  1081A      1.595009  1082A      1.595294  
    1083A      1.597372  1084A      1.599227  1085A      1.600153  
    1086A      1.602962  1087A      1.605055  1088A      1.606728  
    1089A      1.608689  1090A      1.609652  1091A      1.610476  
    1092A      1.610911  1093A      1.614234  1094A      1.616485  
    1095A      1.617112  1096A      1.618729  1097A      1.621373  
    1098A      1.621564  1099A      1.623293  1100A      1.624714  
    1101A      1.626924  1102A      1.627659  1103A      1.629373  
    1104A      1.631868  1105A      1.633156  1106A      1.634002  
    1107A      1.636240  1108A      1.637352  1109A      1.638899  
    1110A      1.640620  1111A      1.641763  1112A      1.643006  
    1113A      1.645037  1114A      1.646017  1115A      1.648223  
    1116A      1.648705  1117A      1.651602  1118A      1.653663  
    1119A      1.655465  1120A      1.657707  1121A      1.658659  
    1122A      1.658915  1123A      1.660059  1124A      1.662122  
    1125A      1.664236  1126A      1.665505  1127A      1.668882  
    1128A      1.669562  1129A      1.670294  1130A      1.672121  
    1131A      1.675266  1132A      1.676518  1133A      1.677979  
    1134A      1.679720  1135A      1.680811  1136A      1.681795  
    1137A      1.683558  1138A      1.685379  1139A      1.686603  
    1140A      1.690394  1141A      1.691547  1142A      1.692089  
    1143A      1.694100  1144A      1.695231  1145A      1.697122  
    1146A      1.697950  1147A      1.701146  1148A      1.703331  
    1149A      1.703587  1150A      1.706399  1151A      1.707100  
    1152A      1.709404  1153A      1.710506  1154A      1.712127  
    1155A      1.714035  1156A      1.715401  1157A      1.717392  
    1158A      1.718297  1159A      1.719697  1160A      1.720184  
    1161A      1.723086  1162A      1.725565  1163A      1.727420  
    1164A      1.728923  1165A      1.730134  1166A      1.730685  
    1167A      1.733809  1168A      1.734812  1169A      1.735450  
    1170A      1.736920  1171A      1.739437  1172A      1.742541  
    1173A      1.742724  1174A      1.745843  1175A      1.746647  
    1176A      1.750251  1177A      1.751147  1178A      1.751914  
    1179A      1.753820  1180A      1.756684  1181A      1.757392  
    1182A      1.760264  1183A      1.761429  1184A      1.762225  
    1185A      1.763274  1186A      1.764077  1187A      1.767056  
    1188A      1.767827  1189A      1.770896  1190A      1.771709  
    1191A      1.772197  1192A      1.773632  1193A      1.774951  
    1194A      1.777083  1195A      1.779128  1196A      1.780745  
    1197A      1.782593  1198A      1.784285  1199A      1.785294  
    1200A      1.786886  1201A      1.787583  1202A      1.788899  
    1203A      1.790725  1204A      1.794107  1205A      1.795211  
    1206A      1.798092  1207A      1.798150  1208A      1.800587  
    1209A      1.803234  1210A      1.803843  1211A      1.806338  
    1212A      1.807712  1213A      1.808638  1214A      1.809734  
    1215A      1.811397  1216A      1.812518  1217A      1.814694  
    1218A      1.818038  1219A      1.819790  1220A      1.820854  
    1221A      1.823958  1222A      1.825527  1223A      1.827517  
    1224A      1.828258  1225A      1.829215  1226A      1.833920  
    1227A      1.836134  1228A      1.837568  1229A      1.838321  
    1230A      1.839728  1231A      1.841437  1232A      1.843417  
    1233A      1.846211  1234A      1.849382  1235A      1.852000  
    1236A      1.853552  1237A      1.855081  1238A      1.855829  
    1239A      1.857153  1240A      1.858602  1241A      1.861058  
    1242A      1.862845  1243A      1.864537  1244A      1.865704  
    1245A      1.867649  1246A      1.870030  1247A      1.871641  
    1248A      1.872917  1249A      1.876419  1250A      1.877151  
    1251A      1.879297  1252A      1.880076  1253A      1.881857  
    1254A      1.883651  1255A      1.885332  1256A      1.889368  
    1257A      1.891156  1258A      1.892358  1259A      1.893923  
    1260A      1.896153  1261A      1.897647  1262A      1.899066  
    1263A      1.899355  1264A      1.901093  1265A      1.902077  
    1266A      1.904490  1267A      1.905777  1268A      1.908916  
    1269A      1.910070  1270A      1.913237  1271A      1.915598  
    1272A      1.916791  1273A      1.917597  1274A      1.920601  
    1275A      1.922200  1276A      1.923882  1277A      1.925993  
    1278A      1.927415  1279A      1.928944  1280A      1.930425  
    1281A      1.931623  1282A      1.934457  1283A      1.936856  
    1284A      1.939457  1285A      1.941592  1286A      1.942822  
    1287A      1.944792  1288A      1.946709  1289A      1.946816  
    1290A      1.949193  1291A      1.951136  1292A      1.952351  
    1293A      1.953728  1294A      1.955526  1295A      1.956847  
    1296A      1.959127  1297A      1.962143  1298A      1.963068  
    1299A      1.965523  1300A      1.967145  1301A      1.968117  
    1302A      1.969123  1303A      1.972713  1304A      1.974696  
    1305A      1.976737  1306A      1.977892  1307A      1.979171  
    1308A      1.981508  1309A      1.983318  1310A      1.985109  
    1311A      1.988534  1312A      1.990657  1313A      1.992865  
    1314A      1.994531  1315A      1.994959  1316A      1.996212  
    1317A      2.000167  1318A      2.001954  1319A      2.003633  
    1320A      2.006963  1321A      2.010045  1322A      2.011389  
    1323A      2.012696  1324A      2.015340  1325A      2.016216  
    1326A      2.018505  1327A      2.023102  1328A      2.023762  
    1329A      2.025151  1330A      2.027104  1331A      2.031310  
    1332A      2.032946  1333A      2.035915  1334A      2.037141  
    1335A      2.038729  1336A      2.040959  1337A      2.041917  
    1338A      2.045294  1339A      2.045716  1340A      2.047347  
    1341A      2.048431  1342A      2.051085  1343A      2.051819  
    1344A      2.055561  1345A      2.056882  1346A      2.058253  
    1347A      2.061606  1348A      2.063832  1349A      2.066043  
    1350A      2.067023  1351A      2.070353  1352A      2.071773  
    1353A      2.074402  1354A      2.075460  1355A      2.080367  
    1356A      2.080853  1357A      2.084117  1358A      2.085274  
    1359A      2.088248  1360A      2.089874  1361A      2.093577  
    1362A      2.095736  1363A      2.098000  1364A      2.099462  
    1365A      2.102196  1366A      2.102659  1367A      2.103562  
    1368A      2.106066  1369A      2.108061  1370A      2.110035  
    1371A      2.112724  1372A      2.114143  1373A      2.115725  
    1374A      2.117545  1375A      2.121073  1376A      2.122122  
    1377A      2.123393  1378A      2.127409  1379A      2.129860  
    1380A      2.131357  1381A      2.133009  1382A      2.135089  
    1383A      2.137372  1384A      2.138726  1385A      2.142080  
    1386A      2.144547  1387A      2.147062  1388A      2.148684  
    1389A      2.149605  1390A      2.152120  1391A      2.155835  
    1392A      2.157039  1393A      2.159654  1394A      2.160694  
    1395A      2.161169  1396A      2.163336  1397A      2.166271  
    1398A      2.168193  1399A      2.170525  1400A      2.173449  
    1401A      2.175325  1402A      2.177262  1403A      2.181637  
    1404A      2.184016  1405A      2.185841  1406A      2.187292  
    1407A      2.189292  1408A      2.190483  1409A      2.193826  
    1410A      2.194792  1411A      2.195978  1412A      2.197639  
    1413A      2.199472  1414A      2.203826  1415A      2.205372  
    1416A      2.208117  1417A      2.211037  1418A      2.212327  
    1419A      2.213920  1420A      2.214748  1421A      2.218022  
    1422A      2.219717  1423A      2.221539  1424A      2.225198  
    1425A      2.227285  1426A      2.228721  1427A      2.229485  
    1428A      2.231613  1429A      2.234332  1430A      2.237182  
    1431A      2.239937  1432A      2.241373  1433A      2.244647  
    1434A      2.248744  1435A      2.249704  1436A      2.251484  
    1437A      2.253326  1438A      2.256281  1439A      2.258299  
    1440A      2.261566  1441A      2.263083  1442A      2.264347  
    1443A      2.266484  1444A      2.269659  1445A      2.272511  
    1446A      2.274713  1447A      2.276608  1448A      2.277760  
    1449A      2.280303  1450A      2.282779  1451A      2.287033  
    1452A      2.289431  1453A      2.291325  1454A      2.294451  
    1455A      2.295051  1456A      2.298314  1457A      2.299155  
    1458A      2.300359  1459A      2.301077  1460A      2.304128  
    1461A      2.304651  1462A      2.308479  1463A      2.309960  
    1464A      2.314925  1465A      2.316264  1466A      2.317699  
    1467A      2.320540  1468A      2.324074  1469A      2.324912  
    1470A      2.325713  1471A      2.328514  1472A      2.329590  
    1473A      2.337057  1474A      2.338175  1475A      2.339668  
    1476A      2.343978  1477A      2.345164  1478A      2.346705  
    1479A      2.348191  1480A      2.351075  1481A      2.354999  
    1482A      2.357416  1483A      2.358158  1484A      2.359109  
    1485A      2.362980  1486A      2.363798  1487A      2.365420  
    1488A      2.367717  1489A      2.369719  1490A      2.370559  
    1491A      2.371991  1492A      2.377067  1493A      2.379402  
    1494A      2.381076  1495A      2.383241  1496A      2.383931  
    1497A      2.389329  1498A      2.391208  1499A      2.393413  
    1500A      2.396345  1501A      2.396711  1502A      2.397588  
    1503A      2.400252  1504A      2.401257  1505A      2.402582  
    1506A      2.404567  1507A      2.406789  1508A      2.409800  
    1509A      2.411484  1510A      2.413488  1511A      2.418317  
    1512A      2.419962  1513A      2.421829  1514A      2.424030  
    1515A      2.426181  1516A      2.427936  1517A      2.430173  
    1518A      2.432343  1519A      2.433943  1520A      2.434305  
    1521A      2.435976  1522A      2.439375  1523A      2.440875  
    1524A      2.441454  1525A      2.444804  1526A      2.446825  
    1527A      2.450215  1528A      2.451623  1529A      2.455224  
    1530A      2.455780  1531A      2.456416  1532A      2.459265  
    1533A      2.463148  1534A      2.467178  1535A      2.469656  
    1536A      2.472029  1537A      2.473930  1538A      2.475182  
    1539A      2.475867  1540A      2.477862  1541A      2.484024  
    1542A      2.484538  1543A      2.485839  1544A      2.486922  
    1545A      2.489192  1546A      2.494035  1547A      2.495585  
    1548A      2.497186  1549A      2.501498  1550A      2.503593  
    1551A      2.505573  1552A      2.508300  1553A      2.512395  
    1554A      2.514391  1555A      2.516996  1556A      2.519771  
    1557A      2.521034  1558A      2.524044  1559A      2.524432  
    1560A      2.526904  1561A      2.529621  1562A      2.531542  
    1563A      2.533248  1564A      2.536391  1565A      2.537776  
    1566A      2.541451  1567A      2.543272  1568A      2.544359  
    1569A      2.544937  1570A      2.546410  1571A      2.549695  
    1572A      2.551011  1573A      2.554738  1574A      2.555320  
    1575A      2.557155  1576A      2.560880  1577A      2.564385  
    1578A      2.565332  1579A      2.567487  1580A      2.568603  
    1581A      2.571263  1582A      2.572550  1583A      2.574848  
    1584A      2.578638  1585A      2.579632  1586A      2.580362  
    1587A      2.582062  1588A      2.584749  1589A      2.586267  
    1590A      2.589688  1591A      2.590416  1592A      2.592902  
    1593A      2.596780  1594A      2.597323  1595A      2.602420  
    1596A      2.603781  1597A      2.605673  1598A      2.606273  
    1599A      2.608381  1600A      2.609727  1601A      2.610736  
    1602A      2.614416  1603A      2.614952  1604A      2.616161  
    1605A      2.618111  1606A      2.620063  1607A      2.623307  
    1608A      2.626023  1609A      2.626867  1610A      2.630492  
    1611A      2.632302  1612A      2.636860  1613A      2.638031  
    1614A      2.639544  1615A      2.641283  1616A      2.643546  
    1617A      2.644483  1618A      2.645055  1619A      2.650774  
    1620A      2.651754  1621A      2.655899  1622A      2.656413  
    1623A      2.658579  1624A      2.660151  1625A      2.661000  
    1626A      2.665319  1627A      2.668468  1628A      2.669382  
    1629A      2.671687  1630A      2.673120  1631A      2.677887  
    1632A      2.679246  1633A      2.680224  1634A      2.681381  
    1635A      2.686173  1636A      2.687503  1637A      2.688870  
    1638A      2.691842  1639A      2.692935  1640A      2.695589  
    1641A      2.697469  1642A      2.698924  1643A      2.700882  
    1644A      2.704259  1645A      2.705945  1646A      2.707181  
    1647A      2.710893  1648A      2.712132  1649A      2.714744  
    1650A      2.719274  1651A      2.720210  1652A      2.723974  
    1653A      2.725965  1654A      2.728386  1655A      2.730799  
    1656A      2.732083  1657A      2.734031  1658A      2.735417  
    1659A      2.738526  1660A      2.741637  1661A      2.743964  
    1662A      2.745420  1663A      2.747168  1664A      2.750265  
    1665A      2.752028  1666A      2.754727  1667A      2.757109  
    1668A      2.758106  1669A      2.760446  1670A      2.761668  
    1671A      2.763874  1672A      2.766160  1673A      2.770665  
    1674A      2.772118  1675A      2.774940  1676A      2.777079  
    1677A      2.778676  1678A      2.781263  1679A      2.783850  
    1680A      2.786714  1681A      2.789027  1682A      2.790514  
    1683A      2.794055  1684A      2.796610  1685A      2.798460  
    1686A      2.802927  1687A      2.805592  1688A      2.806227  
    1689A      2.808052  1690A      2.810954  1691A      2.812995  
    1692A      2.815114  1693A      2.818779  1694A      2.821308  
    1695A      2.823733  1696A      2.826261  1697A      2.828684  
    1698A      2.829479  1699A      2.833037  1700A      2.835571  
    1701A      2.838643  1702A      2.842509  1703A      2.843796  
    1704A      2.845896  1705A      2.848361  1706A      2.849001  
    1707A      2.851398  1708A      2.854211  1709A      2.854705  
    1710A      2.860362  1711A      2.861799  1712A      2.865137  
    1713A      2.870849  1714A      2.871886  1715A      2.874337  
    1716A      2.875667  1717A      2.878022  1718A      2.880427  
    1719A      2.881854  1720A      2.884322  1721A      2.886174  
    1722A      2.887529  1723A      2.895179  1724A      2.898429  
    1725A      2.899541  1726A      2.902127  1727A      2.903824  
    1728A      2.906307  1729A      2.908322  1730A      2.910071  
    1731A      2.913098  1732A      2.916175  1733A      2.919298  
    1734A      2.920502  1735A      2.922904  1736A      2.926137  
    1737A      2.926958  1738A      2.930463  1739A      2.930748  
    1740A      2.934468  1741A      2.940007  1742A      2.941039  
    1743A      2.944014  1744A      2.950190  1745A      2.951636  
    1746A      2.953668  1747A      2.956863  1748A      2.957574  
    1749A      2.962063  1750A      2.963417  1751A      2.967120  
    1752A      2.971670  1753A      2.973184  1754A      2.975656  
    1755A      2.979546  1756A      2.982605  1757A      2.984154  
    1758A      2.986644  1759A      2.988787  1760A      2.992179  
    1761A      2.992382  1762A      2.996844  1763A      2.997111  
    1764A      3.001385  1765A      3.003287  1766A      3.007250  
    1767A      3.012046  1768A      3.017624  1769A      3.021037  
    1770A      3.025330  1771A      3.026632  1772A      3.029633  
    1773A      3.030461  1774A      3.035113  1775A      3.036988  
    1776A      3.041021  1777A      3.043068  1778A      3.046929  
    1779A      3.047752  1780A      3.051156  1781A      3.054861  
    1782A      3.057679  1783A      3.059085  1784A      3.061521  
    1785A      3.064579  1786A      3.067847  1787A      3.073895  
    1788A      3.078282  1789A      3.080385  1790A      3.083129  
    1791A      3.085079  1792A      3.087254  1793A      3.089837  
    1794A      3.090944  1795A      3.095211  1796A      3.096768  
    1797A      3.104058  1798A      3.106335  1799A      3.108286  
    1800A      3.111297  1801A      3.113318  1802A      3.116790  
    1803A      3.118600  1804A      3.124121  1805A      3.127691  
    1806A      3.128743  1807A      3.132887  1808A      3.139671  
    1809A      3.141924  1810A      3.144187  1811A      3.146190  
    1812A      3.148042  1813A      3.154033  1814A      3.155774  
    1815A      3.158336  1816A      3.162166  1817A      3.166507  
    1818A      3.169269  1819A      3.173344  1820A      3.174373  
    1821A      3.176110  1822A      3.181407  1823A      3.184703  
    1824A      3.192106  1825A      3.195321  1826A      3.198102  
    1827A      3.201231  1828A      3.204393  1829A      3.208289  
    1830A      3.211845  1831A      3.215451  1832A      3.218859  
    1833A      3.224659  1834A      3.226802  1835A      3.230574  
    1836A      3.235248  1837A      3.238609  1838A      3.242283  
    1839A      3.244890  1840A      3.247897  1841A      3.251033  
    1842A      3.255590  1843A      3.257300  1844A      3.260210  
    1845A      3.263485  1846A      3.267805  1847A      3.268579  
    1848A      3.275573  1849A      3.279518  1850A      3.286986  
    1851A      3.288724  1852A      3.291337  1853A      3.299546  
    1854A      3.302356  1855A      3.307240  1856A      3.313730  
    1857A      3.318051  1858A      3.321679  1859A      3.325827  
    1860A      3.328677  1861A      3.331501  1862A      3.339200  
    1863A      3.340745  1864A      3.344615  1865A      3.345877  
    1866A      3.349037  1867A      3.357504  1868A      3.363741  
    1869A      3.365498  1870A      3.369226  1871A      3.370522  
    1872A      3.377014  1873A      3.381292  1874A      3.385426  
    1875A      3.391245  1876A      3.391616  1877A      3.396101  
    1878A      3.398029  1879A      3.400979  1880A      3.404703  
    1881A      3.407270  1882A      3.411432  1883A      3.415108  
    1884A      3.424668  1885A      3.427166  1886A      3.430281  
    1887A      3.434401  1888A      3.437260  1889A      3.442673  
    1890A      3.444395  1891A      3.447679  1892A      3.452591  
    1893A      3.453244  1894A      3.458962  1895A      3.459314  
    1896A      3.464555  1897A      3.465636  1898A      3.471148  
    1899A      3.475472  1900A      3.476790  1901A      3.482001  
    1902A      3.485337  1903A      3.491587  1904A      3.500107  
    1905A      3.504168  1906A      3.507995  1907A      3.511709  
    1908A      3.514696  1909A      3.515537  1910A      3.521242  
    1911A      3.524668  1912A      3.526814  1913A      3.531791  
    1914A      3.535220  1915A      3.537410  1916A      3.542011  
    1917A      3.551914  1918A      3.552169  1919A      3.556054  
    1920A      3.561777  1921A      3.569346  1922A      3.575770  
    1923A      3.578660  1924A      3.580485  1925A      3.590109  
    1926A      3.593185  1927A      3.596638  1928A      3.601990  
    1929A      3.603319  1930A      3.611018  1931A      3.614950  
    1932A      3.617336  1933A      3.621247  1934A      3.625901  
    1935A      3.627812  1936A      3.632412  1937A      3.635240  
    1938A      3.644669  1939A      3.647969  1940A      3.649420  
    1941A      3.656457  1942A      3.659387  1943A      3.665551  
    1944A      3.671202  1945A      3.679095  1946A      3.682181  
    1947A      3.688458  1948A      3.689775  1949A      3.695321  
    1950A      3.697980  1951A      3.706919  1952A      3.708548  
    1953A      3.718577  1954A      3.720548  1955A      3.726371  
    1956A      3.728978  1957A      3.738002  1958A      3.742282  
    1959A      3.747319  1960A      3.757422  1961A      3.763286  
    1962A      3.771761  1963A      3.782411  1964A      3.786567  
    1965A      3.789809  1966A      3.793470  1967A      3.796775  
    1968A      3.799900  1969A      3.804260  1970A      3.808472  
    1971A      3.816889  1972A      3.822175  1973A      3.823988  
    1974A      3.834979  1975A      3.841914  1976A      3.843293  
    1977A      3.849893  1978A      3.850189  1979A      3.856345  
    1980A      3.857693  1981A      3.862239  1982A      3.865159  
    1983A      3.870176  1984A      3.875655  1985A      3.878981  
    1986A      3.887669  1987A      3.892500  1988A      3.893943  
    1989A      3.897495  1990A      3.903083  1991A      3.913747  
    1992A      3.916319  1993A      3.920139  1994A      3.926667  
    1995A      3.929600  1996A      3.932229  1997A      3.937312  
    1998A      3.945530  1999A      3.951358  2000A      3.952894  
    2001A      3.958528  2002A      3.975673  2003A      3.977323  
    2004A      3.983737  2005A      3.988186  2006A      3.994819  
    2007A      3.998807  2008A      4.003993  2009A      4.007760  
    2010A      4.010238  2011A      4.016388  2012A      4.019104  
    2013A      4.022937  2014A      4.034695  2015A      4.038937  
    2016A      4.042746  2017A      4.049459  2018A      4.056291  
    2019A      4.058452  2020A      4.059495  2021A      4.061413  
    2022A      4.069293  2023A      4.074316  2024A      4.075958  
    2025A      4.082631  2026A      4.092089  2027A      4.097420  
    2028A      4.101358  2029A      4.102547  2030A      4.109165  
    2031A      4.112229  2032A      4.114270  2033A      4.118286  
    2034A      4.125499  2035A      4.128866  2036A      4.132643  
    2037A      4.136250  2038A      4.138250  2039A      4.147315  
    2040A      4.154198  2041A      4.158637  2042A      4.160633  
    2043A      4.163746  2044A      4.168358  2045A      4.172662  
    2046A      4.176726  2047A      4.180050  2048A      4.182664  
    2049A      4.186490  2050A      4.188758  2051A      4.190641  
    2052A      4.197163  2053A      4.199662  2054A      4.205010  
    2055A      4.206275  2056A      4.209465  2057A      4.211921  
    2058A      4.215907  2059A      4.218513  2060A      4.222078  
    2061A      4.226919  2062A      4.227624  2063A      4.231601  
    2064A      4.235447  2065A      4.236426  2066A      4.238202  
    2067A      4.241815  2068A      4.244707  2069A      4.246142  
    2070A      4.248719  2071A      4.254040  2072A      4.258363  
    2073A      4.260768  2074A      4.263340  2075A      4.267175  
    2076A      4.270873  2077A      4.273334  2078A      4.276788  
    2079A      4.278054  2080A      4.280616  2081A      4.283289  
    2082A      4.289373  2083A      4.290584  2084A      4.294307  
    2085A      4.299044  2086A      4.301246  2087A      4.303463  
    2088A      4.305924  2089A      4.311353  2090A      4.316650  
    2091A      4.318250  2092A      4.318866  2093A      4.320266  
    2094A      4.322535  2095A      4.325841  2096A      4.327620  
    2097A      4.333552  2098A      4.334698  2099A      4.337777  
    2100A      4.340002  2101A      4.342922  2102A      4.346337  
    2103A      4.350399  2104A      4.353258  2105A      4.354901  
    2106A      4.356096  2107A      4.358690  2108A      4.362617  
    2109A      4.364359  2110A      4.366258  2111A      4.370141  
    2112A      4.374588  2113A      4.375839  2114A      4.376602  
    2115A      4.380885  2116A      4.383554  2117A      4.387138  
    2118A      4.389135  2119A      4.394093  2120A      4.395814  
    2121A      4.398059  2122A      4.399747  2123A      4.402910  
    2124A      4.410499  2125A      4.412307  2126A      4.414004  
    2127A      4.417320  2128A      4.420636  2129A      4.422991  
    2130A      4.424938  2131A      4.426865  2132A      4.432409  
    2133A      4.435104  2134A      4.436097  2135A      4.441106  
    2136A      4.444226  2137A      4.447802  2138A      4.451739  
    2139A      4.452328  2140A      4.454775  2141A      4.457517  
    2142A      4.459954  2143A      4.465108  2144A      4.465727  
    2145A      4.466830  2146A      4.469032  2147A      4.474863  
    2148A      4.477574  2149A      4.478954  2150A      4.483837  
    2151A      4.484902  2152A      4.488769  2153A      4.491452  
    2154A      4.492420  2155A      4.496173  2156A      4.498988  
    2157A      4.502171  2158A      4.507118  2159A      4.510501  
    2160A      4.511315  2161A      4.513320  2162A      4.514601  
    2163A      4.516951  2164A      4.521893  2165A      4.523231  
    2166A      4.526322  2167A      4.528027  2168A      4.530621  
    2169A      4.533693  2170A      4.535125  2171A      4.536264  
    2172A      4.540391  2173A      4.542153  2174A      4.545385  
    2175A      4.546994  2176A      4.549482  2177A      4.552425  
    2178A      4.553832  2179A      4.554663  2180A      4.555352  
    2181A      4.561004  2182A      4.562194  2183A      4.567859  
    2184A      4.570968  2185A      4.572538  2186A      4.578857  
    2187A      4.580432  2188A      4.581932  2189A      4.586223  
    2190A      4.586781  2191A      4.588426  2192A      4.592830  
    2193A      4.595866  2194A      4.597740  2195A      4.599889  
    2196A      4.602706  2197A      4.604945  2198A      4.609638  
    2199A      4.612839  2200A      4.614087  2201A      4.616333  
    2202A      4.620585  2203A      4.621511  2204A      4.622311  
    2205A      4.630490  2206A      4.633132  2207A      4.634217  
    2208A      4.635777  2209A      4.638954  2210A      4.641434  
    2211A      4.643738  2212A      4.646405  2213A      4.650941  
    2214A      4.653478  2215A      4.657063  2216A      4.659126  
    2217A      4.661614  2218A      4.666599  2219A      4.667209  
    2220A      4.671108  2221A      4.672458  2222A      4.675130  
    2223A      4.680494  2224A      4.680729  2225A      4.683609  
    2226A      4.687456  2227A      4.690381  2228A      4.691009  
    2229A      4.693700  2230A      4.697481  2231A      4.700287  
    2232A      4.702323  2233A      4.707772  2234A      4.711463  
    2235A      4.714253  2236A      4.715669  2237A      4.717775  
    2238A      4.723046  2239A      4.724273  2240A      4.727380  
    2241A      4.730970  2242A      4.733278  2243A      4.735520  
    2244A      4.738339  2245A      4.741331  2246A      4.745228  
    2247A      4.746595  2248A      4.748093  2249A      4.752034  
    2250A      4.753039  2251A      4.757060  2252A      4.758440  
    2253A      4.759695  2254A      4.761814  2255A      4.765490  
    2256A      4.767947  2257A      4.772518  2258A      4.773982  
    2259A      4.777359  2260A      4.781383  2261A      4.783555  
    2262A      4.787542  2263A      4.790839  2264A      4.792178  
    2265A      4.793958  2266A      4.800230  2267A      4.801293  
    2268A      4.803517  2269A      4.806491  2270A      4.809584  
    2271A      4.812528  2272A      4.813914  2273A      4.816020  
    2274A      4.821962  2275A      4.822747  2276A      4.825147  
    2277A      4.828995  2278A      4.831390  2279A      4.832344  
    2280A      4.835622  2281A      4.836585  2282A      4.838856  
    2283A      4.842374  2284A      4.845277  2285A      4.847239  
    2286A      4.851009  2287A      4.851753  2288A      4.855707  
    2289A      4.859738  2290A      4.862109  2291A      4.865829  
    2292A      4.866532  2293A      4.868960  2294A      4.874153  
    2295A      4.874387  2296A      4.876082  2297A      4.881465  
    2298A      4.883338  2299A      4.886958  2300A      4.887847  
    2301A      4.891466  2302A      4.893293  2303A      4.894570  
    2304A      4.898732  2305A      4.903367  2306A      4.905980  
    2307A      4.911235  2308A      4.913884  2309A      4.917478  
    2310A      4.919399  2311A      4.921744  2312A      4.922941  
    2313A      4.926549  2314A      4.929879  2315A      4.933515  
    2316A      4.934769  2317A      4.938368  2318A      4.941441  
    2319A      4.943600  2320A      4.946519  2321A      4.951969  
    2322A      4.954008  2323A      4.955799  2324A      4.958423  
    2325A      4.961544  2326A      4.965530  2327A      4.970771  
    2328A      4.972835  2329A      4.975215  2330A      4.978953  
    2331A      4.980949  2332A      4.982639  2333A      4.984075  
    2334A      4.989813  2335A      4.992015  2336A      4.993490  
    2337A      4.996221  2338A      4.998190  2339A      5.001620  
    2340A      5.005963  2341A      5.008749  2342A      5.009549  
    2343A      5.013413  2344A      5.016804  2345A      5.017986  
    2346A      5.020871  2347A      5.026733  2348A      5.029210  
    2349A      5.032484  2350A      5.039208  2351A      5.042579  
    2352A      5.045845  2353A      5.048108  2354A      5.052101  
    2355A      5.054289  2356A      5.058662  2357A      5.061850  
    2358A      5.063063  2359A      5.066330  2360A      5.073208  
    2361A      5.076889  2362A      5.080476  2363A      5.086889  
    2364A      5.088524  2365A      5.090542  2366A      5.095730  
    2367A      5.096411  2368A      5.100460  2369A      5.101342  
    2370A      5.102854  2371A      5.107546  2372A      5.112187  
    2373A      5.116030  2374A      5.118579  2375A      5.122363  
    2376A      5.125843  2377A      5.129089  2378A      5.130575  
    2379A      5.133508  2380A      5.136005  2381A      5.137985  
    2382A      5.140849  2383A      5.144371  2384A      5.146012  
    2385A      5.150516  2386A      5.152731  2387A      5.153585  
    2388A      5.156145  2389A      5.158466  2390A      5.161775  
    2391A      5.162408  2392A      5.164735  2393A      5.167849  
    2394A      5.169465  2395A      5.170589  2396A      5.172857  
    2397A      5.175348  2398A      5.180524  2399A      5.183869  
    2400A      5.186457  2401A      5.186631  2402A      5.188605  
    2403A      5.193714  2404A      5.197469  2405A      5.198533  
    2406A      5.202050  2407A      5.202613  2408A      5.205783  
    2409A      5.208795  2410A      5.210835  2411A      5.213957  
    2412A      5.217079  2413A      5.219724  2414A      5.225220  
    2415A      5.227813  2416A      5.229611  2417A      5.232606  
    2418A      5.235806  2419A      5.236917  2420A      5.240137  
    2421A      5.242569  2422A      5.245446  2423A      5.246552  
    2424A      5.249609  2425A      5.251206  2426A      5.253972  
    2427A      5.255118  2428A      5.256503  2429A      5.259223  
    2430A      5.262639  2431A      5.266961  2432A      5.274742  
    2433A      5.278965  2434A      5.279871  2435A      5.281257  
    2436A      5.282577  2437A      5.284309  2438A      5.292936  
    2439A      5.296509  2440A      5.296887  2441A      5.299786  
    2442A      5.303804  2443A      5.305194  2444A      5.307346  
    2445A      5.312704  2446A      5.316551  2447A      5.320049  
    2448A      5.322390  2449A      5.323002  2450A      5.329397  
    2451A      5.331879  2452A      5.334888  2453A      5.338483  
    2454A      5.340642  2455A      5.342746  2456A      5.349024  
    2457A      5.353056  2458A      5.356713  2459A      5.362615  
    2460A      5.363267  2461A      5.367579  2462A      5.368396  
    2463A      5.377066  2464A      5.379579  2465A      5.385727  
    2466A      5.392402  2467A      5.396482  2468A      5.398735  
    2469A      5.399861  2470A      5.403934  2471A      5.406774  
    2472A      5.410771  2473A      5.417129  2474A      5.419680  
    2475A      5.421045  2476A      5.425896  2477A      5.428958  
    2478A      5.431424  2479A      5.433169  2480A      5.439091  
    2481A      5.441007  2482A      5.443367  2483A      5.445350  
    2484A      5.450785  2485A      5.455767  2486A      5.458205  
    2487A      5.461900  2488A      5.463344  2489A      5.466070  
    2490A      5.467433  2491A      5.472479  2492A      5.477859  
    2493A      5.479975  2494A      5.485305  2495A      5.486060  
    2496A      5.488809  2497A      5.490552  2498A      5.493014  
    2499A      5.496634  2500A      5.497895  2501A      5.499851  
    2502A      5.502890  2503A      5.506283  2504A      5.508911  
    2505A      5.513055  2506A      5.514618  2507A      5.520465  
    2508A      5.523451  2509A      5.524713  2510A      5.527764  
    2511A      5.529050  2512A      5.534013  2513A      5.537016  
    2514A      5.540838  2515A      5.542169  2516A      5.545169  
    2517A      5.547382  2518A      5.552196  2519A      5.554620  
    2520A      5.559479  2521A      5.560678  2522A      5.564881  
    2523A      5.567013  2524A      5.570970  2525A      5.571783  
    2526A      5.574615  2527A      5.575815  2528A      5.578292  
    2529A      5.582592  2530A      5.588514  2531A      5.588807  
    2532A      5.592813  2533A      5.596117  2534A      5.597840  
    2535A      5.599253  2536A      5.603670  2537A      5.606059  
    2538A      5.610461  2539A      5.612477  2540A      5.617015  
    2541A      5.621137  2542A      5.622148  2543A      5.628224  
    2544A      5.631400  2545A      5.632230  2546A      5.636057  
    2547A      5.637430  2548A      5.639523  2549A      5.644378  
    2550A      5.649102  2551A      5.650751  2552A      5.653099  
    2553A      5.655714  2554A      5.657303  2555A      5.660305  
    2556A      5.662175  2557A      5.665844  2558A      5.669696  
    2559A      5.673341  2560A      5.674278  2561A      5.676815  
    2562A      5.680588  2563A      5.681761  2564A      5.685444  
    2565A      5.688015  2566A      5.690412  2567A      5.693731  
    2568A      5.695792  2569A      5.699994  2570A      5.703266  
    2571A      5.705337  2572A      5.708637  2573A      5.712893  
    2574A      5.713876  2575A      5.719076  2576A      5.720928  
    2577A      5.725133  2578A      5.730413  2579A      5.732285  
    2580A      5.734048  2581A      5.736556  2582A      5.740037  
    2583A      5.745640  2584A      5.746058  2585A      5.750507  
    2586A      5.753079  2587A      5.756122  2588A      5.760822  
    2589A      5.764637  2590A      5.766816  2591A      5.767824  
    2592A      5.773281  2593A      5.777087  2594A      5.781812  
    2595A      5.784928  2596A      5.787866  2597A      5.791961  
    2598A      5.794609  2599A      5.797994  2600A      5.800235  
    2601A      5.806300  2602A      5.806679  2603A      5.809635  
    2604A      5.816351  2605A      5.820017  2606A      5.821894  
    2607A      5.829732  2608A      5.831038  2609A      5.834157  
    2610A      5.835364  2611A      5.836821  2612A      5.840064  
    2613A      5.844830  2614A      5.847394  2615A      5.848716  
    2616A      5.855362  2617A      5.858798  2618A      5.861115  
    2619A      5.864528  2620A      5.870031  2621A      5.872962  
    2622A      5.875014  2623A      5.877359  2624A      5.880485  
    2625A      5.886825  2626A      5.890613  2627A      5.892137  
    2628A      5.894570  2629A      5.897220  2630A      5.899132  
    2631A      5.903665  2632A      5.909402  2633A      5.916512  
    2634A      5.918375  2635A      5.923722  2636A      5.932799  
    2637A      5.936985  2638A      5.938880  2639A      5.940445  
    2640A      5.944659  2641A      5.950275  2642A      5.955950  
    2643A      5.956672  2644A      5.961411  2645A      5.963927  
    2646A      5.966029  2647A      5.969976  2648A      5.971920  
    2649A      5.973680  2650A      5.976320  2651A      5.979122  
    2652A      5.985642  2653A      5.991476  2654A      5.992691  
    2655A      5.999326  2656A      6.004521  2657A      6.007783  
    2658A      6.010425  2659A      6.012676  2660A      6.015138  
    2661A      6.018030  2662A      6.020889  2663A      6.021856  
    2664A      6.025554  2665A      6.031109  2666A      6.033265  
    2667A      6.035258  2668A      6.046814  2669A      6.050322  
    2670A      6.052046  2671A      6.056399  2672A      6.058031  
    2673A      6.064864  2674A      6.068364  2675A      6.069366  
    2676A      6.075471  2677A      6.078459  2678A      6.086364  
    2679A      6.087632  2680A      6.092184  2681A      6.097120  
    2682A      6.102265  2683A      6.111131  2684A      6.111999  
    2685A      6.114866  2686A      6.121012  2687A      6.122502  
    2688A      6.124882  2689A      6.127929  2690A      6.128246  
    2691A      6.130521  2692A      6.136112  2693A      6.145848  
    2694A      6.149895  2695A      6.153248  2696A      6.158021  
    2697A      6.159677  2698A      6.160821  2699A      6.164404  
    2700A      6.170820  2701A      6.175057  2702A      6.181418  
    2703A      6.191181  2704A      6.193312  2705A      6.203116  
    2706A      6.203759  2707A      6.204138  2708A      6.208091  
    2709A      6.213099  2710A      6.216370  2711A      6.225077  
    2712A      6.229226  2713A      6.236485  2714A      6.240587  
    2715A      6.256641  2716A      6.262629  2717A      6.269776  
    2718A      6.272821  2719A      6.275651  2720A      6.276535  
    2721A      6.282948  2722A      6.295362  2723A      6.299342  
    2724A      6.305789  2725A      6.311393  2726A      6.314284  
    2727A      6.317165  2728A      6.326861  2729A      6.333089  
    2730A      6.339307  2731A      6.341237  2732A      6.346712  
    2733A      6.352964  2734A      6.359095  2735A      6.364932  
    2736A      6.367517  2737A      6.372241  2738A      6.374940  
    2739A      6.376656  2740A      6.379518  2741A      6.392558  
    2742A      6.396332  2743A      6.397761  2744A      6.402314  
    2745A      6.404315  2746A      6.413105  2747A      6.416444  
    2748A      6.420811  2749A      6.428055  2750A      6.429075  
    2751A      6.434660  2752A      6.443570  2753A      6.448691  
    2754A      6.452526  2755A      6.460647  2756A      6.464809  
    2757A      6.468750  2758A      6.471074  2759A      6.476358  
    2760A      6.482120  2761A      6.484956  2762A      6.488174  
    2763A      6.496109  2764A      6.503017  2765A      6.504059  
    2766A      6.518445  2767A      6.522897  2768A      6.524284  
    2769A      6.534297  2770A      6.542173  2771A      6.544605  
    2772A      6.550762  2773A      6.557961  2774A      6.564423  
    2775A      6.583818  2776A      6.588549  2777A      6.595204  
    2778A      6.596116  2779A      6.602610  2780A      6.609530  
    2781A      6.612277  2782A      6.614464  2783A      6.625074  
    2784A      6.625735  2785A      6.632889  2786A      6.653941  
    2787A      6.663180  2788A      6.670102  2789A      6.678179  
    2790A      6.685184  2791A      6.703110  2792A      6.717093  
    2793A      6.727217  2794A      6.732319  2795A      6.745634  
    2796A      6.749735  2797A      6.753555  2798A      6.766314  
    2799A      6.774369  2800A      6.784863  2801A      6.792167  
    2802A      6.806518  2803A      6.813818  2804A      6.818868  
    2805A      6.823770  2806A      6.826030  2807A      6.830513  
    2808A      6.834976  2809A      6.836067  2810A      6.851828  
    2811A      6.864986  2812A      6.875623  2813A      6.876816  
    2814A      6.885032  2815A      6.894706  2816A      6.896639  
    2817A      6.901006  2818A      6.906634  2819A      6.912924  
    2820A      6.923056  2821A      6.923546  2822A      6.934848  
    2823A      6.938963  2824A      6.945836  2825A      6.966769  
    2826A      6.970608  2827A      6.978481  2828A      7.010943  
    2829A      7.019135  2830A      7.028293  2831A      7.031209  
    2832A      7.038787  2833A      7.048479  2834A      7.050759  
    2835A      7.062271  2836A      7.065113  2837A      7.071672  
    2838A      7.075325  2839A      7.091871  2840A      7.106808  
    2841A      7.112451  2842A      7.119214  2843A      7.121771  
    2844A      7.126264  2845A      7.141032  2846A      7.144308  
    2847A      7.145578  2848A      7.158033  2849A      7.171570  
    2850A      7.179695  2851A      7.180953  2852A      7.191594  
    2853A      7.198698  2854A      7.208856  2855A      7.211031  
    2856A      7.215685  2857A      7.224937  2858A      7.241123  
    2859A      7.249266  2860A      7.254967  2861A      7.268399  
    2862A      7.284467  2863A      7.288540  2864A      7.292195  
    2865A      7.299156  2866A      7.309718  2867A      7.314104  
    2868A      7.325094  2869A      7.339161  2870A      7.346318  
    2871A      7.354502  2872A      7.358342  2873A      7.363586  
    2874A      7.371933  2875A      7.385751  2876A      7.391428  
    2877A      7.399083  2878A      7.402560  2879A      7.408384  
    2880A      7.412767  2881A      7.418332  2882A      7.425328  
    2883A      7.448318  2884A      7.467446  2885A      7.471459  
    2886A      7.480144  2887A      7.485903  2888A      7.493117  
    2889A      7.497221  2890A      7.499720  2891A      7.505638  
    2892A      7.518572  2893A      7.525241  2894A      7.533793  
    2895A      7.541359  2896A      7.544948  2897A      7.551283  
    2898A      7.556263  2899A      7.594433  2900A      7.595915  
    2901A      7.600883  2902A      7.607137  2903A      7.621167  
    2904A      7.626421  2905A      7.632166  2906A      7.643429  
    2907A      7.646545  2908A      7.656827  2909A      7.663162  
    2910A      7.670866  2911A      7.672051  2912A      7.676537  
    2913A      7.682528  2914A      7.685882  2915A      7.690177  
    2916A      7.695103  2917A      7.705740  2918A      7.715373  
    2919A      7.719756  2920A      7.727190  2921A      7.729354  
    2922A      7.732864  2923A      7.736330  2924A      7.745595  
    2925A      7.750484  2926A      7.766631  2927A      7.779116  
    2928A      7.789404  2929A      7.799613  2930A      7.816802  
    2931A      7.820719  2932A      7.832319  2933A      7.848075  
    2934A      7.850607  2935A      7.857428  2936A      7.867315  
    2937A      7.875668  2938A      7.887310  2939A      7.896289  
    2940A      7.911618  2941A      7.936688  2942A      7.938856  
    2943A      7.944631  2944A      7.971122  2945A      7.976824  
    2946A      7.987426  2947A      7.992806  2948A      8.006225  
    2949A      8.010714  2950A      8.019432  2951A      8.029398  
    2952A      8.037878  2953A      8.052885  2954A      8.060934  
    2955A      8.075558  2956A      8.096925  2957A      8.102712  
    2958A      8.103405  2959A      8.109835  2960A      8.114491  
    2961A      8.119849  2962A      8.124218  2963A      8.146155  
    2964A      8.167561  2965A      8.182656  2966A      8.184288  
    2967A      8.188634  2968A      8.219184  2969A      8.222986  
    2970A      8.228395  2971A      8.237277  2972A      8.259988  
    2973A      8.264115  2974A      8.274475  2975A      8.284859  
    2976A      8.323334  2977A      8.328665  2978A      8.342144  
    2979A      8.354554  2980A      8.361952  2981A      8.383559  
    2982A      8.393794  2983A      8.406227  2984A      8.407913  
    2985A      8.425397  2986A      8.428492  2987A      8.435406  
    2988A      8.451051  2989A      8.458223  2990A      8.484295  
    2991A      8.487935  2992A      8.492380  2993A      8.501914  
    2994A      8.503489  2995A      8.548088  2996A      8.555454  
    2997A      8.563987  2998A      8.590972  2999A      8.605110  
    3000A      8.639578  3001A      8.678384  3002A      8.695587  
    3003A      8.722981  3004A      8.745105  3005A      8.753752  
    3006A      8.779385  3007A      8.795958  3008A      8.832169  
    3009A      8.852380  3010A      8.862736  3011A      8.874842  
    3012A      8.891957  3013A      8.902794  3014A      8.915495  
    3015A      8.974016  3016A      8.982608  3017A      9.004703  
    3018A      9.038204  3019A      9.044001  3020A      9.087467  
    3021A      9.148082  3022A      9.175015  3023A      9.183710  
    3024A      9.217880  3025A      9.237246  3026A      9.242446  
    3027A      9.275807  3028A      9.296209  3029A      9.311741  
    3030A      9.323031  3031A      9.331090  3032A      9.382871  
    3033A      9.404050  3034A      9.406098  3035A      9.428468  
    3036A      9.434216  3037A      9.460354  3038A      9.473876  
    3039A      9.523633  3040A      9.553467  3041A      9.568971  
    3042A      9.680163  3043A      9.683296  3044A      9.762713  
    3045A      9.858367  3046A      9.869101  3047A      9.880227  
    3048A      9.891179  3049A      9.905131  3050A      9.919421  
    3051A      9.923071  3052A      9.965307  3053A      9.984955  
    3054A     10.022982  3055A     10.046372  3056A     10.065688  
    3057A     10.108387  3058A     10.131418  3059A     10.152011  
    3060A     10.161214  3061A     10.174322  3062A     10.189751  
    3063A     10.205744  3064A     10.210845  3065A     10.226593  
    3066A     10.243082  3067A     10.259577  3068A     10.306011  
    3069A     10.342740  3070A     10.380314  3071A     10.451519  
    3072A     10.542258  3073A     10.550944  3074A     10.556735  
    3075A     10.560137  3076A     10.649629  3077A     10.725965  
    3078A     10.800111  3079A     10.827558  3080A     10.841308  
    3081A     10.843281  3082A     10.868753  3083A     10.899578  
    3084A     10.905653  3085A     10.957151  3086A     11.045476  
    3087A     11.097818  3088A     11.139999  3089A     11.155845  
    3090A     11.229656  3091A     11.256095  3092A     11.271313  
    3093A     11.291930  3094A     11.299748  3095A     11.376578  
    3096A     11.429201  3097A     11.568135  3098A     11.617751  
    3099A     11.621815  3100A     11.635064  3101A     11.681789  
    3102A     11.758601  3103A     11.865571  3104A     11.919195  
    3105A     11.939432  3106A     11.960637  3107A     11.965655  
    3108A     12.008250  3109A     12.053864  3110A     12.113269  
    3111A     12.152030  3112A     12.165429  3113A     12.185915  
    3114A     12.226233  3115A     12.227040  3116A     12.380039  
    3117A     12.386316  3118A     12.429465  3119A     12.436632  
    3120A     12.726137  3121A     13.370684  3122A     13.510119  
    3123A     13.686948  3124A     13.726578  3125A     14.510698  
    3126A     14.631114  3127A     15.881790  3128A     16.325391  
    3129A     16.605385  3130A     16.852662  3131A     17.077637  
    3132A     17.203194  3133A     17.902984  3134A     19.685051  
    3135A     20.931049  3136A     21.198163  3137A     21.923485  
    3138A     22.113045  3139A     22.452700  3140A     50.151940  
    3141A     50.255458  3142A     51.627867  3143A     51.772673  
    3144A     51.895909  3145A     52.065746  3146A     52.128521  
    3147A     54.219553  3148A     54.469120  3149A     54.481160  
    3150A     54.633969  3151A     54.989625  3152A     55.161598  
    3153A     55.295055  3154A     55.496676  3155A     55.791168  
    3156A     56.895529  3157A     56.948067  3158A     57.387293  
    3159A     57.473065  3160A     58.271708  3161A     59.608698  
    3162A     59.695153  3163A     59.750020  3164A     60.285545  
    3165A     60.449043  3166A     60.472345  3167A     60.682234  
    3168A     60.753174  3169A     60.831376  3170A     61.209462  
    3171A     61.344875  3172A     61.510490  3173A     61.651932  
    3174A     61.770531  3175A     62.025517  3176A     62.604275  
    3177A     62.831441  3178A     63.452677  3179A     63.468539  
    3180A     71.128599  3181A     73.359657  

    Final Occupation by Irrep:
              A 
    DOCC [    47 ]
    NA   [    47 ]
    NB   [    47 ]

  @DF-RKS Final Energy:  -740.50745542621405

   => Energetics <=

    Nuclear Repulsion Energy =            775.5137723426466891
    One-Electron Energy =               -2551.3186429019456227
    Two-Electron Energy =                1099.6638478148349805
    DFT Exchange-Correlation Energy =     -64.3589606289205847
    Empirical Dispersion Energy =          -0.0074720528294636
    VV10 Nonlocal Energy =                  0.0000000000000000
    Total Energy =                       -740.5074554262140509

Computation Completed


Properties will be evaluated at   0.000000,   0.000000,   0.000000 [a0]

Properties computed using the SCF density matrix


 Multipole Moments:

 ------------------------------------------------------------------------------------
     Multipole            Electronic (a.u.)      Nuclear  (a.u.)        Total (a.u.)
 ------------------------------------------------------------------------------------

 L = 1.  Multiply by 2.5417464519 to convert [e a0] to [Debye]
 Dipole X            :         38.4705914          -38.7738286           -0.3032372
 Dipole Y            :        112.8472240         -112.9901199           -0.1428959
 Dipole Z            :        245.9121706         -247.4588117           -1.5466411
 Magnitude           :                                                    1.5825520

 ------------------------------------------------------------------------------------

*** tstop() called on atl1-1-02-004-4-1.pace.gatech.edu at Sat Jun 13 15:57:05 2026
Module time:
	user time   =   65456.10 seconds =    1090.93 minutes
	system time =    4969.26 seconds =      82.82 minutes
	total time  =      11101 seconds =     185.02 minutes
Total time:
	user time   =   65456.10 seconds =    1090.93 minutes
	system time =    4969.26 seconds =      82.82 minutes
	total time  =      11101 seconds =     185.02 minutes

    Psi4 stopped on: Saturday, 13 June 2026 03:57PM
    Psi4 wall time for execution: 3:05:19.80

*** Psi4 exiting successfully. Buy a developer a beer!
