
    -----------------------------------------------------------------------
          Psi4: An Open-Source Ab Initio Electronic Structure Package
                               Psi4 1.9.1 release

                         Git: Rev {} zzzzzzz 


    D. G. A. Smith, L. A. Burns, A. C. Simmonett, R. M. Parrish,
    M. C. Schieber, R. Galvelis, P. Kraus, H. Kruse, R. Di Remigio,
    A. Alenaizan, A. M. James, S. Lehtola, J. P. Misiewicz, M. Scheurer,
    R. A. Shaw, J. B. Schriber, Y. Xie, Z. L. Glick, D. A. Sirianni,
    J. S. O'Brien, J. M. Waldrop, A. Kumar, E. G. Hohenstein,
    B. P. Pritchard, B. R. Brooks, H. F. Schaefer III, A. Yu. Sokolov,
    K. Patkowski, A. E. DePrince III, U. Bozkaya, R. A. King,
    F. A. Evangelista, J. M. Turney, T. D. Crawford, C. D. Sherrill,
    J. Chem. Phys. 152(18) 184108 (2020). https://doi.org/10.1063/5.0006002

                            Additional Code Authors
    E. T. Seidl, C. L. Janssen, E. F. Valeev, M. L. Leininger,
    J. F. Gonthier, R. M. Richard, H. R. McAlexander, M. Saitow, X. Wang,
    P. Verma, M. H. Lechner, A. Jiang, S. Behnle, A. G. Heide,
    M. F. Herbst, and D. L. Poole

             Previous Authors, Complete List of Code Contributors,
                       and Citations for Specific Modules
    https://github.com/psi4/psi4/blob/master/codemeta.json
    https://github.com/psi4/psi4/graphs/contributors
    http://psicode.org/psi4manual/master/introduction.html#citing-psifour

    -----------------------------------------------------------------------


    Psi4 started on: Saturday, 13 June 2026 01:13PM

    Process ID: 431040
    Host:       atl1-1-03-004-6-1.pace.gatech.edu
    PSIDATADIR: /storage/home/hcoda1/5/vlita3/.conda/envs/p4_qcml/share/psi4
    Memory:     250.0 GiB
    Threads:    10
    
  ==> Input QCSchema <==

--------------------------------------------------------------------------
{'driver': 'energy',
 'extras': {},
 'id': '248',
 'keywords': {},
 'model': {'basis': 'aug-cc-pvtz', 'method': 'wb97x-v'},
 'molecule': {'extras': {},
              'fix_com': True,
              'fix_orientation': True,
              'fragment_charges': [0.0, 0.0],
              'fragment_multiplicities': [1, 1],
              'fragments': [[0, 1, 2, 3, 4, 5, 6, 7, 8, 9, 10, 11, 12, 13, 14, 15, 16, 17, 18, 19, 20, 21, 22, 23, 24,
                             25, 26, 27, 28, 29, 30, 31, 32, 33, 34, 35],
                            [36, 37, 38, 39, 40, 41, 42, 43, 44, 45, 46, 47, 48, 49, 50, 51, 52, 53, 54, 55, 56, 57, 58,
                             59, 60, 61, 62, 63, 64, 65, 66, 67, 68, 69, 70, 71]],
              'geometry': [-2.81102804, -2.32727976, -3.26733672, -0.12371685, -2.32727976, -3.26733672, 1.21993874,
                           0.0, -3.26733672, -0.12371685, 2.32727976, -3.26733672, -2.81102804, 2.32727976, -3.26733672,
                           -4.15468364, 0.0, -3.26733672, 1.21375609, -4.64385085, -3.26733672, -0.17645855,
                           -6.93684965, -3.26733672, -2.75828635, -6.93684965, -3.26733672, -4.14850099, -4.64385085,
                           -3.26733672, -6.82962953, 0.0, -3.26733672, -8.12031742, -2.3504606, -3.26733672,
                           -6.82940352, -4.58638906, -3.26733672, -8.12031742, 2.3504606, -3.26733672, -6.82940352,
                           4.58638906, -3.26733672, -4.14850099, 4.64385085, -3.26733672, -2.75828635, 6.93684965,
                           -3.26733672, -0.17645855, 6.93684965, -3.26733672, 1.21375609, 4.64385085, -3.26733672,
                           3.89465863, 4.58638906, -3.26733672, 5.18557252, 2.3504606, -3.26733672, 3.89488463, 0.0,
                           -3.26733672, 5.18557252, -2.3504606, -3.26733672, 3.89465863, -4.58638906, -3.26733672,
                           0.84958395, -8.70675598, -3.26733672, -3.78432885, -8.70675598, -3.26733672, -7.84916611,
                           -6.35992109, -3.26733672, -10.16612251, -2.34683489, -3.26733672, -10.16612251, 2.34683489,
                           -3.26733672, -7.84916611, 6.35992109, -3.26733672, -3.78432885, 8.70675598, -3.26733672,
                           0.84958395, 8.70675598, -3.26733672, 4.91442121, 6.35992109, -3.26733672, 7.23137761,
                           2.34683489, -3.26733672, 7.23137761, -2.34683489, -3.26733672, 4.91442121, -6.35992109,
                           -3.26733672, 0.12371685, -2.32727976, 3.26733672, 2.81102804, -2.32727976, 3.26733672,
                           4.15468364, 0.0, 3.26733672, 2.81102804, 2.32727976, 3.26733672, 0.12371685, 2.32727976,
                           3.26733672, -1.21993874, 0.0, 3.26733672, 4.14850099, -4.64385085, 3.26733672, 2.75828635,
                           -6.93684965, 3.26733672, 0.17645855, -6.93684965, 3.26733672, -1.21375609, -4.64385085,
                           3.26733672, -3.89488463, 0.0, 3.26733672, -5.18557252, -2.3504606, 3.26733672, -3.89465863,
                           -4.58638906, 3.26733672, -5.18557252, 2.3504606, 3.26733672, -3.89465863, 4.58638906,
                           3.26733672, -1.21375609, 4.64385085, 3.26733672, 0.17645855, 6.93684965, 3.26733672,
                           2.75828635, 6.93684965, 3.26733672, 4.14850099, 4.64385085, 3.26733672, 6.82940352,
                           4.58638906, 3.26733672, 8.12031742, 2.3504606, 3.26733672, 6.82962953, 0.0, 3.26733672,
                           8.12031742, -2.3504606, 3.26733672, 6.82940352, -4.58638906, 3.26733672, 3.78432885,
                           -8.70675598, 3.26733672, -0.84958395, -8.70675598, 3.26733672, -4.91442121, -6.35992109,
                           3.26733672, -7.23137761, -2.34683489, 3.26733672, -7.23137761, 2.34683489, 3.26733672,
                           -4.91442121, 6.35992109, 3.26733672, -0.84958395, 8.70675598, 3.26733672, 3.78432885,
                           8.70675598, 3.26733672, 7.84916611, 6.35992109, 3.26733672, 10.16612251, 2.34683489,
                           3.26733672, 10.16612251, -2.34683489, 3.26733672, 7.84916611, -6.35992109, 3.26733672],
              'id': 9,
              'identifiers': {'molecular_formula': 'C48H24',
                              'molecule_hash': '5967c9235c357c1990f0309ff9af9a534593830c'},
              'masses': [12.0, 12.0, 12.0, 12.0, 12.0, 12.0, 12.0, 12.0, 12.0, 12.0, 12.0, 12.0, 12.0, 12.0, 12.0, 12.0,
                         12.0, 12.0, 12.0, 12.0, 12.0, 12.0, 12.0, 12.0, 1.00782503223, 1.00782503223, 1.00782503223,
                         1.00782503223, 1.00782503223, 1.00782503223, 1.00782503223, 1.00782503223, 1.00782503223,
                         1.00782503223, 1.00782503223, 1.00782503223, 12.0, 12.0, 12.0, 12.0, 12.0, 12.0, 12.0, 12.0,
                         12.0, 12.0, 12.0, 12.0, 12.0, 12.0, 12.0, 12.0, 12.0, 12.0, 12.0, 12.0, 12.0, 12.0, 12.0, 12.0,
                         1.00782503223, 1.00782503223, 1.00782503223, 1.00782503223, 1.00782503223, 1.00782503223,
                         1.00782503223, 1.00782503223, 1.00782503223, 1.00782503223, 1.00782503223, 1.00782503223],
              'molecular_charge': 0.0,
              'molecular_multiplicity': 1,
              'name': 'C48H24 ([0],[1])',
              'provenance': {'creator': 'QCElemental',
                             'routine': 'qcelemental.molparse.from_schema',
                             'version': '0.29.0'},
              'real': [True, True, True, True, True, True, True, True, True, True, True, True, True, True, True, True,
                       True, True, True, True, True, True, True, True, True, True, True, True, True, True, True, True,
                       True, True, True, True, False, False, False, False, False, False, False, False, False, False,
                       False, False, False, False, False, False, False, False, False, False, False, False, False, False,
                       False, False, False, False, False, False, False, False, False, False, False, False],
              'schema_name': 'qcschema_molecule',
              'schema_version': 2,
              'symbols': ['C', 'C', 'C', 'C', 'C', 'C', 'C', 'C', 'C', 'C', 'C', 'C', 'C', 'C', 'C', 'C', 'C', 'C', 'C',
                          'C', 'C', 'C', 'C', 'C', 'H', 'H', 'H', 'H', 'H', 'H', 'H', 'H', 'H', 'H', 'H', 'H', 'C', 'C',
                          'C', 'C', 'C', 'C', 'C', 'C', 'C', 'C', 'C', 'C', 'C', 'C', 'C', 'C', 'C', 'C', 'C', 'C', 'C',
                          'C', 'C', 'C', 'H', 'H', 'H', 'H', 'H', 'H', 'H', 'H', 'H', 'H', 'H', 'H'],
              'validated': True},
 'protocols': {},
 'provenance': {'creator': 'QCElemental', 'routine': 'qcelemental.models.results', 'version': '0.29.0'},
 'schema_name': 'qcschema_input',
 'schema_version': 1}
--------------------------------------------------------------------------

Scratch directory: /tmp/tmp1_ymorcv_psi_scratch/
   => Libint2 <=

    Primary   basis highest AM E, G, H:  6, 6, 3
    Auxiliary basis highest AM E, G, H:  7, 7, 4
    Onebody   basis highest AM E, G, H:  -, -, -
    Solid Harmonics ordering:            Gaussian

*** tstart() called on atl1-1-03-004-6-1.pace.gatech.edu
*** at Sat Jun 13 13:13:55 2026

   => Loading Basis Set <=

    Name: AUG-CC-PVTZ
    Role: ORBITAL
    Keyword: BASIS
    atoms 1-24, 37-60  entry C          line   239 file /storage/home/hcoda1/5/vlita3/.conda/envs/p4_qcml/share/psi4/basis/aug-cc-pvtz.gbs 
    atoms 25-36, 61-72 entry H          line    40 file /storage/home/hcoda1/5/vlita3/.conda/envs/p4_qcml/share/psi4/basis/aug-cc-pvtz.gbs 


         ---------------------------------------------------------
                                   SCF
               by Justin Turney, Rob Parrish, Andy Simmonett
                          and Daniel G. A. Smith
                              RKS Reference
                       10 Threads, 256000 MiB Core
         ---------------------------------------------------------

  ==> Geometry <==

    Molecular point group: cs
    Full point group: Cs

    Geometry (in Bohr), charge = 0, multiplicity = 1:

       Center              X                  Y                   Z               Mass       
    ------------   -----------------  -----------------  -----------------  -----------------
         C           -2.811028040000    -2.327279760000    -3.267336720000    12.000000000000
         C           -0.123716850000    -2.327279760000    -3.267336720000    12.000000000000
         C            1.219938740000     0.000000000000    -3.267336720000    12.000000000000
         C           -0.123716850000     2.327279760000    -3.267336720000    12.000000000000
         C           -2.811028040000     2.327279760000    -3.267336720000    12.000000000000
         C           -4.154683640000     0.000000000000    -3.267336720000    12.000000000000
         C            1.213756090000    -4.643850850000    -3.267336720000    12.000000000000
         C           -0.176458550000    -6.936849650000    -3.267336720000    12.000000000000
         C           -2.758286350000    -6.936849650000    -3.267336720000    12.000000000000
         C           -4.148500990000    -4.643850850000    -3.267336720000    12.000000000000
         C           -6.829629530000     0.000000000000    -3.267336720000    12.000000000000
         C           -8.120317420000    -2.350460600000    -3.267336720000    12.000000000000
         C           -6.829403520000    -4.586389060000    -3.267336720000    12.000000000000
         C           -8.120317420000     2.350460600000    -3.267336720000    12.000000000000
         C           -6.829403520000     4.586389060000    -3.267336720000    12.000000000000
         C           -4.148500990000     4.643850850000    -3.267336720000    12.000000000000
         C           -2.758286350000     6.936849650000    -3.267336720000    12.000000000000
         C           -0.176458550000     6.936849650000    -3.267336720000    12.000000000000
         C            1.213756090000     4.643850850000    -3.267336720000    12.000000000000
         C            3.894658630000     4.586389060000    -3.267336720000    12.000000000000
         C            5.185572520000     2.350460600000    -3.267336720000    12.000000000000
         C            3.894884630000     0.000000000000    -3.267336720000    12.000000000000
         C            5.185572520000    -2.350460600000    -3.267336720000    12.000000000000
         C            3.894658630000    -4.586389060000    -3.267336720000    12.000000000000
         H            0.849583950000    -8.706755980000    -3.267336720000     1.007825032230
         H           -3.784328850000    -8.706755980000    -3.267336720000     1.007825032230
         H           -7.849166110000    -6.359921090000    -3.267336720000     1.007825032230
         H          -10.166122510000    -2.346834890000    -3.267336720000     1.007825032230
         H          -10.166122510000     2.346834890000    -3.267336720000     1.007825032230
         H           -7.849166110000     6.359921090000    -3.267336720000     1.007825032230
         H           -3.784328850000     8.706755980000    -3.267336720000     1.007825032230
         H            0.849583950000     8.706755980000    -3.267336720000     1.007825032230
         H            4.914421210000     6.359921090000    -3.267336720000     1.007825032230
         H            7.231377610000     2.346834890000    -3.267336720000     1.007825032230
         H            7.231377610000    -2.346834890000    -3.267336720000     1.007825032230
         H            4.914421210000    -6.359921090000    -3.267336720000     1.007825032230
      Gh(C)           0.123716850000    -2.327279760000     3.267336720000    12.000000000000
      Gh(C)           2.811028040000    -2.327279760000     3.267336720000    12.000000000000
      Gh(C)           4.154683640000     0.000000000000     3.267336720000    12.000000000000
      Gh(C)           2.811028040000     2.327279760000     3.267336720000    12.000000000000
      Gh(C)           0.123716850000     2.327279760000     3.267336720000    12.000000000000
      Gh(C)          -1.219938740000     0.000000000000     3.267336720000    12.000000000000
      Gh(C)           4.148500990000    -4.643850850000     3.267336720000    12.000000000000
      Gh(C)           2.758286350000    -6.936849650000     3.267336720000    12.000000000000
      Gh(C)           0.176458550000    -6.936849650000     3.267336720000    12.000000000000
      Gh(C)          -1.213756090000    -4.643850850000     3.267336720000    12.000000000000
      Gh(C)          -3.894884630000     0.000000000000     3.267336720000    12.000000000000
      Gh(C)          -5.185572520000    -2.350460600000     3.267336720000    12.000000000000
      Gh(C)          -3.894658630000    -4.586389060000     3.267336720000    12.000000000000
      Gh(C)          -5.185572520000     2.350460600000     3.267336720000    12.000000000000
      Gh(C)          -3.894658630000     4.586389060000     3.267336720000    12.000000000000
      Gh(C)          -1.213756090000     4.643850850000     3.267336720000    12.000000000000
      Gh(C)           0.176458550000     6.936849650000     3.267336720000    12.000000000000
      Gh(C)           2.758286350000     6.936849650000     3.267336720000    12.000000000000
      Gh(C)           4.148500990000     4.643850850000     3.267336720000    12.000000000000
      Gh(C)           6.829403520000     4.586389060000     3.267336720000    12.000000000000
      Gh(C)           8.120317420000     2.350460600000     3.267336720000    12.000000000000
      Gh(C)           6.829629530000     0.000000000000     3.267336720000    12.000000000000
      Gh(C)           8.120317420000    -2.350460600000     3.267336720000    12.000000000000
      Gh(C)           6.829403520000    -4.586389060000     3.267336720000    12.000000000000
      Gh(H)           3.784328850000    -8.706755980000     3.267336720000     1.007825032230
      Gh(H)          -0.849583950000    -8.706755980000     3.267336720000     1.007825032230
      Gh(H)          -4.914421210000    -6.359921090000     3.267336720000     1.007825032230
      Gh(H)          -7.231377610000    -2.346834890000     3.267336720000     1.007825032230
      Gh(H)          -7.231377610000     2.346834890000     3.267336720000     1.007825032230
      Gh(H)          -4.914421210000     6.359921090000     3.267336720000     1.007825032230
      Gh(H)          -0.849583950000     8.706755980000     3.267336720000     1.007825032230
      Gh(H)           3.784328850000     8.706755980000     3.267336720000     1.007825032230
      Gh(H)           7.849166110000     6.359921090000     3.267336720000     1.007825032230
      Gh(H)          10.166122510000     2.346834890000     3.267336720000     1.007825032230
      Gh(H)          10.166122510000    -2.346834890000     3.267336720000     1.007825032230
      Gh(H)           7.849166110000    -6.359921090000     3.267336720000     1.007825032230

  Running in cs symmetry.

  Rotational constants: A =      0.00378  B =      0.00326  C =      0.00251 [cm^-1]
  Rotational constants: A =    113.23902  B =     97.86670  C =     75.24221 [MHz]
  Nuclear repulsion = 1837.330664984317991

  Charge       = 0
  Multiplicity = 1
  Electrons    = 156
  Nalpha       = 78
  Nbeta        = 78

  ==> Algorithm <==

  SCF Algorithm Type is DF.
  DIIS enabled.
  MOM disabled.
  Fractional occupation disabled.
  Guess Type is SAD.
  Energy threshold   = 1.00e-06
  Density threshold  = 1.00e-06
  Integral threshold = 1.00e-12

  ==> Primary Basis <==

  Basis Set: AUG-CC-PVTZ
    Blend: AUG-CC-PVTZ
    Number of shells: 888
    Number of basis functions: 2760
    Number of Cartesian functions: 3240
    Spherical Harmonics?: true
    Max angular momentum: 3

  ==> DFT Potential <==

   => LibXC <=

    Version 7.0.0
    S. Lehtola, C. Steigemann, M. J.T. Oliveira, and M. A.L. Marques.,  SoftwareX 7, 1–5 (2018) (10.1016/j.softx.2017.11.002)

   => Composite Functional: WB97X-V <= 

    wB97X-V Hyb-GGA Exchange-Correlation Functional

    N. Mardirossian and M. Head-Gordon.,  Phys. Chem. Chem. Phys. 16, 9904-9924 (2014) (10.1039/C3CP54374A)

    Deriv               =              1
    GGA                 =           TRUE
    Meta                =          FALSE

    Exchange Hybrid     =           TRUE
    MP2 Hybrid          =          FALSE

   => Exchange-Correlation Functionals <=

    1.0000   wB97X-V range-separated functional

   => Exact (HF) Exchange <=

    0.8330            HF,LR [omega = 0.3000]
    0.1670               HF 

   => LibXC Density Thresholds  <==

    XC_HYB_GGA_XC_WB97X_V:  1.00E-14 

   => VV10 Non-Local Parameters <=

    VV10 B              =     6.0000E+00
    VV10 C              =     1.0000E-02

   => Molecular Quadrature <=

    Radial Scheme          =       TREUTLER
    Pruning Scheme         =           NONE
    Nuclear Scheme         =       TREUTLER

    Blocking Scheme        =         OCTREE
    BS radius alpha        =              1
    Pruning alpha          =              1
    Radial Points          =             75
    Spherical Points       =            302
    Total Points           =        1423706
    Total Blocks           =           9482
    Max Points             =            256
    Max Functions          =           2109
    Weights Tolerance      =       1.00E-15

   => Loading Basis Set <=

    Name: (AUG-CC-PVTZ AUX)
    Role: JKFIT
    Keyword: DF_BASIS_SCF
    atoms 1-24, 37-60  entry C          line   162 file /storage/home/hcoda1/5/vlita3/.conda/envs/p4_qcml/share/psi4/basis/aug-cc-pvtz-jkfit.gbs 
    atoms 25-36, 61-72 entry H          line    70 file /storage/home/hcoda1/5/vlita3/.conda/envs/p4_qcml/share/psi4/basis/aug-cc-pvtz-jkfit.gbs 

  ==> Integral Setup <==

  ==> DiskDFJK: Density-Fitted J/K Matrices <==

    J tasked:                  Yes
    K tasked:                  Yes
    wK tasked:                 Yes
    Omega:               3.000E-01
    OpenMP threads:             10
    Integrals threads:          10
    Memory [MiB]:           147036
    Algorithm:                Disk
    Integral Cache:           NONE
    Schwarz Cutoff:          1E-12
    Fitting Condition:       1E-10

   => Auxiliary Basis Set <=

  Basis Set: (AUG-CC-PVTZ AUX)
    Blend: AUG-CC-PVTZ-JKFIT
    Number of shells: 1776
    Number of basis functions: 6096
    Number of Cartesian functions: 7608
    Spherical Harmonics?: true
    Max angular momentum: 4

  Cached 50.0% of DFT collocation blocks in 28.297 [GiB].

  Minimum eigenvalue in the overlap matrix is 1.2243416004E-10.
  Reciprocal condition number of the overlap matrix is 3.5504774292E-12.
    Using canonical orthogonalization.
  Overall, 29 of 2760 possible MOs eliminated.


  ==> Pre-Iterations <==

  SCF Guess: Superposition of Atomic Densities via on-the-fly atomic UHF (no occupation information).

   -------------------------
    Irrep   Nso     Nmo    
   -------------------------
     A'      1436    1421 
     A"      1324    1310 
   -------------------------
    Total    2760    2731
   -------------------------

  ==> Iterations <==

                           Total Energy        Delta E     RMS |[F,P]|

   @DF-RKS iter SAD:  -923.03414795594676   -9.23034e+02   0.00000e+00 
   @DF-RKS iter   1:  -921.28956579073656    1.74458e+00   5.67544e-04 DIIS/ADIIS
   @DF-RKS iter   2:  -921.74108375747835   -4.51518e-01   3.18165e-04 DIIS/ADIIS
   @DF-RKS iter   3:  -921.93204971078035   -1.90966e-01   5.92622e-05 DIIS
   @DF-RKS iter   4:  -921.93745796576104   -5.40825e-03   3.32809e-05 DIIS
   @DF-RKS iter   5:  -921.93967709748779   -2.21913e-03   7.71756e-06 DIIS
   @DF-RKS iter   6:  -921.93980573649742   -1.28639e-04   2.60360e-06 DIIS
   @DF-RKS iter   7:  -921.93982556070239   -1.98242e-05   6.73620e-07 DIIS
   @DF-RKS iter   8:  -921.93983112293699   -5.56223e-06   2.28752e-07 DIIS
   @DF-RKS iter   9:  -921.93983194819373   -8.25257e-07   5.81050e-08 DIIS
  Energy and wave function converged.


  ==> Post-Iterations <==

   Electrons on quadrature grid:
      Ntotal   =  156.0002937164 ; deviation = 2.937e-04 

    Orbital Energies [Eh]
    ---------------------

    Doubly Occupied:                                                      

       1Ap   -10.290401     1App  -10.290243     2Ap   -10.290243  
       3Ap   -10.289967     2App  -10.289967     4Ap   -10.289908  
       5Ap   -10.289611     3App  -10.289610     6Ap   -10.289609  
       4App  -10.289426     7Ap   -10.289426     8Ap   -10.289303  
       5App  -10.281661     9Ap   -10.281655     6App  -10.281654  
      10Ap   -10.281634     7App  -10.281634    11Ap   -10.281621  
       8App  -10.280931    12Ap   -10.280931    13Ap   -10.280928  
       9App  -10.280918    10App  -10.280917    14Ap   -10.280917  
      15Ap    -1.051054    11App   -1.012873    16Ap    -1.012873  
      17Ap    -0.963804    12App   -0.963804    18Ap    -0.946677  
      13App   -0.913804    19Ap    -0.898270    20Ap    -0.879885  
      14App   -0.879884    21Ap    -0.845851    15App   -0.845850  
      22Ap    -0.764860    16App   -0.764859    17App   -0.760300  
      23Ap    -0.760299    24Ap    -0.753443    18App   -0.685844  
      25Ap    -0.678078    26Ap    -0.661308    19App   -0.661307  
      20App   -0.659612    27Ap    -0.636597    21App   -0.591718  
      28Ap    -0.591718    29Ap    -0.573536    22App   -0.573535  
      30Ap    -0.570265    23App   -0.570264    31Ap    -0.555733  
      32Ap    -0.539556    24App   -0.531787    33Ap    -0.531786  
      25App   -0.527672    34Ap    -0.511083    26App   -0.511082  
      27App   -0.507422    35Ap    -0.507421    36Ap    -0.481143  
      28App   -0.480800    29App   -0.464852    30App   -0.464623  
      37Ap    -0.464623    31App   -0.443904    38Ap    -0.443904  
      39Ap    -0.424629    40Ap    -0.416427    32App   -0.416426  
      33App   -0.372231    41Ap    -0.362661    34App   -0.345691  
      42Ap    -0.345690    43Ap    -0.281410    35App   -0.281410  

    Virtual:                                                              

      36App    0.002796    44Ap     0.002797    45Ap     0.021071  
      37App    0.025393    46Ap     0.025800    47Ap     0.033528  
      38App    0.033684    48Ap     0.033897    49Ap     0.039755  
      39App    0.039760    50Ap     0.044761    40App    0.045356  
      51Ap     0.047425    41App    0.047517    52Ap     0.053586  
      42App    0.053899    53Ap     0.054648    54Ap     0.059101  
      43App    0.060189    55Ap     0.061775    56Ap     0.066258  
      44App    0.067212    57Ap     0.067341    45App    0.068015  
      58Ap     0.071442    59Ap     0.076515    46App    0.076950  
      60Ap     0.077185    47App    0.077974    61Ap     0.082275  
      62Ap     0.085097    48App    0.085539    49App    0.087586  
      63Ap     0.087793    64Ap     0.091356    50App    0.092694  
      51App    0.094959    52App    0.095918    65Ap     0.096676  
      66Ap     0.097918    53App    0.100845    67Ap     0.101405  
      54App    0.105424    68Ap     0.105951    55App    0.106957  
      69Ap     0.107811    70Ap     0.108797    56App    0.108829  
      71Ap     0.113227    72Ap     0.114146    57App    0.115078  
      73Ap     0.116773    58App    0.117131    59App    0.122367  
      74Ap     0.123277    60App    0.123438    75Ap     0.125113  
      61App    0.126654    76Ap     0.127148    62App    0.128178  
      77Ap     0.129807    78Ap     0.131472    63App    0.136384  
      79Ap     0.137037    64App    0.137354    80Ap     0.141908  
      81Ap     0.146941    82Ap     0.148342    65App    0.148455  
      66App    0.151005    83Ap     0.151651    84Ap     0.153024  
      85Ap     0.153792    67App    0.153809    86Ap     0.156056  
      68App    0.156791    87Ap     0.157760    69App    0.160206  
      70App    0.161058    88Ap     0.162412    71App    0.164006  
      89Ap     0.164379    90Ap     0.166771    91Ap     0.168214  
      72App    0.169564    92Ap     0.172028    73App    0.173077  
      74App    0.176046    93Ap     0.176960    94Ap     0.178535  
      75App    0.181814    95Ap     0.183640    96Ap     0.183987  
      97Ap     0.185596    76App    0.186341    77App    0.189191  
      98Ap     0.189781    78App    0.191486    99Ap     0.192185  
     100Ap     0.193521    79App    0.194477   101Ap     0.195369  
      80App    0.196095   102Ap     0.197544    81App    0.197970  
     103Ap     0.199131    82App    0.199274   104Ap     0.201144  
      83App    0.203001    84App    0.203828   105Ap     0.204663  
      85App    0.207327    86App    0.212468   106Ap     0.212593  
      87App    0.215075   107Ap     0.215378    88App    0.217862  
     108Ap     0.218867   109Ap     0.220123   110Ap     0.222906  
      89App    0.223663   111Ap     0.224578    90App    0.225048  
     112Ap     0.226925   113Ap     0.229816    91App    0.232585  
      92App    0.233839   114Ap     0.234141    93App    0.234525  
     115Ap     0.234880    94App    0.235243   116Ap     0.236398  
     117Ap     0.237121    95App    0.238224   118Ap     0.240525  
     119Ap     0.244043    96App    0.244681    97App    0.246750  
     120Ap     0.247186   121Ap     0.248352   122Ap     0.249950  
      98App    0.251177    99App    0.252515   123Ap     0.253747  
     100App    0.254559   124Ap     0.255114   101App    0.256841  
     125Ap     0.257598   126Ap     0.259353   102App    0.261156  
     103App    0.262058   104App    0.262497   127Ap     0.263890  
     128Ap     0.266098   129Ap     0.267584   105App    0.268919  
     106App    0.269177   130Ap     0.269423   107App    0.272674  
     131Ap     0.273680   108App    0.274687   132Ap     0.276598  
     109App    0.281059   133Ap     0.281814   134Ap     0.282185  
     135Ap     0.284667   110App    0.284911   111App    0.285451  
     136Ap     0.286988   112App    0.287048   137Ap     0.287878  
     113App    0.288607   138Ap     0.289972   139Ap     0.294074  
     114App    0.294357   115App    0.296847   140Ap     0.296880  
     141Ap     0.298802   116App    0.299220   142Ap     0.300258  
     117App    0.302658   143Ap     0.305937   118App    0.306820  
     144Ap     0.307520   119App    0.308127   145Ap     0.309469  
     120App    0.310552   121App    0.311323   146Ap     0.311530  
     122App    0.314412   147Ap     0.315351   148Ap     0.316498  
     123App    0.316568   149Ap     0.317206   150Ap     0.319829  
     124App    0.323385   151Ap     0.324655   125App    0.325364  
     152Ap     0.327136   153Ap     0.328938   126App    0.329613  
     154Ap     0.331251   127App    0.332064   155Ap     0.332633  
     128App    0.334585   156Ap     0.335050   129App    0.336870  
     157Ap     0.338394   130App    0.338519   158Ap     0.339137  
     131App    0.340394   159Ap     0.344951   132App    0.347619  
     160Ap     0.348728   133App    0.350247   161Ap     0.351683  
     162Ap     0.352375   134App    0.355059   163Ap     0.357202  
     135App    0.358499   164Ap     0.358913   136App    0.363357  
     165Ap     0.363551   166Ap     0.364169   137App    0.364625  
     167Ap     0.366976   168Ap     0.367922   138App    0.368776  
     139App    0.370295   169Ap     0.373398   170Ap     0.376255  
     140App    0.376515   141App    0.378218   171Ap     0.378865  
     142App    0.381069   172Ap     0.381354   143App    0.382382  
     173Ap     0.383858   144App    0.385166   174Ap     0.386363  
     145App    0.386818   175Ap     0.389374   176Ap     0.392230  
     146App    0.392757   177Ap     0.396805   147App    0.398906  
     178Ap     0.399306   148App    0.400167   179Ap     0.400478  
     180Ap     0.402787   149App    0.404023   181Ap     0.405018  
     182Ap     0.407163   150App    0.407668   151App    0.411964  
     183Ap     0.412399   184Ap     0.412964   152App    0.415221  
     153App    0.416940   185Ap     0.418503   154App    0.421430  
     186Ap     0.423838   187Ap     0.425431   155App    0.425980  
     188Ap     0.427172   156App    0.428191   157App    0.430363  
     189Ap     0.433045   158App    0.434170   190Ap     0.435530  
     159App    0.437905   191Ap     0.440111   192Ap     0.443413  
     193Ap     0.443952   160App    0.445431   194Ap     0.448042  
     161App    0.448111   195Ap     0.451538   162App    0.452878  
     196Ap     0.455215   197Ap     0.455955   163App    0.457788  
     198Ap     0.457795   199Ap     0.459610   164App    0.460114  
     200Ap     0.462107   165App    0.463099   201Ap     0.465532  
     166App    0.465787   167App    0.468098   202Ap     0.470118  
     168App    0.471711   203Ap     0.475016   169App    0.477372  
     204Ap     0.478076   205Ap     0.478560   170App    0.479105  
     206Ap     0.480816   171App    0.482342   207Ap     0.483278  
     208Ap     0.484927   172App    0.485167   173App    0.488477  
     209Ap     0.488855   210Ap     0.489931   174App    0.490007  
     211Ap     0.491273   175App    0.492479   176App    0.496058  
     212Ap     0.496227   177App    0.497814   213Ap     0.498880  
     178App    0.502038   214Ap     0.503415   179App    0.504582  
     215Ap     0.505850   216Ap     0.508344   180App    0.508589  
     181App    0.509583   217Ap     0.510908   218Ap     0.511320  
     182App    0.511413   183App    0.514320   219Ap     0.515156  
     220Ap     0.516321   184App    0.516649   185App    0.519374  
     221Ap     0.519811   222Ap     0.520847   186App    0.524397  
     187App    0.524830   223Ap     0.524885   224Ap     0.529602  
     188App    0.530373   225Ap     0.530591   226Ap     0.533396  
     189App    0.533878   227Ap     0.534051   228Ap     0.535365  
     190App    0.537805   229Ap     0.537911   191App    0.538255  
     230Ap     0.539906   192App    0.543139   231Ap     0.543977  
     193App    0.544047   232Ap     0.544723   233Ap     0.545740  
     194App    0.547518   234Ap     0.548718   235Ap     0.550023  
     195App    0.550702   196App    0.552692   197App    0.554449  
     198App    0.557595   236Ap     0.558198   237Ap     0.560286  
     238Ap     0.561936   199App    0.564117   200App    0.565281  
     239Ap     0.565826   240Ap     0.566460   201App    0.566580  
     202App    0.569962   241Ap     0.571081   242Ap     0.572813  
     203App    0.573747   243Ap     0.576703   244Ap     0.578059  
     204App    0.578658   205App    0.580698   245Ap     0.581317  
     246Ap     0.582146   206App    0.585193   247Ap     0.586118  
     207App    0.589869   248Ap     0.591044   208App    0.592110  
     249Ap     0.592604   209App    0.594769   210App    0.595457  
     250Ap     0.600050   211App    0.600879   251Ap     0.601482  
     252Ap     0.603284   212App    0.605555   213App    0.607052  
     214App    0.607699   253Ap     0.608810   215App    0.609632  
     216App    0.612274   254Ap     0.612683   255Ap     0.615910  
     256Ap     0.619730   257Ap     0.621099   217App    0.621156  
     218App    0.623008   258Ap     0.625901   219App    0.626171  
     259Ap     0.627806   220App    0.628364   260Ap     0.631635  
     261Ap     0.632575   221App    0.632665   222App    0.634315  
     262Ap     0.635946   223App    0.637343   224App    0.641192  
     263Ap     0.641563   264Ap     0.646480   225App    0.648082  
     265Ap     0.649570   226App    0.652204   266Ap     0.654738  
     227App    0.655834   267Ap     0.657184   268Ap     0.659951  
     228App    0.660861   229App    0.664282   269Ap     0.664913  
     270Ap     0.665000   230App    0.667255   271Ap     0.669989  
     231App    0.670133   272Ap     0.672370   232App    0.674665  
     273Ap     0.677916   233App    0.679570   274Ap     0.682234  
     275Ap     0.683990   234App    0.686527   276Ap     0.687485  
     277Ap     0.689204   235App    0.691952   278Ap     0.693368  
     236App    0.693513   279Ap     0.695844   237App    0.695996  
     280Ap     0.697591   238App    0.700198   281Ap     0.704559  
     239App    0.706176   282Ap     0.707932   240App    0.708405  
     283Ap     0.710744   241App    0.712168   284Ap     0.715545  
     242App    0.715825   285Ap     0.718483   243App    0.720144  
     286Ap     0.720529   287Ap     0.722095   244App    0.723907  
     245App    0.724927   288Ap     0.725033   289Ap     0.726490  
     246App    0.728024   290Ap     0.729501   247App    0.733033  
     291Ap     0.733689   292Ap     0.736008   248App    0.736618  
     293Ap     0.738460   249App    0.739701   294Ap     0.740556  
     250App    0.741036   251App    0.744665   295Ap     0.746246  
     296Ap     0.748415   252App    0.748710   297Ap     0.751825  
     253App    0.754061   298Ap     0.755553   254App    0.757923  
     299Ap     0.758821   255App    0.760392   300Ap     0.761034  
     256App    0.761466   257App    0.762668   301Ap     0.763407  
     258App    0.765793   302Ap     0.766213   259App    0.768718  
     260App    0.770697   303Ap     0.772012   304Ap     0.772395  
     305Ap     0.773171   306Ap     0.777497   261App    0.779114  
     307Ap     0.782158   262App    0.782309   308Ap     0.786816  
     309Ap     0.788223   263App    0.788418   310Ap     0.789149  
     264App    0.789840   265App    0.792275   311Ap     0.794413  
     266App    0.795653   312Ap     0.796348   267App    0.798811  
     313Ap     0.801773   268App    0.805039   314Ap     0.805140  
     315Ap     0.806631   269App    0.807518   270App    0.812656  
     316Ap     0.812956   317Ap     0.815039   271App    0.816730  
     318Ap     0.816810   319Ap     0.819918   272App    0.820261  
     273App    0.820589   274App    0.823523   320Ap     0.823772  
     321Ap     0.827710   275App    0.828786   322Ap     0.830067  
     323Ap     0.830324   276App    0.834096   277App    0.834501  
     324Ap     0.839811   278App    0.844034   325Ap     0.846181  
     279App    0.846672   326Ap     0.848075   327Ap     0.849409  
     280App    0.852758   328Ap     0.854029   329Ap     0.854377  
     281App    0.854894   330Ap     0.857497   331Ap     0.859465  
     282App    0.860719   283App    0.861555   332Ap     0.862500  
     284App    0.864505   333Ap     0.868272   334Ap     0.870690  
     285App    0.871042   286App    0.871689   287App    0.876023  
     335Ap     0.876827   288App    0.877932   336Ap     0.878623  
     337Ap     0.880747   289App    0.882703   338Ap     0.883910  
     290App    0.885213   339Ap     0.888896   291App    0.889247  
     292App    0.890282   340Ap     0.890586   341Ap     0.892972  
     293App    0.896053   294App    0.897499   295App    0.897878  
     342Ap     0.898146   343Ap     0.900193   296App    0.900783  
     297App    0.903143   298App    0.903937   344Ap     0.905462  
     345Ap     0.906142   346Ap     0.907899   299App    0.908097  
     347Ap     0.911098   300App    0.911556   348Ap     0.912430  
     349Ap     0.914288   301App    0.916237   350Ap     0.916727  
     302App    0.916872   351Ap     0.917574   303App    0.921344  
     304App    0.921933   352Ap     0.922785   305App    0.925370  
     353Ap     0.926550   354Ap     0.928579   306App    0.929245  
     355Ap     0.930055   307App    0.932214   356Ap     0.933204  
     308App    0.936091   357Ap     0.936842   309App    0.938887  
     310App    0.941439   358Ap     0.941786   311App    0.943969  
     359Ap     0.945526   312App    0.946081   360Ap     0.947438  
     361Ap     0.949081   313App    0.949240   314App    0.952846  
     362Ap     0.954454   363Ap     0.957180   364Ap     0.959309  
     315App    0.960400   365Ap     0.961373   316App    0.963288  
     366Ap     0.965339   367Ap     0.968257   317App    0.968772  
     368Ap     0.971272   318App    0.974082   369Ap     0.974435  
     319App    0.976669   370Ap     0.976798   320App    0.979706  
     371Ap     0.981353   321App    0.985470   372Ap     0.985787  
     322App    0.987511   323App    0.988955   373Ap     0.992295  
     324App    0.995731   374Ap     0.997119   325App    0.998864  
     375Ap     1.000643   326App    1.001276   376Ap     1.003338  
     327App    1.005545   377Ap     1.008029   378Ap     1.011998  
     328App    1.013222   329App    1.015823   379Ap     1.016881  
     330App    1.018571   380Ap     1.018754   381Ap     1.019921  
     331App    1.021403   382Ap     1.025847   332App    1.026118  
     383Ap     1.026850   384Ap     1.028405   333App    1.030017  
     334App    1.032475   335App    1.032819   385Ap     1.033783  
     386Ap     1.035428   336App    1.037735   337App    1.039251  
     387Ap     1.040664   388Ap     1.042713   389Ap     1.043835  
     338App    1.046473   390Ap     1.048180   339App    1.048449  
     391Ap     1.050157   340App    1.050272   341App    1.053276  
     392Ap     1.054414   342App    1.055309   393Ap     1.058679  
     343App    1.059014   394Ap     1.060816   344App    1.064220  
     395Ap     1.066530   345App    1.066763   396Ap     1.070293  
     346App    1.070584   347App    1.074324   397Ap     1.074932  
     398Ap     1.076607   348App    1.078038   349App    1.080609  
     399Ap     1.082332   350App    1.082894   400Ap     1.084637  
     401Ap     1.086681   351App    1.089172   352App    1.092703  
     402Ap     1.094803   403Ap     1.095404   404Ap     1.097115  
     405Ap     1.101508   353App    1.101810   354App    1.104314  
     406Ap     1.105037   407Ap     1.106021   355App    1.108178  
     408Ap     1.109368   356App    1.111844   409Ap     1.113220  
     410Ap     1.116872   357App    1.117507   411Ap     1.118787  
     358App    1.118904   412Ap     1.119277   413Ap     1.121248  
     359App    1.122426   360App    1.127049   414Ap     1.128554  
     361App    1.130613   362App    1.131132   415Ap     1.133267  
     416Ap     1.135885   363App    1.138117   417Ap     1.138698  
     364App    1.138968   418Ap     1.140064   419Ap     1.145199  
     365App    1.148609   366App    1.149827   420Ap     1.150979  
     421Ap     1.151940   422Ap     1.155119   367App    1.155746  
     368App    1.159417   423Ap     1.159812   369App    1.161176  
     424Ap     1.161301   425Ap     1.166990   370App    1.168261  
     426Ap     1.168864   371App    1.173886   427Ap     1.174918  
     372App    1.177311   428Ap     1.177796   373App    1.183296  
     429Ap     1.183921   374App    1.184842   375App    1.188747  
     430Ap     1.191018   376App    1.191700   431Ap     1.193694  
     432Ap     1.194528   377App    1.195684   433Ap     1.196909  
     434Ap     1.197486   378App    1.201803   435Ap     1.203087  
     379App    1.204642   380App    1.206067   436Ap     1.206133  
     381App    1.209130   382App    1.210953   437Ap     1.211981  
     383App    1.215115   438Ap     1.215874   439Ap     1.218670  
     384App    1.220848   440Ap     1.222428   385App    1.223025  
     386App    1.226698   441Ap     1.227545   442Ap     1.229609  
     387App    1.230837   443Ap     1.232717   444Ap     1.235296  
     388App    1.238659   389App    1.239573   445Ap     1.240437  
     390App    1.242912   446Ap     1.247255   447Ap     1.248215  
     448Ap     1.252398   391App    1.252776   449Ap     1.253584  
     392App    1.256520   450Ap     1.256760   393App    1.257369  
     394App    1.260098   451Ap     1.260570   395App    1.262617  
     452Ap     1.267085   453Ap     1.267395   396App    1.268395  
     454Ap     1.273079   455Ap     1.275445   397App    1.278460  
     456Ap     1.279060   457Ap     1.282621   398App    1.282833  
     399App    1.284295   458Ap     1.286525   400App    1.287640  
     459Ap     1.289146   460Ap     1.290537   401App    1.292056  
     461Ap     1.295115   402App    1.296083   403App    1.298263  
     462Ap     1.300168   404App    1.302512   463Ap     1.305323  
     405App    1.307570   464Ap     1.307656   465Ap     1.310956  
     406App    1.312925   407App    1.313565   466Ap     1.313657  
     408App    1.317873   467Ap     1.318814   468Ap     1.322255  
     409App    1.322505   469Ap     1.323896   410App    1.324900  
     470Ap     1.328451   411App    1.330995   471Ap     1.332171  
     412App    1.334905   413App    1.335798   472Ap     1.336754  
     473Ap     1.340383   474Ap     1.342540   414App    1.342832  
     475Ap     1.345214   415App    1.345326   476Ap     1.347893  
     416App    1.349721   477Ap     1.353431   417App    1.353723  
     478Ap     1.354958   418App    1.358036   479Ap     1.359624  
     480Ap     1.361201   419App    1.361969   420App    1.363442  
     481Ap     1.365285   421App    1.369300   482Ap     1.370754  
     422App    1.372204   483Ap     1.376466   423App    1.380619  
     424App    1.382909   484Ap     1.383381   425App    1.387439  
     485Ap     1.389766   426App    1.391597   486Ap     1.393484  
     487Ap     1.394880   488Ap     1.397832   427App    1.398085  
     428App    1.399898   489Ap     1.400116   429App    1.401380  
     490Ap     1.401963   430App    1.402027   491Ap     1.407979  
     431App    1.409755   492Ap     1.413350   493Ap     1.414977  
     432App    1.416857   433App    1.421915   494Ap     1.421939  
     434App    1.423063   495Ap     1.423180   435App    1.425584  
     496Ap     1.426188   436App    1.426213   437App    1.430732  
     497Ap     1.431598   498Ap     1.432782   438App    1.436503  
     499Ap     1.438123   439App    1.439875   440App    1.443971  
     500Ap     1.444416   501Ap     1.446946   441App    1.448672  
     502Ap     1.449930   442App    1.451021   503Ap     1.452824  
     443App    1.453316   504Ap     1.457569   505Ap     1.458185  
     444App    1.458513   445App    1.460901   506Ap     1.463192  
     446App    1.466224   507Ap     1.467206   447App    1.468885  
     508Ap     1.469149   448App    1.471306   509Ap     1.472301  
     510Ap     1.474606   449App    1.475474   450App    1.477997  
     451App    1.478792   511Ap     1.480254   452App    1.483498  
     512Ap     1.484053   513Ap     1.485433   453App    1.486032  
     514Ap     1.487263   515Ap     1.489617   454App    1.492056  
     516Ap     1.494504   455App    1.495799   456App    1.497068  
     517Ap     1.497455   457App    1.500891   458App    1.503827  
     518Ap     1.504020   519Ap     1.509113   459App    1.510686  
     520Ap     1.511755   460App    1.513050   461App    1.514084  
     521Ap     1.516279   522Ap     1.518648   462App    1.518929  
     523Ap     1.520327   463App    1.521691   524Ap     1.523278  
     525Ap     1.524933   464App    1.525159   465App    1.525583  
     526Ap     1.527562   466App    1.533540   527Ap     1.534872  
     467App    1.535546   528Ap     1.537346   529Ap     1.541545  
     468App    1.542564   530Ap     1.546770   469App    1.547076  
     531Ap     1.550294   470App    1.552351   532Ap     1.553560  
     533Ap     1.557485   471App    1.558062   472App    1.559908  
     534Ap     1.562425   535Ap     1.563491   536Ap     1.564609  
     473App    1.566324   537Ap     1.569265   474App    1.569732  
     538Ap     1.572948   539Ap     1.574527   475App    1.574620  
     476App    1.576799   540Ap     1.577726   541Ap     1.581600  
     477App    1.581863   478App    1.584845   542Ap     1.585333  
     543Ap     1.588950   479App    1.588995   480App    1.591657  
     544Ap     1.592015   481App    1.595546   545Ap     1.596155  
     482App    1.600562   546Ap     1.601439   547Ap     1.603778  
     483App    1.605256   484App    1.607455   548Ap     1.608441  
     485App    1.612804   486App    1.614583   549Ap     1.614980  
     550Ap     1.616916   487App    1.618892   551Ap     1.622153  
     488App    1.624480   489App    1.627007   552Ap     1.630189  
     553Ap     1.633127   490App    1.633393   554Ap     1.635627  
     491App    1.636339   492App    1.637560   555Ap     1.639042  
     493App    1.640861   556Ap     1.641124   557Ap     1.642405  
     494App    1.643854   558Ap     1.645027   495App    1.647620  
     496App    1.650752   559Ap     1.650836   497App    1.652763  
     560Ap     1.653751   561Ap     1.656813   498App    1.657367  
     562Ap     1.660472   499App    1.660524   500App    1.665829  
     563Ap     1.668148   564Ap     1.669660   565Ap     1.670903  
     501App    1.670957   502App    1.673586   503App    1.676358  
     566Ap     1.676545   504App    1.679210   567Ap     1.682430  
     568Ap     1.683789   569Ap     1.686166   505App    1.688017  
     570Ap     1.688133   506App    1.690670   571Ap     1.694019  
     507App    1.696779   508App    1.698471   572Ap     1.699711  
     509App    1.701674   573Ap     1.704138   510App    1.705570  
     574Ap     1.706836   511App    1.708287   512App    1.711422  
     513App    1.713634   575Ap     1.715269   576Ap     1.719711  
     514App    1.719873   577Ap     1.722466   578Ap     1.723230  
     515App    1.723419   516App    1.726273   579Ap     1.726972  
     580Ap     1.728484   581Ap     1.733358   517App    1.737115  
     582Ap     1.737786   583Ap     1.738352   584Ap     1.741454  
     518App    1.741804   585Ap     1.743656   519App    1.745524  
     586Ap     1.746761   520App    1.746994   521App    1.753300  
     587Ap     1.753613   522App    1.756697   588Ap     1.757453  
     589Ap     1.760182   523App    1.760561   524App    1.762174  
     590Ap     1.763173   591Ap     1.764212   525App    1.767824  
     526App    1.769628   592Ap     1.770654   593Ap     1.772694  
     527App    1.773077   594Ap     1.773548   528App    1.778400  
     595Ap     1.779574   529App    1.781220   596Ap     1.781235  
     597Ap     1.783450   530App    1.785264   598Ap     1.787567  
     531App    1.787664   532App    1.790938   599Ap     1.794503  
     600Ap     1.794879   601Ap     1.797044   602Ap     1.799363  
     533App    1.800905   534App    1.804672   603Ap     1.807022  
     535App    1.807754   604Ap     1.808319   536App    1.810163  
     605Ap     1.812308   537App    1.813455   606Ap     1.813970  
     538App    1.815621   539App    1.817344   607Ap     1.818138  
     608Ap     1.823789   609Ap     1.825014   540App    1.827273  
     610Ap     1.828051   541App    1.830356   542App    1.832667  
     543App    1.833896   611Ap     1.834561   544App    1.837177  
     612Ap     1.840497   613Ap     1.842520   545App    1.844479  
     614Ap     1.845853   615Ap     1.847806   546App    1.851302  
     616Ap     1.853799   547App    1.858325   548App    1.859159  
     617Ap     1.860539   618Ap     1.861417   619Ap     1.864951  
     549App    1.866876   550App    1.869084   620Ap     1.874664  
     551App    1.876157   621Ap     1.878413   552App    1.879897  
     622Ap     1.881576   553App    1.881950   554App    1.885886  
     623Ap     1.886308   624Ap     1.889779   555App    1.891309  
     556App    1.893607   625Ap     1.895140   557App    1.896770  
     626Ap     1.899355   558App    1.902717   627Ap     1.903178  
     628Ap     1.904378   559App    1.905484   629Ap     1.908287  
     560App    1.913199   630Ap     1.916361   631Ap     1.917551  
     561App    1.918631   632Ap     1.919500   562App    1.922293  
     563App    1.922678   633Ap     1.927841   564App    1.928402  
     565App    1.933436   634Ap     1.934048   566App    1.937426  
     635Ap     1.938134   636Ap     1.939475   567App    1.940243  
     637Ap     1.942448   568App    1.949676   569App    1.949849  
     638Ap     1.950729   639Ap     1.954863   640Ap     1.956418  
     570App    1.956502   571App    1.959960   572App    1.960825  
     641Ap     1.961195   642Ap     1.965611   573App    1.970137  
     643Ap     1.972936   644Ap     1.975646   574App    1.976908  
     575App    1.978446   645Ap     1.983687   576App    1.983912  
     646Ap     1.987843   577App    1.987959   578App    1.989239  
     647Ap     1.992265   579App    1.993157   648Ap     1.995856  
     580App    1.996074   649Ap     1.999410   581App    2.003474  
     650Ap     2.006162   582App    2.006748   583App    2.008786  
     651Ap     2.009952   652Ap     2.011448   584App    2.011664  
     585App    2.016739   653Ap     2.018722   654Ap     2.021812  
     586App    2.023407   655Ap     2.024129   587App    2.025110  
     656Ap     2.029943   588App    2.032972   657Ap     2.035044  
     658Ap     2.036467   589App    2.039511   590App    2.040776  
     659Ap     2.041470   591App    2.042768   592App    2.050196  
     660Ap     2.050206   593App    2.055352   661Ap     2.055728  
     662Ap     2.061135   594App    2.062755   663Ap     2.063101  
     595App    2.066616   664Ap     2.067932   596App    2.068192  
     665Ap     2.075933   597App    2.076155   666Ap     2.081133  
     667Ap     2.082486   598App    2.082653   668Ap     2.085875  
     599App    2.086901   669Ap     2.090509   600App    2.093307  
     601App    2.094978   670Ap     2.095568   671Ap     2.098009  
     672Ap     2.099492   602App    2.099624   673Ap     2.102819  
     603App    2.108213   674Ap     2.108683   675Ap     2.109707  
     604App    2.109949   605App    2.112462   676Ap     2.112917  
     677Ap     2.115165   678Ap     2.119924   606App    2.121759  
     679Ap     2.123803   607App    2.126314   608App    2.127250  
     680Ap     2.129382   681Ap     2.136697   609App    2.137081  
     682Ap     2.142105   610App    2.143007   611App    2.144461  
     683Ap     2.144686   684Ap     2.146580   612App    2.147207  
     613App    2.152668   685Ap     2.154960   686Ap     2.156791  
     614App    2.160907   615App    2.161800   616App    2.163963  
     617App    2.168674   687Ap     2.169402   688Ap     2.173486  
     689Ap     2.175003   618App    2.175256   619App    2.177799  
     620App    2.180690   690Ap     2.184705   621App    2.186258  
     691Ap     2.187237   622App    2.193249   692Ap     2.193409  
     693Ap     2.199386   623App    2.199823   694Ap     2.202508  
     624App    2.204689   625App    2.205886   695Ap     2.210037  
     626App    2.210569   696Ap     2.213621   627App    2.216397  
     697Ap     2.222534   698Ap     2.224072   628App    2.225068  
     629App    2.230698   699Ap     2.233431   630App    2.234729  
     700Ap     2.237494   631App    2.239928   701Ap     2.241295  
     632App    2.241471   702Ap     2.244555   633App    2.250546  
     703Ap     2.252108   704Ap     2.256746   634App    2.257550  
     705Ap     2.262404   635App    2.265336   636App    2.266423  
     706Ap     2.272347   637App    2.272942   707Ap     2.276834  
     708Ap     2.285757   709Ap     2.287616   638App    2.291943  
     639App    2.294926   710Ap     2.299545   640App    2.300686  
     641App    2.304838   711Ap     2.307250   642App    2.312158  
     712Ap     2.312454   643App    2.312955   713Ap     2.313117  
     644App    2.317331   714Ap     2.320557   715Ap     2.324841  
     645App    2.324990   646App    2.330579   716Ap     2.331168  
     717Ap     2.335456   647App    2.338847   718Ap     2.341718  
     648App    2.342132   649App    2.345785   719Ap     2.347132  
     650App    2.351085   720Ap     2.351527   721Ap     2.354005  
     651App    2.355536   722Ap     2.358050   652App    2.359545  
     653App    2.365856   723Ap     2.367068   724Ap     2.369798  
     725Ap     2.371989   654App    2.372663   655App    2.373692  
     726Ap     2.377931   656App    2.378778   727Ap     2.382712  
     728Ap     2.387524   657App    2.389709   729Ap     2.392101  
     730Ap     2.393871   658App    2.394595   659App    2.396191  
     731Ap     2.398835   660App    2.400334   661App    2.403357  
     732Ap     2.406939   733Ap     2.412609   662App    2.412930  
     663App    2.415418   734Ap     2.417156   664App    2.422500  
     735Ap     2.422535   736Ap     2.427707   665App    2.429524  
     737Ap     2.431036   738Ap     2.434555   666App    2.438388  
     739Ap     2.442841   667App    2.444629   740Ap     2.448828  
     668App    2.448944   741Ap     2.453769   669App    2.453983  
     742Ap     2.455647   670App    2.457263   743Ap     2.463020  
     671App    2.464583   672App    2.468563   744Ap     2.471678  
     673App    2.475448   745Ap     2.478107   746Ap     2.482673  
     674App    2.484470   675App    2.489712   747Ap     2.490253  
     748Ap     2.491829   749Ap     2.495722   676App    2.497705  
     677App    2.502191   750Ap     2.507300   678App    2.509176  
     751Ap     2.513448   679App    2.515041   752Ap     2.515880  
     680App    2.517285   753Ap     2.518459   754Ap     2.524569  
     755Ap     2.525394   681App    2.529100   756Ap     2.531633  
     682App    2.531858   757Ap     2.534098   683App    2.536759  
     758Ap     2.541295   684App    2.544714   759Ap     2.545921  
     685App    2.548772   686App    2.549518   760Ap     2.554004  
     761Ap     2.555008   762Ap     2.562474   687App    2.563357  
     688App    2.566001   763Ap     2.569769   764Ap     2.572480  
     689App    2.572897   690App    2.576098   765Ap     2.576703  
     691App    2.578240   766Ap     2.580162   692App    2.583661  
     767Ap     2.590798   768Ap     2.593024   693App    2.596509  
     769Ap     2.600383   694App    2.600896   695App    2.604395  
     696App    2.608662   770Ap     2.608712   697App    2.612239  
     771Ap     2.613148   772Ap     2.617228   698App    2.621804  
     773Ap     2.621812   774Ap     2.624079   775Ap     2.624822  
     699App    2.628742   700App    2.630175   701App    2.633932  
     776Ap     2.635688   702App    2.638321   777Ap     2.646514  
     703App    2.649118   778Ap     2.652142   704App    2.656395  
     779Ap     2.660108   780Ap     2.663521   705App    2.664272  
     706App    2.666232   781Ap     2.669136   782Ap     2.673117  
     783Ap     2.673651   707App    2.674668   708App    2.676720  
     784Ap     2.681964   709App    2.684381   785Ap     2.685788  
     786Ap     2.687702   710App    2.690241   787Ap     2.695300  
     711App    2.696243   712App    2.701563   713App    2.705338  
     788Ap     2.707731   789Ap     2.714893   714App    2.719010  
     790Ap     2.720825   715App    2.721534   716App    2.723055  
     791Ap     2.723713   792Ap     2.727305   717App    2.729015  
     793Ap     2.729892   794Ap     2.737685   718App    2.738152  
     719App    2.740742   795Ap     2.741082   796Ap     2.745239  
     720App    2.745662   797Ap     2.749444   721App    2.751900  
     722App    2.756412   798Ap     2.757466   723App    2.759681  
     799Ap     2.763052   724App    2.764499   800Ap     2.771155  
     725App    2.771586   801Ap     2.773568   802Ap     2.777047  
     726App    2.777049   727App    2.782979   728App    2.786863  
     803Ap     2.789222   729App    2.791058   804Ap     2.794859  
     805Ap     2.797691   806Ap     2.800153   730App    2.800227  
     731App    2.802875   807Ap     2.807301   732App    2.814300  
     808Ap     2.815137   809Ap     2.815680   733App    2.818739  
     734App    2.822381   735App    2.826472   810Ap     2.827368  
     736App    2.830034   811Ap     2.830530   737App    2.833757  
     812Ap     2.838482   813Ap     2.841097   738App    2.842551  
     739App    2.844787   740App    2.850479   741App    2.855870  
     814Ap     2.856281   815Ap     2.859602   816Ap     2.862084  
     742App    2.862198   817Ap     2.869028   743App    2.873636  
     744App    2.877820   818Ap     2.878610   819Ap     2.881931  
     745App    2.886193   746App    2.892457   820Ap     2.892754  
     821Ap     2.897910   822Ap     2.901518   747App    2.904049  
     748App    2.908577   823Ap     2.912275   824Ap     2.916516  
     749App    2.920728   750App    2.922759   825Ap     2.923696  
     826Ap     2.933887   751App    2.934400   827Ap     2.939634  
     752App    2.941074   828Ap     2.950756   753App    2.952891  
     829Ap     2.954767   754App    2.963131   830Ap     2.963335  
     755App    2.965825   831Ap     2.972370   756App    2.979877  
     757App    2.985776   832Ap     2.988010   758App    2.988620  
     833Ap     2.993982   759App    2.999213   834Ap     3.003264  
     835Ap     3.014174   760App    3.021177   761App    3.025267  
     836Ap     3.029720   762App    3.030699   837Ap     3.031374  
     763App    3.045621   838Ap     3.048819   764App    3.060170  
     839Ap     3.065713   765App    3.073372   840Ap     3.075939  
     841Ap     3.078850   766App    3.081967   767App    3.089295  
     842Ap     3.090592   768App    3.095339   769App    3.097868  
     843Ap     3.099405   770App    3.108373   844Ap     3.111545  
     845Ap     3.113083   771App    3.118784   846Ap     3.120713  
     847Ap     3.122175   848Ap     3.126718   849Ap     3.127784  
     772App    3.131270   773App    3.137362   774App    3.146717  
     850Ap     3.149828   775App    3.151798   851Ap     3.152894  
     776App    3.159135   852Ap     3.163669   777App    3.168087  
     853Ap     3.168397   778App    3.175235   854Ap     3.178753  
     779App    3.183058   780App    3.187605   855Ap     3.189140  
     856Ap     3.193395   781App    3.196569   857Ap     3.206702  
     782App    3.207549   858Ap     3.212133   783App    3.214417  
     859Ap     3.221271   860Ap     3.223824   861Ap     3.228505  
     784App    3.229640   862Ap     3.232359   785App    3.235458  
     786App    3.240723   863Ap     3.245821   864Ap     3.247825  
     787App    3.254954   788App    3.262807   865Ap     3.263865  
     866Ap     3.272546   789App    3.274212   790App    3.277453  
     867Ap     3.279327   868Ap     3.283751   791App    3.291236  
     869Ap     3.293914   792App    3.301893   793App    3.305622  
     870Ap     3.307374   794App    3.311314   871Ap     3.313522  
     872Ap     3.315835   795App    3.320440   873Ap     3.325329  
     874Ap     3.330232   796App    3.332233   875Ap     3.333976  
     797App    3.338540   876Ap     3.340914   798App    3.344484  
     877Ap     3.353312   799App    3.355106   800App    3.363760  
     878Ap     3.368894   801App    3.371658   879Ap     3.372269  
     802App    3.376920   880Ap     3.377878   881Ap     3.383969  
     882Ap     3.388338   883Ap     3.392018   803App    3.396347  
     804App    3.398532   884Ap     3.398709   885Ap     3.399994  
     805App    3.406568   886Ap     3.410298   887Ap     3.415927  
     806App    3.419374   807App    3.421468   888Ap     3.425496  
     808App    3.430528   889Ap     3.434405   890Ap     3.434739  
     891Ap     3.438189   809App    3.438595   892Ap     3.442779  
     810App    3.448156   893Ap     3.454590   894Ap     3.458921  
     811App    3.461090   812App    3.462093   895Ap     3.464531  
     813App    3.466300   814App    3.472298   896Ap     3.473987  
     815App    3.480190   897Ap     3.484648   816App    3.489493  
     898Ap     3.489885   899Ap     3.493922   817App    3.498805  
     900Ap     3.499911   818App    3.500237   901Ap     3.500816  
     902Ap     3.509012   819App    3.511932   903Ap     3.517252  
     820App    3.517589   821App    3.519688   822App    3.523079  
     904Ap     3.523925   905Ap     3.525529   906Ap     3.528009  
     823App    3.530254   907Ap     3.537231   824App    3.539622  
     825App    3.547836   908Ap     3.550472   826App    3.555976  
     909Ap     3.556212   827App    3.558025   910Ap     3.563079  
     828App    3.573934   911Ap     3.574499   829App    3.582902  
     830App    3.584558   912Ap     3.584779   913Ap     3.588628  
     914Ap     3.592197   915Ap     3.596019   831App    3.596470  
     832App    3.603552   833App    3.607193   916Ap     3.611797  
     834App    3.613372   835App    3.616410   917Ap     3.622872  
     836App    3.624081   918Ap     3.626079   837App    3.628303  
     919Ap     3.630004   920Ap     3.634158   838App    3.636917  
     921Ap     3.645654   839App    3.647203   840App    3.653334  
     922Ap     3.655014   841App    3.658054   923Ap     3.661390  
     924Ap     3.667113   842App    3.667213   925Ap     3.670135  
     843App    3.671583   844App    3.676344   926Ap     3.676793  
     845App    3.683840   927Ap     3.684701   928Ap     3.693153  
     846App    3.700458   929Ap     3.701119   847App    3.705987  
     930Ap     3.706047   848App    3.710206   849App    3.715319  
     931Ap     3.720720   932Ap     3.726183   850App    3.729209  
     933Ap     3.732935   851App    3.736089   934Ap     3.738703  
     935Ap     3.746945   852App    3.749954   853App    3.753543  
     936Ap     3.755196   937Ap     3.760743   854App    3.761118  
     938Ap     3.764228   855App    3.764604   856App    3.767939  
     857App    3.772739   939Ap     3.774914   858App    3.778524  
     940Ap     3.780383   941Ap     3.787351   859App    3.788721  
     942Ap     3.793412   860App    3.802643   943Ap     3.803656  
     944Ap     3.812815   945Ap     3.814608   861App    3.815014  
     862App    3.815868   946Ap     3.822173   863App    3.825150  
     947Ap     3.832763   864App    3.835584   948Ap     3.838720  
     865App    3.842283   949Ap     3.843355   950Ap     3.849913  
     866App    3.850034   951Ap     3.854915   867App    3.859832  
     868App    3.859950   869App    3.863232   952Ap     3.866494  
     953Ap     3.868016   954Ap     3.870454   870App    3.873186  
     955Ap     3.878670   871App    3.882139   956Ap     3.882653  
     872App    3.888824   873App    3.898367   957Ap     3.899054  
     958Ap     3.899889   874App    3.905017   959Ap     3.908551  
     875App    3.914423   876App    3.914879   960Ap     3.916510  
     961Ap     3.918254   962Ap     3.922580   963Ap     3.926157  
     877App    3.927624   878App    3.928977   964Ap     3.931897  
     879App    3.932497   965Ap     3.938675   880App    3.941874  
     966Ap     3.946451   881App    3.947284   882App    3.949252  
     967Ap     3.953675   883App    3.967624   968Ap     3.968780  
     969Ap     3.971634   970Ap     3.976549   884App    3.977025  
     885App    3.979200   971Ap     3.979572   972Ap     3.983466  
     886App    3.983900   973Ap     3.991468   974Ap     3.997918  
     887App    3.998955   975Ap     4.002759   888App    4.005266  
     976Ap     4.010045   889App    4.013201   977Ap     4.015559  
     890App    4.019172   891App    4.025476   892App    4.026153  
     978Ap     4.028864   893App    4.029006   894App    4.032121  
     979Ap     4.048142   980Ap     4.051936   895App    4.055766  
     981Ap     4.060024   982Ap     4.062423   896App    4.066724  
     983Ap     4.068842   897App    4.070783   898App    4.079979  
     984Ap     4.081628   899App    4.082876   985Ap     4.090191  
     986Ap     4.093389   900App    4.093526   987Ap     4.098980  
     901App    4.100924   902App    4.106339   903App    4.108028  
     988Ap     4.108410   989Ap     4.114945   904App    4.119329  
     990Ap     4.122405   905App    4.123629   906App    4.129412  
     907App    4.138320   991Ap     4.139357   992Ap     4.144589  
     908App    4.146519   993Ap     4.148099   909App    4.151518  
     994Ap     4.152010   910App    4.159544   995Ap     4.161751  
     996Ap     4.163418   997Ap     4.167949   911App    4.169128  
     998Ap     4.174019   912App    4.179402   999Ap     4.179796  
     913App    4.183721  1000Ap     4.188519   914App    4.191072  
    1001Ap     4.191873   915App    4.194682  1002Ap     4.197508  
    1003Ap     4.201178   916App    4.202637  1004Ap     4.206028  
     917App    4.206114  1005Ap     4.208588  1006Ap     4.211986  
     918App    4.213157   919App    4.214525  1007Ap     4.220237  
     920App    4.223359  1008Ap     4.224734   921App    4.226527  
     922App    4.228299  1009Ap     4.229090   923App    4.230862  
    1010Ap     4.244959   924App    4.245178   925App    4.245650  
    1011Ap     4.247514  1012Ap     4.249381   926App    4.253369  
    1013Ap     4.253395  1014Ap     4.255149   927App    4.256867  
    1015Ap     4.260842   928App    4.263386  1016Ap     4.265237  
     929App    4.267276  1017Ap     4.269356   930App    4.270637  
    1018Ap     4.274082   931App    4.276508   932App    4.280069  
    1019Ap     4.281923  1020Ap     4.284141   933App    4.285415  
    1021Ap     4.286660   934App    4.290554  1022Ap     4.298406  
     935App    4.300789  1023Ap     4.301808   936App    4.304479  
    1024Ap     4.310039   937App    4.311629  1025Ap     4.312867  
     938App    4.314950   939App    4.320690  1026Ap     4.321603  
     940App    4.323967   941App    4.326936  1027Ap     4.328067  
    1028Ap     4.331827   942App    4.333264  1029Ap     4.335993  
     943App    4.339965  1030Ap     4.340862   944App    4.345938  
    1031Ap     4.347679  1032Ap     4.348834  1033Ap     4.355341  
     945App    4.359193  1034Ap     4.360256   946App    4.361577  
     947App    4.362677  1035Ap     4.366700   948App    4.372611  
     949App    4.376124  1036Ap     4.378938  1037Ap     4.383417  
     950App    4.383650  1038Ap     4.387965   951App    4.388389  
    1039Ap     4.392551   952App    4.393041  1040Ap     4.395595  
     953App    4.396059   954App    4.396331  1041Ap     4.400434  
     955App    4.401957   956App    4.406032  1042Ap     4.407438  
    1043Ap     4.410153  1044Ap     4.412695   957App    4.413842  
     958App    4.419418  1045Ap     4.421342  1046Ap     4.425911  
    1047Ap     4.430267  1048Ap     4.434473   959App    4.440334  
    1049Ap     4.442207   960App    4.442930  1050Ap     4.445114  
     961App    4.451938  1051Ap     4.452756   962App    4.453994  
     963App    4.457636  1052Ap     4.460833  1053Ap     4.462362  
     964App    4.463522  1054Ap     4.465371  1055Ap     4.470135  
     965App    4.471185  1056Ap     4.476414   966App    4.478057  
     967App    4.483621  1057Ap     4.485992   968App    4.489247  
    1058Ap     4.492218  1059Ap     4.493984  1060Ap     4.498182  
     969App    4.499140   970App    4.501391  1061Ap     4.503864  
    1062Ap     4.508326   971App    4.511037   972App    4.512505  
    1063Ap     4.512557  1064Ap     4.516832  1065Ap     4.520925  
     973App    4.523760   974App    4.528085  1066Ap     4.528664  
     975App    4.531464   976App    4.532882  1067Ap     4.533397  
    1068Ap     4.537438  1069Ap     4.541833   977App    4.543156  
    1070Ap     4.546231   978App    4.547761  1071Ap     4.551048  
     979App    4.552030  1072Ap     4.557603   980App    4.558090  
    1073Ap     4.562974  1074Ap     4.565091   981App    4.565650  
     982App    4.567190  1075Ap     4.568524   983App    4.572644  
     984App    4.574076  1076Ap     4.579206   985App    4.579298  
     986App    4.583107   987App    4.589394  1077Ap     4.593656  
    1078Ap     4.596104  1079Ap     4.599502   988App    4.600365  
     989App    4.606012  1080Ap     4.607829  1081Ap     4.612191  
     990App    4.613462  1082Ap     4.615818  1083Ap     4.621285  
     991App    4.623376  1084Ap     4.626717   992App    4.628754  
    1085Ap     4.629657   993App    4.630296  1086Ap     4.637017  
     994App    4.638444  1087Ap     4.639848  1088Ap     4.641084  
     995App    4.642409  1089Ap     4.647230   996App    4.648536  
    1090Ap     4.652492   997App    4.654613  1091Ap     4.660052  
     998App    4.662611  1092Ap     4.663620   999App    4.668466  
    1000App    4.669632  1001App    4.677372  1093Ap     4.680247  
    1094Ap     4.683760  1002App    4.683927  1095Ap     4.690097  
    1096Ap     4.692675  1003App    4.693571  1097Ap     4.695010  
    1004App    4.696774  1098Ap     4.699914  1005App    4.705471  
    1099Ap     4.706204  1006App    4.709111  1100Ap     4.711413  
    1101Ap     4.712965  1007App    4.716283  1102Ap     4.725818  
    1008App    4.725871  1103Ap     4.728405  1009App    4.733756  
    1104Ap     4.734564  1010App    4.738005  1011App    4.741962  
    1105Ap     4.742340  1012App    4.749531  1013App    4.753161  
    1014App    4.755119  1106Ap     4.755549  1107Ap     4.756873  
    1108Ap     4.761735  1015App    4.763830  1109Ap     4.766820  
    1110Ap     4.773291  1016App    4.774271  1111Ap     4.776863  
    1017App    4.776987  1112Ap     4.781810  1018App    4.784037  
    1019App    4.792008  1113Ap     4.795591  1020App    4.796248  
    1114Ap     4.798344  1021App    4.806339  1115Ap     4.808357  
    1022App    4.813034  1116Ap     4.815423  1023App    4.815838  
    1117Ap     4.818973  1024App    4.819312  1025App    4.825271  
    1118Ap     4.827242  1026App    4.827661  1027App    4.834784  
    1119Ap     4.835998  1028App    4.842159  1120Ap     4.843668  
    1121Ap     4.845117  1029App    4.847917  1030App    4.850123  
    1122Ap     4.851840  1031App    4.855045  1123Ap     4.859709  
    1124Ap     4.863361  1032App    4.865949  1033App    4.867755  
    1125Ap     4.872096  1126Ap     4.878246  1034App    4.882769  
    1035App    4.883763  1127Ap     4.886469  1036App    4.887669  
    1128Ap     4.890805  1129Ap     4.892905  1037App    4.894382  
    1038App    4.900938  1130Ap     4.901932  1039App    4.903520  
    1131Ap     4.903833  1132Ap     4.910216  1040App    4.910580  
    1041App    4.911012  1133Ap     4.918231  1134Ap     4.920408  
    1042App    4.923325  1135Ap     4.929235  1043App    4.931368  
    1136Ap     4.933506  1044App    4.935248  1137Ap     4.940340  
    1045App    4.942536  1138Ap     4.946405  1046App    4.948517  
    1139Ap     4.954012  1047App    4.958063  1140Ap     4.958139  
    1048App    4.964859  1141Ap     4.968110  1049App    4.969737  
    1142Ap     4.971334  1143Ap     4.979097  1050App    4.982445  
    1051App    4.984148  1052App    4.992876  1144Ap     4.993516  
    1053App    4.996741  1145Ap     4.997986  1146Ap     5.006305  
    1147Ap     5.010625  1054App    5.010652  1148Ap     5.011826  
    1055App    5.017169  1149Ap     5.017853  1056App    5.024410  
    1150Ap     5.026001  1057App    5.027070  1151Ap     5.027250  
    1152Ap     5.032233  1058App    5.037280  1153Ap     5.039053  
    1059App    5.041987  1060App    5.044355  1154Ap     5.049545  
    1061App    5.052756  1155Ap     5.052974  1156Ap     5.062820  
    1062App    5.065027  1157Ap     5.069384  1063App    5.069537  
    1158Ap     5.072147  1064App    5.076352  1159Ap     5.079144  
    1065App    5.079454  1160Ap     5.080374  1161Ap     5.089117  
    1066App    5.092103  1067App    5.096025  1162Ap     5.096708  
    1068App    5.106147  1163Ap     5.108626  1069App    5.110562  
    1164Ap     5.113656  1070App    5.114911  1165Ap     5.115930  
    1071App    5.120735  1166Ap     5.125778  1072App    5.127181  
    1167Ap     5.132219  1073App    5.135659  1168Ap     5.137683  
    1074App    5.138054  1075App    5.145858  1169Ap     5.149093  
    1076App    5.156531  1077App    5.159303  1170Ap     5.161124  
    1171Ap     5.163775  1078App    5.168817  1172Ap     5.171566  
    1079App    5.177037  1080App    5.184323  1173Ap     5.184779  
    1081App    5.190519  1174Ap     5.191640  1175Ap     5.202178  
    1082App    5.202471  1176Ap     5.206840  1083App    5.206905  
    1084App    5.212304  1177Ap     5.217709  1085App    5.219968  
    1086App    5.221853  1178Ap     5.227052  1179Ap     5.227645  
    1087App    5.229663  1180Ap     5.233598  1088App    5.236667  
    1181Ap     5.237329  1182Ap     5.241074  1183Ap     5.246432  
    1089App    5.248166  1090App    5.253262  1184Ap     5.253307  
    1185Ap     5.258788  1091App    5.259049  1092App    5.264984  
    1186Ap     5.265203  1187Ap     5.269514  1188Ap     5.272600  
    1093App    5.282758  1094App    5.284531  1189Ap     5.288064  
    1190Ap     5.289134  1095App    5.292684  1191Ap     5.301573  
    1096App    5.308219  1192Ap     5.312043  1193Ap     5.313148  
    1097App    5.321144  1194Ap     5.325274  1098App    5.329271  
    1195Ap     5.335769  1099App    5.337667  1100App    5.344639  
    1196Ap     5.345892  1197Ap     5.358851  1101App    5.362735  
    1102App    5.363989  1198Ap     5.375353  1103App    5.380521  
    1199Ap     5.385828  1200Ap     5.392419  1104App    5.394568  
    1201Ap     5.395463  1105App    5.401790  1106App    5.403308  
    1202Ap     5.407605  1107App    5.418115  1203Ap     5.420200  
    1204Ap     5.421703  1108App    5.430961  1205Ap     5.434222  
    1109App    5.435663  1206Ap     5.438719  1110App    5.445953  
    1207Ap     5.447558  1208Ap     5.449865  1111App    5.451897  
    1112App    5.466740  1209Ap     5.467283  1113App    5.474526  
    1210Ap     5.475923  1211Ap     5.489371  1114App    5.492802  
    1212Ap     5.503154  1115App    5.506076  1116App    5.509978  
    1213Ap     5.513944  1117App    5.516049  1214Ap     5.517391  
    1118App    5.529672  1119App    5.537255  1215Ap     5.537751  
    1120App    5.543841  1216Ap     5.544303  1217Ap     5.547121  
    1218Ap     5.550275  1121App    5.550920  1219Ap     5.555415  
    1220Ap     5.556646  1122App    5.557920  1123App    5.563130  
    1221Ap     5.564155  1124App    5.565813  1222Ap     5.569954  
    1125App    5.574782  1223Ap     5.579830  1224Ap     5.582847  
    1126App    5.584208  1127App    5.587923  1128App    5.595699  
    1225Ap     5.596947  1129App    5.600096  1226Ap     5.605230  
    1227Ap     5.607440  1130App    5.607612  1131App    5.613901  
    1132App    5.622627  1228Ap     5.623016  1133App    5.629904  
    1229Ap     5.633475  1230Ap     5.643992  1231Ap     5.647725  
    1134App    5.648460  1135App    5.651844  1136App    5.662370  
    1232Ap     5.662860  1137App    5.664418  1233Ap     5.667875  
    1234Ap     5.672076  1138App    5.675065  1235Ap     5.683278  
    1236Ap     5.688808  1139App    5.689462  1140App    5.691306  
    1237Ap     5.696121  1141App    5.698537  1142App    5.703393  
    1238Ap     5.704727  1239Ap     5.713661  1143App    5.715388  
    1240Ap     5.719805  1241Ap     5.726780  1144App    5.733152  
    1242Ap     5.737617  1145App    5.742799  1243Ap     5.746215  
    1146App    5.752405  1244Ap     5.754766  1147App    5.763374  
    1245Ap     5.778924  1246Ap     5.783299  1148App    5.783840  
    1149App    5.789052  1247Ap     5.793080  1150App    5.798772  
    1151App    5.801858  1248Ap     5.802243  1249Ap     5.809504  
    1250Ap     5.818820  1152App    5.823809  1153App    5.834690  
    1251Ap     5.835532  1154App    5.836720  1252Ap     5.837797  
    1155App    5.859907  1253Ap     5.862256  1254Ap     5.866285  
    1156App    5.870392  1255Ap     5.876779  1157App    5.877065  
    1158App    5.886064  1159App    5.893489  1256Ap     5.896100  
    1257Ap     5.909756  1160App    5.929314  1258Ap     5.932748  
    1259Ap     5.934541  1161App    5.935153  1162App    5.938487  
    1163App    5.950212  1260Ap     5.951592  1164App    5.960118  
    1261Ap     5.964964  1165App    5.970248  1262Ap     5.974790  
    1263Ap     5.977156  1166App    5.984477  1264Ap     5.985433  
    1167App    5.995504  1265Ap     6.002457  1168App    6.003067  
    1266Ap     6.006856  1267Ap     6.015926  1169App    6.018160  
    1268Ap     6.023178  1170App    6.029773  1269Ap     6.041809  
    1171App    6.043395  1270Ap     6.045046  1172App    6.057893  
    1173App    6.063025  1174App    6.064914  1271Ap     6.065077  
    1272Ap     6.070928  1175App    6.082605  1273Ap     6.086848  
    1176App    6.094565  1274Ap     6.103905  1177App    6.106074  
    1275Ap     6.109928  1178App    6.112670  1276Ap     6.138529  
    1179App    6.141704  1277Ap     6.146211  1180App    6.157413  
    1278Ap     6.167890  1181App    6.174321  1182App    6.188771  
    1279Ap     6.190356  1183App    6.199490  1280Ap     6.211597  
    1281Ap     6.220293  1282Ap     6.220743  1184App    6.223261  
    1185App    6.233910  1283Ap     6.235422  1186App    6.237175  
    1284Ap     6.250667  1285Ap     6.259517  1187App    6.275115  
    1188App    6.284417  1286Ap     6.286731  1189App    6.301717  
    1190App    6.309566  1287Ap     6.312608  1191App    6.329918  
    1288Ap     6.330735  1289Ap     6.333454  1192App    6.335949  
    1290Ap     6.349422  1193App    6.356977  1291Ap     6.363583  
    1194App    6.368638  1292Ap     6.372540  1195App    6.381302  
    1196App    6.388536  1197App    6.392970  1293Ap     6.394816  
    1294Ap     6.412465  1295Ap     6.416842  1198App    6.419596  
    1199App    6.421727  1200App    6.425893  1201App    6.436728  
    1296Ap     6.437502  1297Ap     6.456298  1202App    6.470947  
    1298Ap     6.471402  1299Ap     6.478276  1203App    6.486057  
    1300Ap     6.489731  1301Ap     6.522733  1204App    6.528935  
    1302Ap     6.541132  1303Ap     6.542805  1205App    6.543788  
    1304Ap     6.548982  1206App    6.553575  1207App    6.556538  
    1208App    6.559450  1305Ap     6.564212  1209App    6.564442  
    1210App    6.583907  1306Ap     6.588171  1307Ap     6.666154  
    1308Ap     6.674780  1309Ap     6.682109  1211App    6.682225  
    1212App    6.694278  1310Ap     6.696930  1213App    6.702352  
    1311Ap     6.717921  1312Ap     6.721358  1214App    6.726843  
    1215App    6.735770  1313Ap     6.748949  1216App    6.762134  
    1314Ap     6.775691  1315Ap     6.781459  1217App    6.788877  
    1316Ap     6.807152  1218App    6.808835  1219App    6.815753  
    1317Ap     6.825652  1220App    6.837549  1318Ap     6.838408  
    1221App    6.864255  1319Ap     6.869703  1320Ap     6.891909  
    1222App    6.893361  1223App    6.905820  1321Ap     6.923858  
    1322Ap     6.970039  1224App    6.972418  1323Ap     6.975066  
    1225App    6.981521  1324Ap     6.995747  1226App    7.005986  
    1325Ap     7.076152  1227App    7.077832  1326Ap     7.081736  
    1327Ap     7.111000  1228App    7.111196  1229App    7.159142  
    1328Ap     7.213313  1230App    7.233807  1231App    7.236074  
    1329Ap     7.249818  1330Ap     7.268075  1232App    7.280446  
    1233App    7.284464  1331Ap     7.286127  1234App    7.301632  
    1332Ap     7.304936  1333Ap     7.322529  1235App    7.328801  
    1236App    7.368789  1334Ap     7.460847  1335Ap     7.464291  
    1237App    7.476521  1238App    7.477361  1336Ap     7.490108  
    1239App    7.492522  1337Ap     7.511965  1240App    7.514348  
    1241App    7.518724  1338Ap     7.522748  1339Ap     7.528410  
    1340Ap     7.544343  1341Ap     7.565717  1242App    7.571521  
    1342Ap     7.589158  1243App    7.592232  1343Ap     7.594932  
    1244App    7.606131  1344Ap     7.660519  1245App    7.662111  
    1246App    7.674780  1345Ap     7.760479  1247App    7.764759  
    1248App    7.774829  1346Ap     7.787832  1249App    7.798613  
    1347Ap     7.828303  1250App    7.842772  1348Ap     7.862196  
    1251App    7.862786  1349Ap     7.883406  1252App    7.885046  
    1253App    7.910089  1350Ap     7.935338  1254App    7.947141  
    1351Ap     7.950154  1352Ap     8.021778  1353Ap     8.040437  
    1354Ap     8.043736  1255App    8.044010  1355Ap     8.062007  
    1256App    8.066022  1356Ap     8.209469  1257App    8.215107  
    1357Ap     8.262519  1358Ap     8.266145  1258App    8.268829  
    1259App    8.274473  1359Ap     8.283427  1360Ap     8.329168  
    1260App    8.339855  1361Ap     8.411912  1261App    8.424211  
    1362Ap     8.515345  1363Ap     8.526872  1262App    8.528093  
    1263App    8.530348  1364Ap     8.532444  1365Ap     8.565892  
    1264App    8.576408  1265App    8.632706  1366Ap     8.921731  
    1266App    8.922301  1267App    8.965527  1367Ap     9.102999  
    1268App    9.117600  1368Ap     9.124376  1269App    9.134097  
    1369Ap     9.221500  1370Ap     9.494515  1270App    9.510613  
    1371Ap     9.721775  1372Ap     9.726845  1271App    9.727477  
    1272App    9.743636  1373Ap     9.913157  1374Ap     9.943726  
    1273App    9.949995  1274App    9.965214  1375Ap    10.002827  
    1275App   10.039828  1376Ap    10.041001  1377Ap    10.261735  
    1276App   10.268864  1378Ap    10.332839  1277App   10.352331  
    1379Ap    10.420413  1278App   10.426197  1380Ap    10.541525  
    1279App   10.566038  1381Ap    11.016457  1280App   11.030240  
    1281App   11.160461  1382Ap    11.160665  1282App   11.372823  
    1383Ap    11.386059  1283App   11.396547  1384Ap    11.428413  
    1385Ap    11.458093  1284App   11.459556  1386Ap    11.838742  
    1285App   11.858596  1387Ap    11.962715  1286App   12.033395  
    1388Ap    12.093465  1389Ap    12.106513  1287App   12.111795  
    1288App   12.150476  1390Ap    12.375434  1391Ap    12.493745  
    1289App   12.506297  1392Ap    12.718060  1393Ap    12.747950  
    1290App   12.752375  1394Ap    15.199651  1395Ap    16.009350  
    1291App   16.014915  1396Ap    17.203765  1292App   17.271884  
    1397Ap    17.621469  1293App   17.674321  1398Ap    18.337204  
    1294App   18.344759  1399Ap    19.934271  1295App   19.942883  
    1400Ap    20.475055  1296App   20.791726  1401Ap    21.087026  
    1297App   21.178371  1402Ap    21.311846  1298App   21.412672  
    1403Ap    21.904235  1404Ap    22.003372  1405Ap    22.788087  
    1299App   22.821684  1406Ap    23.251363  1407Ap    23.424120  
    1300App   23.523808  1408Ap    49.927965  1409Ap    51.285979  
    1301App   51.294829  1410Ap    53.717208  1302App   53.859967  
    1411Ap    54.570892  1303App   54.609105  1412Ap    55.762065  
    1304App   55.769111  1413Ap    58.840085  1414Ap    58.972185  
    1305App   58.982642  1306App   59.776226  1415Ap    60.509423  
    1307App   60.647041  1416Ap    60.824471  1308App   61.032967  
    1417Ap    61.970729  1418Ap    62.602382  1419Ap    63.719201  
    1309App   63.783362  1420Ap    64.571208  1421Ap    64.902717  
    1310App   65.101986  

    Final Occupation by Irrep:
             Ap   App 
    DOCC [    43,   35 ]
    NA   [    43,   35 ]
    NB   [    43,   35 ]

  @DF-RKS Final Energy:  -921.93983194819373

   => Energetics <=

    Nuclear Repulsion Energy =           1837.3306649843179912
    One-Electron Energy =               -4895.1099556454300910
    Two-Electron Energy =                2228.8451888961894838
    DFT Exchange-Correlation Energy =     -93.5711011339290195
    Empirical Dispersion Energy =           0.0000000000000000
    VV10 Nonlocal Energy =                  0.5653709506576431
    Total Energy =                       -921.9398319481939552

Computation Completed


Properties will be evaluated at   0.000000,   0.000000,   0.000000 [a0]

Properties computed using the SCF density matrix


 Multipole Moments:

 ------------------------------------------------------------------------------------
     Multipole            Electronic (a.u.)      Nuclear  (a.u.)        Total (a.u.)
 ------------------------------------------------------------------------------------

 L = 1.  Multiply by 2.5417464519 to convert [e a0] to [Debye]
 Dipole X            :        228.9101906         -228.9101020            0.0000886
 Dipole Y            :          0.0000000           -0.0000000           -0.0000000
 Dipole Z            :        509.7036491         -509.7045283           -0.0008793
 Magnitude           :                                                    0.0008837

 ------------------------------------------------------------------------------------

*** tstop() called on atl1-1-03-004-6-1.pace.gatech.edu at Sat Jun 13 15:53:12 2026
Module time:
	user time   =   60932.34 seconds =    1015.54 minutes
	system time =    3917.83 seconds =      65.30 minutes
	total time  =       9557 seconds =     159.28 minutes
Total time:
	user time   =   60932.34 seconds =    1015.54 minutes
	system time =    3917.83 seconds =      65.30 minutes
	total time  =       9557 seconds =     159.28 minutes

    Psi4 stopped on: Saturday, 13 June 2026 03:53PM
    Psi4 wall time for execution: 2:39:31.85

*** Psi4 exiting successfully. Buy a developer a beer!
