
    -----------------------------------------------------------------------
          Psi4: An Open-Source Ab Initio Electronic Structure Package
                               Psi4 1.9.1 release

                         Git: Rev {} zzzzzzz 


    D. G. A. Smith, L. A. Burns, A. C. Simmonett, R. M. Parrish,
    M. C. Schieber, R. Galvelis, P. Kraus, H. Kruse, R. Di Remigio,
    A. Alenaizan, A. M. James, S. Lehtola, J. P. Misiewicz, M. Scheurer,
    R. A. Shaw, J. B. Schriber, Y. Xie, Z. L. Glick, D. A. Sirianni,
    J. S. O'Brien, J. M. Waldrop, A. Kumar, E. G. Hohenstein,
    B. P. Pritchard, B. R. Brooks, H. F. Schaefer III, A. Yu. Sokolov,
    K. Patkowski, A. E. DePrince III, U. Bozkaya, R. A. King,
    F. A. Evangelista, J. M. Turney, T. D. Crawford, C. D. Sherrill,
    J. Chem. Phys. 152(18) 184108 (2020). https://doi.org/10.1063/5.0006002

                            Additional Code Authors
    E. T. Seidl, C. L. Janssen, E. F. Valeev, M. L. Leininger,
    J. F. Gonthier, R. M. Richard, H. R. McAlexander, M. Saitow, X. Wang,
    P. Verma, M. H. Lechner, A. Jiang, S. Behnle, A. G. Heide,
    M. F. Herbst, and D. L. Poole

             Previous Authors, Complete List of Code Contributors,
                       and Citations for Specific Modules
    https://github.com/psi4/psi4/blob/master/codemeta.json
    https://github.com/psi4/psi4/graphs/contributors
    http://psicode.org/psi4manual/master/introduction.html#citing-psifour

    -----------------------------------------------------------------------


    Psi4 started on: Monday, 15 June 2026 10:18AM

    Process ID: 3148337
    Host:       atl1-1-03-004-12-2.pace.gatech.edu
    PSIDATADIR: /storage/home/hcoda1/5/vlita3/.conda/envs/p4_qcml/share/psi4
    Memory:     250.0 GiB
    Threads:    10
    
  ==> Input QCSchema <==

--------------------------------------------------------------------------
{'driver': 'energy',
 'extras': {},
 'id': '335',
 'keywords': {},
 'model': {'basis': 'aug-cc-pvtz', 'method': 'wb97x-v'},
 'molecule': {'extras': {},
              'fix_com': True,
              'fix_orientation': True,
              'fragment_charges': [0.0, 0.0],
              'fragment_multiplicities': [1, 1],
              'fragments': [[0, 1, 2, 3, 4, 5, 6, 7, 8, 9, 10, 11, 12, 13, 14, 15, 16, 17, 18, 19, 20, 21, 22, 23, 24,
                             25, 26, 27, 28, 29, 30, 31, 32, 33, 34, 35, 36, 37, 38, 39, 40, 41, 42, 43, 44, 45, 46, 47,
                             48, 49, 50, 51, 52, 53, 54, 55],
                            [56, 57, 58, 59, 60, 61, 62, 63, 64, 65, 66, 67, 68, 69, 70, 71, 72, 73, 74, 75, 76, 77, 78,
                             79, 80, 81, 82, 83, 84, 85, 86, 87, 88, 89, 90, 91, 92, 93, 94, 95, 96, 97, 98, 99, 100,
                             101, 102, 103, 104, 105, 106, 107, 108, 109, 110, 111]],
              'geometry': [39.18725066, 24.74029443, 4.00810911, 37.91546498, 22.14947992, 3.77378307, 35.03363264,
                           22.26853266, 4.05535227, 33.7429497, 19.68527705, 3.82102623, 30.85922763, 19.81566815,
                           4.07613925, 29.56287551, 17.23808172, 3.82858513, 26.67726371, 17.37792145, 4.05535227,
                           25.37335269, 14.80600419, 3.78890088, 22.48774089, 14.95907201, 3.99866048, 21.17249151,
                           12.3909342, 3.72653992, 18.28876944, 12.55534038, 3.93818925, 16.9621817, 9.99287175,
                           3.67551731, 14.08034936, 10.16483683, 3.9060639, 12.74809244, 7.60425793, 3.66417896,
                           9.86814983, 7.77811273, 3.92685089, 8.53400318, 5.21564411, 3.71142211, 5.65595029,
                           5.38571946, 4.00621939, 4.34070091, 2.8138022, 3.80590842, 2.28845834, 3.00088509,
                           4.00432966, 38.81875407, 25.57933283, 5.86570989, 41.23760351, 24.59667525, 3.76811389,
                           38.46915474, 26.04798491, 2.57191726, 38.38222733, 21.31233124, 1.93318983, 38.68647324,
                           20.86635588, 5.21186465, 34.56120111, 23.10568134, 5.89594551, 34.26073465, 23.5516567,
                           2.61538096, 34.22860931, 18.8424592, 1.98610216, 34.50072987, 18.40782219, 5.27044616,
                           30.37356801, 20.65281683, 5.91484277, 30.10333718, 21.10257164, 2.63238849, 30.06365293,
                           16.39337414, 1.99744051, 30.30175842, 15.95495768, 5.28556397, 26.17648629, 18.2131804,
                           5.89027633, 25.94216025, 18.67049412, 2.60593233, 25.88168901, 13.96507607, 1.95964599,
                           26.09711779, 13.51532125, 5.24776945, 21.97940457, 15.79433096, 5.83169482, 21.76586551,
                           16.25353441, 2.54546109, 21.67893811, 11.5518958, 1.89728503, 21.89247716, 11.09647181,
                           5.18351876, 17.78610229, 13.3962685, 5.76933386, 17.56878379, 13.8516925, 2.48310013,
                           17.45540022, 9.14816417, 1.84248297, 17.68594681, 8.69651963, 5.1287167, 13.59468975,
                           11.01521359, 5.73909824, 13.3528048, 11.4574095, 2.45286451, 13.21863425, 6.7557709,
                           1.82925489, 13.48697536, 6.31168526, 5.1135989, 9.4032772, 8.63604839, 5.76177496,
                           9.12359773, 9.0631265, 2.47743095, 8.983758, 4.35959817, 1.87271859, 9.29178336, 3.92874061,
                           5.15517287, 5.21186465, 6.2493243, 5.84114345, 4.90005984, 6.66506404, 2.55868917,
                           4.72431531, 1.92563092, 1.9747638, 5.00966396, 1.52500898, 5.28367425, 9.39004912,
                           8.90249978, -3.87960774, 8.09936617, 6.31924416, -4.11393378, 5.21753383, 6.43829691,
                           -3.83236458, 3.94574815, 3.84748239, -4.06669062, 12.27188146, 8.77210867, -4.13661049,
                           13.57012331, 11.35158484, -3.88716664, 16.45384537, 11.20985538, -4.11393378, 17.75964613,
                           13.78177263, -3.84748239, 20.64525792, 13.62870482, -4.05724199, 21.95861758, 16.19684262,
                           -3.78512143, 24.84422937, 16.03243645, -3.99677076, 26.16892739, 18.5967948, -3.73409882,
                           29.05075973, 18.42294, -3.96464541, 30.38301665, 20.98540862, -3.72276047, 33.26295926,
                           20.80966409, -3.98732212, 34.5971059, 23.37213272, -3.77000362, 37.47515879, 23.20205737,
                           -4.0648009, 38.79040818, 25.77397463, -3.86637965, 40.84265075, 25.58878146, -4.0648009,
                           38.12144513, 27.06276784, -5.34414548, 37.91924443, 22.33845253, -5.89972496, 38.23104924,
                           21.92271278, -2.61727068, 34.14735109, 24.23006838, -1.93318983, 33.83932573, 24.65903621,
                           -5.21564411, 33.72783189, 19.95172843, -5.82035647, 34.00751135, 19.52465033, -2.53601246,
                           29.91247484, 21.83389565, -1.8878364, 29.64413373, 22.27609157, -5.17218041, 29.53641934,
                           17.57256324, -5.79767975, 29.78019401, 17.13225705, -2.51144602, 25.67759859, 19.43961265,
                           -1.90106448, 25.44516228, 19.8912572, -5.18729821, 25.34500679, 15.19150832, -5.82791537,
                           25.5623253, 14.73797405, -2.54168164, 21.45217098, 17.03777075, -1.95586654, 21.24052165,
                           17.49130502, -5.24210027, 21.15359425, 12.79344587, -5.89027633, 21.3671333, 12.33424242,
                           -2.6040426, 17.24942007, 14.62270076, -2.02011723, 17.03588102, 15.07245558, -5.30635096,
                           16.9546228, 10.37459643, -5.95074757, 17.18894884, 9.91728271, -2.66451384, 13.06934588,
                           12.19440269, -2.05791175, 12.82935067, 12.63281915, -5.34414548, 12.75754107, 7.93684973,
                           -5.97531401, 13.02777191, 7.48520518, -2.69285973, 8.9043895, 9.74531763, -2.04468367,
                           8.57179771, 5.48209549, -5.95641675, 8.87037443, 5.03612012, -2.67585219, 4.75077148,
                           7.27544558, -1.99177134, 4.44652557, 7.72142095, -5.27044616, 1.8953953, 3.99110158,
                           -3.82858513, 4.31424474, 3.00844399, -5.92618113, 4.66384408, 2.53979191, -2.63238849,
                           8.63037921, 10.17995464, -5.3309174, 38.40679377, 26.6621459, -2.03334531],
              'id': 4,
              'identifiers': {'molecular_formula': 'C36H76',
                              'molecule_hash': 'a26322121004cb994cc742c1069ba4ca192992d1'},
              'molecular_charge': 0.0,
              'molecular_multiplicity': 1,
              'name': 'C36H76',
              'provenance': {'creator': 'QCElemental',
                             'routine': 'qcelemental.molparse.from_string',
                             'version': '0.29.0'},
              'schema_name': 'qcschema_molecule',
              'schema_version': 2,
              'symbols': ['C', 'C', 'C', 'C', 'C', 'C', 'C', 'C', 'C', 'C', 'C', 'C', 'C', 'C', 'C', 'C', 'C', 'C', 'H',
                          'H', 'H', 'H', 'H', 'H', 'H', 'H', 'H', 'H', 'H', 'H', 'H', 'H', 'H', 'H', 'H', 'H', 'H', 'H',
                          'H', 'H', 'H', 'H', 'H', 'H', 'H', 'H', 'H', 'H', 'H', 'H', 'H', 'H', 'H', 'H', 'H', 'H', 'C',
                          'C', 'C', 'C', 'C', 'C', 'C', 'C', 'C', 'C', 'C', 'C', 'C', 'C', 'C', 'C', 'C', 'C', 'H', 'H',
                          'H', 'H', 'H', 'H', 'H', 'H', 'H', 'H', 'H', 'H', 'H', 'H', 'H', 'H', 'H', 'H', 'H', 'H', 'H',
                          'H', 'H', 'H', 'H', 'H', 'H', 'H', 'H', 'H', 'H', 'H', 'H', 'H', 'H', 'H', 'H', 'H'],
              'validated': True},
 'protocols': {},
 'provenance': {'creator': 'QCElemental', 'routine': 'qcelemental.models.results', 'version': '0.29.0'},
 'schema_name': 'qcschema_input',
 'schema_version': 1}
--------------------------------------------------------------------------

Scratch directory: /tmp/tmpdo0wq2w5_psi_scratch/
   => Libint2 <=

    Primary   basis highest AM E, G, H:  6, 6, 3
    Auxiliary basis highest AM E, G, H:  7, 7, 4
    Onebody   basis highest AM E, G, H:  -, -, -
    Solid Harmonics ordering:            Gaussian

*** tstart() called on atl1-1-03-004-12-2.pace.gatech.edu
*** at Mon Jun 15 10:18:07 2026

   => Loading Basis Set <=

    Name: AUG-CC-PVTZ
    Role: ORBITAL
    Keyword: BASIS
    atoms 1-18, 57-74   entry C          line   239 file /storage/home/hcoda1/5/vlita3/.conda/envs/p4_qcml/share/psi4/basis/aug-cc-pvtz.gbs 
    atoms 19-56, 75-112 entry H          line    40 file /storage/home/hcoda1/5/vlita3/.conda/envs/p4_qcml/share/psi4/basis/aug-cc-pvtz.gbs 


         ---------------------------------------------------------
                                   SCF
               by Justin Turney, Rob Parrish, Andy Simmonett
                          and Daniel G. A. Smith
                              RKS Reference
                       10 Threads, 256000 MiB Core
         ---------------------------------------------------------

  ==> Geometry <==

    Molecular point group: c1
    Full point group: C1

    Geometry (in Bohr), charge = 0, multiplicity = 1:

       Center              X                  Y                   Z               Mass       
    ------------   -----------------  -----------------  -----------------  -----------------
         C           39.187250660000    24.740294430000     4.008109110000    12.000000000000
         C           37.915464980000    22.149479920000     3.773783070000    12.000000000000
         C           35.033632640000    22.268532660000     4.055352270000    12.000000000000
         C           33.742949700000    19.685277050000     3.821026230000    12.000000000000
         C           30.859227630000    19.815668150000     4.076139250000    12.000000000000
         C           29.562875510000    17.238081720000     3.828585130000    12.000000000000
         C           26.677263710000    17.377921450000     4.055352270000    12.000000000000
         C           25.373352690000    14.806004190000     3.788900880000    12.000000000000
         C           22.487740890000    14.959072010000     3.998660480000    12.000000000000
         C           21.172491510000    12.390934200000     3.726539920000    12.000000000000
         C           18.288769440000    12.555340380000     3.938189250000    12.000000000000
         C           16.962181700000     9.992871750000     3.675517310000    12.000000000000
         C           14.080349360000    10.164836830000     3.906063900000    12.000000000000
         C           12.748092440000     7.604257930000     3.664178960000    12.000000000000
         C            9.868149830000     7.778112730000     3.926850890000    12.000000000000
         C            8.534003180000     5.215644110000     3.711422110000    12.000000000000
         C            5.655950290000     5.385719460000     4.006219390000    12.000000000000
         C            4.340700910000     2.813802200000     3.805908420000    12.000000000000
         H            2.288458340000     3.000885090000     4.004329660000     1.007825032230
         H           38.818754070000    25.579332830000     5.865709890000     1.007825032230
         H           41.237603510000    24.596675250000     3.768113890000     1.007825032230
         H           38.469154740000    26.047984910000     2.571917260000     1.007825032230
         H           38.382227330000    21.312331240000     1.933189830000     1.007825032230
         H           38.686473240000    20.866355880000     5.211864650000     1.007825032230
         H           34.561201110000    23.105681340000     5.895945510000     1.007825032230
         H           34.260734650000    23.551656700000     2.615380960000     1.007825032230
         H           34.228609310000    18.842459200000     1.986102160000     1.007825032230
         H           34.500729870000    18.407822190000     5.270446160000     1.007825032230
         H           30.373568010000    20.652816830000     5.914842770000     1.007825032230
         H           30.103337180000    21.102571640000     2.632388490000     1.007825032230
         H           30.063652930000    16.393374140000     1.997440510000     1.007825032230
         H           30.301758420000    15.954957680000     5.285563970000     1.007825032230
         H           26.176486290000    18.213180400000     5.890276330000     1.007825032230
         H           25.942160250000    18.670494120000     2.605932330000     1.007825032230
         H           25.881689010000    13.965076070000     1.959645990000     1.007825032230
         H           26.097117790000    13.515321250000     5.247769450000     1.007825032230
         H           21.979404570000    15.794330960000     5.831694820000     1.007825032230
         H           21.765865510000    16.253534410000     2.545461090000     1.007825032230
         H           21.678938110000    11.551895800000     1.897285030000     1.007825032230
         H           21.892477160000    11.096471810000     5.183518760000     1.007825032230
         H           17.786102290000    13.396268500000     5.769333860000     1.007825032230
         H           17.568783790000    13.851692500000     2.483100130000     1.007825032230
         H           17.455400220000     9.148164170000     1.842482970000     1.007825032230
         H           17.685946810000     8.696519630000     5.128716700000     1.007825032230
         H           13.594689750000    11.015213590000     5.739098240000     1.007825032230
         H           13.352804800000    11.457409500000     2.452864510000     1.007825032230
         H           13.218634250000     6.755770900000     1.829254890000     1.007825032230
         H           13.486975360000     6.311685260000     5.113598900000     1.007825032230
         H            9.403277200000     8.636048390000     5.761774960000     1.007825032230
         H            9.123597730000     9.063126500000     2.477430950000     1.007825032230
         H            8.983758000000     4.359598170000     1.872718590000     1.007825032230
         H            9.291783360000     3.928740610000     5.155172870000     1.007825032230
         H            5.211864650000     6.249324300000     5.841143450000     1.007825032230
         H            4.900059840000     6.665064040000     2.558689170000     1.007825032230
         H            4.724315310000     1.925630920000     1.974763800000     1.007825032230
         H            5.009663960000     1.525008980000     5.283674250000     1.007825032230
         C            9.390049120000     8.902499780000    -3.879607740000    12.000000000000
         C            8.099366170000     6.319244160000    -4.113933780000    12.000000000000
         C            5.217533830000     6.438296910000    -3.832364580000    12.000000000000
         C            3.945748150000     3.847482390000    -4.066690620000    12.000000000000
         C           12.271881460000     8.772108670000    -4.136610490000    12.000000000000
         C           13.570123310000    11.351584840000    -3.887166640000    12.000000000000
         C           16.453845370000    11.209855380000    -4.113933780000    12.000000000000
         C           17.759646130000    13.781772630000    -3.847482390000    12.000000000000
         C           20.645257920000    13.628704820000    -4.057241990000    12.000000000000
         C           21.958617580000    16.196842620000    -3.785121430000    12.000000000000
         C           24.844229370000    16.032436450000    -3.996770760000    12.000000000000
         C           26.168927390000    18.596794800000    -3.734098820000    12.000000000000
         C           29.050759730000    18.422940000000    -3.964645410000    12.000000000000
         C           30.383016650000    20.985408620000    -3.722760470000    12.000000000000
         C           33.262959260000    20.809664090000    -3.987322120000    12.000000000000
         C           34.597105900000    23.372132720000    -3.770003620000    12.000000000000
         C           37.475158790000    23.202057370000    -4.064800900000    12.000000000000
         C           38.790408180000    25.773974630000    -3.866379650000    12.000000000000
         H           40.842650750000    25.588781460000    -4.064800900000     1.007825032230
         H           38.121445130000    27.062767840000    -5.344145480000     1.007825032230
         H           37.919244430000    22.338452530000    -5.899724960000     1.007825032230
         H           38.231049240000    21.922712780000    -2.617270680000     1.007825032230
         H           34.147351090000    24.230068380000    -1.933189830000     1.007825032230
         H           33.839325730000    24.659036210000    -5.215644110000     1.007825032230
         H           33.727831890000    19.951728430000    -5.820356470000     1.007825032230
         H           34.007511350000    19.524650330000    -2.536012460000     1.007825032230
         H           29.912474840000    21.833895650000    -1.887836400000     1.007825032230
         H           29.644133730000    22.276091570000    -5.172180410000     1.007825032230
         H           29.536419340000    17.572563240000    -5.797679750000     1.007825032230
         H           29.780194010000    17.132257050000    -2.511446020000     1.007825032230
         H           25.677598590000    19.439612650000    -1.901064480000     1.007825032230
         H           25.445162280000    19.891257200000    -5.187298210000     1.007825032230
         H           25.345006790000    15.191508320000    -5.827915370000     1.007825032230
         H           25.562325300000    14.737974050000    -2.541681640000     1.007825032230
         H           21.452170980000    17.037770750000    -1.955866540000     1.007825032230
         H           21.240521650000    17.491305020000    -5.242100270000     1.007825032230
         H           21.153594250000    12.793445870000    -5.890276330000     1.007825032230
         H           21.367133300000    12.334242420000    -2.604042600000     1.007825032230
         H           17.249420070000    14.622700760000    -2.020117230000     1.007825032230
         H           17.035881020000    15.072455580000    -5.306350960000     1.007825032230
         H           16.954622800000    10.374596430000    -5.950747570000     1.007825032230
         H           17.188948840000     9.917282710000    -2.664513840000     1.007825032230
         H           13.069345880000    12.194402690000    -2.057911750000     1.007825032230
         H           12.829350670000    12.632819150000    -5.344145480000     1.007825032230
         H           12.757541070000     7.936849730000    -5.975314010000     1.007825032230
         H           13.027771910000     7.485205180000    -2.692859730000     1.007825032230
         H            8.904389500000     9.745317630000    -2.044683670000     1.007825032230
         H            8.571797710000     5.482095490000    -5.956416750000     1.007825032230
         H            8.870374430000     5.036120120000    -2.675852190000     1.007825032230
         H            4.750771480000     7.275445580000    -1.991771340000     1.007825032230
         H            4.446525570000     7.721420950000    -5.270446160000     1.007825032230
         H            1.895395300000     3.991101580000    -3.828585130000     1.007825032230
         H            4.314244740000     3.008443990000    -5.926181130000     1.007825032230
         H            4.663844080000     2.539791910000    -2.632388490000     1.007825032230
         H            8.630379210000    10.179954640000    -5.330917400000     1.007825032230
         H           38.406793770000    26.662145900000    -2.033345310000     1.007825032230

  Running in c1 symmetry.

  Rotational constants: A =      0.00674  B =      0.00014  C =      0.00014 [cm^-1]
  Rotational constants: A =    202.03768  B =      4.27015  C =      4.19674 [MHz]
  Nuclear repulsion = 3874.313543520549956

  Charge       = 0
  Multiplicity = 1
  Electrons    = 292
  Nalpha       = 146
  Nbeta        = 146

  ==> Algorithm <==

  SCF Algorithm Type is DF.
  DIIS enabled.
  MOM disabled.
  Fractional occupation disabled.
  Guess Type is SAD.
  Energy threshold   = 1.00e-06
  Density threshold  = 1.00e-06
  Integral threshold = 1.00e-12

  ==> Primary Basis <==

  Basis Set: AUG-CC-PVTZ
    Blend: AUG-CC-PVTZ
    Number of shells: 1188
    Number of basis functions: 3404
    Number of Cartesian functions: 3880
    Spherical Harmonics?: true
    Max angular momentum: 3

  ==> DFT Potential <==

   => LibXC <=

    Version 7.0.0
    S. Lehtola, C. Steigemann, M. J.T. Oliveira, and M. A.L. Marques.,  SoftwareX 7, 1–5 (2018) (10.1016/j.softx.2017.11.002)

   => Composite Functional: WB97X-V <= 

    wB97X-V Hyb-GGA Exchange-Correlation Functional

    N. Mardirossian and M. Head-Gordon.,  Phys. Chem. Chem. Phys. 16, 9904-9924 (2014) (10.1039/C3CP54374A)

    Deriv               =              1
    GGA                 =           TRUE
    Meta                =          FALSE

    Exchange Hybrid     =           TRUE
    MP2 Hybrid          =          FALSE

   => Exchange-Correlation Functionals <=

    1.0000   wB97X-V range-separated functional

   => Exact (HF) Exchange <=

    0.8330            HF,LR [omega = 0.3000]
    0.1670               HF 

   => LibXC Density Thresholds  <==

    XC_HYB_GGA_XC_WB97X_V:  1.00E-14 

   => VV10 Non-Local Parameters <=

    VV10 B              =     6.0000E+00
    VV10 C              =     1.0000E-02

   => Molecular Quadrature <=

    Radial Scheme          =       TREUTLER
    Pruning Scheme         =           NONE
    Nuclear Scheme         =       TREUTLER

    Blocking Scheme        =         OCTREE
    BS radius alpha        =              1
    Pruning alpha          =              1
    Radial Points          =             75
    Spherical Points       =            302
    Total Points           =        2287807
    Total Blocks           =          15476
    Max Points             =            256
    Max Functions          =           1540
    Weights Tolerance      =       1.00E-15

   => Loading Basis Set <=

    Name: (AUG-CC-PVTZ AUX)
    Role: JKFIT
    Keyword: DF_BASIS_SCF
    atoms 1-18, 57-74   entry C          line   162 file /storage/home/hcoda1/5/vlita3/.conda/envs/p4_qcml/share/psi4/basis/aug-cc-pvtz-jkfit.gbs 
    atoms 19-56, 75-112 entry H          line    70 file /storage/home/hcoda1/5/vlita3/.conda/envs/p4_qcml/share/psi4/basis/aug-cc-pvtz-jkfit.gbs 

  ==> Integral Setup <==

  ==> DiskDFJK: Density-Fitted J/K Matrices <==

    J tasked:                  Yes
    K tasked:                  Yes
    wK tasked:                 Yes
    Omega:               3.000E-01
    OpenMP threads:             10
    Integrals threads:          10
    Memory [MiB]:           172368
    Algorithm:                Disk
    Integral Cache:           NONE
    Schwarz Cutoff:          1E-12
    Fitting Condition:       1E-10

   => Auxiliary Basis Set <=

  Basis Set: (AUG-CC-PVTZ AUX)
    Blend: AUG-CC-PVTZ-JKFIT
    Number of shells: 2144
    Number of basis functions: 7240
    Number of Cartesian functions: 8896
    Spherical Harmonics?: true
    Max angular momentum: 4

  Minimum eigenvalue in the overlap matrix is 2.2061596341E-08.
  Reciprocal condition number of the overlap matrix is 6.8411741151E-10.
    Using canonical orthogonalization.
  Overall, 1 of 3404 possible MOs eliminated.


  ==> Pre-Iterations <==

  SCF Guess: Superposition of Atomic Densities via on-the-fly atomic UHF (no occupation information).

   -------------------------
    Irrep   Nso     Nmo    
   -------------------------
     A       3404    3403 
   -------------------------
    Total    3404    3403
   -------------------------

  ==> Iterations <==

                           Total Energy        Delta E     RMS |[F,P]|

   @DF-RKS iter SAD: -1417.01571789544164   -1.41702e+03   0.00000e+00 
   @DF-RKS iter   1: -1415.35936450207259    1.65635e+00   6.23930e-04 DIIS/ADIIS
   @DF-RKS iter   2: -1416.71766298079388   -1.35830e+00   4.33698e-04 DIIS/ADIIS
   @DF-RKS iter   3: -1417.80716163401189   -1.08950e+00   2.80552e-05 DIIS
   @DF-RKS iter   4: -1417.81598760530846   -8.82597e-03   1.11182e-05 DIIS
   @DF-RKS iter   5: -1417.81677971591876   -7.92111e-04   3.29790e-06 DIIS
   @DF-RKS iter   6: -1417.81685138661851   -7.16707e-05   5.50198e-07 DIIS
   @DF-RKS iter   7: -1417.81685382159867   -2.43498e-06   2.02264e-07 DIIS
   @DF-RKS iter   8: -1417.81685414012281   -3.18524e-07   5.09363e-08 DIIS
  Energy and wave function converged.


  ==> Post-Iterations <==

   Electrons on quadrature grid:
      Ntotal   =  292.0023396134 ; deviation = 2.340e-03 

    Orbital Energies [Eh]
    ---------------------

    Doubly Occupied:                                                      

       1A    -10.263507     2A    -10.263494     3A    -10.263425  
       4A    -10.263402     5A    -10.261866     6A    -10.261853  
       7A    -10.261807     8A    -10.261805     9A    -10.261801  
      10A    -10.261779    11A    -10.261769    12A    -10.261733  
      13A    -10.261723    14A    -10.261693    15A    -10.261689  
      16A    -10.261650    17A    -10.261638    18A    -10.261614  
      19A    -10.261610    20A    -10.261581    21A    -10.261573  
      22A    -10.261543    23A    -10.261523    24A    -10.261508  
      25A    -10.261479    26A    -10.261461    27A    -10.261456  
      28A    -10.261450    29A    -10.261448    30A    -10.261437  
      31A    -10.261427    32A    -10.261407    33A    -10.256351  
      34A    -10.256341    35A    -10.256293    36A    -10.256228  
      37A     -0.952781    38A     -0.950214    39A     -0.947134  
      40A     -0.944597    41A     -0.937735    42A     -0.935240  
      43A     -0.924723    44A     -0.922277    45A     -0.908157  
      46A     -0.905762    47A     -0.888210    48A     -0.885869  
      49A     -0.865100    50A     -0.862810    51A     -0.839114  
      52A     -0.836861    53A     -0.810782    54A     -0.808538  
      55A     -0.781040    56A     -0.778750    57A     -0.751164  
      58A     -0.748714    59A     -0.724031    60A     -0.721245  
      61A     -0.705041    62A     -0.704515    63A     -0.701007  
      64A     -0.700973    65A     -0.700218    66A     -0.697559  
      67A     -0.696488    68A     -0.693116    69A     -0.692796  
      70A     -0.692505    71A     -0.688794    72A     -0.688227  
      73A     -0.615013    74A     -0.609346    75A     -0.600068  
      76A     -0.597596    77A     -0.592170    78A     -0.587436  
      79A     -0.583256    80A     -0.571886    81A     -0.571056  
      82A     -0.556091    83A     -0.553771    84A     -0.546661  
      85A     -0.545703    86A     -0.544242    87A     -0.543773  
      88A     -0.538668    89A     -0.536716    90A     -0.533987  
      91A     -0.533941    92A     -0.530315    93A     -0.528914  
      94A     -0.520677    95A     -0.519525    96A     -0.517722  
      97A     -0.513272    98A     -0.504361    99A     -0.502399  
     100A     -0.500791   101A     -0.499611   102A     -0.498157  
     103A     -0.491631   104A     -0.483203   105A     -0.479701  
     106A     -0.478934   107A     -0.473049   108A     -0.467899  
     109A     -0.466967   110A     -0.465702   111A     -0.461663  
     112A     -0.460361   113A     -0.456561   114A     -0.450872  
     115A     -0.446083   116A     -0.443839   117A     -0.443655  
     118A     -0.440779   119A     -0.435674   120A     -0.434848  
     121A     -0.432912   122A     -0.432688   123A     -0.431385  
     124A     -0.430990   125A     -0.430519   126A     -0.429942  
     127A     -0.429896   128A     -0.428339   129A     -0.428219  
     130A     -0.427869   131A     -0.426692   132A     -0.425951  
     133A     -0.425881   134A     -0.420843   135A     -0.420493  
     136A     -0.417725   137A     -0.416353   138A     -0.414776  
     139A     -0.411820   140A     -0.411582   141A     -0.410797  
     142A     -0.410691   143A     -0.402841   144A     -0.402383  
     145A     -0.382411   146A     -0.382071  

    Virtual:                                                              

     147A      0.027984   148A      0.028528   149A      0.029398  
     150A      0.029803   151A      0.031827   152A      0.032468  
     153A      0.032748   154A      0.037893   155A      0.038007  
     156A      0.040017   157A      0.040967   158A      0.045137  
     159A      0.045382   160A      0.046115   161A      0.048949  
     162A      0.051327   163A      0.052347   164A      0.052372  
     165A      0.054295   166A      0.056842   167A      0.059792  
     168A      0.060058   169A      0.061729   170A      0.064435  
     171A      0.065474   172A      0.068521   173A      0.069095  
     174A      0.069700   175A      0.072877   176A      0.073988  
     177A      0.076685   178A      0.076829   179A      0.078111  
     180A      0.080572   181A      0.080633   182A      0.082330  
     183A      0.085043   184A      0.086813   185A      0.086898  
     186A      0.089599   187A      0.090497   188A      0.090563  
     189A      0.091417   190A      0.093787   191A      0.094078  
     192A      0.095195   193A      0.095772   194A      0.096561  
     195A      0.097761   196A      0.099771   197A      0.100552  
     198A      0.100987   199A      0.102335   200A      0.103987  
     201A      0.104462   202A      0.104701   203A      0.104789  
     204A      0.105538   205A      0.107068   206A      0.109529  
     207A      0.110895   208A      0.111556   209A      0.113516  
     210A      0.113768   211A      0.114859   212A      0.115070  
     213A      0.115536   214A      0.116264   215A      0.118016  
     216A      0.118898   217A      0.119836   218A      0.121354  
     219A      0.122769   220A      0.123513   221A      0.123564  
     222A      0.125736   223A      0.126929   224A      0.127058  
     225A      0.127758   226A      0.129943   227A      0.131054  
     228A      0.131798   229A      0.133840   230A      0.136676  
     231A      0.137156   232A      0.137715   233A      0.138452  
     234A      0.138977   235A      0.139107   236A      0.139805  
     237A      0.140566   238A      0.142884   239A      0.143569  
     240A      0.144554   241A      0.148982   242A      0.149937  
     243A      0.150201   244A      0.151094   245A      0.152455  
     246A      0.152716   247A      0.153600   248A      0.154222  
     249A      0.154610   250A      0.155577   251A      0.156380  
     252A      0.158374   253A      0.159010   254A      0.159914  
     255A      0.160010   256A      0.161413   257A      0.162885  
     258A      0.166139   259A      0.166217   260A      0.168072  
     261A      0.168101   262A      0.168912   263A      0.169237  
     264A      0.170611   265A      0.171473   266A      0.171800  
     267A      0.172701   268A      0.173175   269A      0.175364  
     270A      0.175719   271A      0.177255   272A      0.179323  
     273A      0.181136   274A      0.183398   275A      0.183958  
     276A      0.185514   277A      0.185775   278A      0.186845  
     279A      0.187211   280A      0.188126   281A      0.189072  
     282A      0.189935   283A      0.190210   284A      0.190431  
     285A      0.191049   286A      0.194453   287A      0.194608  
     288A      0.194987   289A      0.195820   290A      0.195916  
     291A      0.196307   292A      0.198124   293A      0.200499  
     294A      0.201399   295A      0.201604   296A      0.202200  
     297A      0.203614   298A      0.205198   299A      0.205821  
     300A      0.206838   301A      0.210383   302A      0.212440  
     303A      0.212607   304A      0.214314   305A      0.215593  
     306A      0.216597   307A      0.217275   308A      0.217598  
     309A      0.219027   310A      0.219203   311A      0.221205  
     312A      0.223726   313A      0.224145   314A      0.224382  
     315A      0.225544   316A      0.228739   317A      0.231406  
     318A      0.232760   319A      0.234289   320A      0.235574  
     321A      0.235837   322A      0.237703   323A      0.240640  
     324A      0.240938   325A      0.242019   326A      0.242226  
     327A      0.243690   328A      0.244332   329A      0.244401  
     330A      0.247043   331A      0.247846   332A      0.248463  
     333A      0.249275   334A      0.249532   335A      0.251401  
     336A      0.252208   337A      0.252236   338A      0.253489  
     339A      0.255413   340A      0.256386   341A      0.256652  
     342A      0.256787   343A      0.258125   344A      0.259830  
     345A      0.261064   346A      0.261422   347A      0.261859  
     348A      0.262679   349A      0.263725   350A      0.264249  
     351A      0.264365   352A      0.265894   353A      0.266642  
     354A      0.268176   355A      0.270470   356A      0.270626  
     357A      0.271942   358A      0.272099   359A      0.273672  
     360A      0.276179   361A      0.278087   362A      0.279843  
     363A      0.281102   364A      0.281283   365A      0.282015  
     366A      0.282230   367A      0.283138   368A      0.283684  
     369A      0.284595   370A      0.284999   371A      0.285645  
     372A      0.286419   373A      0.288794   374A      0.291470  
     375A      0.291680   376A      0.291997   377A      0.292790  
     378A      0.293047   379A      0.294819   380A      0.295323  
     381A      0.295925   382A      0.297036   383A      0.297763  
     384A      0.299204   385A      0.300379   386A      0.300909  
     387A      0.301119   388A      0.303454   389A      0.303853  
     390A      0.304649   391A      0.305014   392A      0.305827  
     393A      0.308774   394A      0.308943   395A      0.309982  
     396A      0.311127   397A      0.311450   398A      0.311775  
     399A      0.313085   400A      0.313889   401A      0.314303  
     402A      0.315487   403A      0.317016   404A      0.317803  
     405A      0.319192   406A      0.321270   407A      0.321433  
     408A      0.321642   409A      0.323024   410A      0.323100  
     411A      0.324208   412A      0.324377   413A      0.325781  
     414A      0.326742   415A      0.329690   416A      0.329984  
     417A      0.330184   418A      0.331969   419A      0.334151  
     420A      0.335481   421A      0.336203   422A      0.338822  
     423A      0.339730   424A      0.339874   425A      0.341915  
     426A      0.344241   427A      0.344999   428A      0.346162  
     429A      0.347426   430A      0.347604   431A      0.348634  
     432A      0.349007   433A      0.349838   434A      0.350332  
     435A      0.351440   436A      0.352580   437A      0.352603  
     438A      0.353323   439A      0.354153   440A      0.354501  
     441A      0.355753   442A      0.355903   443A      0.358924  
     444A      0.359664   445A      0.363255   446A      0.363552  
     447A      0.364663   448A      0.365540   449A      0.366088  
     450A      0.367611   451A      0.369131   452A      0.369955  
     453A      0.370724   454A      0.372783   455A      0.373241  
     456A      0.375409   457A      0.376277   458A      0.376566  
     459A      0.378014   460A      0.378873   461A      0.378971  
     462A      0.380456   463A      0.383594   464A      0.383949  
     465A      0.384435   466A      0.385409   467A      0.386322  
     468A      0.386422   469A      0.386768   470A      0.389910  
     471A      0.391108   472A      0.391332   473A      0.391923  
     474A      0.394070   475A      0.394389   476A      0.394699  
     477A      0.395398   478A      0.398120   479A      0.398865  
     480A      0.399052   481A      0.399999   482A      0.400744  
     483A      0.401445   484A      0.401867   485A      0.402352  
     486A      0.403074   487A      0.403849   488A      0.404304  
     489A      0.405108   490A      0.406548   491A      0.408709  
     492A      0.408737   493A      0.410833   494A      0.411051  
     495A      0.412462   496A      0.412647   497A      0.413817  
     498A      0.414243   499A      0.414979   500A      0.416141  
     501A      0.418153   502A      0.419403   503A      0.421104  
     504A      0.421282   505A      0.422184   506A      0.424038  
     507A      0.426717   508A      0.428212   509A      0.429047  
     510A      0.429439   511A      0.430499   512A      0.431194  
     513A      0.431422   514A      0.432775   515A      0.433301  
     516A      0.433834   517A      0.435015   518A      0.436756  
     519A      0.437040   520A      0.438462   521A      0.440419  
     522A      0.442951   523A      0.443055   524A      0.444785  
     525A      0.444790   526A      0.445359   527A      0.445385  
     528A      0.447265   529A      0.448081   530A      0.451736  
     531A      0.452282   532A      0.454543   533A      0.455692  
     534A      0.456145   535A      0.456574   536A      0.457681  
     537A      0.457933   538A      0.457972   539A      0.458588  
     540A      0.458851   541A      0.459039   542A      0.461994  
     543A      0.462751   544A      0.463305   545A      0.464465  
     546A      0.465929   547A      0.466768   548A      0.468616  
     549A      0.469471   550A      0.471077   551A      0.471811  
     552A      0.473633   553A      0.474376   554A      0.474649  
     555A      0.476856   556A      0.478403   557A      0.478447  
     558A      0.481095   559A      0.481765   560A      0.481829  
     561A      0.482312   562A      0.482506   563A      0.483735  
     564A      0.487420   565A      0.488275   566A      0.488540  
     567A      0.489889   568A      0.490089   569A      0.491726  
     570A      0.492119   571A      0.492670   572A      0.492830  
     573A      0.493522   574A      0.495614   575A      0.496108  
     576A      0.496272   577A      0.496608   578A      0.497465  
     579A      0.498351   580A      0.498744   581A      0.499938  
     582A      0.500343   583A      0.503275   584A      0.503595  
     585A      0.504241   586A      0.504375   587A      0.505491  
     588A      0.506700   589A      0.507555   590A      0.509412  
     591A      0.509593   592A      0.510906   593A      0.511232  
     594A      0.511789   595A      0.513282   596A      0.515387  
     597A      0.515774   598A      0.516105   599A      0.518689  
     600A      0.519803   601A      0.520484   602A      0.520747  
     603A      0.522645   604A      0.522726   605A      0.526087  
     606A      0.526150   607A      0.526311   608A      0.527254  
     609A      0.528089   610A      0.529617   611A      0.532380  
     612A      0.533470   613A      0.534953   614A      0.536758  
     615A      0.537617   616A      0.537853   617A      0.539396  
     618A      0.539673   619A      0.541163   620A      0.541900  
     621A      0.542239   622A      0.542521   623A      0.546801  
     624A      0.548340   625A      0.549233   626A      0.551177  
     627A      0.551501   628A      0.552442   629A      0.553375  
     630A      0.554859   631A      0.556508   632A      0.556780  
     633A      0.557798   634A      0.558319   635A      0.559721  
     636A      0.559959   637A      0.560026   638A      0.560270  
     639A      0.561662   640A      0.562704   641A      0.563850  
     642A      0.565052   643A      0.565997   644A      0.566029  
     645A      0.567520   646A      0.568463   647A      0.569809  
     648A      0.571081   649A      0.573412   650A      0.574101  
     651A      0.577516   652A      0.580024   653A      0.580037  
     654A      0.580490   655A      0.581471   656A      0.582611  
     657A      0.584004   658A      0.584811   659A      0.589232  
     660A      0.589563   661A      0.589987   662A      0.590865  
     663A      0.593252   664A      0.594102   665A      0.597457  
     666A      0.597702   667A      0.598603   668A      0.598842  
     669A      0.599995   670A      0.601776   671A      0.602941  
     672A      0.604396   673A      0.605655   674A      0.606310  
     675A      0.606968   676A      0.608230   677A      0.609267  
     678A      0.610073   679A      0.612160   680A      0.613005  
     681A      0.613860   682A      0.614704   683A      0.615862  
     684A      0.616689   685A      0.617289   686A      0.618937  
     687A      0.619616   688A      0.621758   689A      0.622925  
     690A      0.623215   691A      0.623784   692A      0.627086  
     693A      0.629710   694A      0.630562   695A      0.631432  
     696A      0.632014   697A      0.634198   698A      0.635818  
     699A      0.636294   700A      0.637193   701A      0.637920  
     702A      0.638319   703A      0.639575   704A      0.640763  
     705A      0.641682   706A      0.642962   707A      0.643465  
     708A      0.644568   709A      0.645311   710A      0.646437  
     711A      0.647443   712A      0.648058   713A      0.648211  
     714A      0.649470   715A      0.649620   716A      0.651712  
     717A      0.653491   718A      0.654405   719A      0.655808  
     720A      0.657469   721A      0.657742   722A      0.658479  
     723A      0.659223   724A      0.660328   725A      0.660791  
     726A      0.662407   727A      0.662521   728A      0.666495  
     729A      0.667410   730A      0.669048   731A      0.669539  
     732A      0.669608   733A      0.670703   734A      0.671227  
     735A      0.673119   736A      0.673825   737A      0.674969  
     738A      0.675620   739A      0.676062   740A      0.676935  
     741A      0.680733   742A      0.681858   743A      0.682018  
     744A      0.682610   745A      0.683315   746A      0.684748  
     747A      0.690037   748A      0.690468   749A      0.693346  
     750A      0.693744   751A      0.694847   752A      0.695646  
     753A      0.695896   754A      0.698921   755A      0.699510  
     756A      0.700447   757A      0.702453   758A      0.702617  
     759A      0.702863   760A      0.705255   761A      0.705791  
     762A      0.708389   763A      0.709294   764A      0.712056  
     765A      0.712521   766A      0.714009   767A      0.714180  
     768A      0.715722   769A      0.717623   770A      0.721487  
     771A      0.722625   772A      0.724416   773A      0.725141  
     774A      0.725711   775A      0.726204   776A      0.726885  
     777A      0.727557   778A      0.728728   779A      0.732687  
     780A      0.733763   781A      0.733996   782A      0.737571  
     783A      0.738260   784A      0.741883   785A      0.741917  
     786A      0.742795   787A      0.743669   788A      0.744455  
     789A      0.745580   790A      0.747372   791A      0.748357  
     792A      0.749432   793A      0.751145   794A      0.751810  
     795A      0.754236   796A      0.756613   797A      0.757690  
     798A      0.758494   799A      0.761855   800A      0.763498  
     801A      0.764168   802A      0.765444   803A      0.766589  
     804A      0.769888   805A      0.770481   806A      0.771091  
     807A      0.772493   808A      0.773492   809A      0.773557  
     810A      0.775264   811A      0.776202   812A      0.776716  
     813A      0.778127   814A      0.779311   815A      0.780501  
     816A      0.780597   817A      0.784033   818A      0.785705  
     819A      0.786009   820A      0.789181   821A      0.790531  
     822A      0.791231   823A      0.793427   824A      0.794509  
     825A      0.794686   826A      0.796541   827A      0.797970  
     828A      0.798692   829A      0.801532   830A      0.802841  
     831A      0.803097   832A      0.804478   833A      0.805496  
     834A      0.806031   835A      0.806083   836A      0.806821  
     837A      0.807156   838A      0.809597   839A      0.809946  
     840A      0.813019   841A      0.813658   842A      0.816134  
     843A      0.816840   844A      0.819422   845A      0.820555  
     846A      0.820627   847A      0.822077   848A      0.823160  
     849A      0.824606   850A      0.827879   851A      0.828796  
     852A      0.828934   853A      0.830947   854A      0.831481  
     855A      0.834012   856A      0.834408   857A      0.835700  
     858A      0.836647   859A      0.838604   860A      0.839819  
     861A      0.843273   862A      0.845167   863A      0.845875  
     864A      0.846697   865A      0.848615   866A      0.849211  
     867A      0.849281   868A      0.852763   869A      0.852990  
     870A      0.856117   871A      0.857491   872A      0.859510  
     873A      0.859538   874A      0.862465   875A      0.863380  
     876A      0.865302   877A      0.867289   878A      0.869059  
     879A      0.869604   880A      0.869702   881A      0.871521  
     882A      0.872164   883A      0.873424   884A      0.874964  
     885A      0.875441   886A      0.875808   887A      0.877413  
     888A      0.877627   889A      0.878975   890A      0.879155  
     891A      0.880447   892A      0.880910   893A      0.881569  
     894A      0.882119   895A      0.883449   896A      0.885454  
     897A      0.886152   898A      0.887065   899A      0.887202  
     900A      0.888251   901A      0.890098   902A      0.891342  
     903A      0.891920   904A      0.892866   905A      0.894140  
     906A      0.894369   907A      0.895660   908A      0.895874  
     909A      0.899530   910A      0.900344   911A      0.900499  
     912A      0.901579   913A      0.902460   914A      0.902881  
     915A      0.903277   916A      0.903685   917A      0.905276  
     918A      0.906969   919A      0.908251   920A      0.908396  
     921A      0.910355   922A      0.910601   923A      0.911540  
     924A      0.912364   925A      0.913745   926A      0.915119  
     927A      0.915677   928A      0.916355   929A      0.921296  
     930A      0.922223   931A      0.923155   932A      0.923527  
     933A      0.923999   934A      0.925881   935A      0.926341  
     936A      0.926616   937A      0.929167   938A      0.929225  
     939A      0.931621   940A      0.931847   941A      0.934641  
     942A      0.934951   943A      0.935461   944A      0.938309  
     945A      0.939864   946A      0.941448   947A      0.941610  
     948A      0.941735   949A      0.943363   950A      0.946589  
     951A      0.947025   952A      0.948304   953A      0.948766  
     954A      0.950659   955A      0.951775   956A      0.952916  
     957A      0.952965   958A      0.953805   959A      0.954366  
     960A      0.959780   961A      0.959956   962A      0.963106  
     963A      0.964476   964A      0.964828   965A      0.965449  
     966A      0.965569   967A      0.968165   968A      0.968985  
     969A      0.970127   970A      0.971734   971A      0.972820  
     972A      0.974192   973A      0.976585   974A      0.979003  
     975A      0.980241   976A      0.980315   977A      0.980800  
     978A      0.982435   979A      0.984052   980A      0.984825  
     981A      0.985295   982A      0.988092   983A      0.992654  
     984A      0.993292   985A      0.996288   986A      0.996725  
     987A      0.998677   988A      0.999680   989A      1.000480  
     990A      1.001837   991A      1.004886   992A      1.006324  
     993A      1.007395   994A      1.010515   995A      1.011197  
     996A      1.011917   997A      1.012556   998A      1.014317  
     999A      1.015301  1000A      1.015386  1001A      1.016049  
    1002A      1.019289  1003A      1.019942  1004A      1.021326  
    1005A      1.021427  1006A      1.023518  1007A      1.025041  
    1008A      1.026694  1009A      1.028484  1010A      1.028551  
    1011A      1.031760  1012A      1.032163  1013A      1.033202  
    1014A      1.034207  1015A      1.035071  1016A      1.036683  
    1017A      1.038730  1018A      1.039132  1019A      1.040093  
    1020A      1.041030  1021A      1.044266  1022A      1.045376  
    1023A      1.048025  1024A      1.048211  1025A      1.051074  
    1026A      1.051362  1027A      1.051716  1028A      1.054147  
    1029A      1.054255  1030A      1.054901  1031A      1.055996  
    1032A      1.058858  1033A      1.059117  1034A      1.060223  
    1035A      1.062267  1036A      1.062882  1037A      1.064016  
    1038A      1.067179  1039A      1.067272  1040A      1.067687  
    1041A      1.069250  1042A      1.070013  1043A      1.071307  
    1044A      1.073113  1045A      1.075048  1046A      1.077398  
    1047A      1.077802  1048A      1.078182  1049A      1.078482  
    1050A      1.079235  1051A      1.079627  1052A      1.080923  
    1053A      1.081449  1054A      1.083380  1055A      1.084855  
    1056A      1.085773  1057A      1.086899  1058A      1.088206  
    1059A      1.088613  1060A      1.089064  1061A      1.091542  
    1062A      1.092594  1063A      1.093438  1064A      1.094171  
    1065A      1.095868  1066A      1.096720  1067A      1.098247  
    1068A      1.101359  1069A      1.102550  1070A      1.104222  
    1071A      1.105891  1072A      1.107303  1073A      1.107717  
    1074A      1.108504  1075A      1.110310  1076A      1.112041  
    1077A      1.112507  1078A      1.112691  1079A      1.115555  
    1080A      1.116052  1081A      1.116270  1082A      1.118590  
    1083A      1.119616  1084A      1.119724  1085A      1.120417  
    1086A      1.121796  1087A      1.123760  1088A      1.123823  
    1089A      1.125064  1090A      1.126522  1091A      1.127085  
    1092A      1.127915  1093A      1.128042  1094A      1.130403  
    1095A      1.132303  1096A      1.132554  1097A      1.134868  
    1098A      1.135367  1099A      1.136096  1100A      1.137399  
    1101A      1.137699  1102A      1.138881  1103A      1.139502  
    1104A      1.139844  1105A      1.140167  1106A      1.144178  
    1107A      1.145117  1108A      1.145470  1109A      1.146276  
    1110A      1.147285  1111A      1.149228  1112A      1.149624  
    1113A      1.150015  1114A      1.150928  1115A      1.153341  
    1116A      1.153645  1117A      1.154806  1118A      1.157250  
    1119A      1.157675  1120A      1.158417  1121A      1.159513  
    1122A      1.160073  1123A      1.160978  1124A      1.161391  
    1125A      1.163110  1126A      1.165343  1127A      1.166545  
    1128A      1.168052  1129A      1.168901  1130A      1.169372  
    1131A      1.170157  1132A      1.171010  1133A      1.172465  
    1134A      1.173777  1135A      1.174281  1136A      1.176352  
    1137A      1.178520  1138A      1.178767  1139A      1.180418  
    1140A      1.181154  1141A      1.181911  1142A      1.184017  
    1143A      1.188670  1144A      1.190092  1145A      1.191910  
    1146A      1.192187  1147A      1.192967  1148A      1.194940  
    1149A      1.195619  1150A      1.197922  1151A      1.198498  
    1152A      1.198836  1153A      1.201200  1154A      1.201889  
    1155A      1.201934  1156A      1.203726  1157A      1.204520  
    1158A      1.204813  1159A      1.206196  1160A      1.208105  
    1161A      1.211954  1162A      1.212477  1163A      1.213149  
    1164A      1.214506  1165A      1.216413  1166A      1.216992  
    1167A      1.217545  1168A      1.220251  1169A      1.221369  
    1170A      1.223161  1171A      1.223762  1172A      1.225333  
    1173A      1.225908  1174A      1.226109  1175A      1.226725  
    1176A      1.227490  1177A      1.228258  1178A      1.229218  
    1179A      1.230457  1180A      1.233655  1181A      1.233975  
    1182A      1.236553  1183A      1.237698  1184A      1.240164  
    1185A      1.243638  1186A      1.245210  1187A      1.245688  
    1188A      1.248150  1189A      1.249936  1190A      1.251433  
    1191A      1.252658  1192A      1.253191  1193A      1.253470  
    1194A      1.254179  1195A      1.258484  1196A      1.258526  
    1197A      1.260847  1198A      1.261390  1199A      1.262112  
    1200A      1.262630  1201A      1.263528  1202A      1.264725  
    1203A      1.265809  1204A      1.266805  1205A      1.267405  
    1206A      1.268630  1207A      1.270305  1208A      1.271086  
    1209A      1.274020  1210A      1.274588  1211A      1.276870  
    1212A      1.277160  1213A      1.278633  1214A      1.278705  
    1215A      1.279808  1216A      1.279881  1217A      1.282004  
    1218A      1.283920  1219A      1.285140  1220A      1.288414  
    1221A      1.291550  1222A      1.292464  1223A      1.293835  
    1224A      1.294231  1225A      1.294531  1226A      1.296382  
    1227A      1.297530  1228A      1.298280  1229A      1.299561  
    1230A      1.300603  1231A      1.302283  1232A      1.303401  
    1233A      1.305059  1234A      1.306205  1235A      1.306492  
    1236A      1.307697  1237A      1.308692  1238A      1.309165  
    1239A      1.311381  1240A      1.311739  1241A      1.313767  
    1242A      1.314441  1243A      1.318369  1244A      1.321541  
    1245A      1.322684  1246A      1.322789  1247A      1.324948  
    1248A      1.325625  1249A      1.327309  1250A      1.327628  
    1251A      1.328462  1252A      1.329736  1253A      1.331806  
    1254A      1.332227  1255A      1.334840  1256A      1.335153  
    1257A      1.336165  1258A      1.338448  1259A      1.339089  
    1260A      1.341163  1261A      1.341920  1262A      1.344573  
    1263A      1.345443  1264A      1.346590  1265A      1.347796  
    1266A      1.348222  1267A      1.350397  1268A      1.351433  
    1269A      1.352215  1270A      1.353205  1271A      1.355374  
    1272A      1.357140  1273A      1.359834  1274A      1.360217  
    1275A      1.363364  1276A      1.364990  1277A      1.366339  
    1278A      1.366539  1279A      1.368206  1280A      1.369273  
    1281A      1.370315  1282A      1.373032  1283A      1.373668  
    1284A      1.373952  1285A      1.374858  1286A      1.375563  
    1287A      1.377216  1288A      1.378570  1289A      1.379986  
    1290A      1.380885  1291A      1.384588  1292A      1.387546  
    1293A      1.390217  1294A      1.392034  1295A      1.394575  
    1296A      1.394676  1297A      1.397750  1298A      1.400204  
    1299A      1.401813  1300A      1.404825  1301A      1.405020  
    1302A      1.409071  1303A      1.409219  1304A      1.409399  
    1305A      1.411013  1306A      1.414333  1307A      1.416812  
    1308A      1.417732  1309A      1.418339  1310A      1.421622  
    1311A      1.422591  1312A      1.423143  1313A      1.427248  
    1314A      1.427414  1315A      1.428588  1316A      1.429018  
    1317A      1.432230  1318A      1.432553  1319A      1.433556  
    1320A      1.433736  1321A      1.435034  1322A      1.437984  
    1323A      1.439795  1324A      1.440725  1325A      1.441693  
    1326A      1.443885  1327A      1.444779  1328A      1.445873  
    1329A      1.446018  1330A      1.448543  1331A      1.451554  
    1332A      1.451868  1333A      1.452287  1334A      1.453158  
    1335A      1.453845  1336A      1.459181  1337A      1.459603  
    1338A      1.460159  1339A      1.461219  1340A      1.463219  
    1341A      1.463947  1342A      1.464148  1343A      1.467238  
    1344A      1.467405  1345A      1.468817  1346A      1.470245  
    1347A      1.470898  1348A      1.472222  1349A      1.472288  
    1350A      1.472710  1351A      1.477808  1352A      1.478556  
    1353A      1.479076  1354A      1.480147  1355A      1.482340  
    1356A      1.484371  1357A      1.486057  1358A      1.487604  
    1359A      1.489820  1360A      1.490136  1361A      1.491170  
    1362A      1.493210  1363A      1.493710  1364A      1.495084  
    1365A      1.497444  1366A      1.497972  1367A      1.501589  
    1368A      1.501743  1369A      1.502320  1370A      1.503508  
    1371A      1.505162  1372A      1.507155  1373A      1.507681  
    1374A      1.508467  1375A      1.511061  1376A      1.512320  
    1377A      1.513048  1378A      1.515576  1379A      1.517214  
    1380A      1.517820  1381A      1.521549  1382A      1.522151  
    1383A      1.523019  1384A      1.524511  1385A      1.526639  
    1386A      1.532109  1387A      1.535669  1388A      1.536157  
    1389A      1.537638  1390A      1.539207  1391A      1.540678  
    1392A      1.541562  1393A      1.543868  1394A      1.545017  
    1395A      1.546550  1396A      1.548474  1397A      1.550279  
    1398A      1.552421  1399A      1.552685  1400A      1.555162  
    1401A      1.555546  1402A      1.558700  1403A      1.559036  
    1404A      1.561645  1405A      1.565632  1406A      1.566198  
    1407A      1.566471  1408A      1.566528  1409A      1.567541  
    1410A      1.570554  1411A      1.572421  1412A      1.575012  
    1413A      1.575682  1414A      1.575826  1415A      1.579754  
    1416A      1.581135  1417A      1.581418  1418A      1.582650  
    1419A      1.582929  1420A      1.587234  1421A      1.587591  
    1422A      1.589061  1423A      1.591088  1424A      1.591174  
    1425A      1.594237  1426A      1.594336  1427A      1.596456  
    1428A      1.596662  1429A      1.599068  1430A      1.600164  
    1431A      1.600288  1432A      1.602771  1433A      1.603590  
    1434A      1.603803  1435A      1.606043  1436A      1.607477  
    1437A      1.608401  1438A      1.609018  1439A      1.610997  
    1440A      1.611208  1441A      1.611986  1442A      1.614099  
    1443A      1.614974  1444A      1.615273  1445A      1.615525  
    1446A      1.615720  1447A      1.617938  1448A      1.618987  
    1449A      1.620483  1450A      1.623404  1451A      1.623527  
    1452A      1.625609  1453A      1.627568  1454A      1.628166  
    1455A      1.630821  1456A      1.632232  1457A      1.632761  
    1458A      1.633666  1459A      1.635161  1460A      1.638349  
    1461A      1.640017  1462A      1.641369  1463A      1.643862  
    1464A      1.644651  1465A      1.646605  1466A      1.647518  
    1467A      1.647898  1468A      1.650852  1469A      1.651788  
    1470A      1.652457  1471A      1.654891  1472A      1.656480  
    1473A      1.658567  1474A      1.661471  1475A      1.662547  
    1476A      1.662990  1477A      1.664879  1478A      1.665839  
    1479A      1.667471  1480A      1.668111  1481A      1.668139  
    1482A      1.669098  1483A      1.669163  1484A      1.671589  
    1485A      1.672872  1486A      1.674561  1487A      1.675605  
    1488A      1.675942  1489A      1.676678  1490A      1.680772  
    1491A      1.681783  1492A      1.682224  1493A      1.682791  
    1494A      1.686995  1495A      1.687927  1496A      1.689006  
    1497A      1.690378  1498A      1.690991  1499A      1.692855  
    1500A      1.693199  1501A      1.693694  1502A      1.697892  
    1503A      1.699652  1504A      1.701016  1505A      1.701256  
    1506A      1.702437  1507A      1.707676  1508A      1.708360  
    1509A      1.708993  1510A      1.712442  1511A      1.713000  
    1512A      1.713057  1513A      1.713186  1514A      1.716869  
    1515A      1.717156  1516A      1.720651  1517A      1.721354  
    1518A      1.722331  1519A      1.724375  1520A      1.726372  
    1521A      1.727958  1522A      1.729095  1523A      1.729998  
    1524A      1.730228  1525A      1.731848  1526A      1.731956  
    1527A      1.734872  1528A      1.737482  1529A      1.738555  
    1530A      1.741425  1531A      1.742898  1532A      1.745352  
    1533A      1.747835  1534A      1.748868  1535A      1.749396  
    1536A      1.750668  1537A      1.751274  1538A      1.755120  
    1539A      1.756545  1540A      1.758878  1541A      1.759219  
    1542A      1.760281  1543A      1.761661  1544A      1.764336  
    1545A      1.764486  1546A      1.764862  1547A      1.765908  
    1548A      1.769170  1549A      1.769534  1550A      1.772516  
    1551A      1.774467  1552A      1.774627  1553A      1.774672  
    1554A      1.777850  1555A      1.778528  1556A      1.779088  
    1557A      1.779847  1558A      1.781321  1559A      1.782993  
    1560A      1.783496  1561A      1.784107  1562A      1.785220  
    1563A      1.785828  1564A      1.787736  1565A      1.789908  
    1566A      1.791112  1567A      1.792494  1568A      1.793503  
    1569A      1.794766  1570A      1.796361  1571A      1.797830  
    1572A      1.801138  1573A      1.802576  1574A      1.802715  
    1575A      1.803044  1576A      1.804956  1577A      1.806568  
    1578A      1.806688  1579A      1.807503  1580A      1.808484  
    1581A      1.809833  1582A      1.810688  1583A      1.812226  
    1584A      1.813395  1585A      1.813578  1586A      1.816195  
    1587A      1.816691  1588A      1.818661  1589A      1.819215  
    1590A      1.820868  1591A      1.821204  1592A      1.822982  
    1593A      1.823443  1594A      1.824346  1595A      1.824750  
    1596A      1.824808  1597A      1.828441  1598A      1.829627  
    1599A      1.830818  1600A      1.832213  1601A      1.832490  
    1602A      1.833188  1603A      1.835359  1604A      1.836240  
    1605A      1.837939  1606A      1.838290  1607A      1.839840  
    1608A      1.841016  1609A      1.841441  1610A      1.843626  
    1611A      1.843734  1612A      1.844455  1613A      1.845188  
    1614A      1.847626  1615A      1.847805  1616A      1.850480  
    1617A      1.851600  1618A      1.855149  1619A      1.855322  
    1620A      1.857559  1621A      1.858680  1622A      1.858744  
    1623A      1.859251  1624A      1.862714  1625A      1.862982  
    1626A      1.864911  1627A      1.868024  1628A      1.869392  
    1629A      1.869926  1630A      1.870796  1631A      1.871319  
    1632A      1.873527  1633A      1.874686  1634A      1.875899  
    1635A      1.876511  1636A      1.877127  1637A      1.878860  
    1638A      1.880515  1639A      1.882451  1640A      1.883102  
    1641A      1.884229  1642A      1.885591  1643A      1.886834  
    1644A      1.888143  1645A      1.889442  1646A      1.890475  
    1647A      1.891340  1648A      1.891730  1649A      1.893967  
    1650A      1.894477  1651A      1.895078  1652A      1.895682  
    1653A      1.897292  1654A      1.899001  1655A      1.899331  
    1656A      1.901324  1657A      1.901705  1658A      1.904826  
    1659A      1.905122  1660A      1.907007  1661A      1.907683  
    1662A      1.908669  1663A      1.910833  1664A      1.911860  
    1665A      1.913660  1666A      1.913696  1667A      1.916597  
    1668A      1.918069  1669A      1.918407  1670A      1.920860  
    1671A      1.921104  1672A      1.922974  1673A      1.924602  
    1674A      1.926769  1675A      1.927786  1676A      1.928859  
    1677A      1.929717  1678A      1.931433  1679A      1.934628  
    1680A      1.934854  1681A      1.935636  1682A      1.936769  
    1683A      1.937247  1684A      1.938320  1685A      1.940495  
    1686A      1.941116  1687A      1.941718  1688A      1.943311  
    1689A      1.944211  1690A      1.945994  1691A      1.947250  
    1692A      1.947550  1693A      1.949572  1694A      1.953078  
    1695A      1.954146  1696A      1.954563  1697A      1.956084  
    1698A      1.956433  1699A      1.958986  1700A      1.961365  
    1701A      1.961934  1702A      1.964279  1703A      1.964907  
    1704A      1.965488  1705A      1.969284  1706A      1.969975  
    1707A      1.970984  1708A      1.971039  1709A      1.972295  
    1710A      1.975428  1711A      1.976232  1712A      1.976709  
    1713A      1.977348  1714A      1.979717  1715A      1.981011  
    1716A      1.982704  1717A      1.986121  1718A      1.988649  
    1719A      1.990070  1720A      1.991567  1721A      1.991855  
    1722A      1.994001  1723A      1.996309  1724A      1.996727  
    1725A      1.996909  1726A      1.998901  1727A      1.999043  
    1728A      2.000080  1729A      2.002795  1730A      2.004447  
    1731A      2.005092  1732A      2.009155  1733A      2.012202  
    1734A      2.012352  1735A      2.014816  1736A      2.015397  
    1737A      2.016077  1738A      2.019524  1739A      2.020232  
    1740A      2.023948  1741A      2.025098  1742A      2.025988  
    1743A      2.028288  1744A      2.028970  1745A      2.029261  
    1746A      2.031388  1747A      2.037588  1748A      2.039158  
    1749A      2.039273  1750A      2.040474  1751A      2.042432  
    1752A      2.043361  1753A      2.045338  1754A      2.051450  
    1755A      2.054244  1756A      2.057669  1757A      2.059517  
    1758A      2.059966  1759A      2.061393  1760A      2.062343  
    1761A      2.064334  1762A      2.066592  1763A      2.068757  
    1764A      2.068794  1765A      2.070960  1766A      2.074785  
    1767A      2.075642  1768A      2.075661  1769A      2.079098  
    1770A      2.079778  1771A      2.080552  1772A      2.084628  
    1773A      2.086391  1774A      2.089914  1775A      2.090401  
    1776A      2.091276  1777A      2.094939  1778A      2.097524  
    1779A      2.099183  1780A      2.101687  1781A      2.101918  
    1782A      2.102812  1783A      2.104933  1784A      2.106230  
    1785A      2.106738  1786A      2.107532  1787A      2.110559  
    1788A      2.112529  1789A      2.112619  1790A      2.115100  
    1791A      2.119318  1792A      2.121061  1793A      2.121371  
    1794A      2.124716  1795A      2.126413  1796A      2.127467  
    1797A      2.129146  1798A      2.133021  1799A      2.134277  
    1800A      2.136446  1801A      2.137590  1802A      2.138228  
    1803A      2.140587  1804A      2.143720  1805A      2.144138  
    1806A      2.145527  1807A      2.146717  1808A      2.149090  
    1809A      2.149288  1810A      2.151578  1811A      2.153108  
    1812A      2.154365  1813A      2.156636  1814A      2.158554  
    1815A      2.161805  1816A      2.162963  1817A      2.165327  
    1818A      2.168493  1819A      2.168586  1820A      2.168647  
    1821A      2.172458  1822A      2.173295  1823A      2.177133  
    1824A      2.178363  1825A      2.178974  1826A      2.181976  
    1827A      2.182680  1828A      2.184008  1829A      2.186110  
    1830A      2.187656  1831A      2.190041  1832A      2.190781  
    1833A      2.190797  1834A      2.193564  1835A      2.194821  
    1836A      2.196491  1837A      2.196747  1838A      2.197489  
    1839A      2.201827  1840A      2.203494  1841A      2.204344  
    1842A      2.207457  1843A      2.208104  1844A      2.213427  
    1845A      2.215001  1846A      2.217056  1847A      2.217448  
    1848A      2.219061  1849A      2.219550  1850A      2.220197  
    1851A      2.222514  1852A      2.225790  1853A      2.228405  
    1854A      2.229121  1855A      2.232906  1856A      2.233532  
    1857A      2.234909  1858A      2.236606  1859A      2.237059  
    1860A      2.240390  1861A      2.240457  1862A      2.242447  
    1863A      2.243623  1864A      2.247307  1865A      2.249611  
    1866A      2.251916  1867A      2.254264  1868A      2.256870  
    1869A      2.257537  1870A      2.263215  1871A      2.264661  
    1872A      2.266149  1873A      2.266933  1874A      2.267069  
    1875A      2.270459  1876A      2.271763  1877A      2.274051  
    1878A      2.274925  1879A      2.275878  1880A      2.276483  
    1881A      2.281993  1882A      2.283108  1883A      2.284395  
    1884A      2.285126  1885A      2.288744  1886A      2.289031  
    1887A      2.291079  1888A      2.293501  1889A      2.295113  
    1890A      2.297053  1891A      2.297586  1892A      2.299239  
    1893A      2.304695  1894A      2.305526  1895A      2.306761  
    1896A      2.307451  1897A      2.310300  1898A      2.313793  
    1899A      2.313870  1900A      2.314301  1901A      2.316981  
    1902A      2.318110  1903A      2.318601  1904A      2.323145  
    1905A      2.326284  1906A      2.327752  1907A      2.328931  
    1908A      2.334909  1909A      2.335163  1910A      2.338374  
    1911A      2.339762  1912A      2.341560  1913A      2.343384  
    1914A      2.347514  1915A      2.352987  1916A      2.355174  
    1917A      2.355768  1918A      2.357461  1919A      2.358417  
    1920A      2.359572  1921A      2.362439  1922A      2.363509  
    1923A      2.368722  1924A      2.371588  1925A      2.371795  
    1926A      2.375207  1927A      2.375311  1928A      2.377092  
    1929A      2.380951  1930A      2.381405  1931A      2.383931  
    1932A      2.387310  1933A      2.389084  1934A      2.392946  
    1935A      2.396167  1936A      2.397563  1937A      2.399179  
    1938A      2.399852  1939A      2.404241  1940A      2.405816  
    1941A      2.407620  1942A      2.408847  1943A      2.409252  
    1944A      2.411862  1945A      2.414310  1946A      2.415779  
    1947A      2.417928  1948A      2.418516  1949A      2.424088  
    1950A      2.424107  1951A      2.424620  1952A      2.426821  
    1953A      2.427084  1954A      2.428913  1955A      2.431127  
    1956A      2.431999  1957A      2.432663  1958A      2.434581  
    1959A      2.439719  1960A      2.442128  1961A      2.444172  
    1962A      2.448105  1963A      2.448429  1964A      2.448642  
    1965A      2.450357  1966A      2.453778  1967A      2.455308  
    1968A      2.455865  1969A      2.460079  1970A      2.460261  
    1971A      2.462044  1972A      2.464766  1973A      2.469501  
    1974A      2.472687  1975A      2.473967  1976A      2.476498  
    1977A      2.479999  1978A      2.481135  1979A      2.484673  
    1980A      2.488835  1981A      2.489743  1982A      2.491105  
    1983A      2.494309  1984A      2.495572  1985A      2.496520  
    1986A      2.503603  1987A      2.505745  1988A      2.506714  
    1989A      2.509878  1990A      2.510811  1991A      2.513354  
    1992A      2.515291  1993A      2.515613  1994A      2.518361  
    1995A      2.518601  1996A      2.519763  1997A      2.526829  
    1998A      2.527455  1999A      2.528429  2000A      2.528840  
    2001A      2.529084  2002A      2.533446  2003A      2.534063  
    2004A      2.535795  2005A      2.539080  2006A      2.539710  
    2007A      2.542707  2008A      2.544087  2009A      2.548626  
    2010A      2.549922  2011A      2.551218  2012A      2.555811  
    2013A      2.557479  2014A      2.558601  2015A      2.559056  
    2016A      2.567312  2017A      2.570784  2018A      2.574753  
    2019A      2.576535  2020A      2.578276  2021A      2.580032  
    2022A      2.585929  2023A      2.589880  2024A      2.591557  
    2025A      2.594507  2026A      2.599100  2027A      2.602715  
    2028A      2.603149  2029A      2.606862  2030A      2.611961  
    2031A      2.622266  2032A      2.625995  2033A      2.626516  
    2034A      2.629942  2035A      2.634337  2036A      2.635042  
    2037A      2.639037  2038A      2.640486  2039A      2.642609  
    2040A      2.651108  2041A      2.657187  2042A      2.657702  
    2043A      2.658213  2044A      2.660344  2045A      2.662658  
    2046A      2.671768  2047A      2.675386  2048A      2.677316  
    2049A      2.682666  2050A      2.693247  2051A      2.699288  
    2052A      2.703229  2053A      2.705126  2054A      2.706206  
    2055A      2.713954  2056A      2.714138  2057A      2.726317  
    2058A      2.728031  2059A      2.728660  2060A      2.729781  
    2061A      2.734796  2062A      2.736914  2063A      2.737622  
    2064A      2.739489  2065A      2.740626  2066A      2.746754  
    2067A      2.749856  2068A      2.753695  2069A      2.760281  
    2070A      2.763034  2071A      2.765671  2072A      2.769796  
    2073A      2.772048  2074A      2.777046  2075A      2.781352  
    2076A      2.781847  2077A      2.782672  2078A      2.789657  
    2079A      2.796456  2080A      2.798069  2081A      2.810588  
    2082A      2.817147  2083A      2.817632  2084A      2.826575  
    2085A      2.827215  2086A      2.832168  2087A      2.834637  
    2088A      2.841352  2089A      2.847785  2090A      2.851756  
    2091A      2.855996  2092A      2.864216  2093A      2.864544  
    2094A      2.869232  2095A      2.871924  2096A      2.874013  
    2097A      2.876932  2098A      2.880811  2099A      2.891045  
    2100A      2.893110  2101A      2.895069  2102A      2.901411  
    2103A      2.902855  2104A      2.908406  2105A      2.908640  
    2106A      2.916919  2107A      2.929838  2108A      2.936480  
    2109A      2.936583  2110A      2.942924  2111A      2.943772  
    2112A      2.951432  2113A      2.951885  2114A      2.962522  
    2115A      2.963500  2116A      2.965818  2117A      2.967776  
    2118A      2.970035  2119A      2.974548  2120A      2.982860  
    2121A      2.983978  2122A      2.985533  2123A      2.990625  
    2124A      2.996545  2125A      3.000101  2126A      3.001173  
    2127A      3.011534  2128A      3.014029  2129A      3.015789  
    2130A      3.017816  2131A      3.020871  2132A      3.035414  
    2133A      3.038157  2134A      3.060993  2135A      3.065111  
    2136A      3.068003  2137A      3.069946  2138A      3.079724  
    2139A      3.086163  2140A      3.097966  2141A      3.112110  
    2142A      3.115481  2143A      3.119945  2144A      3.126310  
    2145A      3.132284  2146A      3.179775  2147A      3.188240  
    2148A      3.196397  2149A      3.198663  2150A      3.214320  
    2151A      3.219206  2152A      3.220829  2153A      3.229264  
    2154A      3.238238  2155A      3.248806  2156A      3.254377  
    2157A      3.255117  2158A      3.274048  2159A      3.278294  
    2160A      3.283383  2161A      3.286137  2162A      3.287621  
    2163A      3.297524  2164A      3.311956  2165A      3.314211  
    2166A      3.318873  2167A      3.321365  2168A      3.325438  
    2169A      3.330773  2170A      3.332433  2171A      3.333001  
    2172A      3.337485  2173A      3.341660  2174A      3.353106  
    2175A      3.354990  2176A      3.356166  2177A      3.357317  
    2178A      3.358361  2179A      3.361995  2180A      3.362988  
    2181A      3.364614  2182A      3.366116  2183A      3.366744  
    2184A      3.367859  2185A      3.374835  2186A      3.380476  
    2187A      3.383762  2188A      3.394164  2189A      3.395832  
    2190A      3.398646  2191A      3.399607  2192A      3.403778  
    2193A      3.406299  2194A      3.410588  2195A      3.414610  
    2196A      3.415961  2197A      3.419619  2198A      3.426775  
    2199A      3.427651  2200A      3.431294  2201A      3.432153  
    2202A      3.433946  2203A      3.434742  2204A      3.437178  
    2205A      3.439992  2206A      3.445025  2207A      3.445966  
    2208A      3.451885  2209A      3.453720  2210A      3.457831  
    2211A      3.460266  2212A      3.463908  2213A      3.464981  
    2214A      3.469225  2215A      3.470615  2216A      3.471646  
    2217A      3.473290  2218A      3.474687  2219A      3.475592  
    2220A      3.486654  2221A      3.490953  2222A      3.491622  
    2223A      3.493788  2224A      3.495873  2225A      3.497254  
    2226A      3.503886  2227A      3.504854  2228A      3.508108  
    2229A      3.510641  2230A      3.511078  2231A      3.515447  
    2232A      3.516168  2233A      3.518453  2234A      3.519947  
    2235A      3.525032  2236A      3.525200  2237A      3.527633  
    2238A      3.528880  2239A      3.529294  2240A      3.535988  
    2241A      3.538957  2242A      3.542913  2243A      3.543120  
    2244A      3.545391  2245A      3.548286  2246A      3.549056  
    2247A      3.551061  2248A      3.553185  2249A      3.555965  
    2250A      3.557637  2251A      3.558555  2252A      3.563963  
    2253A      3.567984  2254A      3.568497  2255A      3.568931  
    2256A      3.570786  2257A      3.571411  2258A      3.574435  
    2259A      3.575797  2260A      3.578818  2261A      3.581277  
    2262A      3.583024  2263A      3.584235  2264A      3.588144  
    2265A      3.592893  2266A      3.593484  2267A      3.594542  
    2268A      3.600904  2269A      3.600941  2270A      3.604437  
    2271A      3.606389  2272A      3.606471  2273A      3.611097  
    2274A      3.612271  2275A      3.615865  2276A      3.618798  
    2277A      3.619844  2278A      3.620905  2279A      3.621627  
    2280A      3.624890  2281A      3.625441  2282A      3.627318  
    2283A      3.633443  2284A      3.634620  2285A      3.637756  
    2286A      3.639846  2287A      3.640919  2288A      3.642212  
    2289A      3.645044  2290A      3.648865  2291A      3.649161  
    2292A      3.649384  2293A      3.655121  2294A      3.657748  
    2295A      3.659481  2296A      3.661906  2297A      3.663593  
    2298A      3.666798  2299A      3.667423  2300A      3.670112  
    2301A      3.672203  2302A      3.673057  2303A      3.674861  
    2304A      3.678935  2305A      3.682125  2306A      3.682535  
    2307A      3.682656  2308A      3.684182  2309A      3.685133  
    2310A      3.685564  2311A      3.687404  2312A      3.687583  
    2313A      3.689773  2314A      3.690362  2315A      3.691267  
    2316A      3.692569  2317A      3.695130  2318A      3.696161  
    2319A      3.699151  2320A      3.700699  2321A      3.701116  
    2322A      3.704688  2323A      3.705859  2324A      3.706549  
    2325A      3.706764  2326A      3.709320  2327A      3.711262  
    2328A      3.712805  2329A      3.718375  2330A      3.718454  
    2331A      3.722668  2332A      3.724028  2333A      3.725422  
    2334A      3.726824  2335A      3.728006  2336A      3.730965  
    2337A      3.731788  2338A      3.736829  2339A      3.737839  
    2340A      3.739833  2341A      3.740812  2342A      3.741225  
    2343A      3.743582  2344A      3.744938  2345A      3.746810  
    2346A      3.746822  2347A      3.750002  2348A      3.754587  
    2349A      3.756281  2350A      3.757090  2351A      3.761841  
    2352A      3.761908  2353A      3.763830  2354A      3.767392  
    2355A      3.768379  2356A      3.768724  2357A      3.769712  
    2358A      3.772980  2359A      3.773287  2360A      3.777177  
    2361A      3.778036  2362A      3.780819  2363A      3.781772  
    2364A      3.783946  2365A      3.785171  2366A      3.786895  
    2367A      3.789064  2368A      3.790383  2369A      3.790580  
    2370A      3.792502  2371A      3.793113  2372A      3.793841  
    2373A      3.796922  2374A      3.800233  2375A      3.801219  
    2376A      3.801283  2377A      3.805572  2378A      3.808030  
    2379A      3.809077  2380A      3.810587  2381A      3.811223  
    2382A      3.814244  2383A      3.814764  2384A      3.817301  
    2385A      3.819047  2386A      3.821172  2387A      3.821870  
    2388A      3.824821  2389A      3.824918  2390A      3.826860  
    2391A      3.826958  2392A      3.833351  2393A      3.835307  
    2394A      3.836110  2395A      3.837169  2396A      3.837479  
    2397A      3.839698  2398A      3.840242  2399A      3.841040  
    2400A      3.841927  2401A      3.844873  2402A      3.853870  
    2403A      3.855159  2404A      3.859865  2405A      3.860331  
    2406A      3.862914  2407A      3.863509  2408A      3.866062  
    2409A      3.866366  2410A      3.869813  2411A      3.870317  
    2412A      3.872444  2413A      3.873958  2414A      3.875959  
    2415A      3.876380  2416A      3.877986  2417A      3.878897  
    2418A      3.882427  2419A      3.882699  2420A      3.882761  
    2421A      3.884847  2422A      3.885355  2423A      3.886369  
    2424A      3.887772  2425A      3.889104  2426A      3.889811  
    2427A      3.892459  2428A      3.893161  2429A      3.896192  
    2430A      3.896599  2431A      3.897288  2432A      3.898219  
    2433A      3.900097  2434A      3.901499  2435A      3.902438  
    2436A      3.902898  2437A      3.904606  2438A      3.906015  
    2439A      3.906680  2440A      3.907918  2441A      3.908762  
    2442A      3.911363  2443A      3.912020  2444A      3.913768  
    2445A      3.915065  2446A      3.916666  2447A      3.918467  
    2448A      3.919582  2449A      3.920619  2450A      3.923131  
    2451A      3.926047  2452A      3.927035  2453A      3.931074  
    2454A      3.932103  2455A      3.940852  2456A      3.942261  
    2457A      3.944496  2458A      3.945946  2459A      3.946943  
    2460A      3.948281  2461A      3.949044  2462A      3.950897  
    2463A      3.954110  2464A      3.957676  2465A      3.960123  
    2466A      3.961871  2467A      3.963965  2468A      3.969589  
    2469A      3.971126  2470A      3.972470  2471A      3.975748  
    2472A      3.982992  2473A      3.983252  2474A      3.986997  
    2475A      3.988387  2476A      3.990100  2477A      3.990934  
    2478A      3.993258  2479A      3.996490  2480A      3.997287  
    2481A      3.997516  2482A      4.003116  2483A      4.003538  
    2484A      4.003859  2485A      4.006715  2486A      4.007465  
    2487A      4.007895  2488A      4.008397  2489A      4.014423  
    2490A      4.014796  2491A      4.017214  2492A      4.018926  
    2493A      4.021279  2494A      4.021748  2495A      4.026351  
    2496A      4.026668  2497A      4.028522  2498A      4.037768  
    2499A      4.038510  2500A      4.042383  2501A      4.045161  
    2502A      4.045905  2503A      4.047774  2504A      4.049600  
    2505A      4.052729  2506A      4.053395  2507A      4.053998  
    2508A      4.055743  2509A      4.058686  2510A      4.059156  
    2511A      4.061331  2512A      4.063326  2513A      4.069246  
    2514A      4.071197  2515A      4.072055  2516A      4.075572  
    2517A      4.077830  2518A      4.079259  2519A      4.082427  
    2520A      4.083054  2521A      4.085178  2522A      4.086468  
    2523A      4.088230  2524A      4.089115  2525A      4.091137  
    2526A      4.093935  2527A      4.094354  2528A      4.096069  
    2529A      4.099400  2530A      4.101894  2531A      4.104443  
    2532A      4.105356  2533A      4.106540  2534A      4.109264  
    2535A      4.109530  2536A      4.112077  2537A      4.113096  
    2538A      4.114597  2539A      4.116183  2540A      4.119511  
    2541A      4.120929  2542A      4.123261  2543A      4.125616  
    2544A      4.126308  2545A      4.127823  2546A      4.128393  
    2547A      4.134755  2548A      4.137132  2549A      4.140249  
    2550A      4.144437  2551A      4.144489  2552A      4.144850  
    2553A      4.149836  2554A      4.152723  2555A      4.154809  
    2556A      4.156911  2557A      4.157912  2558A      4.159003  
    2559A      4.161786  2560A      4.164971  2561A      4.166695  
    2562A      4.169113  2563A      4.171943  2564A      4.176653  
    2565A      4.179085  2566A      4.180614  2567A      4.181152  
    2568A      4.191767  2569A      4.193326  2570A      4.193423  
    2571A      4.195613  2572A      4.199006  2573A      4.202079  
    2574A      4.204663  2575A      4.209008  2576A      4.211189  
    2577A      4.211995  2578A      4.212949  2579A      4.214532  
    2580A      4.216898  2581A      4.220278  2582A      4.221754  
    2583A      4.223220  2584A      4.225404  2585A      4.227314  
    2586A      4.228628  2587A      4.231014  2588A      4.231697  
    2589A      4.235281  2590A      4.236705  2591A      4.238660  
    2592A      4.238836  2593A      4.241721  2594A      4.244037  
    2595A      4.247786  2596A      4.251352  2597A      4.253990  
    2598A      4.255428  2599A      4.256828  2600A      4.259384  
    2601A      4.261517  2602A      4.263619  2603A      4.266169  
    2604A      4.268668  2605A      4.273050  2606A      4.274046  
    2607A      4.275324  2608A      4.277677  2609A      4.280554  
    2610A      4.281933  2611A      4.283064  2612A      4.285060  
    2613A      4.289219  2614A      4.289871  2615A      4.290032  
    2616A      4.292402  2617A      4.293765  2618A      4.294529  
    2619A      4.298288  2620A      4.301032  2621A      4.302144  
    2622A      4.304440  2623A      4.305175  2624A      4.306665  
    2625A      4.308991  2626A      4.314230  2627A      4.314727  
    2628A      4.317191  2629A      4.319451  2630A      4.319665  
    2631A      4.324337  2632A      4.326629  2633A      4.332562  
    2634A      4.332936  2635A      4.337489  2636A      4.338427  
    2637A      4.342661  2638A      4.342867  2639A      4.345340  
    2640A      4.347232  2641A      4.348842  2642A      4.350149  
    2643A      4.353397  2644A      4.358457  2645A      4.359225  
    2646A      4.362369  2647A      4.365676  2648A      4.367975  
    2649A      4.369297  2650A      4.371317  2651A      4.372850  
    2652A      4.376294  2653A      4.379261  2654A      4.381186  
    2655A      4.383896  2656A      4.384840  2657A      4.386346  
    2658A      4.388511  2659A      4.394326  2660A      4.395468  
    2661A      4.397420  2662A      4.398749  2663A      4.402004  
    2664A      4.403867  2665A      4.404874  2666A      4.405560  
    2667A      4.408811  2668A      4.410730  2669A      4.411969  
    2670A      4.412082  2671A      4.413379  2672A      4.414714  
    2673A      4.414879  2674A      4.417063  2675A      4.417811  
    2676A      4.421097  2677A      4.422258  2678A      4.423356  
    2679A      4.426238  2680A      4.426720  2681A      4.429433  
    2682A      4.430631  2683A      4.434143  2684A      4.436267  
    2685A      4.437613  2686A      4.440844  2687A      4.447572  
    2688A      4.450278  2689A      4.450920  2690A      4.455403  
    2691A      4.460457  2692A      4.462913  2693A      4.465435  
    2694A      4.465630  2695A      4.471054  2696A      4.471701  
    2697A      4.473664  2698A      4.475217  2699A      4.476115  
    2700A      4.478085  2701A      4.481199  2702A      4.483201  
    2703A      4.487612  2704A      4.488202  2705A      4.490516  
    2706A      4.493826  2707A      4.494534  2708A      4.499777  
    2709A      4.501400  2710A      4.508504  2711A      4.511485  
    2712A      4.514515  2713A      4.519239  2714A      4.522357  
    2715A      4.523740  2716A      4.525803  2717A      4.527734  
    2718A      4.528360  2719A      4.529215  2720A      4.531137  
    2721A      4.536261  2722A      4.536633  2723A      4.538322  
    2724A      4.542331  2725A      4.542571  2726A      4.543247  
    2727A      4.545583  2728A      4.545869  2729A      4.548324  
    2730A      4.549691  2731A      4.552533  2732A      4.557818  
    2733A      4.561834  2734A      4.562052  2735A      4.565836  
    2736A      4.571079  2737A      4.573367  2738A      4.578693  
    2739A      4.578760  2740A      4.582369  2741A      4.585830  
    2742A      4.590407  2743A      4.591399  2744A      4.595206  
    2745A      4.597809  2746A      4.600139  2747A      4.603724  
    2748A      4.603817  2749A      4.606678  2750A      4.610736  
    2751A      4.618031  2752A      4.620113  2753A      4.623999  
    2754A      4.625788  2755A      4.628166  2756A      4.630083  
    2757A      4.631630  2758A      4.634055  2759A      4.634449  
    2760A      4.636155  2761A      4.636741  2762A      4.639368  
    2763A      4.640552  2764A      4.641950  2765A      4.645726  
    2766A      4.648511  2767A      4.652277  2768A      4.653978  
    2769A      4.657063  2770A      4.662732  2771A      4.664334  
    2772A      4.664427  2773A      4.667187  2774A      4.668235  
    2775A      4.670551  2776A      4.670949  2777A      4.671999  
    2778A      4.673479  2779A      4.676637  2780A      4.677533  
    2781A      4.680495  2782A      4.683567  2783A      4.683842  
    2784A      4.684871  2785A      4.685953  2786A      4.690520  
    2787A      4.695457  2788A      4.699563  2789A      4.705060  
    2790A      4.706375  2791A      4.711319  2792A      4.711765  
    2793A      4.714878  2794A      4.718979  2795A      4.720253  
    2796A      4.722937  2797A      4.724171  2798A      4.727632  
    2799A      4.730140  2800A      4.735044  2801A      4.739035  
    2802A      4.742501  2803A      4.743232  2804A      4.746453  
    2805A      4.748116  2806A      4.749908  2807A      4.751348  
    2808A      4.752906  2809A      4.754366  2810A      4.759256  
    2811A      4.761059  2812A      4.764083  2813A      4.771923  
    2814A      4.777715  2815A      4.783638  2816A      4.784488  
    2817A      4.788748  2818A      4.789897  2819A      4.792019  
    2820A      4.792416  2821A      4.796389  2822A      4.803914  
    2823A      4.808155  2824A      4.812275  2825A      4.814621  
    2826A      4.816859  2827A      4.818062  2828A      4.826547  
    2829A      4.826981  2830A      4.831882  2831A      4.832061  
    2832A      4.833270  2833A      4.834607  2834A      4.837065  
    2835A      4.837842  2836A      4.841453  2837A      4.850205  
    2838A      4.851132  2839A      4.854627  2840A      4.854756  
    2841A      4.858100  2842A      4.861230  2843A      4.863080  
    2844A      4.865612  2845A      4.868793  2846A      4.870747  
    2847A      4.875963  2848A      4.876707  2849A      4.879586  
    2850A      4.883870  2851A      4.884565  2852A      4.887035  
    2853A      4.890439  2854A      4.894401  2855A      4.895516  
    2856A      4.900525  2857A      4.905197  2858A      4.908524  
    2859A      4.911167  2860A      4.914113  2861A      4.914757  
    2862A      4.917655  2863A      4.920432  2864A      4.920915  
    2865A      4.925980  2866A      4.928616  2867A      4.933237  
    2868A      4.933640  2869A      4.934492  2870A      4.938658  
    2871A      4.942986  2872A      4.943271  2873A      4.947471  
    2874A      4.947926  2875A      4.950334  2876A      4.955226  
    2877A      4.955448  2878A      4.957966  2879A      4.965621  
    2880A      4.967179  2881A      4.972533  2882A      4.973201  
    2883A      4.973368  2884A      4.975893  2885A      4.976794  
    2886A      4.983897  2887A      4.984672  2888A      4.991351  
    2889A      4.992459  2890A      4.996848  2891A      5.002470  
    2892A      5.002699  2893A      5.004212  2894A      5.010020  
    2895A      5.014142  2896A      5.017642  2897A      5.018823  
    2898A      5.022475  2899A      5.025604  2900A      5.026387  
    2901A      5.027021  2902A      5.031083  2903A      5.036388  
    2904A      5.037084  2905A      5.048642  2906A      5.049990  
    2907A      5.051615  2908A      5.057665  2909A      5.058646  
    2910A      5.059221  2911A      5.060922  2912A      5.062711  
    2913A      5.063534  2914A      5.065610  2915A      5.068012  
    2916A      5.070160  2917A      5.070957  2918A      5.071388  
    2919A      5.072619  2920A      5.074393  2921A      5.076600  
    2922A      5.076806  2923A      5.078717  2924A      5.081355  
    2925A      5.084001  2926A      5.086834  2927A      5.087293  
    2928A      5.089169  2929A      5.093411  2930A      5.096264  
    2931A      5.101708  2932A      5.104158  2933A      5.105863  
    2934A      5.106606  2935A      5.107729  2936A      5.111491  
    2937A      5.113845  2938A      5.114120  2939A      5.114352  
    2940A      5.118346  2941A      5.121578  2942A      5.125067  
    2943A      5.126455  2944A      5.127863  2945A      5.134076  
    2946A      5.136590  2947A      5.137040  2948A      5.139464  
    2949A      5.140983  2950A      5.141560  2951A      5.146536  
    2952A      5.147309  2953A      5.154016  2954A      5.155612  
    2955A      5.156104  2956A      5.159008  2957A      5.163268  
    2958A      5.165007  2959A      5.166424  2960A      5.167344  
    2961A      5.168447  2962A      5.173274  2963A      5.175200  
    2964A      5.175405  2965A      5.178812  2966A      5.179369  
    2967A      5.181931  2968A      5.183387  2969A      5.184159  
    2970A      5.185144  2971A      5.189409  2972A      5.190471  
    2973A      5.192501  2974A      5.193242  2975A      5.193936  
    2976A      5.201176  2977A      5.201452  2978A      5.203538  
    2979A      5.204347  2980A      5.205939  2981A      5.206855  
    2982A      5.211299  2983A      5.211977  2984A      5.218142  
    2985A      5.220262  2986A      5.221163  2987A      5.221260  
    2988A      5.224191  2989A      5.228067  2990A      5.230725  
    2991A      5.231363  2992A      5.232723  2993A      5.234793  
    2994A      5.241344  2995A      5.245833  2996A      5.246579  
    2997A      5.248042  2998A      5.251837  2999A      5.252155  
    3000A      5.254522  3001A      5.261263  3002A      5.262805  
    3003A      5.265462  3004A      5.266775  3005A      5.275188  
    3006A      5.275440  3007A      5.277670  3008A      5.277946  
    3009A      5.280791  3010A      5.283753  3011A      5.287178  
    3012A      5.291117  3013A      5.294735  3014A      5.296526  
    3015A      5.297536  3016A      5.297597  3017A      5.300794  
    3018A      5.303067  3019A      5.303872  3020A      5.308474  
    3021A      5.310337  3022A      5.312970  3023A      5.317460  
    3024A      5.321211  3025A      5.322310  3026A      5.326816  
    3027A      5.327796  3028A      5.328428  3029A      5.331653  
    3030A      5.333273  3031A      5.334365  3032A      5.338443  
    3033A      5.339791  3034A      5.340129  3035A      5.343782  
    3036A      5.345100  3037A      5.349108  3038A      5.349277  
    3039A      5.352129  3040A      5.355884  3041A      5.358867  
    3042A      5.359091  3043A      5.361084  3044A      5.362500  
    3045A      5.364019  3046A      5.370414  3047A      5.370592  
    3048A      5.372213  3049A      5.374130  3050A      5.374671  
    3051A      5.377187  3052A      5.378820  3053A      5.379221  
    3054A      5.379417  3055A      5.381889  3056A      5.383391  
    3057A      5.383668  3058A      5.388178  3059A      5.389984  
    3060A      5.395580  3061A      5.396609  3062A      5.399006  
    3063A      5.400566  3064A      5.403972  3065A      5.405537  
    3066A      5.406015  3067A      5.410063  3068A      5.411236  
    3069A      5.413332  3070A      5.415617  3071A      5.417979  
    3072A      5.420238  3073A      5.422855  3074A      5.424140  
    3075A      5.425642  3076A      5.428252  3077A      5.429207  
    3078A      5.431181  3079A      5.432286  3080A      5.432543  
    3081A      5.435214  3082A      5.436565  3083A      5.436885  
    3084A      5.438272  3085A      5.438612  3086A      5.439286  
    3087A      5.444431  3088A      5.449742  3089A      5.451153  
    3090A      5.453671  3091A      5.453963  3092A      5.456660  
    3093A      5.457065  3094A      5.458489  3095A      5.459576  
    3096A      5.470738  3097A      5.475182  3098A      5.476234  
    3099A      5.480561  3100A      5.481546  3101A      5.485309  
    3102A      5.487333  3103A      5.489101  3104A      5.490715  
    3105A      5.494748  3106A      5.497664  3107A      5.504601  
    3108A      5.505301  3109A      5.506992  3110A      5.508314  
    3111A      5.510092  3112A      5.517905  3113A      5.518088  
    3114A      5.520138  3115A      5.523977  3116A      5.526877  
    3117A      5.527964  3118A      5.528750  3119A      5.530077  
    3120A      5.531090  3121A      5.535073  3122A      5.539098  
    3123A      5.543585  3124A      5.544816  3125A      5.546482  
    3126A      5.551347  3127A      5.553987  3128A      5.563310  
    3129A      5.565629  3130A      5.567506  3131A      5.574503  
    3132A      5.578109  3133A      5.582849  3134A      5.586118  
    3135A      5.593834  3136A      5.594522  3137A      5.597440  
    3138A      5.599959  3139A      5.601663  3140A      5.602897  
    3141A      5.605257  3142A      5.607051  3143A      5.608796  
    3144A      5.612094  3145A      5.613590  3146A      5.614729  
    3147A      5.623423  3148A      5.629654  3149A      5.629933  
    3150A      5.634193  3151A      5.638633  3152A      5.641327  
    3153A      5.645430  3154A      5.647121  3155A      5.647419  
    3156A      5.649053  3157A      5.649314  3158A      5.652533  
    3159A      5.655566  3160A      5.661932  3161A      5.670709  
    3162A      5.671416  3163A      5.676570  3164A      5.676916  
    3165A      5.680675  3166A      5.692048  3167A      5.696462  
    3168A      5.700544  3169A      5.708192  3170A      5.709478  
    3171A      5.722128  3172A      5.730264  3173A      5.731429  
    3174A      5.737212  3175A      5.739289  3176A      5.739956  
    3177A      5.744548  3178A      5.747787  3179A      5.748656  
    3180A      5.750874  3181A      5.757888  3182A      5.760761  
    3183A      5.763157  3184A      5.764666  3185A      5.764916  
    3186A      5.767372  3187A      5.768931  3188A      5.769474  
    3189A      5.776902  3190A      5.780088  3191A      5.787000  
    3192A      5.793234  3193A      5.794446  3194A      5.795766  
    3195A      5.803614  3196A      5.804922  3197A      5.809656  
    3198A      5.811774  3199A      5.814511  3200A      5.817403  
    3201A      5.819469  3202A      5.831818  3203A      5.834114  
    3204A      5.843519  3205A      5.844500  3206A      5.853296  
    3207A      5.857628  3208A      5.858848  3209A      5.859920  
    3210A      5.861725  3211A      5.862674  3212A      5.872010  
    3213A      5.878140  3214A      5.882247  3215A      5.885961  
    3216A      5.890993  3217A      5.891480  3218A      5.901808  
    3219A      5.904983  3220A      5.915646  3221A      5.917764  
    3222A      5.929644  3223A      5.933840  3224A      5.940447  
    3225A      5.949479  3226A      5.956338  3227A      5.957338  
    3228A      5.957737  3229A      5.958666  3230A      5.965436  
    3231A      5.975692  3232A      5.980536  3233A      5.983774  
    3234A      5.989514  3235A      5.990811  3236A      5.994045  
    3237A      5.995771  3238A      6.002685  3239A      6.004560  
    3240A      6.005045  3241A      6.011225  3242A      6.015575  
    3243A      6.024081  3244A      6.028774  3245A      6.030991  
    3246A      6.035343  3247A      6.039211  3248A      6.040237  
    3249A      6.045717  3250A      6.050550  3251A      6.055639  
    3252A      6.057042  3253A      6.058004  3254A      6.062805  
    3255A      6.062955  3256A      6.064511  3257A      6.064758  
    3258A      6.066993  3259A      6.072800  3260A      6.074290  
    3261A      6.078909  3262A      6.079020  3263A      6.080092  
    3264A      6.083069  3265A      6.083580  3266A      6.091988  
    3267A      6.093146  3268A      6.094143  3269A      6.094534  
    3270A      6.096898  3271A      6.102892  3272A      6.112149  
    3273A      6.112440  3274A      6.119774  3275A      6.125211  
    3276A      6.126233  3277A      6.133698  3278A      6.134370  
    3279A      6.137043  3280A      6.142637  3281A      6.151865  
    3282A      6.152326  3283A      6.156282  3284A      6.164039  
    3285A      6.164753  3286A      6.166182  3287A      6.167677  
    3288A      6.170673  3289A      6.172672  3290A      6.182207  
    3291A      6.197835  3292A      6.202341  3293A      6.205810  
    3294A      6.222516  3295A      6.244336  3296A      6.251565  
    3297A      6.264672  3298A      6.288008  3299A      6.290957  
    3300A      6.305342  3301A      6.335815  3302A      6.337821  
    3303A      6.342014  3304A      6.368774  3305A      6.380587  
    3306A      6.414370  3307A      6.424371  3308A      6.430596  
    3309A      6.471837  3310A      6.479404  3311A      6.481629  
    3312A      6.506779  3313A      6.512448  3314A      6.525521  
    3315A      6.525690  3316A      6.549561  3317A      6.554304  
    3318A      6.557724  3319A      6.559006  3320A      6.559220  
    3321A      6.562147  3322A      6.604385  3323A      6.608377  
    3324A      6.612837  3325A      6.613115  3326A      6.647245  
    3327A      6.650078  3328A      6.650400  3329A      6.663501  
    3330A      6.664768  3331A      6.694000  3332A      6.702610  
    3333A      6.707637  3334A      6.709987  3335A      6.714532  
    3336A      6.716755  3337A      6.719019  3338A      6.728223  
    3339A      6.735693  3340A      6.746978  3341A      6.749708  
    3342A      6.751339  3343A      6.751711  3344A      6.756636  
    3345A      6.757075  3346A      6.763581  3347A      6.786275  
    3348A      6.803250  3349A      6.811791  3350A      6.817407  
    3351A      6.823792  3352A      6.836232  3353A      6.850613  
    3354A      6.867590  3355A      6.868246  3356A      6.885776  
    3357A      6.900171  3358A      6.901798  3359A      6.916402  
    3360A      6.918789  3361A      6.922294  3362A      6.952181  
    3363A      7.014508  3364A      7.074263  3365A      7.104342  
    3366A      7.121186  3367A      7.123284  3368A     17.053053  
    3369A     17.122156  3370A     17.277897  3371A     17.389045  
    3372A     17.399270  3373A     17.502307  3374A     17.543231  
    3375A     17.547438  3376A     17.584369  3377A     17.590753  
    3378A     17.749491  3379A     17.750920  3380A     17.755509  
    3381A     17.771607  3382A     17.812084  3383A     17.867907  
    3384A     17.872266  3385A     17.876180  3386A     17.929184  
    3387A     18.002800  3388A     18.056952  3389A     18.087649  
    3390A     18.103956  3391A     18.144200  3392A     18.330545  
    3393A     18.455889  3394A     18.526814  3395A     18.627072  
    3396A     18.858103  3397A     18.865498  3398A     18.882039  
    3399A     19.129612  3400A     19.160594  3401A     19.171503  
    3402A     19.398041  3403A     19.412916  

    Final Occupation by Irrep:
              A 
    DOCC [   146 ]
    NA   [   146 ]
    NB   [   146 ]

  @DF-RKS Final Energy: -1417.81685414012281

   => Energetics <=

    Nuclear Repulsion Energy =           3874.3135435205499562
    One-Electron Energy =               -9616.8362801150706218
    Two-Electron Energy =                4475.0319787628477570
    DFT Exchange-Correlation Energy =    -151.3982619539462462
    Empirical Dispersion Energy =           0.0000000000000000
    VV10 Nonlocal Energy =                  1.0721656454965371
    Total Energy =                      -1417.8168541401230414

Computation Completed


Properties will be evaluated at   0.000000,   0.000000,   0.000000 [a0]

Properties computed using the SCF density matrix


 Multipole Moments:

 ------------------------------------------------------------------------------------
     Multipole            Electronic (a.u.)      Nuclear  (a.u.)        Total (a.u.)
 ------------------------------------------------------------------------------------

 L = 1.  Multiply by 2.5417464519 to convert [e a0] to [Debye]
 Dipole X            :      -6297.2590636         6297.2590897            0.0000261
 Dipole Y            :      -4173.8626280         4173.8626598            0.0000317
 Dipole Z            :          8.6161888           -8.6152614            0.0009274
 Magnitude           :                                                    0.0009283

 ------------------------------------------------------------------------------------

*** tstop() called on atl1-1-03-004-12-2.pace.gatech.edu at Mon Jun 15 14:10:12 2026
Module time:
	user time   =   96533.09 seconds =    1608.88 minutes
	system time =    4775.00 seconds =      79.58 minutes
	total time  =      13925 seconds =     232.08 minutes
Total time:
	user time   =   96533.09 seconds =    1608.88 minutes
	system time =    4775.00 seconds =      79.58 minutes
	total time  =      13925 seconds =     232.08 minutes

    Psi4 stopped on: Monday, 15 June 2026 02:10PM
    Psi4 wall time for execution: 3:52:22.71

*** Psi4 exiting successfully. Buy a developer a beer!
