
    -----------------------------------------------------------------------
          Psi4: An Open-Source Ab Initio Electronic Structure Package
                               Psi4 1.9.1 release

                         Git: Rev {} zzzzzzz 


    D. G. A. Smith, L. A. Burns, A. C. Simmonett, R. M. Parrish,
    M. C. Schieber, R. Galvelis, P. Kraus, H. Kruse, R. Di Remigio,
    A. Alenaizan, A. M. James, S. Lehtola, J. P. Misiewicz, M. Scheurer,
    R. A. Shaw, J. B. Schriber, Y. Xie, Z. L. Glick, D. A. Sirianni,
    J. S. O'Brien, J. M. Waldrop, A. Kumar, E. G. Hohenstein,
    B. P. Pritchard, B. R. Brooks, H. F. Schaefer III, A. Yu. Sokolov,
    K. Patkowski, A. E. DePrince III, U. Bozkaya, R. A. King,
    F. A. Evangelista, J. M. Turney, T. D. Crawford, C. D. Sherrill,
    J. Chem. Phys. 152(18) 184108 (2020). https://doi.org/10.1063/5.0006002

                            Additional Code Authors
    E. T. Seidl, C. L. Janssen, E. F. Valeev, M. L. Leininger,
    J. F. Gonthier, R. M. Richard, H. R. McAlexander, M. Saitow, X. Wang,
    P. Verma, M. H. Lechner, A. Jiang, S. Behnle, A. G. Heide,
    M. F. Herbst, and D. L. Poole

             Previous Authors, Complete List of Code Contributors,
                       and Citations for Specific Modules
    https://github.com/psi4/psi4/blob/master/codemeta.json
    https://github.com/psi4/psi4/graphs/contributors
    http://psicode.org/psi4manual/master/introduction.html#citing-psifour

    -----------------------------------------------------------------------


    Psi4 started on: Saturday, 13 June 2026 03:40PM

    Process ID: 4024912
    Host:       atl1-1-03-004-14-1.pace.gatech.edu
    PSIDATADIR: /storage/home/hcoda1/5/vlita3/.conda/envs/p4_qcml/share/psi4
    Memory:     250.0 GiB
    Threads:    10
    
  ==> Input QCSchema <==

--------------------------------------------------------------------------
{'driver': 'energy',
 'extras': {},
 'id': '259',
 'keywords': {},
 'model': {'basis': 'aug-cc-pvtz', 'method': 'wb97x-v'},
 'molecule': {'extras': {},
              'fix_com': True,
              'fix_orientation': True,
              'fragment_charges': [0.0, 0.0],
              'fragment_multiplicities': [1, 1],
              'fragments': [[0, 1, 2, 3, 4, 5, 6, 7, 8, 9, 10, 11, 12, 13, 14, 15, 16, 17, 18, 19, 20, 21, 22, 23, 24,
                             25, 26, 27, 28, 29, 30, 31, 32, 33, 34, 35, 36, 37, 38, 39, 40, 41, 42, 43],
                            [44, 45, 46, 47, 48, 49, 50, 51, 52, 53, 54, 55, 56, 57, 58, 59, 60, 61, 62, 63, 64, 65, 66,
                             67, 68, 69, 70, 71, 72, 73, 74, 75, 76, 77, 78, 79, 80, 81, 82, 83, 84, 85, 86, 87]],
              'geometry': [25.47963781, 23.08351049, 43.1296896, 24.89690954, 20.52012331, 43.887087, 25.07057198,
                           18.48699404, 42.07353641, 25.8424877, 19.04880944, 39.52013663, 26.46903607, 21.61452675,
                           38.85199593, 26.30318821, 23.59330066, 40.54460103, 24.46577176, 15.9279092, 42.77036087,
                           23.76811717, 15.37695629, 45.40838081, 23.59859476, 17.38880058, 47.22265844, 24.1081018,
                           20.02007671, 46.44346413, 22.96694077, 16.77267612, 49.77192758, 22.51062738, 14.29130626,
                           50.58597185, 22.67427055, 12.32177999, 48.76231557, 23.27971306, 12.86309326, 46.25226043,
                           25.97467497, 17.0727052, 37.71068154, 25.34789586, 14.59123463, 38.39437083, 24.59969708,
                           14.0277518, 40.88784347, 25.20039992, 25.0588727, 44.92111126, 24.35321071, 24.59525103,
                           47.39946073, 23.84084877, 22.08099208, 48.12795237, 21.86046838, 13.69556932, 53.32235171,
                           24.04555383, 26.76370654, 49.27889773, 26.50915633, 27.41178979, 50.73375129, 26.93108599,
                           26.27094839, 39.72356046, 27.10311578, 21.98163565, 36.89906984, 22.32265299, 10.34583799,
                           49.33666834, 23.39372081, 11.28300305, 44.90489504, 26.57612038, 17.51973959, 35.76596134,
                           25.43664936, 13.06203906, 36.97800898, 24.12002947, 12.05854919, 41.3527408, 25.62817825,
                           27.01761767, 44.36171793, 23.18724332, 21.75219607, 50.07608394, 23.27013145, 12.38510294,
                           54.17857328, 21.79629273, 15.42803966, 54.50687769, 19.98705402, 12.74487252, 53.47527914,
                           22.53167906, 26.28198386, 50.6619148, 23.38069793, 28.48102898, 48.25612267, 27.19569266,
                           25.7565067, 51.83310019, 28.04156267, 27.96965392, 49.40821263, 28.39145441, 27.1428651,
                           40.95513515, 25.23456206, 27.51897461, 39.79892028, 27.66207922, 26.29954115, 37.75755015,
                           26.2022166, 29.00071195, 52.0780899, 22.83611537, 18.29134925, 51.1881473, 30.81342193,
                           18.71017989, 45.99359029, 31.5788239, 19.74555973, 43.58027113, 32.18922921, 22.39746574,
                           43.36009841, 32.04731473, 23.98056161, 45.57578145, 31.25562095, 22.88485355, 47.94186375,
                           30.64065655, 20.36296812, 48.19759324, 32.96098858, 23.46875558, 40.98068543, 32.9776879,
                           21.8498177, 38.71563215, 32.39688051, 19.20754673, 38.92783428, 31.75108262, 18.1119644,
                           41.41040042, 32.38510148, 17.70859001, 36.6883681, 32.89884869, 18.70388423, 34.28627015,
                           33.46045747, 21.32787429, 34.10603582, 33.50020544, 22.84413785, 36.26471359, 32.71084168,
                           26.57519902, 45.39430813, 33.51746054, 27.59229626, 43.0833912, 33.64071365, 26.05933156,
                           40.9078722, 30.26834315, 16.09166271, 46.16720061, 30.49746548, 14.47431826, 44.06910385,
                           31.23964841, 15.50757785, 41.72580743, 32.85245858, 17.05660123, 31.93007182, 30.0352396,
                           11.64386798, 44.33912194, 32.45644731, 10.16276856, 45.08627623, 29.83741229, 19.30937345,
                           50.74453249, 31.15944353, 24.13692378, 49.60598037, 33.86115259, 22.17547238, 32.24063318,
                           33.92403613, 24.86828461, 36.03931452, 32.60693264, 27.77144276, 47.1004289, 34.05705016,
                           29.60331272, 42.95688301, 34.27807476, 26.92308174, 39.12655219, 29.64722791, 15.28713696,
                           47.98302787, 31.38145507, 14.21615321, 40.10268471, 34.735737, 17.01308892, 30.98680081,
                           32.31443775, 15.0754773, 32.37170495, 31.48589123, 17.79122297, 30.50534659, 29.28049933,
                           10.88478084, 42.52649407, 28.54357618, 11.31799443, 45.78690148, 33.97269455, 10.41059171,
                           43.64975571, 33.2192207, 10.84125701, 46.92494523, 31.18221652, 17.84465276, 51.44063809,
                           27.94896357, 18.39273342, 50.64394079, 29.74125873, 20.82714016, 52.19033882, 32.06613232,
                           8.10297733, 45.26704002, 31.91846208, 15.68652669, 36.81860417],
              'id': 15,
              'identifiers': {'molecular_formula': 'C48H40',
                              'molecule_hash': '5e3296bad3c72e10e864464b8bcfe4a1199407a4'},
              'masses': [12.0, 12.0, 12.0, 12.0, 12.0, 12.0, 12.0, 12.0, 12.0, 12.0, 12.0, 12.0, 12.0, 12.0, 12.0, 12.0,
                         12.0, 12.0, 12.0, 12.0, 12.0, 12.0, 12.0, 12.0, 1.00782503223, 1.00782503223, 1.00782503223,
                         1.00782503223, 1.00782503223, 1.00782503223, 1.00782503223, 1.00782503223, 1.00782503223,
                         1.00782503223, 1.00782503223, 1.00782503223, 1.00782503223, 1.00782503223, 1.00782503223,
                         1.00782503223, 1.00782503223, 1.00782503223, 1.00782503223, 1.00782503223, 12.0, 12.0, 12.0,
                         12.0, 12.0, 12.0, 12.0, 12.0, 12.0, 12.0, 12.0, 12.0, 12.0, 12.0, 12.0, 12.0, 12.0, 12.0, 12.0,
                         12.0, 12.0, 12.0, 12.0, 12.0, 1.00782503223, 1.00782503223, 1.00782503223, 1.00782503223,
                         1.00782503223, 1.00782503223, 1.00782503223, 1.00782503223, 1.00782503223, 1.00782503223,
                         1.00782503223, 1.00782503223, 1.00782503223, 1.00782503223, 1.00782503223, 1.00782503223,
                         1.00782503223, 1.00782503223, 1.00782503223, 1.00782503223],
              'molecular_charge': 0.0,
              'molecular_multiplicity': 1,
              'name': 'C48H40 ([1],[0])',
              'provenance': {'creator': 'QCElemental',
                             'routine': 'qcelemental.molparse.from_schema',
                             'version': '0.29.0'},
              'real': [False, False, False, False, False, False, False, False, False, False, False, False, False, False,
                       False, False, False, False, False, False, False, False, False, False, False, False, False, False,
                       False, False, False, False, False, False, False, False, False, False, False, False, False, False,
                       False, False, True, True, True, True, True, True, True, True, True, True, True, True, True, True,
                       True, True, True, True, True, True, True, True, True, True, True, True, True, True, True, True,
                       True, True, True, True, True, True, True, True, True, True, True, True, True, True],
              'schema_name': 'qcschema_molecule',
              'schema_version': 2,
              'symbols': ['C', 'C', 'C', 'C', 'C', 'C', 'C', 'C', 'C', 'C', 'C', 'C', 'C', 'C', 'C', 'C', 'C', 'C', 'C',
                          'C', 'C', 'C', 'C', 'C', 'H', 'H', 'H', 'H', 'H', 'H', 'H', 'H', 'H', 'H', 'H', 'H', 'H', 'H',
                          'H', 'H', 'H', 'H', 'H', 'H', 'C', 'C', 'C', 'C', 'C', 'C', 'C', 'C', 'C', 'C', 'C', 'C', 'C',
                          'C', 'C', 'C', 'C', 'C', 'C', 'C', 'C', 'C', 'C', 'C', 'H', 'H', 'H', 'H', 'H', 'H', 'H', 'H',
                          'H', 'H', 'H', 'H', 'H', 'H', 'H', 'H', 'H', 'H', 'H', 'H'],
              'validated': True},
 'protocols': {},
 'provenance': {'creator': 'QCElemental', 'routine': 'qcelemental.models.results', 'version': '0.29.0'},
 'schema_name': 'qcschema_input',
 'schema_version': 1}
--------------------------------------------------------------------------

Scratch directory: /tmp/tmpacobrwu1_psi_scratch/
   => Libint2 <=

    Primary   basis highest AM E, G, H:  6, 6, 3
    Auxiliary basis highest AM E, G, H:  7, 7, 4
    Onebody   basis highest AM E, G, H:  -, -, -
    Solid Harmonics ordering:            Gaussian

*** tstart() called on atl1-1-03-004-14-1.pace.gatech.edu
*** at Sat Jun 13 15:40:47 2026

   => Loading Basis Set <=

    Name: AUG-CC-PVTZ
    Role: ORBITAL
    Keyword: BASIS
    atoms 1-24, 45-68  entry C          line   239 file /storage/home/hcoda1/5/vlita3/.conda/envs/p4_qcml/share/psi4/basis/aug-cc-pvtz.gbs 
    atoms 25-44, 69-88 entry H          line    40 file /storage/home/hcoda1/5/vlita3/.conda/envs/p4_qcml/share/psi4/basis/aug-cc-pvtz.gbs 


         ---------------------------------------------------------
                                   SCF
               by Justin Turney, Rob Parrish, Andy Simmonett
                          and Daniel G. A. Smith
                              RKS Reference
                       10 Threads, 256000 MiB Core
         ---------------------------------------------------------

  ==> Geometry <==

    Molecular point group: c1
    Full point group: C1

    Geometry (in Bohr), charge = 0, multiplicity = 1:

       Center              X                  Y                   Z               Mass       
    ------------   -----------------  -----------------  -----------------  -----------------
      Gh(C)          25.479637810000    23.083510490000    43.129689600000    12.000000000000
      Gh(C)          24.896909540000    20.520123310000    43.887087000000    12.000000000000
      Gh(C)          25.070571980000    18.486994040000    42.073536410000    12.000000000000
      Gh(C)          25.842487700000    19.048809440000    39.520136630000    12.000000000000
      Gh(C)          26.469036070000    21.614526750000    38.851995930000    12.000000000000
      Gh(C)          26.303188210000    23.593300660000    40.544601030000    12.000000000000
      Gh(C)          24.465771760000    15.927909200000    42.770360870000    12.000000000000
      Gh(C)          23.768117170000    15.376956290000    45.408380810000    12.000000000000
      Gh(C)          23.598594760000    17.388800580000    47.222658440000    12.000000000000
      Gh(C)          24.108101800000    20.020076710000    46.443464130000    12.000000000000
      Gh(C)          22.966940770000    16.772676120000    49.771927580000    12.000000000000
      Gh(C)          22.510627380000    14.291306260000    50.585971850000    12.000000000000
      Gh(C)          22.674270550000    12.321779990000    48.762315570000    12.000000000000
      Gh(C)          23.279713060000    12.863093260000    46.252260430000    12.000000000000
      Gh(C)          25.974674970000    17.072705200000    37.710681540000    12.000000000000
      Gh(C)          25.347895860000    14.591234630000    38.394370830000    12.000000000000
      Gh(C)          24.599697080000    14.027751800000    40.887843470000    12.000000000000
      Gh(C)          25.200399920000    25.058872700000    44.921111260000    12.000000000000
      Gh(C)          24.353210710000    24.595251030000    47.399460730000    12.000000000000
      Gh(C)          23.840848770000    22.080992080000    48.127952370000    12.000000000000
      Gh(C)          21.860468380000    13.695569320000    53.322351710000    12.000000000000
      Gh(C)          24.045553830000    26.763706540000    49.278897730000    12.000000000000
      Gh(C)          26.509156330000    27.411789790000    50.733751290000    12.000000000000
      Gh(C)          26.931085990000    26.270948390000    39.723560460000    12.000000000000
      Gh(H)          27.103115780000    21.981635650000    36.899069840000     1.007825032230
      Gh(H)          22.322652990000    10.345837990000    49.336668340000     1.007825032230
      Gh(H)          23.393720810000    11.283003050000    44.904895040000     1.007825032230
      Gh(H)          26.576120380000    17.519739590000    35.765961340000     1.007825032230
      Gh(H)          25.436649360000    13.062039060000    36.978008980000     1.007825032230
      Gh(H)          24.120029470000    12.058549190000    41.352740800000     1.007825032230
      Gh(H)          25.628178250000    27.017617670000    44.361717930000     1.007825032230
      Gh(H)          23.187243320000    21.752196070000    50.076083940000     1.007825032230
      Gh(H)          23.270131450000    12.385102940000    54.178573280000     1.007825032230
      Gh(H)          21.796292730000    15.428039660000    54.506877690000     1.007825032230
      Gh(H)          19.987054020000    12.744872520000    53.475279140000     1.007825032230
      Gh(H)          22.531679060000    26.281983860000    50.661914800000     1.007825032230
      Gh(H)          23.380697930000    28.481028980000    48.256122670000     1.007825032230
      Gh(H)          27.195692660000    25.756506700000    51.833100190000     1.007825032230
      Gh(H)          28.041562670000    27.969653920000    49.408212630000     1.007825032230
      Gh(H)          28.391454410000    27.142865100000    40.955135150000     1.007825032230
      Gh(H)          25.234562060000    27.518974610000    39.798920280000     1.007825032230
      Gh(H)          27.662079220000    26.299541150000    37.757550150000     1.007825032230
      Gh(H)          26.202216600000    29.000711950000    52.078089900000     1.007825032230
      Gh(H)          22.836115370000    18.291349250000    51.188147300000     1.007825032230
         C           30.813421930000    18.710179890000    45.993590290000    12.000000000000
         C           31.578823900000    19.745559730000    43.580271130000    12.000000000000
         C           32.189229210000    22.397465740000    43.360098410000    12.000000000000
         C           32.047314730000    23.980561610000    45.575781450000    12.000000000000
         C           31.255620950000    22.884853550000    47.941863750000    12.000000000000
         C           30.640656550000    20.362968120000    48.197593240000    12.000000000000
         C           32.960988580000    23.468755580000    40.980685430000    12.000000000000
         C           32.977687900000    21.849817700000    38.715632150000    12.000000000000
         C           32.396880510000    19.207546730000    38.927834280000    12.000000000000
         C           31.751082620000    18.111964400000    41.410400420000    12.000000000000
         C           32.385101480000    17.708590010000    36.688368100000    12.000000000000
         C           32.898848690000    18.703884230000    34.286270150000    12.000000000000
         C           33.460457470000    21.327874290000    34.106035820000    12.000000000000
         C           33.500205440000    22.844137850000    36.264713590000    12.000000000000
         C           32.710841680000    26.575199020000    45.394308130000    12.000000000000
         C           33.517460540000    27.592296260000    43.083391200000    12.000000000000
         C           33.640713650000    26.059331560000    40.907872200000    12.000000000000
         C           30.268343150000    16.091662710000    46.167200610000    12.000000000000
         C           30.497465480000    14.474318260000    44.069103850000    12.000000000000
         C           31.239648410000    15.507577850000    41.725807430000    12.000000000000
         C           32.852458580000    17.056601230000    31.930071820000    12.000000000000
         C           30.035239600000    11.643867980000    44.339121940000    12.000000000000
         C           32.456447310000    10.162768560000    45.086276230000    12.000000000000
         C           29.837412290000    19.309373450000    50.744532490000    12.000000000000
         H           31.159443530000    24.136923780000    49.605980370000     1.007825032230
         H           33.861152590000    22.175472380000    32.240633180000     1.007825032230
         H           33.924036130000    24.868284610000    36.039314520000     1.007825032230
         H           32.606932640000    27.771442760000    47.100428900000     1.007825032230
         H           34.057050160000    29.603312720000    42.956883010000     1.007825032230
         H           34.278074760000    26.923081740000    39.126552190000     1.007825032230
         H           29.647227910000    15.287136960000    47.983027870000     1.007825032230
         H           31.381455070000    14.216153210000    40.102684710000     1.007825032230
         H           34.735737000000    17.013088920000    30.986800810000     1.007825032230
         H           32.314437750000    15.075477300000    32.371704950000     1.007825032230
         H           31.485891230000    17.791222970000    30.505346590000     1.007825032230
         H           29.280499330000    10.884780840000    42.526494070000     1.007825032230
         H           28.543576180000    11.317994430000    45.786901480000     1.007825032230
         H           33.972694550000    10.410591710000    43.649755710000     1.007825032230
         H           33.219220700000    10.841257010000    46.924945230000     1.007825032230
         H           31.182216520000    17.844652760000    51.440638090000     1.007825032230
         H           27.948963570000    18.392733420000    50.643940790000     1.007825032230
         H           29.741258730000    20.827140160000    52.190338820000     1.007825032230
         H           32.066132320000     8.102977330000    45.267040020000     1.007825032230
         H           31.918462080000    15.686526690000    36.818604170000     1.007825032230

  Running in c1 symmetry.

  Rotational constants: A =      0.00210  B =      0.00003  C =      0.00003 [cm^-1]
  Rotational constants: A =     62.96897  B =      0.94325  C =      0.93874 [MHz]
  Nuclear repulsion = 1864.841208739238255

  Charge       = 0
  Multiplicity = 1
  Electrons    = 164
  Nalpha       = 82
  Nbeta        = 82

  ==> Algorithm <==

  SCF Algorithm Type is DF.
  DIIS enabled.
  MOM disabled.
  Fractional occupation disabled.
  Guess Type is SAD.
  Energy threshold   = 1.00e-06
  Density threshold  = 1.00e-06
  Integral threshold = 1.00e-12

  ==> Primary Basis <==

  Basis Set: AUG-CC-PVTZ
    Blend: AUG-CC-PVTZ
    Number of shells: 1032
    Number of basis functions: 3128
    Number of Cartesian functions: 3640
    Spherical Harmonics?: true
    Max angular momentum: 3

  ==> DFT Potential <==

   => LibXC <=

    Version 7.0.0
    S. Lehtola, C. Steigemann, M. J.T. Oliveira, and M. A.L. Marques.,  SoftwareX 7, 1–5 (2018) (10.1016/j.softx.2017.11.002)

   => Composite Functional: WB97X-V <= 

    wB97X-V Hyb-GGA Exchange-Correlation Functional

    N. Mardirossian and M. Head-Gordon.,  Phys. Chem. Chem. Phys. 16, 9904-9924 (2014) (10.1039/C3CP54374A)

    Deriv               =              1
    GGA                 =           TRUE
    Meta                =          FALSE

    Exchange Hybrid     =           TRUE
    MP2 Hybrid          =          FALSE

   => Exchange-Correlation Functionals <=

    1.0000   wB97X-V range-separated functional

   => Exact (HF) Exchange <=

    0.8330            HF,LR [omega = 0.3000]
    0.1670               HF 

   => LibXC Density Thresholds  <==

    XC_HYB_GGA_XC_WB97X_V:  1.00E-14 

   => VV10 Non-Local Parameters <=

    VV10 B              =     6.0000E+00
    VV10 C              =     1.0000E-02

   => Molecular Quadrature <=

    Radial Scheme          =       TREUTLER
    Pruning Scheme         =           NONE
    Nuclear Scheme         =       TREUTLER

    Blocking Scheme        =         OCTREE
    BS radius alpha        =              1
    Pruning alpha          =              1
    Radial Points          =             75
    Spherical Points       =            302
    Total Points           =        1755895
    Total Blocks           =          12038
    Max Points             =            256
    Max Functions          =           2202
    Weights Tolerance      =       1.00E-15

   => Loading Basis Set <=

    Name: (AUG-CC-PVTZ AUX)
    Role: JKFIT
    Keyword: DF_BASIS_SCF
    atoms 1-24, 45-68  entry C          line   162 file /storage/home/hcoda1/5/vlita3/.conda/envs/p4_qcml/share/psi4/basis/aug-cc-pvtz-jkfit.gbs 
    atoms 25-44, 69-88 entry H          line    70 file /storage/home/hcoda1/5/vlita3/.conda/envs/p4_qcml/share/psi4/basis/aug-cc-pvtz-jkfit.gbs 

  ==> Integral Setup <==

  ==> DiskDFJK: Density-Fitted J/K Matrices <==

    J tasked:                  Yes
    K tasked:                  Yes
    wK tasked:                 Yes
    Omega:               3.000E-01
    OpenMP threads:             10
    Integrals threads:          10
    Memory [MiB]:           172800
    Algorithm:                Disk
    Integral Cache:           NONE
    Schwarz Cutoff:          1E-12
    Fitting Condition:       1E-10

   => Auxiliary Basis Set <=

  Basis Set: (AUG-CC-PVTZ AUX)
    Blend: AUG-CC-PVTZ-JKFIT
    Number of shells: 2000
    Number of basis functions: 6832
    Number of Cartesian functions: 8488
    Spherical Harmonics?: true
    Max angular momentum: 4

  Minimum eigenvalue in the overlap matrix is 6.3711160731E-10.
  Reciprocal condition number of the overlap matrix is 1.7895063395E-11.
    Using canonical orthogonalization.
  Overall, 29 of 3128 possible MOs eliminated.


  ==> Pre-Iterations <==

  SCF Guess: Superposition of Atomic Densities via on-the-fly atomic UHF (no occupation information).

   -------------------------
    Irrep   Nso     Nmo    
   -------------------------
     A       3128    3099 
   -------------------------
    Total    3128    3099
   -------------------------

  ==> Iterations <==

                           Total Energy        Delta E     RMS |[F,P]|

   @DF-RKS iter SAD:  -926.28099621481408   -9.26281e+02   0.00000e+00 
   @DF-RKS iter   1:  -925.89166870174699    3.89328e-01   3.95646e-04 ADIIS/DIIS
   @DF-RKS iter   2:  -926.43838785812011   -5.46719e-01   2.37965e-04 ADIIS/DIIS
   @DF-RKS iter   3:  -926.71255791892872   -2.74170e-01   2.66270e-05 DIIS
   @DF-RKS iter   4:  -926.71603719420727   -3.47928e-03   1.56598e-05 DIIS
   @DF-RKS iter   5:  -926.71723625516529   -1.19906e-03   4.29158e-06 DIIS
   @DF-RKS iter   6:  -926.71733625580146   -1.00001e-04   1.43584e-06 DIIS
   @DF-RKS iter   7:  -926.71734999861656   -1.37428e-05   5.09598e-07 DIIS
   @DF-RKS iter   8:  -926.71735286392334   -2.86531e-06   2.09308e-07 DIIS
   @DF-RKS iter   9:  -926.71735346732873   -6.03405e-07   9.83997e-08 DIIS
  Energy and wave function converged.


  ==> Post-Iterations <==

   Electrons on quadrature grid:
      Ntotal   =  163.9997300877 ; deviation = -2.699e-04 

    Orbital Energies [Eh]
    ---------------------

    Doubly Occupied:                                                      

       1A    -10.297267     2A    -10.296957     3A    -10.296187  
       4A    -10.294853     5A    -10.294485     6A    -10.293913  
       7A    -10.293753     8A    -10.293415     9A    -10.292323  
      10A    -10.291681    11A    -10.290023    12A    -10.284351  
      13A    -10.283863    14A    -10.283543    15A    -10.282457  
      16A    -10.282265    17A    -10.281712    18A    -10.280718  
      19A    -10.280529    20A    -10.279956    21A    -10.279619  
      22A    -10.278876    23A    -10.278134    24A    -10.272053  
      25A     -1.027029    26A     -0.993360    27A     -0.985231  
      28A     -0.953611    29A     -0.936068    30A     -0.913642  
      31A     -0.895120    32A     -0.890914    33A     -0.874103  
      34A     -0.848308    35A     -0.841903    36A     -0.813146  
      37A     -0.810914    38A     -0.765285    39A     -0.754018  
      40A     -0.735187    41A     -0.731837    42A     -0.720093  
      43A     -0.695962    44A     -0.658505    45A     -0.647726  
      46A     -0.636128    47A     -0.614913    48A     -0.604171  
      49A     -0.579922    50A     -0.576658    51A     -0.569127  
      52A     -0.556272    53A     -0.554406    54A     -0.544195  
      55A     -0.538568    56A     -0.530574    57A     -0.529666  
      58A     -0.522987    59A     -0.520788    60A     -0.515094  
      61A     -0.511250    62A     -0.505900    63A     -0.490700  
      64A     -0.490023    65A     -0.484721    66A     -0.479411  
      67A     -0.472832    68A     -0.467792    69A     -0.464297  
      70A     -0.460884    71A     -0.451012    72A     -0.446196  
      73A     -0.442185    74A     -0.414639    75A     -0.413775  
      76A     -0.410160    77A     -0.384845    78A     -0.381867  
      79A     -0.333109    80A     -0.331981    81A     -0.296852  
      82A     -0.276953  

    Virtual:                                                              

      83A      0.003691    84A      0.018013    85A      0.022946  
      86A      0.023973    87A      0.025767    88A      0.029937  
      89A      0.031148    90A      0.032394    91A      0.036366  
      92A      0.036944    93A      0.041093    94A      0.042035  
      95A      0.043024    96A      0.045363    97A      0.047778  
      98A      0.049151    99A      0.051644   100A      0.051928  
     101A      0.055748   102A      0.056010   103A      0.057099  
     104A      0.058279   105A      0.062249   106A      0.063878  
     107A      0.065676   108A      0.067165   109A      0.067738  
     110A      0.068690   111A      0.071904   112A      0.072646  
     113A      0.073423   114A      0.076694   115A      0.078503  
     116A      0.079601   117A      0.083301   118A      0.083979  
     119A      0.085006   120A      0.086732   121A      0.088005  
     122A      0.088964   123A      0.090180   124A      0.091788  
     125A      0.094865   126A      0.096087   127A      0.098356  
     128A      0.099762   129A      0.100679   130A      0.100991  
     131A      0.102263   132A      0.104690   133A      0.105013  
     134A      0.107919   135A      0.108654   136A      0.111001  
     137A      0.111815   138A      0.113521   139A      0.114367  
     140A      0.115453   141A      0.117086   142A      0.117792  
     143A      0.118545   144A      0.119611   145A      0.121121  
     146A      0.122578   147A      0.125458   148A      0.127016  
     149A      0.127967   150A      0.128963   151A      0.130522  
     152A      0.131008   153A      0.134471   154A      0.135645  
     155A      0.137821   156A      0.138377   157A      0.139207  
     158A      0.140781   159A      0.141085   160A      0.141515  
     161A      0.142509   162A      0.144262   163A      0.145073  
     164A      0.146730   165A      0.148556   166A      0.150696  
     167A      0.151586   168A      0.152068   169A      0.154571  
     170A      0.156782   171A      0.157661   172A      0.159495  
     173A      0.160721   174A      0.162148   175A      0.163022  
     176A      0.165846   177A      0.166442   178A      0.167015  
     179A      0.168091   180A      0.169670   181A      0.171456  
     182A      0.171479   183A      0.173522   184A      0.174356  
     185A      0.174630   186A      0.177137   187A      0.178406  
     188A      0.179384   189A      0.180451   190A      0.180997  
     191A      0.182850   192A      0.183910   193A      0.185501  
     194A      0.187652   195A      0.190396   196A      0.190715  
     197A      0.191308   198A      0.192727   199A      0.194205  
     200A      0.195481   201A      0.197867   202A      0.199652  
     203A      0.200406   204A      0.202554   205A      0.203609  
     206A      0.204324   207A      0.204761   208A      0.205837  
     209A      0.207135   210A      0.209696   211A      0.211741  
     212A      0.212164   213A      0.213627   214A      0.215059  
     215A      0.215692   216A      0.216521   217A      0.219057  
     218A      0.220393   219A      0.221364   220A      0.222279  
     221A      0.223740   222A      0.226656   223A      0.227897  
     224A      0.228000   225A      0.229605   226A      0.230560  
     227A      0.232440   228A      0.233491   229A      0.234564  
     230A      0.235930   231A      0.237379   232A      0.239180  
     233A      0.239515   234A      0.242485   235A      0.243003  
     236A      0.243455   237A      0.243908   238A      0.244644  
     239A      0.246402   240A      0.246972   241A      0.247977  
     242A      0.250279   243A      0.250981   244A      0.251830  
     245A      0.252896   246A      0.253579   247A      0.254977  
     248A      0.256235   249A      0.257149   250A      0.258069  
     251A      0.260086   252A      0.262415   253A      0.262799  
     254A      0.266216   255A      0.267352   256A      0.267882  
     257A      0.268833   258A      0.269547   259A      0.270734  
     260A      0.271270   261A      0.273714   262A      0.274839  
     263A      0.276119   264A      0.276529   265A      0.278595  
     266A      0.279917   267A      0.281587   268A      0.282381  
     269A      0.282874   270A      0.284772   271A      0.286137  
     272A      0.287319   273A      0.289166   274A      0.290429  
     275A      0.291008   276A      0.292661   277A      0.293319  
     278A      0.295080   279A      0.295617   280A      0.297009  
     281A      0.297693   282A      0.298365   283A      0.300001  
     284A      0.302826   285A      0.303926   286A      0.305408  
     287A      0.306774   288A      0.307391   289A      0.309413  
     290A      0.311853   291A      0.312153   292A      0.313419  
     293A      0.314135   294A      0.315894   295A      0.316500  
     296A      0.318154   297A      0.319688   298A      0.320722  
     299A      0.321734   300A      0.323557   301A      0.324058  
     302A      0.324827   303A      0.326960   304A      0.328627  
     305A      0.330164   306A      0.331074   307A      0.332431  
     308A      0.333319   309A      0.334323   310A      0.334902  
     311A      0.336093   312A      0.337446   313A      0.338079  
     314A      0.339864   315A      0.341894   316A      0.342958  
     317A      0.343848   318A      0.344984   319A      0.346263  
     320A      0.348596   321A      0.349215   322A      0.349929  
     323A      0.350745   324A      0.351851   325A      0.353367  
     326A      0.355003   327A      0.356993   328A      0.357578  
     329A      0.360029   330A      0.360716   331A      0.362434  
     332A      0.364391   333A      0.364783   334A      0.366467  
     335A      0.367393   336A      0.368840   337A      0.369147  
     338A      0.370971   339A      0.371752   340A      0.372425  
     341A      0.375232   342A      0.377454   343A      0.378082  
     344A      0.379480   345A      0.380651   346A      0.381791  
     347A      0.383234   348A      0.385473   349A      0.386122  
     350A      0.388036   351A      0.388481   352A      0.390482  
     353A      0.391849   354A      0.392653   355A      0.395083  
     356A      0.397014   357A      0.398219   358A      0.398442  
     359A      0.399743   360A      0.401251   361A      0.401988  
     362A      0.402741   363A      0.404324   364A      0.405286  
     365A      0.406397   366A      0.408736   367A      0.409427  
     368A      0.411409   369A      0.412450   370A      0.413587  
     371A      0.413913   372A      0.416340   373A      0.417289  
     374A      0.418933   375A      0.420986   376A      0.421063  
     377A      0.422094   378A      0.424870   379A      0.426581  
     380A      0.427758   381A      0.428843   382A      0.430534  
     383A      0.432479   384A      0.432972   385A      0.434621  
     386A      0.436667   387A      0.437817   388A      0.438015  
     389A      0.440022   390A      0.440489   391A      0.441884  
     392A      0.442927   393A      0.443354   394A      0.446785  
     395A      0.447542   396A      0.448919   397A      0.449457  
     398A      0.451973   399A      0.453563   400A      0.454978  
     401A      0.455420   402A      0.456890   403A      0.458425  
     404A      0.459798   405A      0.461273   406A      0.462145  
     407A      0.464660   408A      0.465196   409A      0.466873  
     410A      0.467842   411A      0.468854   412A      0.470227  
     413A      0.472575   414A      0.473532   415A      0.473659  
     416A      0.475422   417A      0.476589   418A      0.477919  
     419A      0.479262   420A      0.480811   421A      0.481915  
     422A      0.483346   423A      0.483751   424A      0.485559  
     425A      0.487149   426A      0.488524   427A      0.490548  
     428A      0.490866   429A      0.491108   430A      0.492010  
     431A      0.494546   432A      0.495907   433A      0.496347  
     434A      0.497399   435A      0.499597   436A      0.501360  
     437A      0.501529   438A      0.503033   439A      0.503820  
     440A      0.504927   441A      0.505798   442A      0.506633  
     443A      0.508336   444A      0.509457   445A      0.510809  
     446A      0.511414   447A      0.512661   448A      0.514733  
     449A      0.516677   450A      0.517860   451A      0.518538  
     452A      0.519102   453A      0.520429   454A      0.520536  
     455A      0.520795   456A      0.522384   457A      0.523241  
     458A      0.524909   459A      0.526434   460A      0.526722  
     461A      0.528436   462A      0.529238   463A      0.531153  
     464A      0.532556   465A      0.533511   466A      0.533983  
     467A      0.535202   468A      0.538211   469A      0.538578  
     470A      0.539920   471A      0.540879   472A      0.541440  
     473A      0.542680   474A      0.544541   475A      0.545881  
     476A      0.547322   477A      0.547654   478A      0.550060  
     479A      0.551191   480A      0.551388   481A      0.554489  
     482A      0.554899   483A      0.556161   484A      0.557733  
     485A      0.559338   486A      0.560276   487A      0.562571  
     488A      0.563410   489A      0.565077   490A      0.565516  
     491A      0.568260   492A      0.568991   493A      0.569700  
     494A      0.570917   495A      0.571980   496A      0.573396  
     497A      0.574535   498A      0.575899   499A      0.577145  
     500A      0.577892   501A      0.578819   502A      0.581218  
     503A      0.581610   504A      0.582782   505A      0.583797  
     506A      0.585525   507A      0.587721   508A      0.589071  
     509A      0.590328   510A      0.590945   511A      0.593943  
     512A      0.594532   513A      0.595816   514A      0.596879  
     515A      0.599341   516A      0.600767   517A      0.602753  
     518A      0.604897   519A      0.605280   520A      0.607896  
     521A      0.608668   522A      0.609699   523A      0.610896  
     524A      0.612488   525A      0.613782   526A      0.614701  
     527A      0.616102   528A      0.616440   529A      0.618446  
     530A      0.619556   531A      0.622160   532A      0.623442  
     533A      0.624503   534A      0.625045   535A      0.625476  
     536A      0.626782   537A      0.628086   538A      0.630219  
     539A      0.630667   540A      0.634855   541A      0.636118  
     542A      0.637782   543A      0.638394   544A      0.639207  
     545A      0.640649   546A      0.642025   547A      0.644267  
     548A      0.646418   549A      0.649852   550A      0.651193  
     551A      0.652584   552A      0.653587   553A      0.654541  
     554A      0.656145   555A      0.658275   556A      0.659128  
     557A      0.661371   558A      0.662575   559A      0.664699  
     560A      0.665642   561A      0.667249   562A      0.668925  
     563A      0.669905   564A      0.671260   565A      0.672929  
     566A      0.674308   567A      0.675370   568A      0.676019  
     569A      0.678192   570A      0.679351   571A      0.680779  
     572A      0.682470   573A      0.683360   574A      0.685520  
     575A      0.687596   576A      0.689094   577A      0.690337  
     578A      0.692833   579A      0.693325   580A      0.694116  
     581A      0.696801   582A      0.698099   583A      0.699066  
     584A      0.701554   585A      0.704520   586A      0.705639  
     587A      0.705857   588A      0.707207   589A      0.707708  
     590A      0.708388   591A      0.710654   592A      0.711839  
     593A      0.714976   594A      0.715606   595A      0.716819  
     596A      0.718409   597A      0.719231   598A      0.721747  
     599A      0.724175   600A      0.724879   601A      0.725843  
     602A      0.727216   603A      0.729760   604A      0.730802  
     605A      0.731970   606A      0.732939   607A      0.734659  
     608A      0.736415   609A      0.738955   610A      0.740265  
     611A      0.741110   612A      0.743400   613A      0.744546  
     614A      0.746320   615A      0.747781   616A      0.749001  
     617A      0.750237   618A      0.750741   619A      0.752053  
     620A      0.752639   621A      0.756082   622A      0.756763  
     623A      0.759185   624A      0.759914   625A      0.760414  
     626A      0.762252   627A      0.763695   628A      0.765329  
     629A      0.765875   630A      0.767885   631A      0.768841  
     632A      0.769989   633A      0.772707   634A      0.775971  
     635A      0.777949   636A      0.779369   637A      0.780961  
     638A      0.782164   639A      0.782383   640A      0.783705  
     641A      0.785832   642A      0.786307   643A      0.787898  
     644A      0.790222   645A      0.790418   646A      0.791128  
     647A      0.793649   648A      0.795387   649A      0.796232  
     650A      0.798050   651A      0.798639   652A      0.800806  
     653A      0.803461   654A      0.804910   655A      0.805986  
     656A      0.807941   657A      0.809235   658A      0.811269  
     659A      0.812098   660A      0.812179   661A      0.813937  
     662A      0.815266   663A      0.818686   664A      0.820400  
     665A      0.821495   666A      0.822771   667A      0.823379  
     668A      0.825541   669A      0.826476   670A      0.827540  
     671A      0.829985   672A      0.831317   673A      0.832966  
     674A      0.834690   675A      0.835790   676A      0.836789  
     677A      0.837290   678A      0.838026   679A      0.841387  
     680A      0.843524   681A      0.845045   682A      0.847249  
     683A      0.848898   684A      0.850091   685A      0.850704  
     686A      0.852780   687A      0.853894   688A      0.855544  
     689A      0.856479   690A      0.858627   691A      0.859507  
     692A      0.860426   693A      0.861238   694A      0.862930  
     695A      0.866210   696A      0.867279   697A      0.868914  
     698A      0.869413   699A      0.870367   700A      0.871796  
     701A      0.873563   702A      0.873967   703A      0.874851  
     704A      0.875984   705A      0.877269   706A      0.879476  
     707A      0.880786   708A      0.883313   709A      0.885496  
     710A      0.886214   711A      0.887548   712A      0.889173  
     713A      0.889697   714A      0.891957   715A      0.892446  
     716A      0.893969   717A      0.896543   718A      0.897990  
     719A      0.898996   720A      0.900803   721A      0.901668  
     722A      0.903406   723A      0.904271   724A      0.906775  
     725A      0.907269   726A      0.908734   727A      0.910899  
     728A      0.912605   729A      0.914335   730A      0.915041  
     731A      0.916314   732A      0.917779   733A      0.920387  
     734A      0.920708   735A      0.923395   736A      0.924807  
     737A      0.926459   738A      0.927729   739A      0.928892  
     740A      0.929171   741A      0.932373   742A      0.932906  
     743A      0.935227   744A      0.936179   745A      0.937599  
     746A      0.938209   747A      0.938767   748A      0.941198  
     749A      0.942390   750A      0.943076   751A      0.945886  
     752A      0.946237   753A      0.947673   754A      0.949826  
     755A      0.950268   756A      0.952346   757A      0.953485  
     758A      0.956001   759A      0.957166   760A      0.958733  
     761A      0.960066   762A      0.960888   763A      0.962306  
     764A      0.965009   765A      0.966765   766A      0.967776  
     767A      0.969484   768A      0.970016   769A      0.970577  
     770A      0.971718   771A      0.972415   772A      0.974646  
     773A      0.976830   774A      0.979263   775A      0.980535  
     776A      0.981451   777A      0.982452   778A      0.983888  
     779A      0.985482   780A      0.987096   781A      0.988383  
     782A      0.990103   783A      0.991993   784A      0.992634  
     785A      0.993200   786A      0.994608   787A      0.996702  
     788A      0.998138   789A      1.001078   790A      1.002784  
     791A      1.003657   792A      1.004839   793A      1.005496  
     794A      1.008652   795A      1.010550   796A      1.011990  
     797A      1.013138   798A      1.014084   799A      1.016369  
     800A      1.017662   801A      1.018443   802A      1.019973  
     803A      1.022483   804A      1.023610   805A      1.024978  
     806A      1.026475   807A      1.029472   808A      1.031251  
     809A      1.033250   810A      1.035417   811A      1.035827  
     812A      1.036823   813A      1.038058   814A      1.039055  
     815A      1.041060   816A      1.043599   817A      1.044563  
     818A      1.045196   819A      1.047013   820A      1.047217  
     821A      1.049335   822A      1.050688   823A      1.051381  
     824A      1.052291   825A      1.054128   826A      1.055652  
     827A      1.058639   828A      1.061790   829A      1.062070  
     830A      1.063211   831A      1.064859   832A      1.066003  
     833A      1.068325   834A      1.071293   835A      1.072071  
     836A      1.073709   837A      1.074971   838A      1.076122  
     839A      1.077457   840A      1.078994   841A      1.081484  
     842A      1.084277   843A      1.085233   844A      1.086770  
     845A      1.088785   846A      1.090912   847A      1.091217  
     848A      1.093541   849A      1.094967   850A      1.096809  
     851A      1.097578   852A      1.099987   853A      1.101582  
     854A      1.101919   855A      1.104267   856A      1.105281  
     857A      1.106907   858A      1.108929   859A      1.109557  
     860A      1.111507   861A      1.113262   862A      1.113950  
     863A      1.115772   864A      1.116929   865A      1.118890  
     866A      1.120609   867A      1.122494   868A      1.124330  
     869A      1.125287   870A      1.127920   871A      1.129302  
     872A      1.131050   873A      1.132585   874A      1.133878  
     875A      1.134801   876A      1.135266   877A      1.137597  
     878A      1.138784   879A      1.139501   880A      1.141499  
     881A      1.143522   882A      1.144913   883A      1.145592  
     884A      1.147911   885A      1.148743   886A      1.150179  
     887A      1.151829   888A      1.154648   889A      1.156031  
     890A      1.156822   891A      1.159569   892A      1.161812  
     893A      1.161954   894A      1.163435   895A      1.164737  
     896A      1.166313   897A      1.167074   898A      1.167376  
     899A      1.169730   900A      1.171758   901A      1.172749  
     902A      1.173416   903A      1.175174   904A      1.175863  
     905A      1.179353   906A      1.180914   907A      1.185284  
     908A      1.186643   909A      1.186793   910A      1.187460  
     911A      1.189143   912A      1.191033   913A      1.191351  
     914A      1.193914   915A      1.194857   916A      1.196994  
     917A      1.197788   918A      1.199325   919A      1.199970  
     920A      1.201903   921A      1.203137   922A      1.207309  
     923A      1.208489   924A      1.209869   925A      1.210439  
     926A      1.211414   927A      1.214603   928A      1.216475  
     929A      1.219850   930A      1.220062   931A      1.220987  
     932A      1.223976   933A      1.224521   934A      1.225211  
     935A      1.226835   936A      1.228553   937A      1.228668  
     938A      1.230718   939A      1.232127   940A      1.234658  
     941A      1.237181   942A      1.239739   943A      1.240507  
     944A      1.242359   945A      1.244335   946A      1.247179  
     947A      1.247470   948A      1.248325   949A      1.250304  
     950A      1.251972   951A      1.252714   952A      1.256036  
     953A      1.257486   954A      1.258519   955A      1.260567  
     956A      1.261357   957A      1.264310   958A      1.266017  
     959A      1.266192   960A      1.267059   961A      1.268622  
     962A      1.269925   963A      1.272676   964A      1.273291  
     965A      1.274852   966A      1.276705   967A      1.278923  
     968A      1.280572   969A      1.282516   970A      1.284028  
     971A      1.284519   972A      1.288477   973A      1.289541  
     974A      1.292142   975A      1.292776   976A      1.294526  
     977A      1.296382   978A      1.297070   979A      1.298205  
     980A      1.301328   981A      1.302530   982A      1.303196  
     983A      1.306173   984A      1.307105   985A      1.308744  
     986A      1.310920   987A      1.312117   988A      1.312534  
     989A      1.313978   990A      1.315383   991A      1.317510  
     992A      1.320989   993A      1.322477   994A      1.323197  
     995A      1.324418   996A      1.325468   997A      1.326451  
     998A      1.329438   999A      1.329962  1000A      1.332115  
    1001A      1.333560  1002A      1.334349  1003A      1.336528  
    1004A      1.338539  1005A      1.340790  1006A      1.341483  
    1007A      1.343972  1008A      1.344666  1009A      1.346743  
    1010A      1.348182  1011A      1.349271  1012A      1.350770  
    1013A      1.351628  1014A      1.353525  1015A      1.354904  
    1016A      1.356057  1017A      1.359126  1018A      1.361303  
    1019A      1.362095  1020A      1.363103  1021A      1.364585  
    1022A      1.368024  1023A      1.368472  1024A      1.370584  
    1025A      1.371543  1026A      1.373790  1027A      1.374300  
    1028A      1.376392  1029A      1.380253  1030A      1.380768  
    1031A      1.382983  1032A      1.384603  1033A      1.384980  
    1034A      1.385581  1035A      1.387326  1036A      1.390642  
    1037A      1.392803  1038A      1.393750  1039A      1.394498  
    1040A      1.395691  1041A      1.396179  1042A      1.398419  
    1043A      1.399307  1044A      1.401805  1045A      1.403832  
    1046A      1.406720  1047A      1.407837  1048A      1.408932  
    1049A      1.409997  1050A      1.413955  1051A      1.415028  
    1052A      1.415528  1053A      1.418261  1054A      1.419842  
    1055A      1.420713  1056A      1.425401  1057A      1.426425  
    1058A      1.427561  1059A      1.428388  1060A      1.429041  
    1061A      1.430941  1062A      1.431920  1063A      1.433016  
    1064A      1.435218  1065A      1.435753  1066A      1.436835  
    1067A      1.439106  1068A      1.440661  1069A      1.441468  
    1070A      1.443659  1071A      1.445573  1072A      1.446891  
    1073A      1.449701  1074A      1.452001  1075A      1.452966  
    1076A      1.454650  1077A      1.455698  1078A      1.456460  
    1079A      1.458835  1080A      1.461647  1081A      1.462409  
    1082A      1.463455  1083A      1.465836  1084A      1.466877  
    1085A      1.469847  1086A      1.470054  1087A      1.472240  
    1088A      1.473251  1089A      1.475894  1090A      1.477092  
    1091A      1.478310  1092A      1.479130  1093A      1.480947  
    1094A      1.482367  1095A      1.483731  1096A      1.485436  
    1097A      1.486773  1098A      1.486914  1099A      1.489444  
    1100A      1.490626  1101A      1.492098  1102A      1.492706  
    1103A      1.494614  1104A      1.494907  1105A      1.498426  
    1106A      1.499001  1107A      1.500284  1108A      1.501720  
    1109A      1.502742  1110A      1.506339  1111A      1.507651  
    1112A      1.509099  1113A      1.509845  1114A      1.511351  
    1115A      1.512173  1116A      1.513653  1117A      1.515294  
    1118A      1.518665  1119A      1.519902  1120A      1.522405  
    1121A      1.522705  1122A      1.524585  1123A      1.525014  
    1124A      1.527671  1125A      1.527732  1126A      1.531392  
    1127A      1.532838  1128A      1.533186  1129A      1.536249  
    1130A      1.537766  1131A      1.540241  1132A      1.540467  
    1133A      1.542129  1134A      1.543967  1135A      1.545372  
    1136A      1.545846  1137A      1.548450  1138A      1.550400  
    1139A      1.552133  1140A      1.554698  1141A      1.556098  
    1142A      1.558033  1143A      1.558480  1144A      1.559724  
    1145A      1.563007  1146A      1.564746  1147A      1.565687  
    1148A      1.567088  1149A      1.567828  1150A      1.570591  
    1151A      1.572430  1152A      1.574654  1153A      1.575567  
    1154A      1.577997  1155A      1.578385  1156A      1.579488  
    1157A      1.582916  1158A      1.583584  1159A      1.584180  
    1160A      1.585747  1161A      1.586720  1162A      1.588477  
    1163A      1.589848  1164A      1.593595  1165A      1.594149  
    1166A      1.595659  1167A      1.597018  1168A      1.598448  
    1169A      1.599245  1170A      1.600728  1171A      1.601466  
    1172A      1.603891  1173A      1.604634  1174A      1.605992  
    1175A      1.610226  1176A      1.611883  1177A      1.614058  
    1178A      1.614867  1179A      1.615844  1180A      1.616509  
    1181A      1.617874  1182A      1.618825  1183A      1.620250  
    1184A      1.622082  1185A      1.623664  1186A      1.624967  
    1187A      1.626224  1188A      1.626613  1189A      1.629664  
    1190A      1.631116  1191A      1.631465  1192A      1.634752  
    1193A      1.635435  1194A      1.638308  1195A      1.639982  
    1196A      1.640510  1197A      1.641634  1198A      1.644549  
    1199A      1.645463  1200A      1.646543  1201A      1.649096  
    1202A      1.651945  1203A      1.653205  1204A      1.653756  
    1205A      1.654612  1206A      1.657011  1207A      1.658298  
    1208A      1.660761  1209A      1.662063  1210A      1.664508  
    1211A      1.665209  1212A      1.666561  1213A      1.668359  
    1214A      1.669989  1215A      1.670665  1216A      1.672544  
    1217A      1.674005  1218A      1.676703  1219A      1.677367  
    1220A      1.678918  1221A      1.679664  1222A      1.681045  
    1223A      1.682435  1224A      1.686050  1225A      1.686871  
    1226A      1.687554  1227A      1.689127  1228A      1.691088  
    1229A      1.694172  1230A      1.695835  1231A      1.696765  
    1232A      1.699623  1233A      1.701798  1234A      1.703356  
    1235A      1.704629  1236A      1.706368  1237A      1.707517  
    1238A      1.708774  1239A      1.710204  1240A      1.710994  
    1241A      1.711861  1242A      1.714935  1243A      1.716580  
    1244A      1.717568  1245A      1.719177  1246A      1.720432  
    1247A      1.722263  1248A      1.723934  1249A      1.725294  
    1250A      1.726169  1251A      1.727381  1252A      1.729653  
    1253A      1.731170  1254A      1.734463  1255A      1.736127  
    1256A      1.737099  1257A      1.737766  1258A      1.739915  
    1259A      1.740613  1260A      1.742240  1261A      1.744163  
    1262A      1.746240  1263A      1.748331  1264A      1.749601  
    1265A      1.750823  1266A      1.754774  1267A      1.755477  
    1268A      1.755986  1269A      1.758722  1270A      1.759422  
    1271A      1.760733  1272A      1.762924  1273A      1.764591  
    1274A      1.766679  1275A      1.769354  1276A      1.771376  
    1277A      1.773189  1278A      1.774273  1279A      1.776914  
    1280A      1.778460  1281A      1.780330  1282A      1.781730  
    1283A      1.783321  1284A      1.783948  1285A      1.785379  
    1286A      1.786945  1287A      1.787227  1288A      1.791391  
    1289A      1.791644  1290A      1.793514  1291A      1.795292  
    1292A      1.797455  1293A      1.797658  1294A      1.801999  
    1295A      1.802580  1296A      1.804564  1297A      1.806615  
    1298A      1.808546  1299A      1.811665  1300A      1.813131  
    1301A      1.814394  1302A      1.816556  1303A      1.817850  
    1304A      1.818973  1305A      1.819364  1306A      1.822904  
    1307A      1.824291  1308A      1.826021  1309A      1.826954  
    1310A      1.830770  1311A      1.832289  1312A      1.834685  
    1313A      1.835517  1314A      1.839100  1315A      1.839591  
    1316A      1.840486  1317A      1.842252  1318A      1.843934  
    1319A      1.846101  1320A      1.847937  1321A      1.848562  
    1322A      1.850167  1323A      1.851733  1324A      1.852195  
    1325A      1.853400  1326A      1.856075  1327A      1.857720  
    1328A      1.861534  1329A      1.862185  1330A      1.865868  
    1331A      1.866673  1332A      1.868088  1333A      1.869974  
    1334A      1.873110  1335A      1.874106  1336A      1.875398  
    1337A      1.876608  1338A      1.879684  1339A      1.881650  
    1340A      1.881782  1341A      1.882893  1342A      1.885905  
    1343A      1.886573  1344A      1.889002  1345A      1.890140  
    1346A      1.893909  1347A      1.894515  1348A      1.896778  
    1349A      1.898657  1350A      1.900351  1351A      1.902373  
    1352A      1.904160  1353A      1.906837  1354A      1.907704  
    1355A      1.909922  1356A      1.910570  1357A      1.911973  
    1358A      1.916721  1359A      1.916836  1360A      1.918982  
    1361A      1.921725  1362A      1.924060  1363A      1.926033  
    1364A      1.928894  1365A      1.930399  1366A      1.931415  
    1367A      1.932121  1368A      1.934521  1369A      1.935572  
    1370A      1.937767  1371A      1.940662  1372A      1.941415  
    1373A      1.942545  1374A      1.945702  1375A      1.948006  
    1376A      1.949514  1377A      1.951119  1378A      1.951684  
    1379A      1.953155  1380A      1.953999  1381A      1.956485  
    1382A      1.958988  1383A      1.961901  1384A      1.962529  
    1385A      1.964541  1386A      1.965015  1387A      1.966178  
    1388A      1.968372  1389A      1.969288  1390A      1.972653  
    1391A      1.973852  1392A      1.974494  1393A      1.976941  
    1394A      1.979874  1395A      1.981841  1396A      1.983779  
    1397A      1.986776  1398A      1.988619  1399A      1.990508  
    1400A      1.994631  1401A      1.994851  1402A      1.996443  
    1403A      1.999393  1404A      1.999630  1405A      2.000957  
    1406A      2.003545  1407A      2.004720  1408A      2.007041  
    1409A      2.009336  1410A      2.010598  1411A      2.012097  
    1412A      2.013391  1413A      2.015330  1414A      2.017017  
    1415A      2.018216  1416A      2.022053  1417A      2.023722  
    1418A      2.025030  1419A      2.026779  1420A      2.029343  
    1421A      2.030376  1422A      2.032457  1423A      2.034667  
    1424A      2.036735  1425A      2.037288  1426A      2.039515  
    1427A      2.040149  1428A      2.041887  1429A      2.043057  
    1430A      2.046535  1431A      2.049946  1432A      2.052064  
    1433A      2.052772  1434A      2.055502  1435A      2.057811  
    1436A      2.058847  1437A      2.061408  1438A      2.062732  
    1439A      2.065434  1440A      2.067302  1441A      2.067681  
    1442A      2.068260  1443A      2.071417  1444A      2.075092  
    1445A      2.076372  1446A      2.078478  1447A      2.081659  
    1448A      2.082937  1449A      2.085472  1450A      2.087773  
    1451A      2.089150  1452A      2.092845  1453A      2.093692  
    1454A      2.095615  1455A      2.097750  1456A      2.099586  
    1457A      2.099876  1458A      2.101831  1459A      2.102488  
    1460A      2.107049  1461A      2.108519  1462A      2.108887  
    1463A      2.112616  1464A      2.114959  1465A      2.118191  
    1466A      2.119224  1467A      2.120281  1468A      2.120915  
    1469A      2.123315  1470A      2.125562  1471A      2.129774  
    1472A      2.130587  1473A      2.132784  1474A      2.134834  
    1475A      2.138941  1476A      2.139440  1477A      2.140944  
    1478A      2.141352  1479A      2.143951  1480A      2.146019  
    1481A      2.147162  1482A      2.147774  1483A      2.150326  
    1484A      2.152098  1485A      2.156437  1486A      2.157259  
    1487A      2.160233  1488A      2.160935  1489A      2.162050  
    1490A      2.165013  1491A      2.165243  1492A      2.169533  
    1493A      2.170098  1494A      2.173284  1495A      2.173933  
    1496A      2.176238  1497A      2.178320  1498A      2.179017  
    1499A      2.182121  1500A      2.184189  1501A      2.185244  
    1502A      2.187107  1503A      2.189011  1504A      2.191045  
    1505A      2.193643  1506A      2.195767  1507A      2.198847  
    1508A      2.202428  1509A      2.203688  1510A      2.205387  
    1511A      2.207284  1512A      2.208214  1513A      2.211033  
    1514A      2.211725  1515A      2.214501  1516A      2.215338  
    1517A      2.218891  1518A      2.219970  1519A      2.222651  
    1520A      2.225879  1521A      2.226658  1522A      2.230387  
    1523A      2.231291  1524A      2.233008  1525A      2.234902  
    1526A      2.235682  1527A      2.239934  1528A      2.242820  
    1529A      2.243852  1530A      2.245059  1531A      2.246228  
    1532A      2.249386  1533A      2.252579  1534A      2.254066  
    1535A      2.255238  1536A      2.258548  1537A      2.259331  
    1538A      2.264138  1539A      2.265435  1540A      2.270374  
    1541A      2.272093  1542A      2.273231  1543A      2.276847  
    1544A      2.278510  1545A      2.280672  1546A      2.282178  
    1547A      2.284897  1548A      2.287762  1549A      2.288710  
    1550A      2.291081  1551A      2.293695  1552A      2.295074  
    1553A      2.296897  1554A      2.298741  1555A      2.301236  
    1556A      2.303452  1557A      2.304691  1558A      2.308240  
    1559A      2.311413  1560A      2.312650  1561A      2.314483  
    1562A      2.318238  1563A      2.320429  1564A      2.323252  
    1565A      2.324877  1566A      2.325387  1567A      2.328783  
    1568A      2.330364  1569A      2.332473  1570A      2.334470  
    1571A      2.337421  1572A      2.339011  1573A      2.341374  
    1574A      2.344297  1575A      2.345417  1576A      2.347882  
    1577A      2.351203  1578A      2.352174  1579A      2.353935  
    1580A      2.356417  1581A      2.357367  1582A      2.362685  
    1583A      2.365439  1584A      2.366050  1585A      2.367124  
    1586A      2.370471  1587A      2.371492  1588A      2.373558  
    1589A      2.376819  1590A      2.379621  1591A      2.384236  
    1592A      2.387575  1593A      2.388016  1594A      2.389969  
    1595A      2.392599  1596A      2.394582  1597A      2.395793  
    1598A      2.398087  1599A      2.399131  1600A      2.406718  
    1601A      2.409332  1602A      2.411217  1603A      2.412957  
    1604A      2.413866  1605A      2.415455  1606A      2.415987  
    1607A      2.418465  1608A      2.418889  1609A      2.420800  
    1610A      2.423876  1611A      2.425257  1612A      2.429981  
    1613A      2.433052  1614A      2.435547  1615A      2.438487  
    1616A      2.441233  1617A      2.442674  1618A      2.444584  
    1619A      2.446008  1620A      2.450574  1621A      2.452068  
    1622A      2.452170  1623A      2.455336  1624A      2.458399  
    1625A      2.461813  1626A      2.466693  1627A      2.468200  
    1628A      2.469477  1629A      2.472767  1630A      2.474839  
    1631A      2.476836  1632A      2.478794  1633A      2.481205  
    1634A      2.483605  1635A      2.486906  1636A      2.489078  
    1637A      2.491565  1638A      2.494370  1639A      2.498287  
    1640A      2.499769  1641A      2.501294  1642A      2.504814  
    1643A      2.507125  1644A      2.510110  1645A      2.513106  
    1646A      2.517597  1647A      2.520000  1648A      2.523051  
    1649A      2.523393  1650A      2.530403  1651A      2.534324  
    1652A      2.534912  1653A      2.536189  1654A      2.538884  
    1655A      2.540356  1656A      2.543237  1657A      2.546779  
    1658A      2.547609  1659A      2.549297  1660A      2.550942  
    1661A      2.553897  1662A      2.555406  1663A      2.556134  
    1664A      2.559181  1665A      2.560804  1666A      2.562524  
    1667A      2.568536  1668A      2.570483  1669A      2.574080  
    1670A      2.577582  1671A      2.580954  1672A      2.581745  
    1673A      2.582782  1674A      2.588452  1675A      2.589494  
    1676A      2.594108  1677A      2.595379  1678A      2.597744  
    1679A      2.599472  1680A      2.603676  1681A      2.607516  
    1682A      2.610675  1683A      2.612614  1684A      2.614260  
    1685A      2.616995  1686A      2.619907  1687A      2.621733  
    1688A      2.624980  1689A      2.628449  1690A      2.629925  
    1691A      2.632940  1692A      2.634408  1693A      2.635565  
    1694A      2.636848  1695A      2.640292  1696A      2.642998  
    1697A      2.644363  1698A      2.649918  1699A      2.652148  
    1700A      2.654841  1701A      2.656095  1702A      2.659240  
    1703A      2.661171  1704A      2.665189  1705A      2.668020  
    1706A      2.671189  1707A      2.671562  1708A      2.674173  
    1709A      2.678281  1710A      2.680120  1711A      2.682683  
    1712A      2.685545  1713A      2.686171  1714A      2.690163  
    1715A      2.692043  1716A      2.693677  1717A      2.695762  
    1718A      2.698427  1719A      2.701023  1720A      2.706097  
    1721A      2.707111  1722A      2.710506  1723A      2.711308  
    1724A      2.715009  1725A      2.717018  1726A      2.717381  
    1727A      2.720140  1728A      2.723906  1729A      2.728430  
    1730A      2.730708  1731A      2.734655  1732A      2.736217  
    1733A      2.737713  1734A      2.739719  1735A      2.744335  
    1736A      2.747179  1737A      2.751171  1738A      2.753503  
    1739A      2.756295  1740A      2.758487  1741A      2.760632  
    1742A      2.761351  1743A      2.764514  1744A      2.767349  
    1745A      2.770718  1746A      2.774728  1747A      2.776482  
    1748A      2.779315  1749A      2.781285  1750A      2.782556  
    1751A      2.784208  1752A      2.788505  1753A      2.790630  
    1754A      2.790899  1755A      2.791948  1756A      2.796277  
    1757A      2.798339  1758A      2.801053  1759A      2.805836  
    1760A      2.809242  1761A      2.812968  1762A      2.814018  
    1763A      2.818755  1764A      2.819451  1765A      2.821193  
    1766A      2.826451  1767A      2.826798  1768A      2.829747  
    1769A      2.832250  1770A      2.835192  1771A      2.840492  
    1772A      2.843789  1773A      2.844482  1774A      2.849546  
    1775A      2.851854  1776A      2.854729  1777A      2.857771  
    1778A      2.859504  1779A      2.862094  1780A      2.864252  
    1781A      2.867117  1782A      2.871317  1783A      2.871940  
    1784A      2.879154  1785A      2.882694  1786A      2.889884  
    1787A      2.890234  1788A      2.893529  1789A      2.895753  
    1790A      2.899422  1791A      2.902312  1792A      2.902803  
    1793A      2.910556  1794A      2.915338  1795A      2.920583  
    1796A      2.921730  1797A      2.923390  1798A      2.928736  
    1799A      2.931686  1800A      2.933941  1801A      2.937941  
    1802A      2.939471  1803A      2.940938  1804A      2.946799  
    1805A      2.950213  1806A      2.955676  1807A      2.958182  
    1808A      2.960882  1809A      2.961915  1810A      2.967668  
    1811A      2.977309  1812A      2.977712  1813A      2.980001  
    1814A      2.981408  1815A      2.985265  1816A      2.986687  
    1817A      2.990214  1818A      2.997999  1819A      2.999087  
    1820A      3.004716  1821A      3.008240  1822A      3.013483  
    1823A      3.016219  1824A      3.018537  1825A      3.023022  
    1826A      3.026475  1827A      3.031057  1828A      3.033149  
    1829A      3.034179  1830A      3.041993  1831A      3.046170  
    1832A      3.049763  1833A      3.051329  1834A      3.057777  
    1835A      3.061951  1836A      3.065434  1837A      3.066541  
    1838A      3.074370  1839A      3.080486  1840A      3.089705  
    1841A      3.093106  1842A      3.100642  1843A      3.100993  
    1844A      3.105748  1845A      3.110692  1846A      3.116180  
    1847A      3.118227  1848A      3.124082  1849A      3.128839  
    1850A      3.130854  1851A      3.135719  1852A      3.143036  
    1853A      3.145860  1854A      3.151176  1855A      3.158281  
    1856A      3.162409  1857A      3.166307  1858A      3.167180  
    1859A      3.174115  1860A      3.180599  1861A      3.187998  
    1862A      3.193656  1863A      3.196495  1864A      3.199755  
    1865A      3.202523  1866A      3.209094  1867A      3.211865  
    1868A      3.213411  1869A      3.218849  1870A      3.223708  
    1871A      3.227036  1872A      3.231870  1873A      3.236345  
    1874A      3.237736  1875A      3.238680  1876A      3.246217  
    1877A      3.247965  1878A      3.253200  1879A      3.256254  
    1880A      3.263122  1881A      3.269962  1882A      3.273293  
    1883A      3.282226  1884A      3.283362  1885A      3.285459  
    1886A      3.288465  1887A      3.291772  1888A      3.298119  
    1889A      3.302042  1890A      3.306043  1891A      3.311685  
    1892A      3.312287  1893A      3.312381  1894A      3.319133  
    1895A      3.321412  1896A      3.323571  1897A      3.327621  
    1898A      3.330967  1899A      3.339303  1900A      3.342669  
    1901A      3.346824  1902A      3.349268  1903A      3.356522  
    1904A      3.359736  1905A      3.361653  1906A      3.366727  
    1907A      3.369829  1908A      3.372833  1909A      3.376258  
    1910A      3.377996  1911A      3.379876  1912A      3.384495  
    1913A      3.386926  1914A      3.389286  1915A      3.393662  
    1916A      3.397462  1917A      3.404608  1918A      3.406278  
    1919A      3.410106  1920A      3.413452  1921A      3.417409  
    1922A      3.423283  1923A      3.424107  1924A      3.428050  
    1925A      3.431578  1926A      3.434613  1927A      3.443481  
    1928A      3.446556  1929A      3.447143  1930A      3.453074  
    1931A      3.453566  1932A      3.460098  1933A      3.461439  
    1934A      3.464318  1935A      3.468266  1936A      3.470942  
    1937A      3.472621  1938A      3.477100  1939A      3.480151  
    1940A      3.483957  1941A      3.485099  1942A      3.488935  
    1943A      3.490492  1944A      3.491302  1945A      3.494990  
    1946A      3.497874  1947A      3.501798  1948A      3.504264  
    1949A      3.508252  1950A      3.510912  1951A      3.515361  
    1952A      3.516306  1953A      3.518480  1954A      3.522742  
    1955A      3.528414  1956A      3.530333  1957A      3.532824  
    1958A      3.534219  1959A      3.537841  1960A      3.539436  
    1961A      3.541921  1962A      3.545147  1963A      3.548351  
    1964A      3.554201  1965A      3.557947  1966A      3.560099  
    1967A      3.564452  1968A      3.565923  1969A      3.568106  
    1970A      3.572163  1971A      3.576526  1972A      3.577495  
    1973A      3.583677  1974A      3.585689  1975A      3.586932  
    1976A      3.589918  1977A      3.593978  1978A      3.594940  
    1979A      3.599676  1980A      3.601613  1981A      3.602640  
    1982A      3.608279  1983A      3.611406  1984A      3.613423  
    1985A      3.614741  1986A      3.616623  1987A      3.624437  
    1988A      3.627400  1989A      3.631240  1990A      3.632185  
    1991A      3.636124  1992A      3.636430  1993A      3.642955  
    1994A      3.644114  1995A      3.649208  1996A      3.653534  
    1997A      3.655657  1998A      3.657528  1999A      3.658379  
    2000A      3.665220  2001A      3.668188  2002A      3.670600  
    2003A      3.674774  2004A      3.676952  2005A      3.680497  
    2006A      3.685877  2007A      3.686127  2008A      3.689080  
    2009A      3.690483  2010A      3.693353  2011A      3.695398  
    2012A      3.697903  2013A      3.700428  2014A      3.702903  
    2015A      3.708234  2016A      3.710642  2017A      3.713407  
    2018A      3.715767  2019A      3.718577  2020A      3.724180  
    2021A      3.726199  2022A      3.728863  2023A      3.732437  
    2024A      3.736289  2025A      3.741129  2026A      3.741436  
    2027A      3.742934  2028A      3.745442  2029A      3.748920  
    2030A      3.753634  2031A      3.756134  2032A      3.759121  
    2033A      3.763670  2034A      3.765414  2035A      3.771504  
    2036A      3.773890  2037A      3.775714  2038A      3.780641  
    2039A      3.781535  2040A      3.787162  2041A      3.790373  
    2042A      3.792417  2043A      3.799495  2044A      3.801853  
    2045A      3.803800  2046A      3.810773  2047A      3.812820  
    2048A      3.813970  2049A      3.815954  2050A      3.818744  
    2051A      3.823319  2052A      3.826845  2053A      3.829626  
    2054A      3.832049  2055A      3.833162  2056A      3.841069  
    2057A      3.845325  2058A      3.847486  2059A      3.849028  
    2060A      3.852972  2061A      3.855221  2062A      3.857690  
    2063A      3.860804  2064A      3.861090  2065A      3.862513  
    2066A      3.868753  2067A      3.870920  2068A      3.873222  
    2069A      3.876985  2070A      3.883205  2071A      3.884448  
    2072A      3.885429  2073A      3.890410  2074A      3.895485  
    2075A      3.898254  2076A      3.902816  2077A      3.905064  
    2078A      3.910752  2079A      3.912085  2080A      3.914936  
    2081A      3.918493  2082A      3.921492  2083A      3.927191  
    2084A      3.927863  2085A      3.933059  2086A      3.935143  
    2087A      3.936722  2088A      3.943070  2089A      3.944036  
    2090A      3.946466  2091A      3.948427  2092A      3.950241  
    2093A      3.956931  2094A      3.959637  2095A      3.961311  
    2096A      3.965446  2097A      3.966615  2098A      3.970281  
    2099A      3.973119  2100A      3.976609  2101A      3.982035  
    2102A      3.985039  2103A      3.989527  2104A      3.993015  
    2105A      3.996493  2106A      3.998286  2107A      4.003002  
    2108A      4.004582  2109A      4.006634  2110A      4.009645  
    2111A      4.013022  2112A      4.016927  2113A      4.018488  
    2114A      4.023333  2115A      4.026677  2116A      4.029685  
    2117A      4.033084  2118A      4.035622  2119A      4.037426  
    2120A      4.042176  2121A      4.044441  2122A      4.046402  
    2123A      4.048444  2124A      4.052465  2125A      4.059065  
    2126A      4.062618  2127A      4.064598  2128A      4.066325  
    2129A      4.072999  2130A      4.075030  2131A      4.077426  
    2132A      4.078181  2133A      4.082530  2134A      4.086054  
    2135A      4.087078  2136A      4.092119  2137A      4.095623  
    2138A      4.098759  2139A      4.100177  2140A      4.102296  
    2141A      4.107322  2142A      4.108595  2143A      4.115160  
    2144A      4.117548  2145A      4.119403  2146A      4.122719  
    2147A      4.123779  2148A      4.124453  2149A      4.128245  
    2150A      4.132716  2151A      4.133876  2152A      4.138343  
    2153A      4.141668  2154A      4.141995  2155A      4.149281  
    2156A      4.151528  2157A      4.152823  2158A      4.155128  
    2159A      4.159025  2160A      4.162134  2161A      4.163325  
    2162A      4.165756  2163A      4.171162  2164A      4.173127  
    2165A      4.175749  2166A      4.179216  2167A      4.183601  
    2168A      4.187681  2169A      4.188535  2170A      4.189542  
    2171A      4.191418  2172A      4.196565  2173A      4.198441  
    2174A      4.202395  2175A      4.204643  2176A      4.207196  
    2177A      4.209814  2178A      4.212841  2179A      4.217628  
    2180A      4.218556  2181A      4.220461  2182A      4.225458  
    2183A      4.228008  2184A      4.229855  2185A      4.231033  
    2186A      4.233908  2187A      4.236909  2188A      4.239308  
    2189A      4.240569  2190A      4.243189  2191A      4.244925  
    2192A      4.247322  2193A      4.252305  2194A      4.253606  
    2195A      4.257075  2196A      4.257321  2197A      4.259563  
    2198A      4.264562  2199A      4.266048  2200A      4.269453  
    2201A      4.270295  2202A      4.273740  2203A      4.275989  
    2204A      4.278217  2205A      4.280625  2206A      4.280762  
    2207A      4.283593  2208A      4.287211  2209A      4.290765  
    2210A      4.292126  2211A      4.294922  2212A      4.295702  
    2213A      4.299546  2214A      4.301474  2215A      4.303643  
    2216A      4.306445  2217A      4.311305  2218A      4.312619  
    2219A      4.315000  2220A      4.319732  2221A      4.321445  
    2222A      4.323864  2223A      4.326792  2224A      4.328268  
    2225A      4.330939  2226A      4.332100  2227A      4.334843  
    2228A      4.338766  2229A      4.339500  2230A      4.341275  
    2231A      4.343817  2232A      4.346023  2233A      4.348943  
    2234A      4.351871  2235A      4.352791  2236A      4.356174  
    2237A      4.357239  2238A      4.358990  2239A      4.362222  
    2240A      4.365806  2241A      4.366419  2242A      4.368264  
    2243A      4.369944  2244A      4.372632  2245A      4.374751  
    2246A      4.376952  2247A      4.379695  2248A      4.380833  
    2249A      4.382466  2250A      4.388193  2251A      4.389829  
    2252A      4.393011  2253A      4.394380  2254A      4.394999  
    2255A      4.396424  2256A      4.399059  2257A      4.399896  
    2258A      4.405804  2259A      4.407764  2260A      4.411443  
    2261A      4.412736  2262A      4.417298  2263A      4.418370  
    2264A      4.419646  2265A      4.423596  2266A      4.427335  
    2267A      4.428196  2268A      4.429264  2269A      4.435352  
    2270A      4.436880  2271A      4.438916  2272A      4.441690  
    2273A      4.445540  2274A      4.447840  2275A      4.449327  
    2276A      4.451338  2277A      4.454234  2278A      4.455609  
    2279A      4.458705  2280A      4.460264  2281A      4.462509  
    2282A      4.464662  2283A      4.467423  2284A      4.467889  
    2285A      4.469358  2286A      4.475734  2287A      4.476936  
    2288A      4.480454  2289A      4.485086  2290A      4.485218  
    2291A      4.487415  2292A      4.489083  2293A      4.491213  
    2294A      4.494374  2295A      4.495422  2296A      4.497122  
    2297A      4.498506  2298A      4.499767  2299A      4.503415  
    2300A      4.506612  2301A      4.508315  2302A      4.510669  
    2303A      4.513224  2304A      4.514344  2305A      4.517932  
    2306A      4.521897  2307A      4.523073  2308A      4.524386  
    2309A      4.526394  2310A      4.529808  2311A      4.530767  
    2312A      4.533581  2313A      4.537155  2314A      4.539031  
    2315A      4.541476  2316A      4.542989  2317A      4.543867  
    2318A      4.546182  2319A      4.548956  2320A      4.551678  
    2321A      4.554856  2322A      4.557765  2323A      4.559660  
    2324A      4.564250  2325A      4.567529  2326A      4.568845  
    2327A      4.570299  2328A      4.572743  2329A      4.575556  
    2330A      4.577819  2331A      4.582604  2332A      4.583966  
    2333A      4.585271  2334A      4.586563  2335A      4.590890  
    2336A      4.593380  2337A      4.595618  2338A      4.598145  
    2339A      4.601776  2340A      4.606040  2341A      4.608058  
    2342A      4.608911  2343A      4.613262  2344A      4.616647  
    2345A      4.618977  2346A      4.619670  2347A      4.620318  
    2348A      4.622618  2349A      4.625625  2350A      4.629525  
    2351A      4.633038  2352A      4.636265  2353A      4.637361  
    2354A      4.642448  2355A      4.643942  2356A      4.645492  
    2357A      4.647092  2358A      4.647413  2359A      4.650712  
    2360A      4.655152  2361A      4.655922  2362A      4.659325  
    2363A      4.661793  2364A      4.662838  2365A      4.665830  
    2366A      4.669526  2367A      4.669864  2368A      4.674414  
    2369A      4.676054  2370A      4.678563  2371A      4.682653  
    2372A      4.684000  2373A      4.685141  2374A      4.688479  
    2375A      4.689093  2376A      4.692611  2377A      4.695441  
    2378A      4.701680  2379A      4.703320  2380A      4.705825  
    2381A      4.708676  2382A      4.711064  2383A      4.712081  
    2384A      4.712807  2385A      4.717021  2386A      4.720840  
    2387A      4.722622  2388A      4.725355  2389A      4.728002  
    2390A      4.729459  2391A      4.731895  2392A      4.735250  
    2393A      4.737156  2394A      4.741053  2395A      4.743259  
    2396A      4.743556  2397A      4.748000  2398A      4.749348  
    2399A      4.752968  2400A      4.755134  2401A      4.758884  
    2402A      4.760407  2403A      4.763122  2404A      4.766654  
    2405A      4.769220  2406A      4.771716  2407A      4.775051  
    2408A      4.775398  2409A      4.777020  2410A      4.782134  
    2411A      4.784305  2412A      4.786148  2413A      4.790929  
    2414A      4.792465  2415A      4.795442  2416A      4.796487  
    2417A      4.801942  2418A      4.803095  2419A      4.806891  
    2420A      4.810651  2421A      4.811763  2422A      4.813912  
    2423A      4.815546  2424A      4.820310  2425A      4.821040  
    2426A      4.826849  2427A      4.828629  2428A      4.831706  
    2429A      4.835226  2430A      4.838374  2431A      4.841363  
    2432A      4.842602  2433A      4.846078  2434A      4.848138  
    2435A      4.849437  2436A      4.850685  2437A      4.854358  
    2438A      4.856866  2439A      4.857750  2440A      4.863972  
    2441A      4.865753  2442A      4.869370  2443A      4.870844  
    2444A      4.871620  2445A      4.879705  2446A      4.879987  
    2447A      4.880775  2448A      4.883392  2449A      4.889623  
    2450A      4.891767  2451A      4.893193  2452A      4.896421  
    2453A      4.897760  2454A      4.900717  2455A      4.903980  
    2456A      4.907721  2457A      4.911131  2458A      4.913772  
    2459A      4.915902  2460A      4.920343  2461A      4.925543  
    2462A      4.926416  2463A      4.928786  2464A      4.931850  
    2465A      4.936220  2466A      4.936856  2467A      4.937865  
    2468A      4.942130  2469A      4.942525  2470A      4.945947  
    2471A      4.947432  2472A      4.953247  2473A      4.954650  
    2474A      4.956493  2475A      4.959727  2476A      4.961610  
    2477A      4.963330  2478A      4.969212  2479A      4.970703  
    2480A      4.974835  2481A      4.977789  2482A      4.981540  
    2483A      4.983975  2484A      4.989931  2485A      4.991570  
    2486A      4.992914  2487A      4.994056  2488A      4.995170  
    2489A      4.996116  2490A      5.000620  2491A      5.004517  
    2492A      5.006990  2493A      5.012244  2494A      5.013387  
    2495A      5.016652  2496A      5.021273  2497A      5.022399  
    2498A      5.025462  2499A      5.030400  2500A      5.030860  
    2501A      5.033080  2502A      5.034091  2503A      5.038980  
    2504A      5.042920  2505A      5.043815  2506A      5.049525  
    2507A      5.050305  2508A      5.054546  2509A      5.056430  
    2510A      5.060549  2511A      5.062835  2512A      5.065643  
    2513A      5.068505  2514A      5.071490  2515A      5.075344  
    2516A      5.076996  2517A      5.080111  2518A      5.080806  
    2519A      5.084287  2520A      5.084645  2521A      5.089501  
    2522A      5.091273  2523A      5.091380  2524A      5.095313  
    2525A      5.097394  2526A      5.100555  2527A      5.104395  
    2528A      5.107766  2529A      5.108302  2530A      5.111565  
    2531A      5.116833  2532A      5.119220  2533A      5.120853  
    2534A      5.124143  2535A      5.126058  2536A      5.127660  
    2537A      5.130240  2538A      5.132575  2539A      5.137610  
    2540A      5.141317  2541A      5.143568  2542A      5.146650  
    2543A      5.149148  2544A      5.153150  2545A      5.154203  
    2546A      5.158381  2547A      5.161944  2548A      5.166111  
    2549A      5.166924  2550A      5.172784  2551A      5.174239  
    2552A      5.180803  2553A      5.183703  2554A      5.185512  
    2555A      5.188607  2556A      5.192798  2557A      5.193947  
    2558A      5.196413  2559A      5.198156  2560A      5.201282  
    2561A      5.207438  2562A      5.210660  2563A      5.215845  
    2564A      5.216741  2565A      5.220956  2566A      5.224236  
    2567A      5.227066  2568A      5.229189  2569A      5.231917  
    2570A      5.238226  2571A      5.239866  2572A      5.242886  
    2573A      5.246274  2574A      5.249842  2575A      5.253565  
    2576A      5.254630  2577A      5.257922  2578A      5.262276  
    2579A      5.266085  2580A      5.269968  2581A      5.273668  
    2582A      5.280198  2583A      5.281826  2584A      5.282837  
    2585A      5.287564  2586A      5.290558  2587A      5.292439  
    2588A      5.294287  2589A      5.295582  2590A      5.296866  
    2591A      5.302043  2592A      5.304996  2593A      5.307459  
    2594A      5.310638  2595A      5.313917  2596A      5.321429  
    2597A      5.322293  2598A      5.325259  2599A      5.329852  
    2600A      5.331487  2601A      5.336341  2602A      5.338682  
    2603A      5.341432  2604A      5.345583  2605A      5.347471  
    2606A      5.349928  2607A      5.351734  2608A      5.354311  
    2609A      5.360552  2610A      5.362179  2611A      5.366585  
    2612A      5.370112  2613A      5.373702  2614A      5.376687  
    2615A      5.378102  2616A      5.384560  2617A      5.387456  
    2618A      5.388754  2619A      5.390710  2620A      5.396942  
    2621A      5.398881  2622A      5.402459  2623A      5.405387  
    2624A      5.407741  2625A      5.413032  2626A      5.413353  
    2627A      5.418658  2628A      5.420680  2629A      5.422795  
    2630A      5.428316  2631A      5.436515  2632A      5.437467  
    2633A      5.443490  2634A      5.446767  2635A      5.448058  
    2636A      5.452070  2637A      5.455693  2638A      5.457318  
    2639A      5.459319  2640A      5.463771  2641A      5.467802  
    2642A      5.469592  2643A      5.475343  2644A      5.476854  
    2645A      5.479274  2646A      5.481856  2647A      5.484786  
    2648A      5.490022  2649A      5.491826  2650A      5.494857  
    2651A      5.499020  2652A      5.500592  2653A      5.507235  
    2654A      5.508350  2655A      5.511185  2656A      5.515936  
    2657A      5.520793  2658A      5.522723  2659A      5.524575  
    2660A      5.529394  2661A      5.532529  2662A      5.534343  
    2663A      5.538008  2664A      5.539713  2665A      5.543805  
    2666A      5.544602  2667A      5.549216  2668A      5.556604  
    2669A      5.560508  2670A      5.562368  2671A      5.567728  
    2672A      5.568411  2673A      5.572987  2674A      5.575518  
    2675A      5.578963  2676A      5.586869  2677A      5.588483  
    2678A      5.594398  2679A      5.597845  2680A      5.598905  
    2681A      5.605357  2682A      5.608420  2683A      5.609498  
    2684A      5.611848  2685A      5.615314  2686A      5.619542  
    2687A      5.622974  2688A      5.625004  2689A      5.630343  
    2690A      5.632875  2691A      5.635423  2692A      5.637660  
    2693A      5.641859  2694A      5.647283  2695A      5.651154  
    2696A      5.656576  2697A      5.658173  2698A      5.664805  
    2699A      5.667748  2700A      5.671500  2701A      5.676734  
    2702A      5.679413  2703A      5.681070  2704A      5.687062  
    2705A      5.690228  2706A      5.692040  2707A      5.695883  
    2708A      5.703209  2709A      5.705746  2710A      5.707074  
    2711A      5.711090  2712A      5.718898  2713A      5.722250  
    2714A      5.724935  2715A      5.734679  2716A      5.736903  
    2717A      5.738409  2718A      5.742438  2719A      5.746253  
    2720A      5.749295  2721A      5.750480  2722A      5.753037  
    2723A      5.755318  2724A      5.765361  2725A      5.768294  
    2726A      5.771865  2727A      5.778352  2728A      5.782777  
    2729A      5.786795  2730A      5.790921  2731A      5.793748  
    2732A      5.797307  2733A      5.803989  2734A      5.812903  
    2735A      5.816453  2736A      5.823158  2737A      5.824128  
    2738A      5.828621  2739A      5.830277  2740A      5.836810  
    2741A      5.840072  2742A      5.843651  2743A      5.849151  
    2744A      5.852338  2745A      5.859207  2746A      5.862260  
    2747A      5.869310  2748A      5.874962  2749A      5.876385  
    2750A      5.882355  2751A      5.882645  2752A      5.888605  
    2753A      5.890572  2754A      5.902152  2755A      5.904400  
    2756A      5.914574  2757A      5.918783  2758A      5.920292  
    2759A      5.924862  2760A      5.929258  2761A      5.930970  
    2762A      5.933193  2763A      5.938161  2764A      5.942638  
    2765A      5.949534  2766A      5.957192  2767A      5.958491  
    2768A      5.962490  2769A      5.963963  2770A      5.972033  
    2771A      5.976842  2772A      5.978714  2773A      5.985343  
    2774A      5.990423  2775A      5.993646  2776A      5.997978  
    2777A      5.999746  2778A      6.002621  2779A      6.008342  
    2780A      6.012140  2781A      6.024118  2782A      6.026685  
    2783A      6.029811  2784A      6.030711  2785A      6.036052  
    2786A      6.036822  2787A      6.046421  2788A      6.050695  
    2789A      6.061711  2790A      6.063932  2791A      6.066217  
    2792A      6.073355  2793A      6.074560  2794A      6.080254  
    2795A      6.090356  2796A      6.094284  2797A      6.098795  
    2798A      6.101769  2799A      6.108011  2800A      6.111854  
    2801A      6.117219  2802A      6.118461  2803A      6.124017  
    2804A      6.124508  2805A      6.128338  2806A      6.130546  
    2807A      6.140819  2808A      6.142844  2809A      6.146577  
    2810A      6.150662  2811A      6.160088  2812A      6.167419  
    2813A      6.174341  2814A      6.177611  2815A      6.189666  
    2816A      6.194311  2817A      6.199044  2818A      6.211952  
    2819A      6.219893  2820A      6.222891  2821A      6.227948  
    2822A      6.234293  2823A      6.238703  2824A      6.248700  
    2825A      6.251136  2826A      6.259840  2827A      6.261575  
    2828A      6.265410  2829A      6.272710  2830A      6.282018  
    2831A      6.285296  2832A      6.289588  2833A      6.292996  
    2834A      6.303797  2835A      6.304875  2836A      6.311194  
    2837A      6.313415  2838A      6.319227  2839A      6.324733  
    2840A      6.343495  2841A      6.348050  2842A      6.354852  
    2843A      6.364178  2844A      6.367564  2845A      6.373661  
    2846A      6.379070  2847A      6.394127  2848A      6.402386  
    2849A      6.406779  2850A      6.416733  2851A      6.419771  
    2852A      6.427301  2853A      6.433446  2854A      6.442175  
    2855A      6.450476  2856A      6.457427  2857A      6.460911  
    2858A      6.480793  2859A      6.485491  2860A      6.503971  
    2861A      6.525508  2862A      6.535927  2863A      6.548004  
    2864A      6.550445  2865A      6.574928  2866A      6.579866  
    2867A      6.587592  2868A      6.602973  2869A      6.607486  
    2870A      6.614785  2871A      6.629492  2872A      6.634014  
    2873A      6.636358  2874A      6.643057  2875A      6.648099  
    2876A      6.653175  2877A      6.677413  2878A      6.679936  
    2879A      6.680779  2880A      6.690475  2881A      6.697797  
    2882A      6.713864  2883A      6.732048  2884A      6.737492  
    2885A      6.744959  2886A      6.762784  2887A      6.766442  
    2888A      6.772327  2889A      6.781049  2890A      6.781723  
    2891A      6.800595  2892A      6.804494  2893A      6.805135  
    2894A      6.814395  2895A      6.823840  2896A      6.836686  
    2897A      6.848971  2898A      6.856955  2899A      6.869205  
    2900A      6.872301  2901A      6.884498  2902A      6.895840  
    2903A      6.909501  2904A      6.914562  2905A      6.942161  
    2906A      6.945517  2907A      6.955062  2908A      6.964624  
    2909A      6.979263  2910A      7.010757  2911A      7.023548  
    2912A      7.036662  2913A      7.041954  2914A      7.057109  
    2915A      7.071362  2916A      7.081003  2917A      7.110951  
    2918A      7.125176  2919A      7.139124  2920A      7.162206  
    2921A      7.169514  2922A      7.182521  2923A      7.201257  
    2924A      7.207564  2925A      7.231431  2926A      7.240834  
    2927A      7.258605  2928A      7.283614  2929A      7.291557  
    2930A      7.319202  2931A      7.339729  2932A      7.363808  
    2933A      7.375049  2934A      7.383736  2935A      7.408213  
    2936A      7.411125  2937A      7.430602  2938A      7.447330  
    2939A      7.464282  2940A      7.474317  2941A      7.480665  
    2942A      7.500428  2943A      7.512167  2944A      7.518464  
    2945A      7.543614  2946A      7.557173  2947A      7.567500  
    2948A      7.594300  2949A      7.613128  2950A      7.634531  
    2951A      7.645283  2952A      7.667535  2953A      7.687695  
    2954A      7.700874  2955A      7.708522  2956A      7.731773  
    2957A      7.739406  2958A      7.743816  2959A      7.768234  
    2960A      7.780300  2961A      7.787478  2962A      7.797391  
    2963A      7.811355  2964A      7.817948  2965A      7.828510  
    2966A      7.841018  2967A      7.855890  2968A      7.872439  
    2969A      7.893688  2970A      7.899052  2971A      7.911122  
    2972A      7.939045  2973A      7.944318  2974A      7.983273  
    2975A      7.996167  2976A      8.014705  2977A      8.084417  
    2978A      8.105570  2979A      8.151850  2980A      8.173046  
    2981A      8.184924  2982A      8.220062  2983A      8.228601  
    2984A      8.245845  2985A      8.282975  2986A      8.292147  
    2987A      8.322729  2988A      8.335147  2989A      8.387545  
    2990A      8.399649  2991A      8.418615  2992A      8.436157  
    2993A      8.461787  2994A      8.491216  2995A      8.595082  
    2996A      8.609978  2997A      8.629660  2998A      8.655812  
    2999A      8.698105  3000A      8.729381  3001A      8.791756  
    3002A      8.859566  3003A      8.894116  3004A      9.008361  
    3005A      9.015485  3006A      9.063996  3007A      9.196374  
    3008A      9.296496  3009A      9.376618  3010A      9.440092  
    3011A      9.577457  3012A      9.607184  3013A      9.665474  
    3014A      9.743540  3015A      9.746259  3016A      9.815298  
    3017A      9.930847  3018A      9.960058  3019A      9.995043  
    3020A     10.035245  3021A     10.042469  3022A     10.107295  
    3023A     10.132210  3024A     10.222058  3025A     10.309585  
    3026A     10.365889  3027A     10.442809  3028A     10.517729  
    3029A     10.556798  3030A     10.693375  3031A     10.739397  
    3032A     10.819750  3033A     10.961791  3034A     11.046683  
    3035A     11.163634  3036A     11.236673  3037A     11.291539  
    3038A     11.383469  3039A     11.398010  3040A     11.451937  
    3041A     11.662063  3042A     11.837608  3043A     11.892683  
    3044A     11.973465  3045A     12.138561  3046A     12.221022  
    3047A     12.281783  3048A     12.323769  3049A     12.539213  
    3050A     12.620901  3051A     12.676666  3052A     15.249029  
    3053A     15.638269  3054A     15.995910  3055A     16.484953  
    3056A     16.810155  3057A     17.043982  3058A     17.172814  
    3059A     17.608434  3060A     18.066907  3061A     18.401393  
    3062A     18.825969  3063A     19.204923  3064A     19.589358  
    3065A     20.089025  3066A     20.610125  3067A     21.163572  
    3068A     21.408600  3069A     21.635267  3070A     21.715029  
    3071A     22.006485  3072A     22.128435  3073A     22.689831  
    3074A     22.984312  3075A     23.115321  3076A     49.703784  
    3077A     50.657189  3078A     51.445406  3079A     52.214296  
    3080A     52.835321  3081A     53.349349  3082A     53.695569  
    3083A     54.262249  3084A     55.099225  3085A     55.721228  
    3086A     56.651148  3087A     57.448562  3088A     57.987979  
    3089A     58.764188  3090A     59.755665  3091A     60.559549  
    3092A     61.020309  3093A     61.625057  3094A     61.839353  
    3095A     62.424357  3096A     62.648058  3097A     63.603797  
    3098A     63.941324  3099A     64.242532  

    Final Occupation by Irrep:
              A 
    DOCC [    82 ]
    NA   [    82 ]
    NB   [    82 ]

  @DF-RKS Final Energy:  -926.71735346732873

   => Energetics <=

    Nuclear Repulsion Energy =           1864.8412087392382546
    One-Electron Energy =               -4955.8035488307323249
    Two-Electron Energy =                2258.3897800279105468
    DFT Exchange-Correlation Energy =     -94.7434934642289903
    Empirical Dispersion Energy =           0.0000000000000000
    VV10 Nonlocal Energy =                  0.5987000604840776
    Total Energy =                       -926.7173534673286213

Computation Completed


Properties will be evaluated at   0.000000,   0.000000,   0.000000 [a0]

Properties computed using the SCF density matrix


 Multipole Moments:

 ------------------------------------------------------------------------------------
     Multipole            Electronic (a.u.)      Nuclear  (a.u.)        Total (a.u.)
 ------------------------------------------------------------------------------------

 L = 1.  Multiply by 2.5417464519 to convert [e a0] to [Debye]
 Dipole X            :      -5244.8642239         5244.7985666           -0.0656573
 Dipole Y            :      -3214.1960355         3213.8331896           -0.3628459
 Dipole Z            :      -6901.1658220         6901.1289601           -0.0368619
 Magnitude           :                                                    0.3705763

 ------------------------------------------------------------------------------------

*** tstop() called on atl1-1-03-004-14-1.pace.gatech.edu at Sat Jun 13 19:17:14 2026
Module time:
	user time   =   85524.38 seconds =    1425.41 minutes
	system time =    4893.74 seconds =      81.56 minutes
	total time  =      12987 seconds =     216.45 minutes
Total time:
	user time   =   85524.38 seconds =    1425.41 minutes
	system time =    4893.74 seconds =      81.56 minutes
	total time  =      12987 seconds =     216.45 minutes

    Psi4 stopped on: Saturday, 13 June 2026 07:17PM
    Psi4 wall time for execution: 3:36:44.48

*** Psi4 exiting successfully. Buy a developer a beer!
