
    -----------------------------------------------------------------------
          Psi4: An Open-Source Ab Initio Electronic Structure Package
                               Psi4 1.9.1 release

                         Git: Rev {} zzzzzzz 


    D. G. A. Smith, L. A. Burns, A. C. Simmonett, R. M. Parrish,
    M. C. Schieber, R. Galvelis, P. Kraus, H. Kruse, R. Di Remigio,
    A. Alenaizan, A. M. James, S. Lehtola, J. P. Misiewicz, M. Scheurer,
    R. A. Shaw, J. B. Schriber, Y. Xie, Z. L. Glick, D. A. Sirianni,
    J. S. O'Brien, J. M. Waldrop, A. Kumar, E. G. Hohenstein,
    B. P. Pritchard, B. R. Brooks, H. F. Schaefer III, A. Yu. Sokolov,
    K. Patkowski, A. E. DePrince III, U. Bozkaya, R. A. King,
    F. A. Evangelista, J. M. Turney, T. D. Crawford, C. D. Sherrill,
    J. Chem. Phys. 152(18) 184108 (2020). https://doi.org/10.1063/5.0006002

                            Additional Code Authors
    E. T. Seidl, C. L. Janssen, E. F. Valeev, M. L. Leininger,
    J. F. Gonthier, R. M. Richard, H. R. McAlexander, M. Saitow, X. Wang,
    P. Verma, M. H. Lechner, A. Jiang, S. Behnle, A. G. Heide,
    M. F. Herbst, and D. L. Poole

             Previous Authors, Complete List of Code Contributors,
                       and Citations for Specific Modules
    https://github.com/psi4/psi4/blob/master/codemeta.json
    https://github.com/psi4/psi4/graphs/contributors
    http://psicode.org/psi4manual/master/introduction.html#citing-psifour

    -----------------------------------------------------------------------


    Psi4 started on: Saturday, 13 June 2026 12:19PM

    Process ID: 1865244
    Host:       atl1-1-02-003-24-1.pace.gatech.edu
    PSIDATADIR: /storage/home/hcoda1/5/vlita3/.conda/envs/p4_qcml/share/psi4
    Memory:     250.0 GiB
    Threads:    10
    
  ==> Input QCSchema <==

--------------------------------------------------------------------------
{'driver': 'energy',
 'extras': {},
 'id': '238',
 'keywords': {},
 'model': {'basis': 'aug-cc-pvtz', 'method': 'wb97x-d'},
 'molecule': {'extras': {},
              'fix_com': True,
              'fix_orientation': True,
              'fragment_charges': [0.0, 0.0],
              'fragment_multiplicities': [1, 1],
              'fragments': [[0, 1, 2, 3, 4, 5, 6, 7, 8, 9, 10, 11, 12, 13, 14, 15, 16, 17, 18, 19, 20, 21, 22, 23, 24,
                             25, 26, 27, 28, 29, 30, 31, 32, 33, 34, 35, 36, 37, 38, 39, 40, 41, 42, 43, 44, 45, 46, 47,
                             48, 49, 50, 51, 52, 53, 54, 55],
                            [56, 57, 58, 59, 60, 61, 62, 63, 64, 65, 66, 67, 68, 69, 70, 71, 72, 73, 74, 75, 76, 77, 78,
                             79, 80, 81, 82, 83, 84, 85, 86, 87, 88, 89, 90, 91, 92, 93, 94, 95, 96, 97, 98, 99, 100,
                             101, 102, 103, 104, 105, 106, 107, 108, 109, 110, 111]],
              'geometry': [39.18725066, 24.74029443, 4.00810911, 37.91546498, 22.14947992, 3.77378307, 35.03363264,
                           22.26853266, 4.05535227, 33.7429497, 19.68527705, 3.82102623, 30.85922763, 19.81566815,
                           4.07613925, 29.56287551, 17.23808172, 3.82858513, 26.67726371, 17.37792145, 4.05535227,
                           25.37335269, 14.80600419, 3.78890088, 22.48774089, 14.95907201, 3.99866048, 21.17249151,
                           12.3909342, 3.72653992, 18.28876944, 12.55534038, 3.93818925, 16.9621817, 9.99287175,
                           3.67551731, 14.08034936, 10.16483683, 3.9060639, 12.74809244, 7.60425793, 3.66417896,
                           9.86814983, 7.77811273, 3.92685089, 8.53400318, 5.21564411, 3.71142211, 5.65595029,
                           5.38571946, 4.00621939, 4.34070091, 2.8138022, 3.80590842, 2.28845834, 3.00088509,
                           4.00432966, 38.81875407, 25.57933283, 5.86570989, 41.23760351, 24.59667525, 3.76811389,
                           38.46915474, 26.04798491, 2.57191726, 38.38222733, 21.31233124, 1.93318983, 38.68647324,
                           20.86635588, 5.21186465, 34.56120111, 23.10568134, 5.89594551, 34.26073465, 23.5516567,
                           2.61538096, 34.22860931, 18.8424592, 1.98610216, 34.50072987, 18.40782219, 5.27044616,
                           30.37356801, 20.65281683, 5.91484277, 30.10333718, 21.10257164, 2.63238849, 30.06365293,
                           16.39337414, 1.99744051, 30.30175842, 15.95495768, 5.28556397, 26.17648629, 18.2131804,
                           5.89027633, 25.94216025, 18.67049412, 2.60593233, 25.88168901, 13.96507607, 1.95964599,
                           26.09711779, 13.51532125, 5.24776945, 21.97940457, 15.79433096, 5.83169482, 21.76586551,
                           16.25353441, 2.54546109, 21.67893811, 11.5518958, 1.89728503, 21.89247716, 11.09647181,
                           5.18351876, 17.78610229, 13.3962685, 5.76933386, 17.56878379, 13.8516925, 2.48310013,
                           17.45540022, 9.14816417, 1.84248297, 17.68594681, 8.69651963, 5.1287167, 13.59468975,
                           11.01521359, 5.73909824, 13.3528048, 11.4574095, 2.45286451, 13.21863425, 6.7557709,
                           1.82925489, 13.48697536, 6.31168526, 5.1135989, 9.4032772, 8.63604839, 5.76177496,
                           9.12359773, 9.0631265, 2.47743095, 8.983758, 4.35959817, 1.87271859, 9.29178336, 3.92874061,
                           5.15517287, 5.21186465, 6.2493243, 5.84114345, 4.90005984, 6.66506404, 2.55868917,
                           4.72431531, 1.92563092, 1.9747638, 5.00966396, 1.52500898, 5.28367425, 9.39004912,
                           8.90249978, -3.87960774, 8.09936617, 6.31924416, -4.11393378, 5.21753383, 6.43829691,
                           -3.83236458, 3.94574815, 3.84748239, -4.06669062, 12.27188146, 8.77210867, -4.13661049,
                           13.57012331, 11.35158484, -3.88716664, 16.45384537, 11.20985538, -4.11393378, 17.75964613,
                           13.78177263, -3.84748239, 20.64525792, 13.62870482, -4.05724199, 21.95861758, 16.19684262,
                           -3.78512143, 24.84422937, 16.03243645, -3.99677076, 26.16892739, 18.5967948, -3.73409882,
                           29.05075973, 18.42294, -3.96464541, 30.38301665, 20.98540862, -3.72276047, 33.26295926,
                           20.80966409, -3.98732212, 34.5971059, 23.37213272, -3.77000362, 37.47515879, 23.20205737,
                           -4.0648009, 38.79040818, 25.77397463, -3.86637965, 40.84265075, 25.58878146, -4.0648009,
                           38.12144513, 27.06276784, -5.34414548, 37.91924443, 22.33845253, -5.89972496, 38.23104924,
                           21.92271278, -2.61727068, 34.14735109, 24.23006838, -1.93318983, 33.83932573, 24.65903621,
                           -5.21564411, 33.72783189, 19.95172843, -5.82035647, 34.00751135, 19.52465033, -2.53601246,
                           29.91247484, 21.83389565, -1.8878364, 29.64413373, 22.27609157, -5.17218041, 29.53641934,
                           17.57256324, -5.79767975, 29.78019401, 17.13225705, -2.51144602, 25.67759859, 19.43961265,
                           -1.90106448, 25.44516228, 19.8912572, -5.18729821, 25.34500679, 15.19150832, -5.82791537,
                           25.5623253, 14.73797405, -2.54168164, 21.45217098, 17.03777075, -1.95586654, 21.24052165,
                           17.49130502, -5.24210027, 21.15359425, 12.79344587, -5.89027633, 21.3671333, 12.33424242,
                           -2.6040426, 17.24942007, 14.62270076, -2.02011723, 17.03588102, 15.07245558, -5.30635096,
                           16.9546228, 10.37459643, -5.95074757, 17.18894884, 9.91728271, -2.66451384, 13.06934588,
                           12.19440269, -2.05791175, 12.82935067, 12.63281915, -5.34414548, 12.75754107, 7.93684973,
                           -5.97531401, 13.02777191, 7.48520518, -2.69285973, 8.9043895, 9.74531763, -2.04468367,
                           8.57179771, 5.48209549, -5.95641675, 8.87037443, 5.03612012, -2.67585219, 4.75077148,
                           7.27544558, -1.99177134, 4.44652557, 7.72142095, -5.27044616, 1.8953953, 3.99110158,
                           -3.82858513, 4.31424474, 3.00844399, -5.92618113, 4.66384408, 2.53979191, -2.63238849,
                           8.63037921, 10.17995464, -5.3309174, 38.40679377, 26.6621459, -2.03334531],
              'id': 13,
              'identifiers': {'molecular_formula': 'C36H76',
                              'molecule_hash': '5a1027ed7a2872ae334f0d27d7734dfd003db69d'},
              'masses': [12.0, 12.0, 12.0, 12.0, 12.0, 12.0, 12.0, 12.0, 12.0, 12.0, 12.0, 12.0, 12.0, 12.0, 12.0, 12.0,
                         12.0, 12.0, 1.00782503223, 1.00782503223, 1.00782503223, 1.00782503223, 1.00782503223,
                         1.00782503223, 1.00782503223, 1.00782503223, 1.00782503223, 1.00782503223, 1.00782503223,
                         1.00782503223, 1.00782503223, 1.00782503223, 1.00782503223, 1.00782503223, 1.00782503223,
                         1.00782503223, 1.00782503223, 1.00782503223, 1.00782503223, 1.00782503223, 1.00782503223,
                         1.00782503223, 1.00782503223, 1.00782503223, 1.00782503223, 1.00782503223, 1.00782503223,
                         1.00782503223, 1.00782503223, 1.00782503223, 1.00782503223, 1.00782503223, 1.00782503223,
                         1.00782503223, 1.00782503223, 1.00782503223, 12.0, 12.0, 12.0, 12.0, 12.0, 12.0, 12.0, 12.0,
                         12.0, 12.0, 12.0, 12.0, 12.0, 12.0, 12.0, 12.0, 12.0, 12.0, 1.00782503223, 1.00782503223,
                         1.00782503223, 1.00782503223, 1.00782503223, 1.00782503223, 1.00782503223, 1.00782503223,
                         1.00782503223, 1.00782503223, 1.00782503223, 1.00782503223, 1.00782503223, 1.00782503223,
                         1.00782503223, 1.00782503223, 1.00782503223, 1.00782503223, 1.00782503223, 1.00782503223,
                         1.00782503223, 1.00782503223, 1.00782503223, 1.00782503223, 1.00782503223, 1.00782503223,
                         1.00782503223, 1.00782503223, 1.00782503223, 1.00782503223, 1.00782503223, 1.00782503223,
                         1.00782503223, 1.00782503223, 1.00782503223, 1.00782503223, 1.00782503223, 1.00782503223],
              'molecular_charge': 0.0,
              'molecular_multiplicity': 1,
              'name': 'C36H76 ([1],[0])',
              'provenance': {'creator': 'QCElemental',
                             'routine': 'qcelemental.molparse.from_schema',
                             'version': '0.29.0'},
              'real': [False, False, False, False, False, False, False, False, False, False, False, False, False, False,
                       False, False, False, False, False, False, False, False, False, False, False, False, False, False,
                       False, False, False, False, False, False, False, False, False, False, False, False, False, False,
                       False, False, False, False, False, False, False, False, False, False, False, False, False, False,
                       True, True, True, True, True, True, True, True, True, True, True, True, True, True, True, True,
                       True, True, True, True, True, True, True, True, True, True, True, True, True, True, True, True,
                       True, True, True, True, True, True, True, True, True, True, True, True, True, True, True, True,
                       True, True, True, True, True, True, True, True],
              'schema_name': 'qcschema_molecule',
              'schema_version': 2,
              'symbols': ['C', 'C', 'C', 'C', 'C', 'C', 'C', 'C', 'C', 'C', 'C', 'C', 'C', 'C', 'C', 'C', 'C', 'C', 'H',
                          'H', 'H', 'H', 'H', 'H', 'H', 'H', 'H', 'H', 'H', 'H', 'H', 'H', 'H', 'H', 'H', 'H', 'H', 'H',
                          'H', 'H', 'H', 'H', 'H', 'H', 'H', 'H', 'H', 'H', 'H', 'H', 'H', 'H', 'H', 'H', 'H', 'H', 'C',
                          'C', 'C', 'C', 'C', 'C', 'C', 'C', 'C', 'C', 'C', 'C', 'C', 'C', 'C', 'C', 'C', 'C', 'H', 'H',
                          'H', 'H', 'H', 'H', 'H', 'H', 'H', 'H', 'H', 'H', 'H', 'H', 'H', 'H', 'H', 'H', 'H', 'H', 'H',
                          'H', 'H', 'H', 'H', 'H', 'H', 'H', 'H', 'H', 'H', 'H', 'H', 'H', 'H', 'H', 'H', 'H'],
              'validated': True},
 'protocols': {},
 'provenance': {'creator': 'QCElemental', 'routine': 'qcelemental.models.results', 'version': '0.29.0'},
 'schema_name': 'qcschema_input',
 'schema_version': 1}
--------------------------------------------------------------------------

Scratch directory: /tmp/tmp5tf_rfin_psi_scratch/
   => Libint2 <=

    Primary   basis highest AM E, G, H:  6, 6, 3
    Auxiliary basis highest AM E, G, H:  7, 7, 4
    Onebody   basis highest AM E, G, H:  -, -, -
    Solid Harmonics ordering:            Gaussian

*** tstart() called on atl1-1-02-003-24-1.pace.gatech.edu
*** at Sat Jun 13 12:19:18 2026

   => Loading Basis Set <=

    Name: AUG-CC-PVTZ
    Role: ORBITAL
    Keyword: BASIS
    atoms 1-18, 57-74   entry C          line   239 file /storage/home/hcoda1/5/vlita3/.conda/envs/p4_qcml/share/psi4/basis/aug-cc-pvtz.gbs 
    atoms 19-56, 75-112 entry H          line    40 file /storage/home/hcoda1/5/vlita3/.conda/envs/p4_qcml/share/psi4/basis/aug-cc-pvtz.gbs 

   => WB97X-D: Empirical Dispersion <=

    Chai and Head-Gordon Dispersion Correction
    Chai, J.-D.; Head-Gordon, M. (2010), J. Chem. Phys., 132: 6615-6620

        s6 =       1.000000


         ---------------------------------------------------------
                                   SCF
               by Justin Turney, Rob Parrish, Andy Simmonett
                          and Daniel G. A. Smith
                              RKS Reference
                       10 Threads, 256000 MiB Core
         ---------------------------------------------------------

  ==> Geometry <==

    Molecular point group: c1
    Full point group: C1

    Geometry (in Bohr), charge = 0, multiplicity = 1:

       Center              X                  Y                   Z               Mass       
    ------------   -----------------  -----------------  -----------------  -----------------
      Gh(C)          39.187250660000    24.740294430000     4.008109110000    12.000000000000
      Gh(C)          37.915464980000    22.149479920000     3.773783070000    12.000000000000
      Gh(C)          35.033632640000    22.268532660000     4.055352270000    12.000000000000
      Gh(C)          33.742949700000    19.685277050000     3.821026230000    12.000000000000
      Gh(C)          30.859227630000    19.815668150000     4.076139250000    12.000000000000
      Gh(C)          29.562875510000    17.238081720000     3.828585130000    12.000000000000
      Gh(C)          26.677263710000    17.377921450000     4.055352270000    12.000000000000
      Gh(C)          25.373352690000    14.806004190000     3.788900880000    12.000000000000
      Gh(C)          22.487740890000    14.959072010000     3.998660480000    12.000000000000
      Gh(C)          21.172491510000    12.390934200000     3.726539920000    12.000000000000
      Gh(C)          18.288769440000    12.555340380000     3.938189250000    12.000000000000
      Gh(C)          16.962181700000     9.992871750000     3.675517310000    12.000000000000
      Gh(C)          14.080349360000    10.164836830000     3.906063900000    12.000000000000
      Gh(C)          12.748092440000     7.604257930000     3.664178960000    12.000000000000
      Gh(C)           9.868149830000     7.778112730000     3.926850890000    12.000000000000
      Gh(C)           8.534003180000     5.215644110000     3.711422110000    12.000000000000
      Gh(C)           5.655950290000     5.385719460000     4.006219390000    12.000000000000
      Gh(C)           4.340700910000     2.813802200000     3.805908420000    12.000000000000
      Gh(H)           2.288458340000     3.000885090000     4.004329660000     1.007825032230
      Gh(H)          38.818754070000    25.579332830000     5.865709890000     1.007825032230
      Gh(H)          41.237603510000    24.596675250000     3.768113890000     1.007825032230
      Gh(H)          38.469154740000    26.047984910000     2.571917260000     1.007825032230
      Gh(H)          38.382227330000    21.312331240000     1.933189830000     1.007825032230
      Gh(H)          38.686473240000    20.866355880000     5.211864650000     1.007825032230
      Gh(H)          34.561201110000    23.105681340000     5.895945510000     1.007825032230
      Gh(H)          34.260734650000    23.551656700000     2.615380960000     1.007825032230
      Gh(H)          34.228609310000    18.842459200000     1.986102160000     1.007825032230
      Gh(H)          34.500729870000    18.407822190000     5.270446160000     1.007825032230
      Gh(H)          30.373568010000    20.652816830000     5.914842770000     1.007825032230
      Gh(H)          30.103337180000    21.102571640000     2.632388490000     1.007825032230
      Gh(H)          30.063652930000    16.393374140000     1.997440510000     1.007825032230
      Gh(H)          30.301758420000    15.954957680000     5.285563970000     1.007825032230
      Gh(H)          26.176486290000    18.213180400000     5.890276330000     1.007825032230
      Gh(H)          25.942160250000    18.670494120000     2.605932330000     1.007825032230
      Gh(H)          25.881689010000    13.965076070000     1.959645990000     1.007825032230
      Gh(H)          26.097117790000    13.515321250000     5.247769450000     1.007825032230
      Gh(H)          21.979404570000    15.794330960000     5.831694820000     1.007825032230
      Gh(H)          21.765865510000    16.253534410000     2.545461090000     1.007825032230
      Gh(H)          21.678938110000    11.551895800000     1.897285030000     1.007825032230
      Gh(H)          21.892477160000    11.096471810000     5.183518760000     1.007825032230
      Gh(H)          17.786102290000    13.396268500000     5.769333860000     1.007825032230
      Gh(H)          17.568783790000    13.851692500000     2.483100130000     1.007825032230
      Gh(H)          17.455400220000     9.148164170000     1.842482970000     1.007825032230
      Gh(H)          17.685946810000     8.696519630000     5.128716700000     1.007825032230
      Gh(H)          13.594689750000    11.015213590000     5.739098240000     1.007825032230
      Gh(H)          13.352804800000    11.457409500000     2.452864510000     1.007825032230
      Gh(H)          13.218634250000     6.755770900000     1.829254890000     1.007825032230
      Gh(H)          13.486975360000     6.311685260000     5.113598900000     1.007825032230
      Gh(H)           9.403277200000     8.636048390000     5.761774960000     1.007825032230
      Gh(H)           9.123597730000     9.063126500000     2.477430950000     1.007825032230
      Gh(H)           8.983758000000     4.359598170000     1.872718590000     1.007825032230
      Gh(H)           9.291783360000     3.928740610000     5.155172870000     1.007825032230
      Gh(H)           5.211864650000     6.249324300000     5.841143450000     1.007825032230
      Gh(H)           4.900059840000     6.665064040000     2.558689170000     1.007825032230
      Gh(H)           4.724315310000     1.925630920000     1.974763800000     1.007825032230
      Gh(H)           5.009663960000     1.525008980000     5.283674250000     1.007825032230
         C            9.390049120000     8.902499780000    -3.879607740000    12.000000000000
         C            8.099366170000     6.319244160000    -4.113933780000    12.000000000000
         C            5.217533830000     6.438296910000    -3.832364580000    12.000000000000
         C            3.945748150000     3.847482390000    -4.066690620000    12.000000000000
         C           12.271881460000     8.772108670000    -4.136610490000    12.000000000000
         C           13.570123310000    11.351584840000    -3.887166640000    12.000000000000
         C           16.453845370000    11.209855380000    -4.113933780000    12.000000000000
         C           17.759646130000    13.781772630000    -3.847482390000    12.000000000000
         C           20.645257920000    13.628704820000    -4.057241990000    12.000000000000
         C           21.958617580000    16.196842620000    -3.785121430000    12.000000000000
         C           24.844229370000    16.032436450000    -3.996770760000    12.000000000000
         C           26.168927390000    18.596794800000    -3.734098820000    12.000000000000
         C           29.050759730000    18.422940000000    -3.964645410000    12.000000000000
         C           30.383016650000    20.985408620000    -3.722760470000    12.000000000000
         C           33.262959260000    20.809664090000    -3.987322120000    12.000000000000
         C           34.597105900000    23.372132720000    -3.770003620000    12.000000000000
         C           37.475158790000    23.202057370000    -4.064800900000    12.000000000000
         C           38.790408180000    25.773974630000    -3.866379650000    12.000000000000
         H           40.842650750000    25.588781460000    -4.064800900000     1.007825032230
         H           38.121445130000    27.062767840000    -5.344145480000     1.007825032230
         H           37.919244430000    22.338452530000    -5.899724960000     1.007825032230
         H           38.231049240000    21.922712780000    -2.617270680000     1.007825032230
         H           34.147351090000    24.230068380000    -1.933189830000     1.007825032230
         H           33.839325730000    24.659036210000    -5.215644110000     1.007825032230
         H           33.727831890000    19.951728430000    -5.820356470000     1.007825032230
         H           34.007511350000    19.524650330000    -2.536012460000     1.007825032230
         H           29.912474840000    21.833895650000    -1.887836400000     1.007825032230
         H           29.644133730000    22.276091570000    -5.172180410000     1.007825032230
         H           29.536419340000    17.572563240000    -5.797679750000     1.007825032230
         H           29.780194010000    17.132257050000    -2.511446020000     1.007825032230
         H           25.677598590000    19.439612650000    -1.901064480000     1.007825032230
         H           25.445162280000    19.891257200000    -5.187298210000     1.007825032230
         H           25.345006790000    15.191508320000    -5.827915370000     1.007825032230
         H           25.562325300000    14.737974050000    -2.541681640000     1.007825032230
         H           21.452170980000    17.037770750000    -1.955866540000     1.007825032230
         H           21.240521650000    17.491305020000    -5.242100270000     1.007825032230
         H           21.153594250000    12.793445870000    -5.890276330000     1.007825032230
         H           21.367133300000    12.334242420000    -2.604042600000     1.007825032230
         H           17.249420070000    14.622700760000    -2.020117230000     1.007825032230
         H           17.035881020000    15.072455580000    -5.306350960000     1.007825032230
         H           16.954622800000    10.374596430000    -5.950747570000     1.007825032230
         H           17.188948840000     9.917282710000    -2.664513840000     1.007825032230
         H           13.069345880000    12.194402690000    -2.057911750000     1.007825032230
         H           12.829350670000    12.632819150000    -5.344145480000     1.007825032230
         H           12.757541070000     7.936849730000    -5.975314010000     1.007825032230
         H           13.027771910000     7.485205180000    -2.692859730000     1.007825032230
         H            8.904389500000     9.745317630000    -2.044683670000     1.007825032230
         H            8.571797710000     5.482095490000    -5.956416750000     1.007825032230
         H            8.870374430000     5.036120120000    -2.675852190000     1.007825032230
         H            4.750771480000     7.275445580000    -1.991771340000     1.007825032230
         H            4.446525570000     7.721420950000    -5.270446160000     1.007825032230
         H            1.895395300000     3.991101580000    -3.828585130000     1.007825032230
         H            4.314244740000     3.008443990000    -5.926181130000     1.007825032230
         H            4.663844080000     2.539791910000    -2.632388490000     1.007825032230
         H            8.630379210000    10.179954640000    -5.330917400000     1.007825032230
         H           38.406793770000    26.662145900000    -2.033345310000     1.007825032230

  Running in c1 symmetry.

  Rotational constants: A =      0.00674  B =      0.00014  C =      0.00014 [cm^-1]
  Rotational constants: A =    202.03768  B =      4.27015  C =      4.19674 [MHz]
  Nuclear repulsion = 1177.211817927325001

  Charge       = 0
  Multiplicity = 1
  Electrons    = 146
  Nalpha       = 73
  Nbeta        = 73

  ==> Algorithm <==

  SCF Algorithm Type is DF.
  DIIS enabled.
  MOM disabled.
  Fractional occupation disabled.
  Guess Type is SAD.
  Energy threshold   = 1.00e-06
  Density threshold  = 1.00e-06
  Integral threshold = 1.00e-12

  ==> Primary Basis <==

  Basis Set: AUG-CC-PVTZ
    Blend: AUG-CC-PVTZ
    Number of shells: 1188
    Number of basis functions: 3404
    Number of Cartesian functions: 3880
    Spherical Harmonics?: true
    Max angular momentum: 3

  ==> DFT Potential <==

   => LibXC <=

    Version 7.0.0
    S. Lehtola, C. Steigemann, M. J.T. Oliveira, and M. A.L. Marques.,  SoftwareX 7, 1–5 (2018) (10.1016/j.softx.2017.11.002)

   => Composite Functional: WB97X-D <= 

    wB97X-D Hyb-GGA Exchange-Correlation Functional

    J.-D. Chai and M. Head-Gordon.,  Phys. Chem. Chem. Phys. 10, 6615-6620 (2008) (10.1039/B810189B)

    Deriv               =              1
    GGA                 =           TRUE
    Meta                =          FALSE

    Exchange Hybrid     =           TRUE
    MP2 Hybrid          =          FALSE

   => Exchange-Correlation Functionals <=

    1.0000   wB97X-D range-separated functional

   => Exact (HF) Exchange <=

    0.7780            HF,LR [omega = 0.2000]
    0.2220               HF 

   => LibXC Density Thresholds  <==

    XC_HYB_GGA_XC_WB97X_D:  1.00E-14 

   => Molecular Quadrature <=

    Radial Scheme          =       TREUTLER
    Pruning Scheme         =           NONE
    Nuclear Scheme         =       TREUTLER

    Blocking Scheme        =         OCTREE
    BS radius alpha        =              1
    Pruning alpha          =              1
    Radial Points          =             75
    Spherical Points       =            302
    Total Points           =        2287807
    Total Blocks           =          15476
    Max Points             =            256
    Max Functions          =           1540
    Weights Tolerance      =       1.00E-15

   => Loading Basis Set <=

    Name: (AUG-CC-PVTZ AUX)
    Role: JKFIT
    Keyword: DF_BASIS_SCF
    atoms 1-18, 57-74   entry C          line   162 file /storage/home/hcoda1/5/vlita3/.conda/envs/p4_qcml/share/psi4/basis/aug-cc-pvtz-jkfit.gbs 
    atoms 19-56, 75-112 entry H          line    70 file /storage/home/hcoda1/5/vlita3/.conda/envs/p4_qcml/share/psi4/basis/aug-cc-pvtz-jkfit.gbs 

  ==> Integral Setup <==

  ==> DiskDFJK: Density-Fitted J/K Matrices <==

    J tasked:                  Yes
    K tasked:                  Yes
    wK tasked:                 Yes
    Omega:               2.000E-01
    OpenMP threads:             10
    Integrals threads:          10
    Memory [MiB]:           172368
    Algorithm:                Disk
    Integral Cache:           NONE
    Schwarz Cutoff:          1E-12
    Fitting Condition:       1E-10

   => Auxiliary Basis Set <=

  Basis Set: (AUG-CC-PVTZ AUX)
    Blend: AUG-CC-PVTZ-JKFIT
    Number of shells: 2144
    Number of basis functions: 7240
    Number of Cartesian functions: 8896
    Spherical Harmonics?: true
    Max angular momentum: 4

  Minimum eigenvalue in the overlap matrix is 2.2061596341E-08.
  Reciprocal condition number of the overlap matrix is 6.8411741151E-10.
    Using canonical orthogonalization.
  Overall, 1 of 3404 possible MOs eliminated.


  ==> Pre-Iterations <==

  SCF Guess: Superposition of Atomic Densities via on-the-fly atomic UHF (no occupation information).

   -------------------------
    Irrep   Nso     Nmo    
   -------------------------
     A       3404    3403 
   -------------------------
    Total    3404    3403
   -------------------------

  ==> Iterations <==

                           Total Energy        Delta E     RMS |[F,P]|

   @DF-RKS iter SAD:  -707.79742145283603   -7.07797e+02   0.00000e+00 
   @DF-RKS iter   1:  -707.42307971393871    3.74342e-01   4.81184e-04 ADIIS/DIIS
   @DF-RKS iter   2:  -708.06394806430342   -6.40868e-01   3.75278e-04 ADIIS/DIIS
   @DF-RKS iter   3:  -708.88734917210218   -8.23401e-01   1.87175e-05 DIIS
   @DF-RKS iter   4:  -708.89083887686979   -3.48970e-03   8.40873e-06 DIIS
   @DF-RKS iter   5:  -708.89125839371582   -4.19517e-04   3.17139e-06 DIIS
   @DF-RKS iter   6:  -708.89131917893474   -6.07852e-05   3.92435e-07 DIIS
   @DF-RKS iter   7:  -708.89132037212801   -1.19319e-06   1.48764e-07 DIIS
   @DF-RKS iter   8:  -708.89132052356979   -1.51442e-07   5.46730e-08 DIIS
  Energy and wave function converged.


  ==> Post-Iterations <==

   Electrons on quadrature grid:
      Ntotal   =  146.0011669894 ; deviation = 1.167e-03 

    Orbital Energies [Eh]
    ---------------------

    Doubly Occupied:                                                      

       1A    -10.277424     2A    -10.277406     3A    -10.275489  
       4A    -10.275475     5A    -10.275388     6A    -10.275374  
       7A    -10.275321     8A    -10.275286     9A    -10.275251  
      10A    -10.275191    11A    -10.275162    12A    -10.275130  
      13A    -10.275077    14A    -10.275036    15A    -10.274991  
      16A    -10.274940    17A    -10.270203    18A    -10.270055  
      19A     -0.914758    20A     -0.909314    21A     -0.900157  
      22A     -0.887443    23A     -0.871243    24A     -0.851746  
      25A     -0.829231    26A     -0.803846    27A     -0.776265  
      28A     -0.747373    29A     -0.718295    30A     -0.691776  
      31A     -0.672264    32A     -0.670894    33A     -0.667445  
      34A     -0.664392    35A     -0.660331    36A     -0.659710  
      37A     -0.577108    38A     -0.571898    39A     -0.563246  
      40A     -0.551444    41A     -0.536822    42A     -0.519855  
      43A     -0.519672    44A     -0.519018    45A     -0.510011  
      46A     -0.504603    47A     -0.501175    48A     -0.494508  
      49A     -0.481527    50A     -0.479329    51A     -0.475370  
      52A     -0.461992    53A     -0.458636    54A     -0.444994  
      55A     -0.443744    56A     -0.441284    57A     -0.427741  
      58A     -0.426478    59A     -0.416438    60A     -0.415009  
      61A     -0.410741    62A     -0.407899    63A     -0.406024  
      64A     -0.403043    65A     -0.400790    66A     -0.400657  
      67A     -0.399650    68A     -0.399206    69A     -0.398746  
      70A     -0.397728    71A     -0.397604    72A     -0.382452  
      73A     -0.362556  

    Virtual:                                                              

      74A      0.018353    75A      0.019830    76A      0.025047  
      77A      0.028672    78A      0.030833    79A      0.031222  
      80A      0.032459    81A      0.033405    82A      0.036289  
      83A      0.039418    84A      0.039836    85A      0.042259  
      86A      0.043419    87A      0.044099    88A      0.047750  
      89A      0.048228    90A      0.050952    91A      0.051329  
      92A      0.052652    93A      0.053978    94A      0.058437  
      95A      0.059260    96A      0.060305    97A      0.063523  
      98A      0.063785    99A      0.064031   100A      0.066504  
     101A      0.067876   102A      0.067977   103A      0.068527  
     104A      0.071529   105A      0.073028   106A      0.074259  
     107A      0.076258   108A      0.076647   109A      0.077326  
     110A      0.079299   111A      0.081498   112A      0.083069  
     113A      0.083379   114A      0.085090   115A      0.086788  
     116A      0.087446   117A      0.088790   118A      0.090166  
     119A      0.090966   120A      0.093174   121A      0.093847  
     122A      0.093939   123A      0.095009   124A      0.096756  
     125A      0.098634   126A      0.099027   127A      0.099504  
     128A      0.099829   129A      0.100688   130A      0.101290  
     131A      0.103231   132A      0.103837   133A      0.107694  
     134A      0.108023   135A      0.108609   136A      0.109393  
     137A      0.110539   138A      0.110973   139A      0.113270  
     140A      0.114465   141A      0.115325   142A      0.115392  
     143A      0.116172   144A      0.118689   145A      0.119000  
     146A      0.120147   147A      0.121234   148A      0.121615  
     149A      0.122641   150A      0.124580   151A      0.125823  
     152A      0.127420   153A      0.127552   154A      0.129021  
     155A      0.130889   156A      0.132524   157A      0.133201  
     158A      0.134544   159A      0.135229   160A      0.136063  
     161A      0.137370   162A      0.138915   163A      0.139512  
     164A      0.140574   165A      0.143552   166A      0.145122  
     167A      0.146139   168A      0.148667   169A      0.149238  
     170A      0.150166   171A      0.150251   172A      0.150819  
     173A      0.151329   174A      0.152293   175A      0.152765  
     176A      0.154385   177A      0.155246   178A      0.155424  
     179A      0.157319   180A      0.157540   181A      0.158998  
     182A      0.159968   183A      0.160824   184A      0.163513  
     185A      0.164016   186A      0.166608   187A      0.168058  
     188A      0.170197   189A      0.170581   190A      0.170858  
     191A      0.171759   192A      0.172931   193A      0.173725  
     194A      0.174989   195A      0.175664   196A      0.175753  
     197A      0.175966   198A      0.178547   199A      0.180346  
     200A      0.181917   201A      0.184410   202A      0.184649  
     203A      0.186637   204A      0.186798   205A      0.186997  
     206A      0.187039   207A      0.187676   208A      0.188611  
     209A      0.189631   210A      0.190646   211A      0.190998  
     212A      0.194550   213A      0.196473   214A      0.197395  
     215A      0.198565   216A      0.199502   217A      0.199692  
     218A      0.201121   219A      0.201701   220A      0.202198  
     221A      0.202584   222A      0.202938   223A      0.203113  
     224A      0.204410   225A      0.204879   226A      0.207189  
     227A      0.208802   228A      0.209471   229A      0.211218  
     230A      0.213289   231A      0.213486   232A      0.214571  
     233A      0.216434   234A      0.217169   235A      0.218142  
     236A      0.219413   237A      0.222157   238A      0.223117  
     239A      0.223874   240A      0.225619   241A      0.226974  
     242A      0.227382   243A      0.228332   244A      0.228499  
     245A      0.229109   246A      0.230330   247A      0.231052  
     248A      0.232419   249A      0.235089   250A      0.236426  
     251A      0.236949   252A      0.237987   253A      0.238659  
     254A      0.240438   255A      0.241779   256A      0.243274  
     257A      0.245266   258A      0.245854   259A      0.247228  
     260A      0.250169   261A      0.251069   262A      0.252067  
     263A      0.252260   264A      0.252757   265A      0.253041  
     266A      0.253753   267A      0.255291   268A      0.255651  
     269A      0.256764   270A      0.257887   271A      0.258606  
     272A      0.259710   273A      0.260654   274A      0.261649  
     275A      0.262155   276A      0.263595   277A      0.265441  
     278A      0.265953   279A      0.267245   280A      0.269328  
     281A      0.270231   282A      0.271565   283A      0.272595  
     284A      0.273705   285A      0.274063   286A      0.275810  
     287A      0.277661   288A      0.278433   289A      0.280622  
     290A      0.281473   291A      0.282674   292A      0.284859  
     293A      0.285843   294A      0.287002   295A      0.287403  
     296A      0.288502   297A      0.290612   298A      0.291275  
     299A      0.291810   300A      0.293996   301A      0.294168  
     302A      0.296543   303A      0.297187   304A      0.297718  
     305A      0.298444   306A      0.299024   307A      0.299772  
     308A      0.302283   309A      0.304110   310A      0.305677  
     311A      0.306745   312A      0.306887   313A      0.308083  
     314A      0.310770   315A      0.312088   316A      0.313069  
     317A      0.315287   318A      0.316173   319A      0.317285  
     320A      0.318730   321A      0.319361   322A      0.320917  
     323A      0.321843   324A      0.322915   325A      0.324838  
     326A      0.327508   327A      0.327889   328A      0.328646  
     329A      0.330239   330A      0.331328   331A      0.333110  
     332A      0.334166   333A      0.334936   334A      0.335144  
     335A      0.336872   336A      0.338739   337A      0.340234  
     338A      0.341781   339A      0.342717   340A      0.343713  
     341A      0.343987   342A      0.344460   343A      0.345615  
     344A      0.347019   345A      0.347767   346A      0.348272  
     347A      0.350068   348A      0.350301   349A      0.352666  
     350A      0.354065   351A      0.355627   352A      0.356521  
     353A      0.357976   354A      0.359328   355A      0.360129  
     356A      0.361143   357A      0.361467   358A      0.363608  
     359A      0.364179   360A      0.365684   361A      0.365943  
     362A      0.366320   363A      0.367948   364A      0.369175  
     365A      0.370934   366A      0.371190   367A      0.371660  
     368A      0.371968   369A      0.374548   370A      0.374625  
     371A      0.376961   372A      0.378104   373A      0.378718  
     374A      0.379015   375A      0.379843   376A      0.380413  
     377A      0.381525   378A      0.383255   379A      0.384355  
     380A      0.384708   381A      0.385725   382A      0.386711  
     383A      0.387485   384A      0.388012   385A      0.388531  
     386A      0.389879   387A      0.390348   388A      0.390928  
     389A      0.391724   390A      0.393128   391A      0.394628  
     392A      0.396005   393A      0.396759   394A      0.397672  
     395A      0.398629   396A      0.399015   397A      0.401169  
     398A      0.401726   399A      0.403341   400A      0.403941  
     401A      0.404448   402A      0.405803   403A      0.407302  
     404A      0.407917   405A      0.408291   406A      0.409549  
     407A      0.410245   408A      0.410418   409A      0.411969  
     410A      0.412756   411A      0.413152   412A      0.414969  
     413A      0.415713   414A      0.418327   415A      0.419964  
     416A      0.420850   417A      0.420945   418A      0.422238  
     419A      0.423035   420A      0.424369   421A      0.425708  
     422A      0.426374   423A      0.427508   424A      0.428053  
     425A      0.429731   426A      0.431316   427A      0.433573  
     428A      0.434242   429A      0.435192   430A      0.436789  
     431A      0.438197   432A      0.439360   433A      0.440551  
     434A      0.440672   435A      0.441493   436A      0.442675  
     437A      0.442709   438A      0.445064   439A      0.446099  
     440A      0.447051   441A      0.448630   442A      0.449806  
     443A      0.451098   444A      0.452343   445A      0.452737  
     446A      0.454129   447A      0.456059   448A      0.457594  
     449A      0.458035   450A      0.458527   451A      0.460394  
     452A      0.461876   453A      0.462382   454A      0.463380  
     455A      0.466530   456A      0.466991   457A      0.467914  
     458A      0.469769   459A      0.471524   460A      0.472046  
     461A      0.472688   462A      0.474395   463A      0.475380  
     464A      0.476110   465A      0.476451   466A      0.478858  
     467A      0.479632   468A      0.480922   469A      0.482153  
     470A      0.482315   471A      0.482898   472A      0.483828  
     473A      0.484165   474A      0.486080   475A      0.486482  
     476A      0.487001   477A      0.487599   478A      0.489930  
     479A      0.490280   480A      0.490681   481A      0.492230  
     482A      0.493239   483A      0.494609   484A      0.495032  
     485A      0.495441   486A      0.497196   487A      0.497611  
     488A      0.499516   489A      0.500405   490A      0.502894  
     491A      0.503443   492A      0.504836   493A      0.505483  
     494A      0.507340   495A      0.508082   496A      0.508694  
     497A      0.508850   498A      0.510577   499A      0.511035  
     500A      0.512007   501A      0.513110   502A      0.513836  
     503A      0.515135   504A      0.516179   505A      0.516858  
     506A      0.519429   507A      0.519940   508A      0.520528  
     509A      0.522683   510A      0.524045   511A      0.525548  
     512A      0.526863   513A      0.527274   514A      0.529035  
     515A      0.530924   516A      0.531275   517A      0.531791  
     518A      0.532776   519A      0.534774   520A      0.534895  
     521A      0.536042   522A      0.537495   523A      0.539426  
     524A      0.540501   525A      0.541668   526A      0.542818  
     527A      0.545712   528A      0.546419   529A      0.547353  
     530A      0.549074   531A      0.551737   532A      0.554113  
     533A      0.554672   534A      0.555241   535A      0.557027  
     536A      0.558915   537A      0.560006   538A      0.560946  
     539A      0.561704   540A      0.563272   541A      0.565228  
     542A      0.567489   543A      0.568045   544A      0.568505  
     545A      0.570479   546A      0.571030   547A      0.573292  
     548A      0.573404   549A      0.573638   550A      0.576678  
     551A      0.577181   552A      0.579216   553A      0.580031  
     554A      0.581773   555A      0.582908   556A      0.583755  
     557A      0.584688   558A      0.586155   559A      0.586726  
     560A      0.588371   561A      0.588926   562A      0.589466  
     563A      0.591736   564A      0.592633   565A      0.593207  
     566A      0.594083   567A      0.594777   568A      0.597780  
     569A      0.599785   570A      0.601490   571A      0.603710  
     572A      0.604171   573A      0.606938   574A      0.608845  
     575A      0.609321   576A      0.610099   577A      0.611207  
     578A      0.611965   579A      0.612507   580A      0.613671  
     581A      0.614305   582A      0.615318   583A      0.616210  
     584A      0.616876   585A      0.617255   586A      0.617488  
     587A      0.618063   588A      0.619317   589A      0.621085  
     590A      0.622282   591A      0.623753   592A      0.625437  
     593A      0.625953   594A      0.626478   595A      0.627400  
     596A      0.628694   597A      0.629845   598A      0.632053  
     599A      0.632608   600A      0.633730   601A      0.635683  
     602A      0.637797   603A      0.638107   604A      0.639900  
     605A      0.640229   606A      0.641536   607A      0.642727  
     608A      0.643794   609A      0.645082   610A      0.645801  
     611A      0.647451   612A      0.649147   613A      0.649636  
     614A      0.651916   615A      0.652741   616A      0.654518  
     617A      0.655591   618A      0.657209   619A      0.658683  
     620A      0.660720   621A      0.661143   622A      0.663122  
     623A      0.663482   624A      0.664466   625A      0.665770  
     626A      0.667464   627A      0.670404   628A      0.670748  
     629A      0.671672   630A      0.673869   631A      0.674791  
     632A      0.677382   633A      0.678297   634A      0.679743  
     635A      0.680476   636A      0.681326   637A      0.682926  
     638A      0.684240   639A      0.685395   640A      0.686689  
     641A      0.687060   642A      0.688410   643A      0.689438  
     644A      0.690588   645A      0.690825   646A      0.692210  
     647A      0.694163   648A      0.695305   649A      0.695874  
     650A      0.697936   651A      0.698851   652A      0.699348  
     653A      0.699926   654A      0.701821   655A      0.702572  
     656A      0.704054   657A      0.704592   658A      0.705384  
     659A      0.706815   660A      0.707410   661A      0.708682  
     662A      0.709333   663A      0.710760   664A      0.711617  
     665A      0.713558   666A      0.714190   667A      0.716683  
     668A      0.717265   669A      0.718411   670A      0.721294  
     671A      0.723077   672A      0.725252   673A      0.725976  
     674A      0.728536   675A      0.728805   676A      0.729488  
     677A      0.730979   678A      0.731434   679A      0.732529  
     680A      0.733424   681A      0.734231   682A      0.735759  
     683A      0.736980   684A      0.738907   685A      0.739022  
     686A      0.741163   687A      0.742057   688A      0.744009  
     689A      0.745629   690A      0.746423   691A      0.748577  
     692A      0.751188   693A      0.752477   694A      0.753384  
     695A      0.753607   696A      0.755670   697A      0.756320  
     698A      0.758219   699A      0.759951   700A      0.761634  
     701A      0.762711   702A      0.764279   703A      0.764908  
     704A      0.765801   705A      0.766980   706A      0.769021  
     707A      0.769285   708A      0.770342   709A      0.771592  
     710A      0.774101   711A      0.774746   712A      0.775914  
     713A      0.777066   714A      0.777704   715A      0.779572  
     716A      0.780201   717A      0.781196   718A      0.782450  
     719A      0.783857   720A      0.785305   721A      0.786945  
     722A      0.787748   723A      0.789501   724A      0.791289  
     725A      0.792923   726A      0.794112   727A      0.795034  
     728A      0.796417   729A      0.797068   730A      0.797712  
     731A      0.800128   732A      0.801138   733A      0.802922  
     734A      0.805664   735A      0.806638   736A      0.808868  
     737A      0.809333   738A      0.811557   739A      0.812364  
     740A      0.812654   741A      0.814032   742A      0.815506  
     743A      0.816458   744A      0.817268   745A      0.819520  
     746A      0.820594   747A      0.821246   748A      0.821917  
     749A      0.823544   750A      0.823880   751A      0.825252  
     752A      0.826177   753A      0.826433   754A      0.829226  
     755A      0.829923   756A      0.830869   757A      0.833327  
     758A      0.833917   759A      0.835952   760A      0.836669  
     761A      0.837254   762A      0.837792   763A      0.839161  
     764A      0.840537   765A      0.842251   766A      0.843302  
     767A      0.845217   768A      0.846389   769A      0.846462  
     770A      0.849829   771A      0.849977   772A      0.851407  
     773A      0.853386   774A      0.854460   775A      0.856453  
     776A      0.857566   777A      0.858143   778A      0.858797  
     779A      0.859950   780A      0.863289   781A      0.865120  
     782A      0.867885   783A      0.868185   784A      0.868839  
     785A      0.870068   786A      0.870345   787A      0.873134  
     788A      0.873821   789A      0.875112   790A      0.878487  
     791A      0.879481   792A      0.880460   793A      0.881417  
     794A      0.882794   795A      0.883514   796A      0.884724  
     797A      0.885407   798A      0.885745   799A      0.887087  
     800A      0.888522   801A      0.890955   802A      0.892541  
     803A      0.892905   804A      0.894269   805A      0.895448  
     806A      0.896625   807A      0.897443   808A      0.898193  
     809A      0.899128   810A      0.900678   811A      0.902313  
     812A      0.902449   813A      0.903286   814A      0.905331  
     815A      0.906758   816A      0.907072   817A      0.909116  
     818A      0.909530   819A      0.911277   820A      0.911526  
     821A      0.912267   822A      0.915581   823A      0.916355  
     824A      0.916769   825A      0.918011   826A      0.919999  
     827A      0.921369   828A      0.921688   829A      0.922765  
     830A      0.923967   831A      0.924682   832A      0.925506  
     833A      0.927985   834A      0.928070   835A      0.929327  
     836A      0.930637   837A      0.933208   838A      0.935618  
     839A      0.936196   840A      0.938306   841A      0.940154  
     842A      0.941546   843A      0.943748   844A      0.944357  
     845A      0.946104   846A      0.947057   847A      0.948184  
     848A      0.949050   849A      0.949609   850A      0.950484  
     851A      0.951855   852A      0.952353   853A      0.957056  
     854A      0.959096   855A      0.959537   856A      0.960112  
     857A      0.960582   858A      0.961509   859A      0.962512  
     860A      0.965631   861A      0.967583   862A      0.968558  
     863A      0.970428   864A      0.971140   865A      0.971624  
     866A      0.974360   867A      0.975698   868A      0.977102  
     869A      0.977492   870A      0.979336   871A      0.980047  
     872A      0.983012   873A      0.983897   874A      0.985584  
     875A      0.986808   876A      0.988204   877A      0.989642  
     878A      0.991503   879A      0.992310   880A      0.996882  
     881A      1.000082   882A      1.001856   883A      1.003177  
     884A      1.004365   885A      1.007376   886A      1.008428  
     887A      1.010429   888A      1.011477   889A      1.012661  
     890A      1.013619   891A      1.015146   892A      1.016911  
     893A      1.018141   894A      1.018954   895A      1.019576  
     896A      1.021854   897A      1.021910   898A      1.023430  
     899A      1.024975   900A      1.025826   901A      1.026990  
     902A      1.027774   903A      1.028827   904A      1.031640  
     905A      1.032413   906A      1.033104   907A      1.035697  
     908A      1.036949   909A      1.037299   910A      1.039104  
     911A      1.041092   912A      1.041849   913A      1.042639  
     914A      1.044253   915A      1.044933   916A      1.045966  
     917A      1.047447   918A      1.048602   919A      1.049503  
     920A      1.051294   921A      1.052832   922A      1.054302  
     923A      1.055929   924A      1.056660   925A      1.059290  
     926A      1.060267   927A      1.061660   928A      1.064067  
     929A      1.065511   930A      1.066170   931A      1.067433  
     932A      1.068434   933A      1.070179   934A      1.071047  
     935A      1.073283   936A      1.075241   937A      1.076144  
     938A      1.077305   939A      1.078634   940A      1.080058  
     941A      1.081507   942A      1.082527   943A      1.084558  
     944A      1.085582   945A      1.087938   946A      1.088200  
     947A      1.090365   948A      1.090710   949A      1.091383  
     950A      1.093719   951A      1.095138   952A      1.096316  
     953A      1.096633   954A      1.098351   955A      1.101136  
     956A      1.102955   957A      1.104069   958A      1.105357  
     959A      1.106764   960A      1.107084   961A      1.108456  
     962A      1.110495   963A      1.112211   964A      1.112456  
     965A      1.114173   966A      1.115270   967A      1.117886  
     968A      1.119900   969A      1.120856   970A      1.124000  
     971A      1.124625   972A      1.125204   973A      1.126399  
     974A      1.126835   975A      1.129019   976A      1.130810  
     977A      1.131196   978A      1.132482   979A      1.132959  
     980A      1.134699   981A      1.135576   982A      1.137131  
     983A      1.140918   984A      1.141562   985A      1.142577  
     986A      1.143348   987A      1.143679   988A      1.146174  
     989A      1.146914   990A      1.148668   991A      1.148950  
     992A      1.151631   993A      1.152292   994A      1.153549  
     995A      1.155347   996A      1.156627   997A      1.157785  
     998A      1.158061   999A      1.160358  1000A      1.161910  
    1001A      1.162920  1002A      1.163161  1003A      1.165811  
    1004A      1.168456  1005A      1.169796  1006A      1.170491  
    1007A      1.171932  1008A      1.173725  1009A      1.174307  
    1010A      1.176152  1011A      1.177578  1012A      1.177822  
    1013A      1.180320  1014A      1.181632  1015A      1.183005  
    1016A      1.184191  1017A      1.185675  1018A      1.186994  
    1019A      1.188432  1020A      1.190397  1021A      1.191540  
    1022A      1.193068  1023A      1.194166  1024A      1.194973  
    1025A      1.196628  1026A      1.196659  1027A      1.197832  
    1028A      1.200023  1029A      1.201205  1030A      1.202075  
    1031A      1.205478  1032A      1.205642  1033A      1.207153  
    1034A      1.208715  1035A      1.209342  1036A      1.210716  
    1037A      1.212883  1038A      1.213427  1039A      1.214376  
    1040A      1.216227  1041A      1.216870  1042A      1.218113  
    1043A      1.219272  1044A      1.219638  1045A      1.220189  
    1046A      1.221225  1047A      1.222456  1048A      1.224013  
    1049A      1.224772  1050A      1.225502  1051A      1.226144  
    1052A      1.228384  1053A      1.229339  1054A      1.231375  
    1055A      1.232080  1056A      1.233520  1057A      1.234639  
    1058A      1.236155  1059A      1.236443  1060A      1.238024  
    1061A      1.241111  1062A      1.242157  1063A      1.242474  
    1064A      1.243381  1065A      1.245534  1066A      1.246372  
    1067A      1.247634  1068A      1.249169  1069A      1.250418  
    1070A      1.252310  1071A      1.253217  1072A      1.255355  
    1073A      1.256810  1074A      1.258429  1075A      1.258632  
    1076A      1.260986  1077A      1.262086  1078A      1.262964  
    1079A      1.264451  1080A      1.266045  1081A      1.266500  
    1082A      1.267159  1083A      1.267707  1084A      1.270539  
    1085A      1.273064  1086A      1.273861  1087A      1.275138  
    1088A      1.275376  1089A      1.277017  1090A      1.277591  
    1091A      1.278653  1092A      1.279885  1093A      1.280253  
    1094A      1.282990  1095A      1.283862  1096A      1.285658  
    1097A      1.286196  1098A      1.288075  1099A      1.289564  
    1100A      1.290336  1101A      1.292088  1102A      1.294014  
    1103A      1.295459  1104A      1.298209  1105A      1.299792  
    1106A      1.302546  1107A      1.304354  1108A      1.304667  
    1109A      1.305602  1110A      1.307468  1111A      1.307666  
    1112A      1.309820  1113A      1.310242  1114A      1.311510  
    1115A      1.312784  1116A      1.314810  1117A      1.316115  
    1118A      1.318946  1119A      1.319736  1120A      1.320109  
    1121A      1.322354  1122A      1.323077  1123A      1.324235  
    1124A      1.324769  1125A      1.326208  1126A      1.327303  
    1127A      1.328464  1128A      1.329785  1129A      1.331575  
    1130A      1.333545  1131A      1.334174  1132A      1.335429  
    1133A      1.336706  1134A      1.338303  1135A      1.339266  
    1136A      1.339855  1137A      1.341239  1138A      1.344101  
    1139A      1.344581  1140A      1.346169  1141A      1.348294  
    1142A      1.350509  1143A      1.350994  1144A      1.352401  
    1145A      1.353602  1146A      1.354866  1147A      1.357704  
    1148A      1.358554  1149A      1.359477  1150A      1.360128  
    1151A      1.361096  1152A      1.363275  1153A      1.364534  
    1154A      1.366666  1155A      1.366766  1156A      1.368997  
    1157A      1.369574  1158A      1.370525  1159A      1.372302  
    1160A      1.373530  1161A      1.374148  1162A      1.375019  
    1163A      1.375934  1164A      1.377039  1165A      1.378139  
    1166A      1.379637  1167A      1.380327  1168A      1.381576  
    1169A      1.382462  1170A      1.384128  1171A      1.384641  
    1172A      1.385997  1173A      1.387223  1174A      1.388618  
    1175A      1.389581  1176A      1.391226  1177A      1.391858  
    1178A      1.392783  1179A      1.394709  1180A      1.396036  
    1181A      1.398401  1182A      1.399460  1183A      1.400116  
    1184A      1.401516  1185A      1.403719  1186A      1.404548  
    1187A      1.405289  1188A      1.407552  1189A      1.408066  
    1190A      1.409066  1191A      1.409851  1192A      1.411869  
    1193A      1.412639  1194A      1.413837  1195A      1.414729  
    1196A      1.416887  1197A      1.419102  1198A      1.419414  
    1199A      1.422172  1200A      1.422670  1201A      1.423486  
    1202A      1.427549  1203A      1.430377  1204A      1.431763  
    1205A      1.432606  1206A      1.433148  1207A      1.435154  
    1208A      1.437689  1209A      1.438590  1210A      1.440877  
    1211A      1.442446  1212A      1.444414  1213A      1.446207  
    1214A      1.447652  1215A      1.448255  1216A      1.449051  
    1217A      1.451089  1218A      1.454200  1219A      1.454996  
    1220A      1.456523  1221A      1.458376  1222A      1.459421  
    1223A      1.462081  1224A      1.462291  1225A      1.463517  
    1226A      1.465088  1227A      1.466501  1228A      1.467537  
    1229A      1.469217  1230A      1.472649  1231A      1.473715  
    1232A      1.474176  1233A      1.475579  1234A      1.477367  
    1235A      1.478954  1236A      1.480830  1237A      1.482151  
    1238A      1.483656  1239A      1.485709  1240A      1.486407  
    1241A      1.489753  1242A      1.490834  1243A      1.491923  
    1244A      1.494779  1245A      1.497589  1246A      1.498613  
    1247A      1.500205  1248A      1.501502  1249A      1.502794  
    1250A      1.503922  1251A      1.504452  1252A      1.506214  
    1253A      1.506947  1254A      1.509221  1255A      1.512049  
    1256A      1.513606  1257A      1.515322  1258A      1.516590  
    1259A      1.518632  1260A      1.520411  1261A      1.522938  
    1262A      1.525524  1263A      1.525724  1264A      1.528226  
    1265A      1.529626  1266A      1.530520  1267A      1.531365  
    1268A      1.533736  1269A      1.534683  1270A      1.536293  
    1271A      1.538041  1272A      1.539002  1273A      1.539451  
    1274A      1.539942  1275A      1.543519  1276A      1.544183  
    1277A      1.546081  1278A      1.546628  1279A      1.547031  
    1280A      1.550230  1281A      1.551025  1282A      1.552033  
    1283A      1.553381  1284A      1.554871  1285A      1.555976  
    1286A      1.557039  1287A      1.559169  1288A      1.560448  
    1289A      1.561800  1290A      1.563012  1291A      1.565159  
    1292A      1.565292  1293A      1.565681  1294A      1.567202  
    1295A      1.568731  1296A      1.571777  1297A      1.573730  
    1298A      1.574759  1299A      1.577213  1300A      1.578091  
    1301A      1.580081  1302A      1.581297  1303A      1.582527  
    1304A      1.585037  1305A      1.586139  1306A      1.587695  
    1307A      1.589324  1308A      1.591466  1309A      1.592491  
    1310A      1.592923  1311A      1.593633  1312A      1.595389  
    1313A      1.596194  1314A      1.598534  1315A      1.599183  
    1316A      1.600861  1317A      1.602255  1318A      1.603195  
    1319A      1.603751  1320A      1.605408  1321A      1.607825  
    1322A      1.608740  1323A      1.610577  1324A      1.612272  
    1325A      1.613282  1326A      1.613914  1327A      1.614874  
    1328A      1.616697  1329A      1.618552  1330A      1.620081  
    1331A      1.620545  1332A      1.622434  1333A      1.623133  
    1334A      1.623334  1335A      1.625450  1336A      1.628444  
    1337A      1.628761  1338A      1.630459  1339A      1.630639  
    1340A      1.632602  1341A      1.634651  1342A      1.635427  
    1343A      1.637758  1344A      1.638802  1345A      1.639312  
    1346A      1.640660  1347A      1.641785  1348A      1.643347  
    1349A      1.643618  1350A      1.646025  1351A      1.646351  
    1352A      1.647896  1353A      1.649258  1354A      1.650953  
    1355A      1.653240  1356A      1.653850  1357A      1.655027  
    1358A      1.657064  1359A      1.658387  1360A      1.659507  
    1361A      1.660679  1362A      1.662142  1363A      1.663515  
    1364A      1.664502  1365A      1.664737  1366A      1.666428  
    1367A      1.668192  1368A      1.671669  1369A      1.672579  
    1370A      1.674355  1371A      1.674636  1372A      1.675720  
    1373A      1.677052  1374A      1.678234  1375A      1.678739  
    1376A      1.681498  1377A      1.681633  1378A      1.682520  
    1379A      1.684629  1380A      1.685228  1381A      1.686577  
    1382A      1.687721  1383A      1.689858  1384A      1.690817  
    1385A      1.693232  1386A      1.693614  1387A      1.694857  
    1388A      1.696751  1389A      1.697643  1390A      1.698911  
    1391A      1.699689  1392A      1.700676  1393A      1.702208  
    1394A      1.702609  1395A      1.704284  1396A      1.704900  
    1397A      1.705562  1398A      1.707045  1399A      1.708525  
    1400A      1.710743  1401A      1.710902  1402A      1.712565  
    1403A      1.714242  1404A      1.714939  1405A      1.715762  
    1406A      1.718328  1407A      1.718781  1408A      1.719562  
    1409A      1.722010  1410A      1.723279  1411A      1.723543  
    1412A      1.725739  1413A      1.726462  1414A      1.727551  
    1415A      1.728382  1416A      1.729087  1417A      1.730118  
    1418A      1.730850  1419A      1.731838  1420A      1.734108  
    1421A      1.735001  1422A      1.736236  1423A      1.737128  
    1424A      1.738015  1425A      1.739327  1426A      1.740805  
    1427A      1.742988  1428A      1.744312  1429A      1.745316  
    1430A      1.746549  1431A      1.747673  1432A      1.748333  
    1433A      1.749914  1434A      1.751045  1435A      1.752603  
    1436A      1.753549  1437A      1.754080  1438A      1.755737  
    1439A      1.757051  1440A      1.758528  1441A      1.759650  
    1442A      1.760364  1443A      1.761696  1444A      1.764215  
    1445A      1.766150  1446A      1.766851  1447A      1.769178  
    1448A      1.770456  1449A      1.773611  1450A      1.774478  
    1451A      1.776028  1452A      1.776257  1453A      1.777853  
    1454A      1.778519  1455A      1.779795  1456A      1.780923  
    1457A      1.782951  1458A      1.784828  1459A      1.785670  
    1460A      1.788287  1461A      1.788944  1462A      1.791170  
    1463A      1.791810  1464A      1.794535  1465A      1.796189  
    1466A      1.796947  1467A      1.799012  1468A      1.800921  
    1469A      1.801716  1470A      1.803424  1471A      1.804256  
    1472A      1.805746  1473A      1.806777  1474A      1.807364  
    1475A      1.810003  1476A      1.811759  1477A      1.812185  
    1478A      1.815701  1479A      1.816994  1480A      1.817165  
    1481A      1.818681  1482A      1.820216  1483A      1.820815  
    1484A      1.822636  1485A      1.823391  1486A      1.824035  
    1487A      1.825639  1488A      1.826747  1489A      1.828346  
    1490A      1.830175  1491A      1.832110  1492A      1.834454  
    1493A      1.835523  1494A      1.836965  1495A      1.837643  
    1496A      1.840835  1497A      1.841736  1498A      1.843299  
    1499A      1.845085  1500A      1.846527  1501A      1.848285  
    1502A      1.850836  1503A      1.852322  1504A      1.853821  
    1505A      1.854667  1506A      1.856804  1507A      1.858313  
    1508A      1.859084  1509A      1.860232  1510A      1.862418  
    1511A      1.864173  1512A      1.865994  1513A      1.866602  
    1514A      1.867922  1515A      1.868227  1516A      1.870281  
    1517A      1.870445  1518A      1.872520  1519A      1.874930  
    1520A      1.875178  1521A      1.877497  1522A      1.878996  
    1523A      1.881951  1524A      1.884295  1525A      1.884548  
    1526A      1.886205  1527A      1.887490  1528A      1.888893  
    1529A      1.891493  1530A      1.893388  1531A      1.894796  
    1532A      1.897161  1533A      1.898200  1534A      1.900317  
    1535A      1.901555  1536A      1.903320  1537A      1.904745  
    1538A      1.908422  1539A      1.909808  1540A      1.911033  
    1541A      1.911134  1542A      1.914204  1543A      1.915734  
    1544A      1.916695  1545A      1.918189  1546A      1.920896  
    1547A      1.921816  1548A      1.924095  1549A      1.925729  
    1550A      1.930196  1551A      1.930773  1552A      1.933070  
    1553A      1.934206  1554A      1.936825  1555A      1.939882  
    1556A      1.940893  1557A      1.943388  1558A      1.944547  
    1559A      1.946463  1560A      1.947068  1561A      1.950327  
    1562A      1.951644  1563A      1.952825  1564A      1.954027  
    1565A      1.954630  1566A      1.957809  1567A      1.959239  
    1568A      1.960417  1569A      1.963635  1570A      1.965267  
    1571A      1.966363  1572A      1.968320  1573A      1.968779  
    1574A      1.971245  1575A      1.972118  1576A      1.974923  
    1577A      1.976112  1578A      1.976851  1579A      1.978406  
    1580A      1.980440  1581A      1.982057  1582A      1.983832  
    1583A      1.988550  1584A      1.989124  1585A      1.990771  
    1586A      1.992266  1587A      1.993576  1588A      1.995216  
    1589A      1.996381  1590A      1.998099  1591A      1.999259  
    1592A      1.999906  1593A      2.001802  1594A      2.002864  
    1595A      2.007531  1596A      2.008866  1597A      2.009649  
    1598A      2.010654  1599A      2.013529  1600A      2.016314  
    1601A      2.017842  1602A      2.019444  1603A      2.020025  
    1604A      2.022702  1605A      2.023421  1606A      2.024232  
    1607A      2.025222  1608A      2.026672  1609A      2.027972  
    1610A      2.030959  1611A      2.032811  1612A      2.034047  
    1613A      2.035505  1614A      2.037231  1615A      2.038090  
    1616A      2.041695  1617A      2.045007  1618A      2.046246  
    1619A      2.046827  1620A      2.049433  1621A      2.051236  
    1622A      2.052794  1623A      2.053222  1624A      2.054310  
    1625A      2.055082  1626A      2.056466  1627A      2.059152  
    1628A      2.060008  1629A      2.061975  1630A      2.064248  
    1631A      2.065461  1632A      2.066506  1633A      2.067863  
    1634A      2.069545  1635A      2.070557  1636A      2.072982  
    1637A      2.074700  1638A      2.074765  1639A      2.076677  
    1640A      2.078894  1641A      2.079159  1642A      2.082522  
    1643A      2.083289  1644A      2.086338  1645A      2.086699  
    1646A      2.087564  1647A      2.092505  1648A      2.093538  
    1649A      2.095523  1650A      2.097132  1651A      2.098171  
    1652A      2.098575  1653A      2.102157  1654A      2.103392  
    1655A      2.104815  1656A      2.106257  1657A      2.107720  
    1658A      2.110093  1659A      2.111993  1660A      2.112448  
    1661A      2.113846  1662A      2.115501  1663A      2.116111  
    1664A      2.117934  1665A      2.118925  1666A      2.121653  
    1667A      2.122280  1668A      2.127124  1669A      2.128087  
    1670A      2.128837  1671A      2.130698  1672A      2.132520  
    1673A      2.136071  1674A      2.139347  1675A      2.139547  
    1676A      2.140404  1677A      2.141966  1678A      2.145388  
    1679A      2.147044  1680A      2.147868  1681A      2.152262  
    1682A      2.154288  1683A      2.156984  1684A      2.158831  
    1685A      2.159833  1686A      2.161878  1687A      2.163676  
    1688A      2.166629  1689A      2.168891  1690A      2.172666  
    1691A      2.173584  1692A      2.175836  1693A      2.177333  
    1694A      2.181883  1695A      2.182802  1696A      2.183922  
    1697A      2.186494  1698A      2.187926  1699A      2.191276  
    1700A      2.192999  1701A      2.196333  1702A      2.199313  
    1703A      2.200879  1704A      2.203360  1705A      2.203799  
    1706A      2.205438  1707A      2.208139  1708A      2.210040  
    1709A      2.211450  1710A      2.214838  1711A      2.215409  
    1712A      2.218292  1713A      2.219545  1714A      2.222314  
    1715A      2.224775  1716A      2.226036  1717A      2.226712  
    1718A      2.229972  1719A      2.230976  1720A      2.233187  
    1721A      2.236103  1722A      2.238685  1723A      2.240763  
    1724A      2.242700  1725A      2.245176  1726A      2.245348  
    1727A      2.247934  1728A      2.249332  1729A      2.251472  
    1730A      2.254033  1731A      2.255774  1732A      2.257814  
    1733A      2.258744  1734A      2.260325  1735A      2.262070  
    1736A      2.264208  1737A      2.264813  1738A      2.265532  
    1739A      2.269233  1740A      2.270438  1741A      2.272513  
    1742A      2.273236  1743A      2.275442  1744A      2.276397  
    1745A      2.278766  1746A      2.281738  1747A      2.282336  
    1748A      2.287653  1749A      2.288823  1750A      2.291888  
    1751A      2.292550  1752A      2.295348  1753A      2.296519  
    1754A      2.299886  1755A      2.301247  1756A      2.301886  
    1757A      2.303628  1758A      2.306731  1759A      2.308090  
    1760A      2.308889  1761A      2.311607  1762A      2.315424  
    1763A      2.318579  1764A      2.319382  1765A      2.320784  
    1766A      2.323204  1767A      2.325341  1768A      2.326190  
    1769A      2.328502  1770A      2.330841  1771A      2.333781  
    1772A      2.336104  1773A      2.338314  1774A      2.339798  
    1775A      2.340421  1776A      2.342044  1777A      2.345249  
    1778A      2.347948  1779A      2.348532  1780A      2.350109  
    1781A      2.351392  1782A      2.353265  1783A      2.354010  
    1784A      2.356257  1785A      2.357540  1786A      2.358377  
    1787A      2.360116  1788A      2.362215  1789A      2.363464  
    1790A      2.365347  1791A      2.367189  1792A      2.368668  
    1793A      2.372079  1794A      2.372686  1795A      2.373914  
    1796A      2.375992  1797A      2.376793  1798A      2.378711  
    1799A      2.379514  1800A      2.383034  1801A      2.386349  
    1802A      2.388851  1803A      2.389143  1804A      2.391047  
    1805A      2.393282  1806A      2.395794  1807A      2.397155  
    1808A      2.399433  1809A      2.402362  1810A      2.404590  
    1811A      2.405582  1812A      2.408070  1813A      2.409144  
    1814A      2.411491  1815A      2.413099  1816A      2.414131  
    1817A      2.414696  1818A      2.416012  1819A      2.417103  
    1820A      2.418540  1821A      2.420892  1822A      2.422140  
    1823A      2.424443  1824A      2.425981  1825A      2.427711  
    1826A      2.428331  1827A      2.431891  1828A      2.435234  
    1829A      2.437138  1830A      2.438764  1831A      2.440030  
    1832A      2.443487  1833A      2.444103  1834A      2.445473  
    1835A      2.450211  1836A      2.450391  1837A      2.451838  
    1838A      2.454782  1839A      2.456427  1840A      2.456945  
    1841A      2.457805  1842A      2.461256  1843A      2.462519  
    1844A      2.466812  1845A      2.467133  1846A      2.471247  
    1847A      2.472157  1848A      2.474257  1849A      2.476476  
    1850A      2.479578  1851A      2.481309  1852A      2.483591  
    1853A      2.484268  1854A      2.487783  1855A      2.488446  
    1856A      2.491097  1857A      2.492847  1858A      2.495296  
    1859A      2.496351  1860A      2.500575  1861A      2.505205  
    1862A      2.505813  1863A      2.510279  1864A      2.510870  
    1865A      2.517380  1866A      2.517971  1867A      2.520783  
    1868A      2.523060  1869A      2.524390  1870A      2.530624  
    1871A      2.532605  1872A      2.533671  1873A      2.536802  
    1874A      2.541033  1875A      2.545298  1876A      2.548729  
    1877A      2.550206  1878A      2.553240  1879A      2.554465  
    1880A      2.556244  1881A      2.559021  1882A      2.562622  
    1883A      2.563821  1884A      2.565580  1885A      2.568119  
    1886A      2.569853  1887A      2.571725  1888A      2.573040  
    1889A      2.576859  1890A      2.579926  1891A      2.583539  
    1892A      2.585504  1893A      2.588222  1894A      2.589520  
    1895A      2.591733  1896A      2.593813  1897A      2.595572  
    1898A      2.597374  1899A      2.600034  1900A      2.604364  
    1901A      2.608775  1902A      2.611278  1903A      2.612983  
    1904A      2.614848  1905A      2.616767  1906A      2.620501  
    1907A      2.622588  1908A      2.626144  1909A      2.628228  
    1910A      2.630510  1911A      2.632095  1912A      2.633728  
    1913A      2.636301  1914A      2.644063  1915A      2.645169  
    1916A      2.648847  1917A      2.650883  1918A      2.651207  
    1919A      2.652080  1920A      2.658843  1921A      2.661279  
    1922A      2.667794  1923A      2.670429  1924A      2.671746  
    1925A      2.677390  1926A      2.679682  1927A      2.682512  
    1928A      2.685086  1929A      2.687193  1930A      2.689480  
    1931A      2.690233  1932A      2.692710  1933A      2.699989  
    1934A      2.701946  1935A      2.704567  1936A      2.706800  
    1937A      2.709356  1938A      2.712186  1939A      2.713396  
    1940A      2.715421  1941A      2.717558  1942A      2.721396  
    1943A      2.726318  1944A      2.727997  1945A      2.732687  
    1946A      2.733617  1947A      2.735382  1948A      2.738091  
    1949A      2.741338  1950A      2.742166  1951A      2.746020  
    1952A      2.748782  1953A      2.750928  1954A      2.752369  
    1955A      2.753375  1956A      2.756747  1957A      2.760112  
    1958A      2.762527  1959A      2.765248  1960A      2.768241  
    1961A      2.775476  1962A      2.777210  1963A      2.780715  
    1964A      2.785904  1965A      2.787170  1966A      2.789764  
    1967A      2.798338  1968A      2.801342  1969A      2.802338  
    1970A      2.805035  1971A      2.806928  1972A      2.808482  
    1973A      2.810002  1974A      2.814590  1975A      2.815104  
    1976A      2.817364  1977A      2.818131  1978A      2.821822  
    1979A      2.823106  1980A      2.829174  1981A      2.830951  
    1982A      2.833635  1983A      2.835738  1984A      2.836265  
    1985A      2.837436  1986A      2.841123  1987A      2.843387  
    1988A      2.846309  1989A      2.847946  1990A      2.850871  
    1991A      2.852773  1992A      2.855708  1993A      2.859191  
    1994A      2.863604  1995A      2.864894  1996A      2.868000  
    1997A      2.868923  1998A      2.870753  1999A      2.872789  
    2000A      2.878855  2001A      2.880404  2002A      2.886641  
    2003A      2.888183  2004A      2.889372  2005A      2.894805  
    2006A      2.897625  2007A      2.901175  2008A      2.903705  
    2009A      2.904686  2010A      2.907341  2011A      2.909679  
    2012A      2.911325  2013A      2.914810  2014A      2.918393  
    2015A      2.922475  2016A      2.924509  2017A      2.926912  
    2018A      2.927606  2019A      2.931053  2020A      2.931757  
    2021A      2.935101  2022A      2.937592  2023A      2.939789  
    2024A      2.946970  2025A      2.947826  2026A      2.949331  
    2027A      2.951133  2028A      2.951863  2029A      2.953374  
    2030A      2.957714  2031A      2.960170  2032A      2.969448  
    2033A      2.972453  2034A      2.977044  2035A      2.981045  
    2036A      2.981971  2037A      2.987611  2038A      2.993053  
    2039A      2.993204  2040A      2.996080  2041A      3.001854  
    2042A      3.008291  2043A      3.013763  2044A      3.017704  
    2045A      3.029215  2046A      3.034405  2047A      3.038679  
    2048A      3.040915  2049A      3.048396  2050A      3.053267  
    2051A      3.055803  2052A      3.060965  2053A      3.062830  
    2054A      3.067879  2055A      3.071238  2056A      3.074373  
    2057A      3.075538  2058A      3.080549  2059A      3.084439  
    2060A      3.086028  2061A      3.088230  2062A      3.094050  
    2063A      3.098394  2064A      3.098626  2065A      3.101476  
    2066A      3.102662  2067A      3.105231  2068A      3.110298  
    2069A      3.115327  2070A      3.119106  2071A      3.121122  
    2072A      3.126274  2073A      3.139737  2074A      3.144643  
    2075A      3.149768  2076A      3.154072  2077A      3.159378  
    2078A      3.164669  2079A      3.176017  2080A      3.180092  
    2081A      3.185090  2082A      3.186298  2083A      3.191859  
    2084A      3.201073  2085A      3.201843  2086A      3.209048  
    2087A      3.218601  2088A      3.222100  2089A      3.231258  
    2090A      3.238058  2091A      3.242725  2092A      3.245676  
    2093A      3.248515  2094A      3.253228  2095A      3.259079  
    2096A      3.274524  2097A      3.277454  2098A      3.282569  
    2099A      3.288151  2100A      3.291070  2101A      3.295413  
    2102A      3.298011  2103A      3.304917  2104A      3.309197  
    2105A      3.310939  2106A      3.314013  2107A      3.314917  
    2108A      3.323380  2109A      3.328349  2110A      3.333200  
    2111A      3.335836  2112A      3.339321  2113A      3.341034  
    2114A      3.348264  2115A      3.352700  2116A      3.360220  
    2117A      3.367525  2118A      3.370008  2119A      3.372204  
    2120A      3.374476  2121A      3.377276  2122A      3.381954  
    2123A      3.387870  2124A      3.392374  2125A      3.394395  
    2126A      3.400448  2127A      3.404695  2128A      3.407566  
    2129A      3.408687  2130A      3.410882  2131A      3.413726  
    2132A      3.414096  2133A      3.419147  2134A      3.424901  
    2135A      3.435133  2136A      3.437098  2137A      3.439688  
    2138A      3.441104  2139A      3.443430  2140A      3.447287  
    2141A      3.449969  2142A      3.452459  2143A      3.462023  
    2144A      3.465215  2145A      3.468228  2146A      3.468627  
    2147A      3.469448  2148A      3.473705  2149A      3.476582  
    2150A      3.481082  2151A      3.485226  2152A      3.488824  
    2153A      3.489904  2154A      3.493685  2155A      3.495770  
    2156A      3.499698  2157A      3.502324  2158A      3.505771  
    2159A      3.517127  2160A      3.519363  2161A      3.519970  
    2162A      3.525852  2163A      3.530625  2164A      3.532208  
    2165A      3.538537  2166A      3.544138  2167A      3.546858  
    2168A      3.548784  2169A      3.553903  2170A      3.556474  
    2171A      3.557355  2172A      3.562603  2173A      3.565942  
    2174A      3.569572  2175A      3.571349  2176A      3.575945  
    2177A      3.583926  2178A      3.590905  2179A      3.591668  
    2180A      3.593996  2181A      3.596270  2182A      3.598339  
    2183A      3.599344  2184A      3.602670  2185A      3.610724  
    2186A      3.613712  2187A      3.617127  2188A      3.618901  
    2189A      3.621255  2190A      3.625653  2191A      3.628691  
    2192A      3.631298  2193A      3.633159  2194A      3.638223  
    2195A      3.641366  2196A      3.643752  2197A      3.649328  
    2198A      3.653806  2199A      3.662960  2200A      3.666370  
    2201A      3.670524  2202A      3.676212  2203A      3.676698  
    2204A      3.681209  2205A      3.689055  2206A      3.689351  
    2207A      3.693692  2208A      3.695496  2209A      3.703547  
    2210A      3.706780  2211A      3.708636  2212A      3.710753  
    2213A      3.712291  2214A      3.714745  2215A      3.717123  
    2216A      3.721553  2217A      3.728077  2218A      3.731826  
    2219A      3.735631  2220A      3.737117  2221A      3.742700  
    2222A      3.746071  2223A      3.747907  2224A      3.748523  
    2225A      3.750358  2226A      3.752921  2227A      3.756241  
    2228A      3.760452  2229A      3.765024  2230A      3.768371  
    2231A      3.770259  2232A      3.779009  2233A      3.783302  
    2234A      3.785295  2235A      3.787030  2236A      3.788913  
    2237A      3.791066  2238A      3.794171  2239A      3.795103  
    2240A      3.795882  2241A      3.798422  2242A      3.801503  
    2243A      3.802832  2244A      3.806624  2245A      3.809659  
    2246A      3.812863  2247A      3.814165  2248A      3.817309  
    2249A      3.824388  2250A      3.827631  2251A      3.828886  
    2252A      3.832422  2253A      3.834463  2254A      3.836692  
    2255A      3.843250  2256A      3.844826  2257A      3.846113  
    2258A      3.850531  2259A      3.853166  2260A      3.854707  
    2261A      3.860405  2262A      3.862651  2263A      3.865171  
    2264A      3.870248  2265A      3.874131  2266A      3.878862  
    2267A      3.880626  2268A      3.882060  2269A      3.885944  
    2270A      3.887982  2271A      3.891605  2272A      3.893521  
    2273A      3.899072  2274A      3.901525  2275A      3.902787  
    2276A      3.905769  2277A      3.907456  2278A      3.910523  
    2279A      3.915306  2280A      3.916215  2281A      3.923796  
    2282A      3.928622  2283A      3.929037  2284A      3.930924  
    2285A      3.932740  2286A      3.936154  2287A      3.939410  
    2288A      3.944770  2289A      3.947379  2290A      3.952197  
    2291A      3.953573  2292A      3.955716  2293A      3.960604  
    2294A      3.963513  2295A      3.968310  2296A      3.973016  
    2297A      3.977048  2298A      3.981276  2299A      3.984210  
    2300A      3.987534  2301A      3.990635  2302A      3.996812  
    2303A      3.999030  2304A      3.999940  2305A      4.003915  
    2306A      4.008570  2307A      4.010873  2308A      4.012431  
    2309A      4.014662  2310A      4.016264  2311A      4.021800  
    2312A      4.022776  2313A      4.027632  2314A      4.030189  
    2315A      4.035131  2316A      4.036039  2317A      4.042245  
    2318A      4.044202  2319A      4.046743  2320A      4.052401  
    2321A      4.061807  2322A      4.064693  2323A      4.072561  
    2324A      4.073857  2325A      4.075591  2326A      4.076733  
    2327A      4.080823  2328A      4.086849  2329A      4.089079  
    2330A      4.095919  2331A      4.099376  2332A      4.101782  
    2333A      4.106123  2334A      4.110650  2335A      4.114241  
    2336A      4.117137  2337A      4.120436  2338A      4.126309  
    2339A      4.130174  2340A      4.131827  2341A      4.133091  
    2342A      4.137942  2343A      4.140111  2344A      4.146070  
    2345A      4.149829  2346A      4.151381  2347A      4.151976  
    2348A      4.155714  2349A      4.157969  2350A      4.161778  
    2351A      4.166696  2352A      4.171531  2353A      4.171782  
    2354A      4.176525  2355A      4.181283  2356A      4.182079  
    2357A      4.185740  2358A      4.191064  2359A      4.192539  
    2360A      4.195067  2361A      4.197430  2362A      4.199996  
    2363A      4.203133  2364A      4.207194  2365A      4.208535  
    2366A      4.212285  2367A      4.213194  2368A      4.217649  
    2369A      4.219410  2370A      4.220738  2371A      4.227733  
    2372A      4.230485  2373A      4.232634  2374A      4.234740  
    2375A      4.237726  2376A      4.245119  2377A      4.245475  
    2378A      4.247117  2379A      4.251619  2380A      4.255070  
    2381A      4.255951  2382A      4.259865  2383A      4.263847  
    2384A      4.265348  2385A      4.268221  2386A      4.271479  
    2387A      4.273468  2388A      4.275326  2389A      4.281635  
    2390A      4.283941  2391A      4.287540  2392A      4.291293  
    2393A      4.293098  2394A      4.294269  2395A      4.297515  
    2396A      4.298253  2397A      4.301606  2398A      4.303200  
    2399A      4.308057  2400A      4.309665  2401A      4.312282  
    2402A      4.313754  2403A      4.315841  2404A      4.318670  
    2405A      4.320241  2406A      4.322877  2407A      4.324693  
    2408A      4.327746  2409A      4.329466  2410A      4.330096  
    2411A      4.331797  2412A      4.333201  2413A      4.335922  
    2414A      4.336581  2415A      4.339392  2416A      4.340174  
    2417A      4.343169  2418A      4.345477  2419A      4.348277  
    2420A      4.352055  2421A      4.352928  2422A      4.354803  
    2423A      4.357049  2424A      4.358822  2425A      4.362119  
    2426A      4.362631  2427A      4.364254  2428A      4.367227  
    2429A      4.368986  2430A      4.372306  2431A      4.374611  
    2432A      4.377187  2433A      4.379976  2434A      4.380840  
    2435A      4.383731  2436A      4.385151  2437A      4.386329  
    2438A      4.388235  2439A      4.391896  2440A      4.395725  
    2441A      4.395862  2442A      4.404720  2443A      4.406367  
    2444A      4.408525  2445A      4.409689  2446A      4.413238  
    2447A      4.415673  2448A      4.418684  2449A      4.421123  
    2450A      4.422221  2451A      4.424024  2452A      4.426234  
    2453A      4.431257  2454A      4.432484  2455A      4.435420  
    2456A      4.439232  2457A      4.442351  2458A      4.443825  
    2459A      4.445460  2460A      4.449167  2461A      4.451032  
    2462A      4.451812  2463A      4.455315  2464A      4.457377  
    2465A      4.459976  2466A      4.463462  2467A      4.465681  
    2468A      4.467724  2469A      4.469745  2470A      4.474218  
    2471A      4.476251  2472A      4.477467  2473A      4.480329  
    2474A      4.482000  2475A      4.484653  2476A      4.486853  
    2477A      4.488596  2478A      4.490185  2479A      4.492929  
    2480A      4.493576  2481A      4.494846  2482A      4.499293  
    2483A      4.500802  2484A      4.502776  2485A      4.505847  
    2486A      4.506345  2487A      4.509889  2488A      4.511682  
    2489A      4.515863  2490A      4.516958  2491A      4.519569  
    2492A      4.524633  2493A      4.525413  2494A      4.529530  
    2495A      4.530645  2496A      4.531676  2497A      4.533679  
    2498A      4.535702  2499A      4.537674  2500A      4.539997  
    2501A      4.541948  2502A      4.542307  2503A      4.544978  
    2504A      4.546526  2505A      4.549156  2506A      4.550922  
    2507A      4.552837  2508A      4.555022  2509A      4.556267  
    2510A      4.558251  2511A      4.560482  2512A      4.563993  
    2513A      4.567262  2514A      4.570515  2515A      4.577096  
    2516A      4.578985  2517A      4.583671  2518A      4.586234  
    2519A      4.587830  2520A      4.595148  2521A      4.596791  
    2522A      4.599646  2523A      4.601207  2524A      4.602200  
    2525A      4.603594  2526A      4.607665  2527A      4.610467  
    2528A      4.611980  2529A      4.613138  2530A      4.614462  
    2531A      4.616277  2532A      4.618821  2533A      4.620406  
    2534A      4.621967  2535A      4.622836  2536A      4.626821  
    2537A      4.627108  2538A      4.630325  2539A      4.635880  
    2540A      4.636100  2541A      4.641070  2542A      4.643913  
    2543A      4.645413  2544A      4.651496  2545A      4.655030  
    2546A      4.657441  2547A      4.659715  2548A      4.661810  
    2549A      4.664850  2550A      4.668515  2551A      4.671164  
    2552A      4.673235  2553A      4.677530  2554A      4.679430  
    2555A      4.681116  2556A      4.685872  2557A      4.688657  
    2558A      4.691582  2559A      4.691875  2560A      4.698252  
    2561A      4.700827  2562A      4.703081  2563A      4.705780  
    2564A      4.707238  2565A      4.711130  2566A      4.711882  
    2567A      4.716390  2568A      4.721999  2569A      4.722628  
    2570A      4.725221  2571A      4.730713  2572A      4.732209  
    2573A      4.737167  2574A      4.738320  2575A      4.740282  
    2576A      4.742263  2577A      4.746617  2578A      4.747243  
    2579A      4.748329  2580A      4.749642  2581A      4.753357  
    2582A      4.754760  2583A      4.759897  2584A      4.762927  
    2585A      4.765748  2586A      4.767283  2587A      4.769536  
    2588A      4.774481  2589A      4.776339  2590A      4.780003  
    2591A      4.783510  2592A      4.785618  2593A      4.791807  
    2594A      4.796438  2595A      4.798828  2596A      4.800394  
    2597A      4.801749  2598A      4.807015  2599A      4.810892  
    2600A      4.811199  2601A      4.815108  2602A      4.819012  
    2603A      4.823874  2604A      4.826171  2605A      4.827258  
    2606A      4.831283  2607A      4.834467  2608A      4.837841  
    2609A      4.841554  2610A      4.847581  2611A      4.848202  
    2612A      4.851298  2613A      4.855184  2614A      4.858214  
    2615A      4.859247  2616A      4.860458  2617A      4.862906  
    2618A      4.866141  2619A      4.868142  2620A      4.871059  
    2621A      4.872048  2622A      4.873729  2623A      4.875626  
    2624A      4.879996  2625A      4.880426  2626A      4.881995  
    2627A      4.885126  2628A      4.887946  2629A      4.889021  
    2630A      4.892826  2631A      4.895924  2632A      4.898879  
    2633A      4.900356  2634A      4.901402  2635A      4.907837  
    2636A      4.910603  2637A      4.912162  2638A      4.914506  
    2639A      4.917557  2640A      4.919785  2641A      4.922624  
    2642A      4.926977  2643A      4.933447  2644A      4.934432  
    2645A      4.935856  2646A      4.937887  2647A      4.939155  
    2648A      4.943217  2649A      4.946549  2650A      4.947445  
    2651A      4.950267  2652A      4.951230  2653A      4.952152  
    2654A      4.953050  2655A      4.959114  2656A      4.962787  
    2657A      4.963264  2658A      4.968372  2659A      4.971107  
    2660A      4.972821  2661A      4.974042  2662A      4.975490  
    2663A      4.980726  2664A      4.982332  2665A      4.986657  
    2666A      4.988887  2667A      4.991932  2668A      4.994301  
    2669A      4.994457  2670A      4.996468  2671A      4.999322  
    2672A      5.001704  2673A      5.008448  2674A      5.011012  
    2675A      5.012848  2676A      5.013969  2677A      5.016177  
    2678A      5.017501  2679A      5.019886  2680A      5.022912  
    2681A      5.023720  2682A      5.026359  2683A      5.029034  
    2684A      5.033033  2685A      5.033547  2686A      5.034428  
    2687A      5.036478  2688A      5.040472  2689A      5.042288  
    2690A      5.044053  2691A      5.044661  2692A      5.046143  
    2693A      5.048377  2694A      5.049550  2695A      5.051757  
    2696A      5.054476  2697A      5.055483  2698A      5.059391  
    2699A      5.060300  2700A      5.061621  2701A      5.064329  
    2702A      5.064685  2703A      5.065772  2704A      5.067254  
    2705A      5.070530  2706A      5.072559  2707A      5.072868  
    2708A      5.074238  2709A      5.076765  2710A      5.078493  
    2711A      5.080885  2712A      5.083140  2713A      5.084246  
    2714A      5.085888  2715A      5.089040  2716A      5.091694  
    2717A      5.092837  2718A      5.093333  2719A      5.096755  
    2720A      5.097198  2721A      5.100266  2722A      5.100361  
    2723A      5.102970  2724A      5.105237  2725A      5.105372  
    2726A      5.107161  2727A      5.108940  2728A      5.110053  
    2729A      5.111733  2730A      5.113221  2731A      5.113574  
    2732A      5.115683  2733A      5.116954  2734A      5.118477  
    2735A      5.122099  2736A      5.122897  2737A      5.126609  
    2738A      5.128119  2739A      5.128605  2740A      5.130330  
    2741A      5.130795  2742A      5.133902  2743A      5.135882  
    2744A      5.138057  2745A      5.139046  2746A      5.141506  
    2747A      5.142977  2748A      5.144565  2749A      5.147160  
    2750A      5.147978  2751A      5.151040  2752A      5.151699  
    2753A      5.153825  2754A      5.156281  2755A      5.158081  
    2756A      5.159626  2757A      5.162542  2758A      5.164159  
    2759A      5.164629  2760A      5.166651  2761A      5.168161  
    2762A      5.169266  2763A      5.171660  2764A      5.174458  
    2765A      5.177168  2766A      5.179853  2767A      5.180997  
    2768A      5.182138  2769A      5.182411  2770A      5.185229  
    2771A      5.187058  2772A      5.190410  2773A      5.192256  
    2774A      5.195607  2775A      5.197736  2776A      5.199026  
    2777A      5.200834  2778A      5.201822  2779A      5.204307  
    2780A      5.204928  2781A      5.205585  2782A      5.206342  
    2783A      5.208144  2784A      5.212195  2785A      5.214735  
    2786A      5.219602  2787A      5.220056  2788A      5.223207  
    2789A      5.229981  2790A      5.233137  2791A      5.235492  
    2792A      5.236368  2793A      5.242908  2794A      5.248502  
    2795A      5.253041  2796A      5.254429  2797A      5.259877  
    2798A      5.260261  2799A      5.263578  2800A      5.267154  
    2801A      5.269403  2802A      5.271037  2803A      5.278152  
    2804A      5.278842  2805A      5.282306  2806A      5.289481  
    2807A      5.290773  2808A      5.297151  2809A      5.298928  
    2810A      5.299980  2811A      5.303402  2812A      5.305085  
    2813A      5.308912  2814A      5.311749  2815A      5.314031  
    2816A      5.314996  2817A      5.317864  2818A      5.319822  
    2819A      5.321291  2820A      5.324961  2821A      5.328218  
    2822A      5.330223  2823A      5.330998  2824A      5.332527  
    2825A      5.334420  2826A      5.336267  2827A      5.338449  
    2828A      5.339301  2829A      5.343871  2830A      5.345314  
    2831A      5.345546  2832A      5.346890  2833A      5.349839  
    2834A      5.350503  2835A      5.352399  2836A      5.354731  
    2837A      5.356329  2838A      5.357107  2839A      5.359921  
    2840A      5.363367  2841A      5.368299  2842A      5.369710  
    2843A      5.370060  2844A      5.371332  2845A      5.374378  
    2846A      5.374616  2847A      5.378509  2848A      5.381463  
    2849A      5.382359  2850A      5.385373  2851A      5.389480  
    2852A      5.391472  2853A      5.393931  2854A      5.396479  
    2855A      5.397542  2856A      5.398312  2857A      5.401787  
    2858A      5.403071  2859A      5.404916  2860A      5.409044  
    2861A      5.411953  2862A      5.413905  2863A      5.419744  
    2864A      5.420862  2865A      5.423931  2866A      5.427186  
    2867A      5.430669  2868A      5.431079  2869A      5.434267  
    2870A      5.436326  2871A      5.438464  2872A      5.441416  
    2873A      5.441958  2874A      5.444904  2875A      5.447897  
    2876A      5.449772  2877A      5.453055  2878A      5.455799  
    2879A      5.458295  2880A      5.459496  2881A      5.461146  
    2882A      5.465824  2883A      5.468174  2884A      5.470461  
    2885A      5.472156  2886A      5.472772  2887A      5.475146  
    2888A      5.476513  2889A      5.477808  2890A      5.484089  
    2891A      5.490240  2892A      5.491851  2893A      5.493405  
    2894A      5.499942  2895A      5.503212  2896A      5.503951  
    2897A      5.507353  2898A      5.508287  2899A      5.517083  
    2900A      5.518357  2901A      5.519522  2902A      5.524128  
    2903A      5.528019  2904A      5.531405  2905A      5.533198  
    2906A      5.538125  2907A      5.539789  2908A      5.543361  
    2909A      5.546392  2910A      5.552360  2911A      5.553361  
    2912A      5.558750  2913A      5.560296  2914A      5.568765  
    2915A      5.570302  2916A      5.576922  2917A      5.578000  
    2918A      5.581961  2919A      5.585556  2920A      5.589706  
    2921A      5.590656  2922A      5.594999  2923A      5.595961  
    2924A      5.596373  2925A      5.599076  2926A      5.601328  
    2927A      5.602881  2928A      5.603624  2929A      5.608842  
    2930A      5.610621  2931A      5.613542  2932A      5.614560  
    2933A      5.618046  2934A      5.619379  2935A      5.622096  
    2936A      5.628922  2937A      5.631060  2938A      5.634404  
    2939A      5.634982  2940A      5.642389  2941A      5.646698  
    2942A      5.652758  2943A      5.656534  2944A      5.659094  
    2945A      5.663723  2946A      5.669407  2947A      5.669718  
    2948A      5.674333  2949A      5.677408  2950A      5.680093  
    2951A      5.683448  2952A      5.687802  2953A      5.689106  
    2954A      5.691747  2955A      5.694457  2956A      5.697369  
    2957A      5.701795  2958A      5.704451  2959A      5.707243  
    2960A      5.710351  2961A      5.712768  2962A      5.715600  
    2963A      5.719072  2964A      5.721229  2965A      5.721373  
    2966A      5.722794  2967A      5.725564  2968A      5.727880  
    2969A      5.731240  2970A      5.735010  2971A      5.738479  
    2972A      5.739986  2973A      5.746044  2974A      5.747805  
    2975A      5.749209  2976A      5.751245  2977A      5.752370  
    2978A      5.753269  2979A      5.755884  2980A      5.756809  
    2981A      5.759694  2982A      5.762906  2983A      5.765882  
    2984A      5.768861  2985A      5.772200  2986A      5.775597  
    2987A      5.778429  2988A      5.779164  2989A      5.779485  
    2990A      5.785450  2991A      5.785965  2992A      5.789853  
    2993A      5.796152  2994A      5.799403  2995A      5.800143  
    2996A      5.804291  2997A      5.808075  2998A      5.810877  
    2999A      5.811995  3000A      5.816815  3001A      5.819099  
    3002A      5.819595  3003A      5.827405  3004A      5.829550  
    3005A      5.831294  3006A      5.833224  3007A      5.837708  
    3008A      5.839944  3009A      5.843966  3010A      5.849080  
    3011A      5.851021  3012A      5.853980  3013A      5.855806  
    3014A      5.856769  3015A      5.862269  3016A      5.866510  
    3017A      5.868236  3018A      5.870790  3019A      5.872863  
    3020A      5.879634  3021A      5.881611  3022A      5.882595  
    3023A      5.889331  3024A      5.892346  3025A      5.893424  
    3026A      5.896709  3027A      5.900438  3028A      5.904618  
    3029A      5.906720  3030A      5.910358  3031A      5.914419  
    3032A      5.918250  3033A      5.919863  3034A      5.921411  
    3035A      5.923428  3036A      5.924154  3037A      5.926471  
    3038A      5.930101  3039A      5.933748  3040A      5.936031  
    3041A      5.942776  3042A      5.945710  3043A      5.948259  
    3044A      5.950222  3045A      5.954282  3046A      5.956392  
    3047A      5.959350  3048A      5.963467  3049A      5.967447  
    3050A      5.973561  3051A      5.975835  3052A      5.978056  
    3053A      5.982094  3054A      5.985439  3055A      5.990370  
    3056A      5.994226  3057A      5.997376  3058A      6.000122  
    3059A      6.005382  3060A      6.006518  3061A      6.008064  
    3062A      6.010235  3063A      6.011355  3064A      6.016020  
    3065A      6.019660  3066A      6.021729  3067A      6.024942  
    3068A      6.028403  3069A      6.030990  3070A      6.033530  
    3071A      6.035410  3072A      6.039174  3073A      6.040693  
    3074A      6.042871  3075A      6.047437  3076A      6.049714  
    3077A      6.051804  3078A      6.053633  3079A      6.055456  
    3080A      6.059413  3081A      6.062778  3082A      6.066888  
    3083A      6.070397  3084A      6.072089  3085A      6.072918  
    3086A      6.077797  3087A      6.079393  3088A      6.082988  
    3089A      6.088087  3090A      6.090193  3091A      6.091834  
    3092A      6.094871  3093A      6.096930  3094A      6.100121  
    3095A      6.103884  3096A      6.104493  3097A      6.107180  
    3098A      6.110235  3099A      6.113155  3100A      6.114160  
    3101A      6.121015  3102A      6.123618  3103A      6.125049  
    3104A      6.128885  3105A      6.131441  3106A      6.132261  
    3107A      6.133419  3108A      6.136955  3109A      6.144200  
    3110A      6.146431  3111A      6.151344  3112A      6.155259  
    3113A      6.158317  3114A      6.164311  3115A      6.171811  
    3116A      6.175785  3117A      6.181351  3118A      6.187416  
    3119A      6.190389  3120A      6.196711  3121A      6.208378  
    3122A      6.209179  3123A      6.212592  3124A      6.215131  
    3125A      6.217832  3126A      6.221990  3127A      6.226985  
    3128A      6.236036  3129A      6.236426  3130A      6.241325  
    3131A      6.243732  3132A      6.248577  3133A      6.249658  
    3134A      6.255975  3135A      6.266512  3136A      6.267363  
    3137A      6.277507  3138A      6.281674  3139A      6.284861  
    3140A      6.291608  3141A      6.291918  3142A      6.296840  
    3143A      6.308359  3144A      6.316790  3145A      6.328694  
    3146A      6.332691  3147A      6.337683  3148A      6.343070  
    3149A      6.347028  3150A      6.350065  3151A      6.358832  
    3152A      6.372036  3153A      6.377385  3154A      6.381462  
    3155A      6.387916  3156A      6.409578  3157A      6.411901  
    3158A      6.415578  3159A      6.421782  3160A      6.424667  
    3161A      6.434176  3162A      6.441319  3163A      6.448539  
    3164A      6.456169  3165A      6.463914  3166A      6.474169  
    3167A      6.487560  3168A      6.492586  3169A      6.505614  
    3170A      6.531811  3171A      6.539697  3172A      6.546313  
    3173A      6.550303  3174A      6.554753  3175A      6.558489  
    3176A      6.570371  3177A      6.577571  3178A      6.585010  
    3179A      6.588503  3180A      6.589720  3181A      6.592525  
    3182A      6.596210  3183A      6.599322  3184A      6.603178  
    3185A      6.604341  3186A      6.612760  3187A      6.614756  
    3188A      6.619186  3189A      6.620438  3190A      6.626546  
    3191A      6.654756  3192A      6.661818  3193A      6.663427  
    3194A      6.690629  3195A      6.705658  3196A      6.710531  
    3197A      6.713176  3198A      6.720798  3199A      6.722978  
    3200A      6.734786  3201A      6.743820  3202A      6.750762  
    3203A      6.762180  3204A      6.778902  3205A      6.783826  
    3206A      6.786839  3207A      6.795321  3208A      6.798957  
    3209A      6.804416  3210A      6.813223  3211A      6.821553  
    3212A      6.825286  3213A      6.844928  3214A      6.865121  
    3215A      6.873653  3216A      6.907627  3217A      6.912252  
    3218A      6.925042  3219A      6.934135  3220A      6.937854  
    3221A      6.945876  3222A      6.947549  3223A      6.960923  
    3224A      6.980135  3225A      6.983904  3226A      7.001027  
    3227A      7.006501  3228A      7.032798  3229A      7.035081  
    3230A      7.060647  3231A      7.063625  3232A      7.086829  
    3233A      7.089018  3234A      7.102391  3235A      7.105950  
    3236A      7.126633  3237A      7.129284  3238A      7.156766  
    3239A      7.159468  3240A      7.187435  3241A      7.190052  
    3242A      7.226842  3243A      7.227301  3244A      7.253676  
    3245A      7.256331  3246A      7.269148  3247A      7.275486  
    3248A      7.300472  3249A      7.304687  3250A      7.316272  
    3251A      7.334647  3252A      7.345089  3253A      7.358717  
    3254A      7.384492  3255A      7.387320  3256A      7.395206  
    3257A      7.441940  3258A      7.447253  3259A      7.462745  
    3260A      7.475421  3261A      7.481718  3262A      7.541447  
    3263A      7.588373  3264A      7.620202  3265A      7.627610  
    3266A      7.654427  3267A      7.658854  3268A      7.677127  
    3269A      7.679023  3270A      7.694724  3271A      7.696337  
    3272A      7.705592  3273A      7.711033  3274A      7.722895  
    3275A      7.726533  3276A      7.734933  3277A      7.759875  
    3278A      7.770799  3279A      7.782994  3280A      7.842880  
    3281A      7.865397  3282A      7.867534  3283A      7.876400  
    3284A      7.881842  3285A      7.906960  3286A      7.916488  
    3287A      7.948817  3288A      7.955315  3289A      7.961692  
    3290A      7.965563  3291A      7.976208  3292A      7.985159  
    3293A      7.998615  3294A      8.001376  3295A      8.012953  
    3296A      8.021423  3297A      8.025160  3298A      8.030736  
    3299A      8.036061  3300A      8.045256  3301A      8.056709  
    3302A      8.067258  3303A      8.086457  3304A      8.088338  
    3305A      8.102129  3306A      8.137175  3307A      8.170138  
    3308A      8.193743  3309A      8.214873  3310A      8.222181  
    3311A      8.239846  3312A      8.242208  3313A      8.356417  
    3314A      8.368203  3315A      8.411627  3316A      8.415338  
    3317A      8.512411  3318A      8.538384  3319A      8.559656  
    3320A      8.567755  3321A      8.592079  3322A      8.601468  
    3323A      8.617107  3324A      8.623866  3325A      8.643658  
    3326A      8.647815  3327A      8.671872  3328A      8.673609  
    3329A      8.702161  3330A      8.703485  3331A      8.755601  
    3332A      8.756669  3333A      9.081675  3334A      9.108893  
    3335A      9.197333  3336A      9.290705  3337A      9.355732  
    3338A      9.400395  3339A      9.419960  3340A      9.453052  
    3341A      9.460182  3342A      9.462641  3343A      9.504569  
    3344A      9.507172  3345A      9.559136  3346A      9.716740  
    3347A      9.882880  3348A     10.024308  3349A     10.126718  
    3350A     10.508913  3351A     10.510525  3352A     10.571264  
    3353A     10.576177  3354A     10.605308  3355A     10.622822  
    3356A     10.642016  3357A     10.682894  3358A     10.712057  
    3359A     10.773641  3360A     10.793982  3361A     10.896758  
    3362A     10.908190  3363A     10.915427  3364A     11.018636  
    3365A     11.073943  3366A     11.125908  3367A     11.138020  
    3368A     17.334291  3369A     17.343094  3370A     17.570837  
    3371A     17.611900  3372A     17.685889  3373A     17.725231  
    3374A     17.821789  3375A     17.873139  3376A     17.919744  
    3377A     17.939119  3378A     18.000905  3379A     18.220602  
    3380A     18.240612  3381A     18.281979  3382A     18.697399  
    3383A     19.017051  3384A     19.272205  3385A     19.281376  
    3386A     53.595352  3387A     53.607724  3388A     54.155045  
    3389A     54.238590  3390A     54.374536  3391A     54.515904  
    3392A     54.718377  3393A     54.749633  3394A     54.820109  
    3395A     54.983198  3396A     55.011524  3397A     55.275237  
    3398A     55.295558  3399A     55.406349  3400A     56.217279  
    3401A     56.865503  3402A     57.396414  3403A     57.404102  

    Final Occupation by Irrep:
              A 
    DOCC [    73 ]
    NA   [    73 ]
    NB   [    73 ]

  @DF-RKS Final Energy:  -708.89132052356979

   => Energetics <=

    Nuclear Repulsion Energy =           1177.2118179273250007
    One-Electron Energy =               -3289.5066661188238868
    Two-Electron Energy =                1479.2750511334859311
    DFT Exchange-Correlation Energy =     -75.8320651591324122
    Empirical Dispersion Energy =          -0.0394583064241666
    VV10 Nonlocal Energy =                  0.0000000000000000
    Total Energy =                       -708.8913205235697887

Computation Completed


Properties will be evaluated at   0.000000,   0.000000,   0.000000 [a0]

Properties computed using the SCF density matrix


 Multipole Moments:

 ------------------------------------------------------------------------------------
     Multipole            Electronic (a.u.)      Nuclear  (a.u.)        Total (a.u.)
 ------------------------------------------------------------------------------------

 L = 1.  Multiply by 2.5417464519 to convert [e a0] to [Debye]
 Dipole X            :      -3113.8288043         3113.8283486           -0.0004557
 Dipole Y            :      -2170.7511568         2170.7510770           -0.0000797
 Dipole Z            :        574.6153073         -574.6146922            0.0006151
 Magnitude           :                                                    0.0007697

 ------------------------------------------------------------------------------------

*** tstop() called on atl1-1-02-003-24-1.pace.gatech.edu at Sat Jun 13 14:43:05 2026
Module time:
	user time   =   51481.49 seconds =     858.02 minutes
	system time =    3957.42 seconds =      65.96 minutes
	total time  =       8627 seconds =     143.78 minutes
Total time:
	user time   =   51481.49 seconds =     858.02 minutes
	system time =    3957.42 seconds =      65.96 minutes
	total time  =       8627 seconds =     143.78 minutes

    Psi4 stopped on: Saturday, 13 June 2026 02:43PM
    Psi4 wall time for execution: 2:24:03.13

*** Psi4 exiting successfully. Buy a developer a beer!
