
    -----------------------------------------------------------------------
          Psi4: An Open-Source Ab Initio Electronic Structure Package
                               Psi4 1.9.1 release

                         Git: Rev {} zzzzzzz 


    D. G. A. Smith, L. A. Burns, A. C. Simmonett, R. M. Parrish,
    M. C. Schieber, R. Galvelis, P. Kraus, H. Kruse, R. Di Remigio,
    A. Alenaizan, A. M. James, S. Lehtola, J. P. Misiewicz, M. Scheurer,
    R. A. Shaw, J. B. Schriber, Y. Xie, Z. L. Glick, D. A. Sirianni,
    J. S. O'Brien, J. M. Waldrop, A. Kumar, E. G. Hohenstein,
    B. P. Pritchard, B. R. Brooks, H. F. Schaefer III, A. Yu. Sokolov,
    K. Patkowski, A. E. DePrince III, U. Bozkaya, R. A. King,
    F. A. Evangelista, J. M. Turney, T. D. Crawford, C. D. Sherrill,
    J. Chem. Phys. 152(18) 184108 (2020). https://doi.org/10.1063/5.0006002

                            Additional Code Authors
    E. T. Seidl, C. L. Janssen, E. F. Valeev, M. L. Leininger,
    J. F. Gonthier, R. M. Richard, H. R. McAlexander, M. Saitow, X. Wang,
    P. Verma, M. H. Lechner, A. Jiang, S. Behnle, A. G. Heide,
    M. F. Herbst, and D. L. Poole

             Previous Authors, Complete List of Code Contributors,
                       and Citations for Specific Modules
    https://github.com/psi4/psi4/blob/master/codemeta.json
    https://github.com/psi4/psi4/graphs/contributors
    http://psicode.org/psi4manual/master/introduction.html#citing-psifour

    -----------------------------------------------------------------------


    Psi4 started on: Saturday, 13 June 2026 12:11PM

    Process ID: 3428206
    Host:       atl1-1-02-003-28-2.pace.gatech.edu
    PSIDATADIR: /storage/home/hcoda1/5/vlita3/.conda/envs/p4_qcml/share/psi4
    Memory:     250.0 GiB
    Threads:    10
    
  ==> Input QCSchema <==

--------------------------------------------------------------------------
{'driver': 'energy',
 'extras': {},
 'id': '234',
 'keywords': {},
 'model': {'basis': 'aug-cc-pvtz', 'method': 'wb97x-d'},
 'molecule': {'extras': {},
              'fix_com': True,
              'fix_orientation': True,
              'fragment_charges': [0.0, 0.0],
              'fragment_multiplicities': [1, 1],
              'fragments': [[0, 1, 2, 3, 4, 5, 6, 7, 8, 9, 10, 11, 12, 13, 14, 15, 16, 17, 18, 19, 20, 21, 22, 23, 24,
                             25, 26, 27, 28, 29, 30, 31, 32, 33, 34, 35, 36, 37, 38, 39, 40, 41, 42, 43, 44, 45, 46, 47,
                             48, 49, 50, 51, 52, 53, 54, 55, 56, 57, 58, 59, 60, 61, 62, 63, 64, 65, 66, 67, 68, 69, 70,
                             71],
                            [72, 73, 74, 75, 76, 77, 78, 79, 80, 81, 82, 83, 84, 85, 86, 87, 88, 89, 90, 91]],
              'geometry': [-0.27392714, 6.18819166, -1.19323544, -2.46344698, 5.77825337, -2.60449614, -4.6940608,
                           5.39705781, -1.25234985, -4.71896739, 5.33938337, 1.40379628, -2.51326016, 5.65638493,
                           2.81229042, -0.29786241, 6.1264921, 1.46128175, -7.4236946, 4.94664159, -2.11437677,
                           -8.0102089, 2.21933216, -1.3518118, -8.03725088, 2.16388759, 1.30730308, -7.46490952,
                           4.85601033, 2.19433108, -8.21278754, 0.01810099, -2.78449255, -8.41651891, -2.24308601,
                           -1.44718061, -8.44656555, -2.29788807, 1.20944929, -8.27108559, -0.09424159, 2.64331111,
                           -8.82968863, 6.36030791, 0.05739419, 2.39027678, 6.99321499, -1.97848656, 2.35234998,
                           6.89052727, 2.33048585, 4.24147139, 4.87579576, 1.47132186, 4.26509297, 4.93957402,
                           -1.18371122, 5.91295305, 3.35513315, 2.83024282, 7.66850862, 1.97164575, 1.43096487,
                           7.69269711, 2.03631218, -1.22332744, 5.96134893, 3.48626124, -2.58482409, 2.91214355,
                           8.90127146, 0.22748523, 9.87956377, 0.34201964, -2.07607202, 9.16122218, -2.35520346,
                           -1.32189933, 9.13548411, -2.42066358, 1.33912796, 9.83927481, 0.23553924, 2.23913649,
                           8.55002806, -4.47912335, -2.729596, 7.90073706, -6.7005909, -1.42801501, 7.87418641,
                           -6.76523843, 1.20657123, 8.49702124, -4.61078057, 2.62830668, 11.77284258, 0.92596769,
                           0.1150709, -8.31764844, -5.08264518, 1.9809621, -5.66577687, -5.91321761, 1.16915466,
                           -5.63425624, -5.85826437, -1.48990165, -8.26696598, -4.99384695, -2.32929532, -3.49926256,
                           -6.47956853, 2.52781105, -1.27490751, -7.03089613, 1.18478458, -1.24350593, -6.97650981,
                           -1.44679133, -3.43540871, -6.36901955, -2.81856431, -9.87669139, -6.270716, -0.2182029,
                           -2.4529401, 5.84171037, -4.65828828, -2.54030214, 5.62747212, 4.86674397, -7.86022133,
                           5.46728004, -4.05896164, -7.93792687, 5.29540945, 4.15038659, -8.11773431, 0.05695332,
                           -4.83605482, -8.21892915, -0.14041005, 4.69617729, -8.40519945, 8.38335422, 0.10379812,
                           -10.87140543, 6.03249712, 0.03110168, 2.58575005, 7.68646102, -3.90969218, 2.51428061,
                           7.49055311, 4.29570653, 5.92036077, 3.32542665, 4.88460188, 6.00539845, 3.55672913,
                           -4.63769027, 1.57808761, 10.48166831, 0.25357668, 4.86729199, 9.57563912, 0.26070473,
                           10.52462179, 0.60197793, -4.01470426, 10.44833354, 0.39868497, 4.19987852, 8.5531839,
                           -4.43267388, -4.7823677, 7.42214502, -8.39155563, -2.48982755, 7.37512864, -8.50599744,
                           2.1742055, 8.4600204, -4.66543145, 4.68064374, 12.34503276, 2.91199237, 0.16959272,
                           13.42257349, -0.321261, 0.09956022, -8.86591468, -5.52843157, 3.91606055, -8.76902842,
                           -5.35979242, -4.29349555, -3.50574432, -6.49980749, 4.58215122, 0.4449946, -7.48906022,
                           2.20842844, 0.50076797, -7.39238184, -2.44683628, -3.39254972, -6.30418305, -4.87158167,
                           -11.84561594, -5.6407569, -0.22849246, -9.76051103, -8.33473156, -0.2592572, 0.45225115,
                           -0.84580551, -2.67537976, 2.67838443, -1.53842793, -1.2866805, 2.65068104, -1.59445642,
                           1.27425178, 0.39459182, -0.96458424, 2.64450164, -1.86313012, -0.39368286, 1.25325503,
                           -1.83502422, -0.33633346, -1.30877329, 0.51180775, -0.67721548, -5.30584073, 2.77402347,
                           -1.11680357, -6.67834882, 4.65792923, -1.46517081, -7.76197447, -1.67832057, -0.01779464,
                           -6.70601441, -3.49875233, 0.52904962, -7.81566159, 0.39835616, -0.91584254, 5.28048061,
                           2.63210503, -1.41763286, 6.67793308, 4.4946569, -1.81660506, 7.78079614, -1.82246132,
                           -0.32547131, 6.66298535, -3.66775054, 0.16586372, 7.75745803, 4.38153789, -2.03474371,
                           -2.30489896, 4.33176251, -2.13518265, 2.30622176, -3.59287959, 0.00412869, 2.26776584,
                           -3.54227272, 0.1076148, -2.34208877],
              'id': 3,
              'identifiers': {'molecular_formula': 'C54H34N4',
                              'molecule_hash': 'a6e197d77899e18e985cc14db0a8b81cfed912ed'},
              'molecular_charge': 0.0,
              'molecular_multiplicity': 1,
              'name': 'C54H34N4',
              'provenance': {'creator': 'QCElemental',
                             'routine': 'qcelemental.molparse.from_string',
                             'version': '0.29.0'},
              'schema_name': 'qcschema_molecule',
              'schema_version': 2,
              'symbols': ['C', 'C', 'C', 'C', 'C', 'C', 'C', 'C', 'C', 'C', 'C', 'C', 'C', 'C', 'C', 'C', 'C', 'C', 'C',
                          'C', 'C', 'C', 'C', 'C', 'C', 'C', 'C', 'C', 'C', 'C', 'C', 'C', 'C', 'C', 'C', 'C', 'C', 'C',
                          'C', 'C', 'C', 'C', 'H', 'H', 'H', 'H', 'H', 'H', 'H', 'H', 'H', 'H', 'H', 'H', 'H', 'H', 'H',
                          'H', 'H', 'H', 'H', 'H', 'H', 'H', 'H', 'H', 'H', 'H', 'H', 'H', 'H', 'H', 'C', 'C', 'C', 'C',
                          'C', 'C', 'C', 'C', 'N', 'C', 'N', 'C', 'C', 'N', 'C', 'N', 'H', 'H', 'H', 'H'],
              'validated': True},
 'protocols': {},
 'provenance': {'creator': 'QCElemental', 'routine': 'qcelemental.models.results', 'version': '0.29.0'},
 'schema_name': 'qcschema_input',
 'schema_version': 1}
--------------------------------------------------------------------------

Scratch directory: /tmp/tmp1eljg61f_psi_scratch/
   => Libint2 <=

    Primary   basis highest AM E, G, H:  6, 6, 3
    Auxiliary basis highest AM E, G, H:  7, 7, 4
    Onebody   basis highest AM E, G, H:  -, -, -
    Solid Harmonics ordering:            Gaussian

*** tstart() called on atl1-1-02-003-28-2.pace.gatech.edu
*** at Sat Jun 13 12:11:19 2026

   => Loading Basis Set <=

    Name: AUG-CC-PVTZ
    Role: ORBITAL
    Keyword: BASIS
    atoms 1-42, 73-80, 82, 84-85, 87 entry C          line   239 file /storage/home/hcoda1/5/vlita3/.conda/envs/p4_qcml/share/psi4/basis/aug-cc-pvtz.gbs 
    atoms 43-72, 89-92               entry H          line    40 file /storage/home/hcoda1/5/vlita3/.conda/envs/p4_qcml/share/psi4/basis/aug-cc-pvtz.gbs 
    atoms 81, 83, 86, 88             entry N          line   285 file /storage/home/hcoda1/5/vlita3/.conda/envs/p4_qcml/share/psi4/basis/aug-cc-pvtz.gbs 

   => WB97X-D: Empirical Dispersion <=

    Chai and Head-Gordon Dispersion Correction
    Chai, J.-D.; Head-Gordon, M. (2010), J. Chem. Phys., 132: 6615-6620

        s6 =       1.000000


         ---------------------------------------------------------
                                   SCF
               by Justin Turney, Rob Parrish, Andy Simmonett
                          and Daniel G. A. Smith
                              RKS Reference
                       10 Threads, 256000 MiB Core
         ---------------------------------------------------------

  ==> Geometry <==

    Molecular point group: c1
    Full point group: C1

    Geometry (in Bohr), charge = 0, multiplicity = 1:

       Center              X                  Y                   Z               Mass       
    ------------   -----------------  -----------------  -----------------  -----------------
         C           -0.273927140000     6.188191660000    -1.193235440000    12.000000000000
         C           -2.463446980000     5.778253370000    -2.604496140000    12.000000000000
         C           -4.694060800000     5.397057810000    -1.252349850000    12.000000000000
         C           -4.718967390000     5.339383370000     1.403796280000    12.000000000000
         C           -2.513260160000     5.656384930000     2.812290420000    12.000000000000
         C           -0.297862410000     6.126492100000     1.461281750000    12.000000000000
         C           -7.423694600000     4.946641590000    -2.114376770000    12.000000000000
         C           -8.010208900000     2.219332160000    -1.351811800000    12.000000000000
         C           -8.037250880000     2.163887590000     1.307303080000    12.000000000000
         C           -7.464909520000     4.856010330000     2.194331080000    12.000000000000
         C           -8.212787540000     0.018100990000    -2.784492550000    12.000000000000
         C           -8.416518910000    -2.243086010000    -1.447180610000    12.000000000000
         C           -8.446565550000    -2.297888070000     1.209449290000    12.000000000000
         C           -8.271085590000    -0.094241590000     2.643311110000    12.000000000000
         C           -8.829688630000     6.360307910000     0.057394190000    12.000000000000
         C            2.390276780000     6.993214990000    -1.978486560000    12.000000000000
         C            2.352349980000     6.890527270000     2.330485850000    12.000000000000
         C            4.241471390000     4.875795760000     1.471321860000    12.000000000000
         C            4.265092970000     4.939574020000    -1.183711220000    12.000000000000
         C            5.912953050000     3.355133150000     2.830242820000    12.000000000000
         C            7.668508620000     1.971645750000     1.430964870000    12.000000000000
         C            7.692697110000     2.036312180000    -1.223327440000    12.000000000000
         C            5.961348930000     3.486261240000    -2.584824090000    12.000000000000
         C            2.912143550000     8.901271460000     0.227485230000    12.000000000000
         C            9.879563770000     0.342019640000    -2.076072020000    12.000000000000
         C            9.161222180000    -2.355203460000    -1.321899330000    12.000000000000
         C            9.135484110000    -2.420663580000     1.339127960000    12.000000000000
         C            9.839274810000     0.235539240000     2.239136490000    12.000000000000
         C            8.550028060000    -4.479123350000    -2.729596000000    12.000000000000
         C            7.900737060000    -6.700590900000    -1.428015010000    12.000000000000
         C            7.874186410000    -6.765238430000     1.206571230000    12.000000000000
         C            8.497021240000    -4.610780570000     2.628306680000    12.000000000000
         C           11.772842580000     0.925967690000     0.115070900000    12.000000000000
         C           -8.317648440000    -5.082645180000     1.980962100000    12.000000000000
         C           -5.665776870000    -5.913217610000     1.169154660000    12.000000000000
         C           -5.634256240000    -5.858264370000    -1.489901650000    12.000000000000
         C           -8.266965980000    -4.993846950000    -2.329295320000    12.000000000000
         C           -3.499262560000    -6.479568530000     2.527811050000    12.000000000000
         C           -1.274907510000    -7.030896130000     1.184784580000    12.000000000000
         C           -1.243505930000    -6.976509810000    -1.446791330000    12.000000000000
         C           -3.435408710000    -6.369019550000    -2.818564310000    12.000000000000
         C           -9.876691390000    -6.270716000000    -0.218202900000    12.000000000000
         H           -2.452940100000     5.841710370000    -4.658288280000     1.007825032230
         H           -2.540302140000     5.627472120000     4.866743970000     1.007825032230
         H           -7.860221330000     5.467280040000    -4.058961640000     1.007825032230
         H           -7.937926870000     5.295409450000     4.150386590000     1.007825032230
         H           -8.117734310000     0.056953320000    -4.836054820000     1.007825032230
         H           -8.218929150000    -0.140410050000     4.696177290000     1.007825032230
         H           -8.405199450000     8.383354220000     0.103798120000     1.007825032230
         H          -10.871405430000     6.032497120000     0.031101680000     1.007825032230
         H            2.585750050000     7.686461020000    -3.909692180000     1.007825032230
         H            2.514280610000     7.490553110000     4.295706530000     1.007825032230
         H            5.920360770000     3.325426650000     4.884601880000     1.007825032230
         H            6.005398450000     3.556729130000    -4.637690270000     1.007825032230
         H            1.578087610000    10.481668310000     0.253576680000     1.007825032230
         H            4.867291990000     9.575639120000     0.260704730000     1.007825032230
         H           10.524621790000     0.601977930000    -4.014704260000     1.007825032230
         H           10.448333540000     0.398684970000     4.199878520000     1.007825032230
         H            8.553183900000    -4.432673880000    -4.782367700000     1.007825032230
         H            7.422145020000    -8.391555630000    -2.489827550000     1.007825032230
         H            7.375128640000    -8.505997440000     2.174205500000     1.007825032230
         H            8.460020400000    -4.665431450000     4.680643740000     1.007825032230
         H           12.345032760000     2.911992370000     0.169592720000     1.007825032230
         H           13.422573490000    -0.321261000000     0.099560220000     1.007825032230
         H           -8.865914680000    -5.528431570000     3.916060550000     1.007825032230
         H           -8.769028420000    -5.359792420000    -4.293495550000     1.007825032230
         H           -3.505744320000    -6.499807490000     4.582151220000     1.007825032230
         H            0.444994600000    -7.489060220000     2.208428440000     1.007825032230
         H            0.500767970000    -7.392381840000    -2.446836280000     1.007825032230
         H           -3.392549720000    -6.304183050000    -4.871581670000     1.007825032230
         H          -11.845615940000    -5.640756900000    -0.228492460000     1.007825032230
         H           -9.760511030000    -8.334731560000    -0.259257200000     1.007825032230
         C            0.452251150000    -0.845805510000    -2.675379760000    12.000000000000
         C            2.678384430000    -1.538427930000    -1.286680500000    12.000000000000
         C            2.650681040000    -1.594456420000     1.274251780000    12.000000000000
         C            0.394591820000    -0.964584240000     2.644501640000    12.000000000000
         C           -1.863130120000    -0.393682860000     1.253255030000    12.000000000000
         C           -1.835024220000    -0.336333460000    -1.308773290000    12.000000000000
         C            0.511807750000    -0.677215480000    -5.305840730000    12.000000000000
         C            2.774023470000    -1.116803570000    -6.678348820000    12.000000000000
         N            4.657929230000    -1.465170810000    -7.761974470000    14.003074004430
         C           -1.678320570000    -0.017794640000    -6.706014410000    12.000000000000
         N           -3.498752330000     0.529049620000    -7.815661590000    14.003074004430
         C            0.398356160000    -0.915842540000     5.280480610000    12.000000000000
         C            2.632105030000    -1.417632860000     6.677933080000    12.000000000000
         N            4.494656900000    -1.816605060000     7.780796140000    14.003074004430
         C           -1.822461320000    -0.325471310000     6.662985350000    12.000000000000
         N           -3.667750540000     0.165863720000     7.757458030000    14.003074004430
         H            4.381537890000    -2.034743710000    -2.304898960000     1.007825032230
         H            4.331762510000    -2.135182650000     2.306221760000     1.007825032230
         H           -3.592879590000     0.004128690000     2.267765840000     1.007825032230
         H           -3.542272720000     0.107614800000    -2.342088770000     1.007825032230

  Running in c1 symmetry.

  Rotational constants: A =      0.00267  B =      0.00168  C =      0.00146 [cm^-1]
  Rotational constants: A =     80.12542  B =     50.33918  C =     43.84220 [MHz]
  Nuclear repulsion = 8253.987649209337178

  Charge       = 0
  Multiplicity = 1
  Electrons    = 386
  Nalpha       = 193
  Nbeta        = 193

  ==> Algorithm <==

  SCF Algorithm Type is DF.
  DIIS enabled.
  MOM disabled.
  Fractional occupation disabled.
  Guess Type is SAD.
  Energy threshold   = 1.00e-06
  Density threshold  = 1.00e-06
  Integral threshold = 1.00e-12

  ==> Primary Basis <==

  Basis Set: AUG-CC-PVTZ
    Blend: AUG-CC-PVTZ
    Number of shells: 1118
    Number of basis functions: 3450
    Number of Cartesian functions: 4040
    Spherical Harmonics?: true
    Max angular momentum: 3

  ==> DFT Potential <==

   => LibXC <=

    Version 7.0.0
    S. Lehtola, C. Steigemann, M. J.T. Oliveira, and M. A.L. Marques.,  SoftwareX 7, 1–5 (2018) (10.1016/j.softx.2017.11.002)

   => Composite Functional: WB97X-D <= 

    wB97X-D Hyb-GGA Exchange-Correlation Functional

    J.-D. Chai and M. Head-Gordon.,  Phys. Chem. Chem. Phys. 10, 6615-6620 (2008) (10.1039/B810189B)

    Deriv               =              1
    GGA                 =           TRUE
    Meta                =          FALSE

    Exchange Hybrid     =           TRUE
    MP2 Hybrid          =          FALSE

   => Exchange-Correlation Functionals <=

    1.0000   wB97X-D range-separated functional

   => Exact (HF) Exchange <=

    0.7780            HF,LR [omega = 0.2000]
    0.2220               HF 

   => LibXC Density Thresholds  <==

    XC_HYB_GGA_XC_WB97X_D:  1.00E-14 

   => Molecular Quadrature <=

    Radial Scheme          =       TREUTLER
    Pruning Scheme         =           NONE
    Nuclear Scheme         =       TREUTLER

    Blocking Scheme        =         OCTREE
    BS radius alpha        =              1
    Pruning alpha          =              1
    Radial Points          =             75
    Spherical Points       =            302
    Total Points           =        1810751
    Total Blocks           =          12182
    Max Points             =            256
    Max Functions          =           2258
    Weights Tolerance      =       1.00E-15

   => Loading Basis Set <=

    Name: (AUG-CC-PVTZ AUX)
    Role: JKFIT
    Keyword: DF_BASIS_SCF
    atoms 1-42, 73-80, 82, 84-85, 87 entry C          line   162 file /storage/home/hcoda1/5/vlita3/.conda/envs/p4_qcml/share/psi4/basis/aug-cc-pvtz-jkfit.gbs 
    atoms 43-72, 89-92               entry H          line    70 file /storage/home/hcoda1/5/vlita3/.conda/envs/p4_qcml/share/psi4/basis/aug-cc-pvtz-jkfit.gbs 
    atoms 81, 83, 86, 88             entry N          line   224 file /storage/home/hcoda1/5/vlita3/.conda/envs/p4_qcml/share/psi4/basis/aug-cc-pvtz-jkfit.gbs 

  ==> Integral Setup <==

  ==> DiskDFJK: Density-Fitted J/K Matrices <==

    J tasked:                  Yes
    K tasked:                  Yes
    wK tasked:                 Yes
    Omega:               2.000E-01
    OpenMP threads:             10
    Integrals threads:          10
    Memory [MiB]:           172800
    Algorithm:                Disk
    Integral Cache:           NONE
    Schwarz Cutoff:          1E-12
    Fitting Condition:       1E-10

   => Auxiliary Basis Set <=

  Basis Set: (AUG-CC-PVTZ AUX)
    Blend: AUG-CC-PVTZ-JKFIT
    Number of shells: 2216
    Number of basis functions: 7596
    Number of Cartesian functions: 9468
    Spherical Harmonics?: true
    Max angular momentum: 4

  Minimum eigenvalue in the overlap matrix is 3.2999283483E-10.
  Reciprocal condition number of the overlap matrix is 8.9829939844E-12.
    Using canonical orthogonalization.
  Overall, 31 of 3450 possible MOs eliminated.


  ==> Pre-Iterations <==

  SCF Guess: Superposition of Atomic Densities via on-the-fly atomic UHF (no occupation information).

   -------------------------
    Irrep   Nso     Nmo    
   -------------------------
     A       3450    3419 
   -------------------------
    Total    3450    3419
   -------------------------

  ==> Iterations <==

                           Total Energy        Delta E     RMS |[F,P]|

   @DF-RKS iter SAD: -2298.82773669204198   -2.29883e+03   0.00000e+00 
   @DF-RKS iter   1: -2295.00516075136966    3.82258e+00   5.92256e-04 ADIIS/DIIS
   @DF-RKS iter   2: -2295.48588277126782   -4.80722e-01   5.45165e-04 ADIIS/DIIS
   @DF-RKS iter   3: -2296.97976915182016   -1.49389e+00   1.45867e-04 ADIIS/DIIS
   @DF-RKS iter   4: -2297.07854138918401   -9.87722e-02   5.20260e-05 DIIS
   @DF-RKS iter   5: -2297.09016924549542   -1.16279e-02   2.22403e-05 DIIS
   @DF-RKS iter   6: -2297.09262378900894   -2.45454e-03   5.59108e-06 DIIS
   @DF-RKS iter   7: -2297.09281637328695   -1.92584e-04   1.67063e-06 DIIS
   @DF-RKS iter   8: -2297.09283633838186   -1.99651e-05   5.79583e-07 DIIS
   @DF-RKS iter   9: -2297.09284024133876   -3.90296e-06   2.97743e-07 DIIS
   @DF-RKS iter  10: -2297.09284119131280   -9.49974e-07   1.36740e-07 DIIS
  Energy and wave function converged.


  ==> Post-Iterations <==

   Electrons on quadrature grid:
      Ntotal   =  385.9994183038 ; deviation = -5.817e-04 

    Orbital Energies [Eh]
    ---------------------

    Doubly Occupied:                                                      

       1A    -14.466535     2A    -14.466532     3A    -14.466323  
       4A    -14.466294     5A    -10.391153     6A    -10.391101  
       7A    -10.376131     8A    -10.376098     9A    -10.359041  
      10A    -10.359037    11A    -10.358821    12A    -10.358795  
      13A    -10.333502    14A    -10.332669    15A    -10.332093  
      16A    -10.331266    17A    -10.316802    18A    -10.316768  
      19A    -10.315720    20A    -10.315681    21A    -10.314953  
      22A    -10.314898    23A    -10.313513    24A    -10.313496  
      25A    -10.304976    26A    -10.304859    27A    -10.304847  
      28A    -10.304417    29A    -10.304335    30A    -10.304300  
      31A    -10.304296    32A    -10.304190    33A    -10.303637  
      34A    -10.303563    35A    -10.303009    36A    -10.302863  
      37A    -10.302710    38A    -10.302609    39A    -10.302601  
      40A    -10.302315    41A    -10.302170    42A    -10.302042  
      43A    -10.301614    44A    -10.301464    45A    -10.301314  
      46A    -10.301279    47A    -10.301223    48A    -10.301189  
      49A    -10.300980    50A    -10.299994    51A    -10.299031  
      52A    -10.298971    53A    -10.298903    54A    -10.298416  
      55A    -10.298348    56A    -10.298104    57A    -10.298020  
      58A    -10.297936    59A     -1.049016    60A     -1.045006  
      61A     -1.028546    62A     -1.028482    63A     -1.025698  
      64A     -1.022030    65A     -1.015281    66A     -1.013099  
      67A     -1.007127    68A     -0.971245    69A     -0.960335  
      70A     -0.953969    71A     -0.939210    72A     -0.920947  
      73A     -0.920740    74A     -0.901728    75A     -0.895434  
      76A     -0.881251    77A     -0.877080    78A     -0.869057  
      79A     -0.858994    80A     -0.851823    81A     -0.844012  
      82A     -0.842875    83A     -0.835713    84A     -0.822335  
      85A     -0.819220    86A     -0.806252    87A     -0.805191  
      88A     -0.795796    89A     -0.787994    90A     -0.771263  
      91A     -0.766582    92A     -0.752743    93A     -0.734918  
      94A     -0.729569    95A     -0.720857    96A     -0.713668  
      97A     -0.711034    98A     -0.707327    99A     -0.687024  
     100A     -0.685673   101A     -0.681776   102A     -0.681354  
     103A     -0.673545   104A     -0.672646   105A     -0.669324  
     106A     -0.662626   107A     -0.659407   108A     -0.637581  
     109A     -0.636257   110A     -0.621185   111A     -0.617697  
     112A     -0.617496   113A     -0.611315   114A     -0.604422  
     115A     -0.597100   116A     -0.585880   117A     -0.582556  
     118A     -0.570648   119A     -0.567938   120A     -0.565499  
     121A     -0.559124   122A     -0.553507   123A     -0.551564  
     124A     -0.549416   125A     -0.544792   126A     -0.543661  
     127A     -0.542573   128A     -0.542061   129A     -0.539939  
     130A     -0.527566   131A     -0.522168   132A     -0.520381  
     133A     -0.516455   134A     -0.510394   135A     -0.508391  
     136A     -0.508053   137A     -0.506970   138A     -0.504091  
     139A     -0.502171   140A     -0.501581   141A     -0.499941  
     142A     -0.498928   143A     -0.488119   144A     -0.487565  
     145A     -0.486674   146A     -0.484208   147A     -0.483263  
     148A     -0.481297   149A     -0.478246   150A     -0.476333  
     151A     -0.474274   152A     -0.466995   153A     -0.466253  
     154A     -0.461703   155A     -0.457547   156A     -0.456784  
     157A     -0.455908   158A     -0.453975   159A     -0.451974  
     160A     -0.450104   161A     -0.446884   162A     -0.446092  
     163A     -0.443353   164A     -0.441709   165A     -0.440334  
     166A     -0.439353   167A     -0.439277   168A     -0.437741  
     169A     -0.430213   170A     -0.428824   171A     -0.427955  
     172A     -0.422988   173A     -0.422432   174A     -0.419992  
     175A     -0.414933   176A     -0.413045   177A     -0.411423  
     178A     -0.408902   179A     -0.407832   180A     -0.405548  
     181A     -0.401600   182A     -0.372942   183A     -0.339810  
     184A     -0.335608   185A     -0.334053   186A     -0.332317  
     187A     -0.329679   188A     -0.328915   189A     -0.327346  
     190A     -0.316344   191A     -0.312424   192A     -0.300895  
     193A     -0.285430  

    Virtual:                                                              

     194A     -0.109042   195A      0.019636   196A      0.021095  
     197A      0.022827   198A      0.024601   199A      0.026175  
     200A      0.027233   201A      0.028311   202A      0.031914  
     203A      0.033156   204A      0.034492   205A      0.036045  
     206A      0.036157   207A      0.037750   208A      0.040564  
     209A      0.042152   210A      0.043264   211A      0.045126  
     212A      0.045886   213A      0.046676   214A      0.048400  
     215A      0.049084   216A      0.049271   217A      0.051114  
     218A      0.051725   219A      0.055070   220A      0.057605  
     221A      0.059208   222A      0.059334   223A      0.060647  
     224A      0.062410   225A      0.064196   226A      0.064897  
     227A      0.065575   228A      0.065874   229A      0.068368  
     230A      0.073028   231A      0.073917   232A      0.075218  
     233A      0.075849   234A      0.079676   235A      0.080148  
     236A      0.083529   237A      0.084475   238A      0.085059  
     239A      0.085574   240A      0.087088   241A      0.090186  
     242A      0.091162   243A      0.091691   244A      0.092592  
     245A      0.093171   246A      0.093573   247A      0.096073  
     248A      0.098265   249A      0.099525   250A      0.099605  
     251A      0.101542   252A      0.102772   253A      0.102905  
     254A      0.105042   255A      0.105603   256A      0.108090  
     257A      0.108643   258A      0.111278   259A      0.111716  
     260A      0.112509   261A      0.113516   262A      0.115368  
     263A      0.116939   264A      0.117326   265A      0.119106  
     266A      0.121294   267A      0.122417   268A      0.122546  
     269A      0.125860   270A      0.127005   271A      0.127959  
     272A      0.128301   273A      0.129400   274A      0.130808  
     275A      0.131650   276A      0.132590   277A      0.134417  
     278A      0.136072   279A      0.136416   280A      0.138557  
     281A      0.139835   282A      0.140734   283A      0.140966  
     284A      0.143464   285A      0.145384   286A      0.145700  
     287A      0.146306   288A      0.147705   289A      0.147744  
     290A      0.150903   291A      0.154215   292A      0.155985  
     293A      0.157003   294A      0.157372   295A      0.158415  
     296A      0.159319   297A      0.159713   298A      0.161721  
     299A      0.162303   300A      0.163240   301A      0.163663  
     302A      0.163763   303A      0.165297   304A      0.166787  
     305A      0.168989   306A      0.170508   307A      0.170702  
     308A      0.172833   309A      0.175138   310A      0.175850  
     311A      0.177238   312A      0.177403   313A      0.178004  
     314A      0.180635   315A      0.182313   316A      0.184262  
     317A      0.184314   318A      0.185562   319A      0.186859  
     320A      0.188464   321A      0.188568   322A      0.188883  
     323A      0.192978   324A      0.193909   325A      0.194338  
     326A      0.195188   327A      0.197012   328A      0.197668  
     329A      0.197824   330A      0.199915   331A      0.200482  
     332A      0.201373   333A      0.202526   334A      0.204375  
     335A      0.206417   336A      0.206535   337A      0.207437  
     338A      0.208672   339A      0.209269   340A      0.210388  
     341A      0.211328   342A      0.212046   343A      0.213785  
     344A      0.214013   345A      0.214535   346A      0.217853  
     347A      0.218924   348A      0.219798   349A      0.220576  
     350A      0.221856   351A      0.222637   352A      0.223713  
     353A      0.225797   354A      0.226108   355A      0.226278  
     356A      0.227031   357A      0.227649   358A      0.227965  
     359A      0.228060   360A      0.230599   361A      0.230718  
     362A      0.231927   363A      0.232471   364A      0.233740  
     365A      0.234176   366A      0.234654   367A      0.235574  
     368A      0.236104   369A      0.237295   370A      0.238346  
     371A      0.239041   372A      0.239984   373A      0.241767  
     374A      0.242177   375A      0.243485   376A      0.244590  
     377A      0.245935   378A      0.246048   379A      0.246606  
     380A      0.248366   381A      0.249154   382A      0.249881  
     383A      0.249954   384A      0.252055   385A      0.253298  
     386A      0.253845   387A      0.255296   388A      0.255391  
     389A      0.255630   390A      0.256115   391A      0.256661  
     392A      0.258731   393A      0.259283   394A      0.259819  
     395A      0.260164   396A      0.261054   397A      0.261242  
     398A      0.261905   399A      0.263233   400A      0.263539  
     401A      0.263647   402A      0.265982   403A      0.266785  
     404A      0.267205   405A      0.267804   406A      0.268579  
     407A      0.268720   408A      0.269423   409A      0.270253  
     410A      0.271325   411A      0.271635   412A      0.271836  
     413A      0.273471   414A      0.273941   415A      0.275009  
     416A      0.276190   417A      0.276638   418A      0.276896  
     419A      0.280233   420A      0.282376   421A      0.282597  
     422A      0.283157   423A      0.284064   424A      0.285154  
     425A      0.285241   426A      0.286010   427A      0.286381  
     428A      0.287325   429A      0.288200   430A      0.291947  
     431A      0.291995   432A      0.293327   433A      0.294202  
     434A      0.294586   435A      0.295575   436A      0.297755  
     437A      0.298799   438A      0.300509   439A      0.301647  
     440A      0.302483   441A      0.302619   442A      0.304348  
     443A      0.304933   444A      0.307324   445A      0.309012  
     446A      0.309395   447A      0.309564   448A      0.311708  
     449A      0.312717   450A      0.313563   451A      0.315121  
     452A      0.315386   453A      0.316081   454A      0.317830  
     455A      0.318066   456A      0.318566   457A      0.319407  
     458A      0.322053   459A      0.322390   460A      0.324721  
     461A      0.325044   462A      0.325412   463A      0.326475  
     464A      0.327785   465A      0.328310   466A      0.329232  
     467A      0.329580   468A      0.330430   469A      0.332078  
     470A      0.333126   471A      0.333396   472A      0.334595  
     473A      0.335959   474A      0.337180   475A      0.337872  
     476A      0.338225   477A      0.339509   478A      0.340522  
     479A      0.340716   480A      0.342935   481A      0.343424  
     482A      0.343817   483A      0.347990   484A      0.348369  
     485A      0.350445   486A      0.351705   487A      0.354499  
     488A      0.355279   489A      0.356470   490A      0.358230  
     491A      0.359599   492A      0.359813   493A      0.360618  
     494A      0.361782   495A      0.364157   496A      0.364475  
     497A      0.368541   498A      0.368897   499A      0.369486  
     500A      0.370032   501A      0.371846   502A      0.371980  
     503A      0.372834   504A      0.373955   505A      0.374948  
     506A      0.376611   507A      0.378728   508A      0.379153  
     509A      0.380841   510A      0.382363   511A      0.382740  
     512A      0.385108   513A      0.385990   514A      0.386992  
     515A      0.387205   516A      0.388860   517A      0.389722  
     518A      0.390635   519A      0.391716   520A      0.392376  
     521A      0.393721   522A      0.394072   523A      0.394228  
     524A      0.396729   525A      0.398830   526A      0.401735  
     527A      0.403005   528A      0.404435   529A      0.404776  
     530A      0.405632   531A      0.407059   532A      0.407607  
     533A      0.408457   534A      0.410590   535A      0.411462  
     536A      0.414979   537A      0.416367   538A      0.416566  
     539A      0.418508   540A      0.420533   541A      0.420910  
     542A      0.422900   543A      0.423652   544A      0.426215  
     545A      0.427553   546A      0.428634   547A      0.430086  
     548A      0.431961   549A      0.432131   550A      0.432569  
     551A      0.433836   552A      0.435202   553A      0.438803  
     554A      0.440351   555A      0.441236   556A      0.441560  
     557A      0.441850   558A      0.442949   559A      0.445014  
     560A      0.445380   561A      0.446151   562A      0.449526  
     563A      0.450081   564A      0.452936   565A      0.453958  
     566A      0.455608   567A      0.456575   568A      0.456710  
     569A      0.457674   570A      0.458892   571A      0.459754  
     572A      0.459979   573A      0.463080   574A      0.464006  
     575A      0.465229   576A      0.466863   577A      0.468062  
     578A      0.469126   579A      0.469415   580A      0.470117  
     581A      0.470521   582A      0.471716   583A      0.472504  
     584A      0.473236   585A      0.476537   586A      0.477044  
     587A      0.478736   588A      0.480040   589A      0.481371  
     590A      0.482457   591A      0.482880   592A      0.483042  
     593A      0.485339   594A      0.485596   595A      0.486283  
     596A      0.486350   597A      0.488457   598A      0.489436  
     599A      0.490947   600A      0.491419   601A      0.493991  
     602A      0.494307   603A      0.494556   604A      0.495611  
     605A      0.496796   606A      0.498122   607A      0.499315  
     608A      0.499760   609A      0.500093   610A      0.500831  
     611A      0.501679   612A      0.503341   613A      0.503499  
     614A      0.504332   615A      0.507148   616A      0.507333  
     617A      0.507596   618A      0.508196   619A      0.509964  
     620A      0.511800   621A      0.512690   622A      0.513854  
     623A      0.514599   624A      0.515426   625A      0.517443  
     626A      0.518542   627A      0.520181   628A      0.521047  
     629A      0.521199   630A      0.523721   631A      0.524595  
     632A      0.525050   633A      0.525243   634A      0.528717  
     635A      0.528871   636A      0.529783   637A      0.529848  
     638A      0.531601   639A      0.532016   640A      0.533636  
     641A      0.534524   642A      0.536368   643A      0.536957  
     644A      0.537149   645A      0.537312   646A      0.538121  
     647A      0.540713   648A      0.541359   649A      0.542011  
     650A      0.543942   651A      0.545404   652A      0.546141  
     653A      0.546708   654A      0.548406   655A      0.548663  
     656A      0.549227   657A      0.549546   658A      0.550335  
     659A      0.550472   660A      0.552485   661A      0.552675  
     662A      0.554162   663A      0.554851   664A      0.555572  
     665A      0.558010   666A      0.558715   667A      0.560118  
     668A      0.560504   669A      0.561176   670A      0.561337  
     671A      0.564273   672A      0.566126   673A      0.566961  
     674A      0.568341   675A      0.568414   676A      0.570740  
     677A      0.572052   678A      0.572154   679A      0.572429  
     680A      0.575021   681A      0.575122   682A      0.575570  
     683A      0.575824   684A      0.580329   685A      0.580405  
     686A      0.580808   687A      0.583632   688A      0.583894  
     689A      0.584996   690A      0.586383   691A      0.586741  
     692A      0.589754   693A      0.590354   694A      0.592767  
     695A      0.593356   696A      0.595082   697A      0.596352  
     698A      0.597085   699A      0.598010   700A      0.599634  
     701A      0.600015   702A      0.601954   703A      0.602149  
     704A      0.603771   705A      0.605774   706A      0.606417  
     707A      0.606716   708A      0.608705   709A      0.610327  
     710A      0.611800   711A      0.613359   712A      0.613887  
     713A      0.614451   714A      0.616062   715A      0.618038  
     716A      0.618239   717A      0.620405   718A      0.620637  
     719A      0.623307   720A      0.623910   721A      0.627218  
     722A      0.627349   723A      0.629390   724A      0.630703  
     725A      0.631291   726A      0.631978   727A      0.632930  
     728A      0.634391   729A      0.635641   730A      0.637398  
     731A      0.637498   732A      0.638312   733A      0.642147  
     734A      0.644035   735A      0.644225   736A      0.646205  
     737A      0.646816   738A      0.647659   739A      0.649014  
     740A      0.649278   741A      0.650035   742A      0.652281  
     743A      0.652560   744A      0.655178   745A      0.655609  
     746A      0.657171   747A      0.659150   748A      0.659594  
     749A      0.661761   750A      0.661982   751A      0.662906  
     752A      0.664497   753A      0.665714   754A      0.668263  
     755A      0.668860   756A      0.671161   757A      0.671312  
     758A      0.672567   759A      0.674433   760A      0.675574  
     761A      0.676042   762A      0.677166   763A      0.677575  
     764A      0.679843   765A      0.680079   766A      0.683661  
     767A      0.684409   768A      0.685243   769A      0.686250  
     770A      0.688651   771A      0.689211   772A      0.690936  
     773A      0.691902   774A      0.692229   775A      0.692322  
     776A      0.695643   777A      0.696528   778A      0.697387  
     779A      0.698428   780A      0.701220   781A      0.701960  
     782A      0.703267   783A      0.704257   784A      0.706476  
     785A      0.707049   786A      0.709812   787A      0.711475  
     788A      0.713046   789A      0.714956   790A      0.715734  
     791A      0.717056   792A      0.717519   793A      0.718235  
     794A      0.720515   795A      0.721306   796A      0.723248  
     797A      0.724460   798A      0.725379   799A      0.727231  
     800A      0.728953   801A      0.731722   802A      0.731981  
     803A      0.733998   804A      0.734439   805A      0.736244  
     806A      0.737946   807A      0.738571   808A      0.740171  
     809A      0.740759   810A      0.742123   811A      0.744610  
     812A      0.746572   813A      0.746945   814A      0.747143  
     815A      0.749013   816A      0.750967   817A      0.753097  
     818A      0.754768   819A      0.756147   820A      0.756627  
     821A      0.757809   822A      0.758893   823A      0.760925  
     824A      0.762055   825A      0.763835   826A      0.764797  
     827A      0.765363   828A      0.765694   829A      0.769255  
     830A      0.769798   831A      0.771441   832A      0.771594  
     833A      0.774664   834A      0.775081   835A      0.776838  
     836A      0.777884   837A      0.778063   838A      0.778584  
     839A      0.783422   840A      0.785389   841A      0.786045  
     842A      0.786512   843A      0.787647   844A      0.790798  
     845A      0.791992   846A      0.793101   847A      0.793453  
     848A      0.794082   849A      0.795797   850A      0.797488  
     851A      0.797925   852A      0.798651   853A      0.803360  
     854A      0.803621   855A      0.807694   856A      0.808158  
     857A      0.808425   858A      0.809161   859A      0.811480  
     860A      0.812234   861A      0.814080   862A      0.814159  
     863A      0.815637   864A      0.817693   865A      0.817928  
     866A      0.819147   867A      0.821272   868A      0.821878  
     869A      0.822312   870A      0.822716   871A      0.823565  
     872A      0.825815   873A      0.826004   874A      0.827696  
     875A      0.831035   876A      0.831733   877A      0.831840  
     878A      0.833519   879A      0.834369   880A      0.835298  
     881A      0.836452   882A      0.839576   883A      0.840455  
     884A      0.841084   885A      0.842305   886A      0.844889  
     887A      0.846804   888A      0.847387   889A      0.850072  
     890A      0.851193   891A      0.851953   892A      0.854643  
     893A      0.854960   894A      0.855864   895A      0.856168  
     896A      0.859194   897A      0.859307   898A      0.861239  
     899A      0.861540   900A      0.862186   901A      0.864342  
     902A      0.865004   903A      0.868271   904A      0.868723  
     905A      0.869266   906A      0.869994   907A      0.870694  
     908A      0.873508   909A      0.874416   910A      0.876407  
     911A      0.876891   912A      0.877353   913A      0.878105  
     914A      0.879658   915A      0.880061   916A      0.880251  
     917A      0.882934   918A      0.883105   919A      0.883783  
     920A      0.884353   921A      0.887178   922A      0.887398  
     923A      0.889699   924A      0.889888   925A      0.890768  
     926A      0.890958   927A      0.893956   928A      0.895134  
     929A      0.895525   930A      0.896359   931A      0.896993  
     932A      0.898351   933A      0.900033   934A      0.900536  
     935A      0.901330   936A      0.901801   937A      0.902267  
     938A      0.904915   939A      0.905051   940A      0.905713  
     941A      0.909070   942A      0.910261   943A      0.910759  
     944A      0.911055   945A      0.914990   946A      0.915984  
     947A      0.917192   948A      0.917486   949A      0.918229  
     950A      0.918535   951A      0.920183   952A      0.922887  
     953A      0.923367   954A      0.924901   955A      0.925788  
     956A      0.927033   957A      0.927383   958A      0.929453  
     959A      0.930044   960A      0.930767   961A      0.931368  
     962A      0.931944   963A      0.934490   964A      0.935364  
     965A      0.936145   966A      0.938601   967A      0.940065  
     968A      0.942031   969A      0.942481   970A      0.943791  
     971A      0.945060   972A      0.946060   973A      0.948131  
     974A      0.948838   975A      0.950069   976A      0.950302  
     977A      0.952418   978A      0.953634   979A      0.955041  
     980A      0.955188   981A      0.955807   982A      0.957857  
     983A      0.958204   984A      0.961517   985A      0.962198  
     986A      0.962621   987A      0.964162   988A      0.964572  
     989A      0.965513   990A      0.968275   991A      0.968439  
     992A      0.969065   993A      0.970843   994A      0.972798  
     995A      0.973340   996A      0.974597   997A      0.976717  
     998A      0.977059   999A      0.981101  1000A      0.981226  
    1001A      0.981654  1002A      0.983627  1003A      0.984091  
    1004A      0.985122  1005A      0.986785  1006A      0.987518  
    1007A      0.989371  1008A      0.989475  1009A      0.990151  
    1010A      0.993075  1011A      0.993925  1012A      0.998517  
    1013A      0.999093  1014A      0.999288  1015A      1.000699  
    1016A      1.002764  1017A      1.003726  1018A      1.004464  
    1019A      1.005258  1020A      1.006186  1021A      1.007201  
    1022A      1.009200  1023A      1.010072  1024A      1.010750  
    1025A      1.011595  1026A      1.013295  1027A      1.013569  
    1028A      1.014164  1029A      1.015111  1030A      1.015883  
    1031A      1.019986  1032A      1.022277  1033A      1.023187  
    1034A      1.025524  1035A      1.026549  1036A      1.027557  
    1037A      1.028360  1038A      1.031396  1039A      1.032103  
    1040A      1.032716  1041A      1.033936  1042A      1.035343  
    1043A      1.036982  1044A      1.037756  1045A      1.040817  
    1046A      1.041394  1047A      1.042784  1048A      1.044932  
    1049A      1.047397  1050A      1.047688  1051A      1.048282  
    1052A      1.050299  1053A      1.051050  1054A      1.051658  
    1055A      1.051925  1056A      1.055781  1057A      1.055992  
    1058A      1.059179  1059A      1.059362  1060A      1.062223  
    1061A      1.062484  1062A      1.063565  1063A      1.064884  
    1064A      1.067752  1065A      1.068674  1066A      1.069007  
    1067A      1.071076  1068A      1.072437  1069A      1.074052  
    1070A      1.075269  1071A      1.075884  1072A      1.076765  
    1073A      1.078398  1074A      1.079357  1075A      1.081051  
    1076A      1.081439  1077A      1.084358  1078A      1.086083  
    1079A      1.087302  1080A      1.087701  1081A      1.088179  
    1082A      1.089897  1083A      1.090585  1084A      1.096344  
    1085A      1.098582  1086A      1.099379  1087A      1.099606  
    1088A      1.100127  1089A      1.100430  1090A      1.102355  
    1091A      1.104220  1092A      1.105077  1093A      1.106048  
    1094A      1.108360  1095A      1.108395  1096A      1.110659  
    1097A      1.112630  1098A      1.114326  1099A      1.115728  
    1100A      1.117608  1101A      1.118037  1102A      1.120323  
    1103A      1.121916  1104A      1.123045  1105A      1.124555  
    1106A      1.125791  1107A      1.126382  1108A      1.127600  
    1109A      1.130978  1110A      1.131263  1111A      1.131580  
    1112A      1.134923  1113A      1.135210  1114A      1.136097  
    1115A      1.136971  1116A      1.139602  1117A      1.140012  
    1118A      1.141978  1119A      1.143766  1120A      1.144399  
    1121A      1.145228  1122A      1.146998  1123A      1.148112  
    1124A      1.150838  1125A      1.151387  1126A      1.154168  
    1127A      1.155287  1128A      1.156544  1129A      1.158255  
    1130A      1.158614  1131A      1.162316  1132A      1.162491  
    1133A      1.164803  1134A      1.165171  1135A      1.165924  
    1136A      1.167988  1137A      1.168463  1138A      1.169291  
    1139A      1.172532  1140A      1.173084  1141A      1.174415  
    1142A      1.176053  1143A      1.177775  1144A      1.178841  
    1145A      1.181431  1146A      1.183374  1147A      1.185204  
    1148A      1.185952  1149A      1.187713  1150A      1.189629  
    1151A      1.192719  1152A      1.193681  1153A      1.194953  
    1154A      1.197612  1155A      1.198047  1156A      1.199595  
    1157A      1.201940  1158A      1.202709  1159A      1.205376  
    1160A      1.205839  1161A      1.206746  1162A      1.207753  
    1163A      1.208162  1164A      1.209205  1165A      1.214504  
    1166A      1.215989  1167A      1.216909  1168A      1.217056  
    1169A      1.218597  1170A      1.221014  1171A      1.221590  
    1172A      1.222878  1173A      1.223152  1174A      1.224801  
    1175A      1.226484  1176A      1.229163  1177A      1.230883  
    1178A      1.231315  1179A      1.231985  1180A      1.234435  
    1181A      1.235118  1182A      1.236622  1183A      1.238391  
    1184A      1.240353  1185A      1.242808  1186A      1.244281  
    1187A      1.247303  1188A      1.247597  1189A      1.249728  
    1190A      1.250366  1191A      1.253832  1192A      1.254877  
    1193A      1.255231  1194A      1.256754  1195A      1.258481  
    1196A      1.260718  1197A      1.262128  1198A      1.263204  
    1199A      1.264870  1200A      1.266899  1201A      1.268056  
    1202A      1.269112  1203A      1.269927  1204A      1.271745  
    1205A      1.272305  1206A      1.272649  1207A      1.274215  
    1208A      1.278399  1209A      1.280038  1210A      1.281643  
    1211A      1.282419  1212A      1.283024  1213A      1.284100  
    1214A      1.286690  1215A      1.287189  1216A      1.287762  
    1217A      1.290872  1218A      1.293053  1219A      1.293901  
    1220A      1.295266  1221A      1.296230  1222A      1.297624  
    1223A      1.298529  1224A      1.299216  1225A      1.300876  
    1226A      1.302469  1227A      1.303502  1228A      1.305994  
    1229A      1.306363  1230A      1.308210  1231A      1.309825  
    1232A      1.310866  1233A      1.314126  1234A      1.317660  
    1235A      1.318953  1236A      1.319966  1237A      1.321339  
    1238A      1.322674  1239A      1.324326  1240A      1.326432  
    1241A      1.327396  1242A      1.328756  1243A      1.329669  
    1244A      1.330389  1245A      1.331561  1246A      1.332051  
    1247A      1.333752  1248A      1.336327  1249A      1.339238  
    1250A      1.339809  1251A      1.342662  1252A      1.343021  
    1253A      1.344200  1254A      1.344842  1255A      1.345520  
    1256A      1.348129  1257A      1.348705  1258A      1.349526  
    1259A      1.350891  1260A      1.351921  1261A      1.354534  
    1262A      1.357027  1263A      1.358425  1264A      1.359175  
    1265A      1.359767  1266A      1.360472  1267A      1.361097  
    1268A      1.363894  1269A      1.364190  1270A      1.366377  
    1271A      1.367871  1272A      1.368959  1273A      1.369582  
    1274A      1.371963  1275A      1.373288  1276A      1.374024  
    1277A      1.375018  1278A      1.377182  1279A      1.380643  
    1280A      1.382254  1281A      1.383238  1282A      1.383734  
    1283A      1.385092  1284A      1.388089  1285A      1.388562  
    1286A      1.390208  1287A      1.391306  1288A      1.394733  
    1289A      1.396504  1290A      1.397159  1291A      1.398145  
    1292A      1.401546  1293A      1.402917  1294A      1.403980  
    1295A      1.405304  1296A      1.406615  1297A      1.407510  
    1298A      1.409784  1299A      1.410820  1300A      1.411946  
    1301A      1.414272  1302A      1.414685  1303A      1.417465  
    1304A      1.419396  1305A      1.420514  1306A      1.420698  
    1307A      1.422607  1308A      1.423099  1309A      1.424921  
    1310A      1.425914  1311A      1.428342  1312A      1.429838  
    1313A      1.430717  1314A      1.433959  1315A      1.434199  
    1316A      1.437102  1317A      1.437429  1318A      1.437683  
    1319A      1.439620  1320A      1.439915  1321A      1.443829  
    1322A      1.444824  1323A      1.447125  1324A      1.448277  
    1325A      1.448824  1326A      1.449921  1327A      1.451443  
    1328A      1.452701  1329A      1.454895  1330A      1.456842  
    1331A      1.457287  1332A      1.458639  1333A      1.460702  
    1334A      1.461057  1335A      1.462239  1336A      1.463316  
    1337A      1.463869  1338A      1.465332  1339A      1.467143  
    1340A      1.470132  1341A      1.470709  1342A      1.471677  
    1343A      1.473323  1344A      1.473924  1345A      1.475250  
    1346A      1.476581  1347A      1.477314  1348A      1.479183  
    1349A      1.482232  1350A      1.482744  1351A      1.484577  
    1352A      1.487250  1353A      1.489518  1354A      1.490483  
    1355A      1.492240  1356A      1.492771  1357A      1.493794  
    1358A      1.494934  1359A      1.496366  1360A      1.497794  
    1361A      1.500142  1362A      1.500867  1363A      1.504022  
    1364A      1.504715  1365A      1.505031  1366A      1.505585  
    1367A      1.507608  1368A      1.508997  1369A      1.509605  
    1370A      1.512532  1371A      1.513950  1372A      1.514797  
    1373A      1.516361  1374A      1.517205  1375A      1.518222  
    1376A      1.519388  1377A      1.522732  1378A      1.525021  
    1379A      1.526088  1380A      1.527489  1381A      1.530282  
    1382A      1.530303  1383A      1.532838  1384A      1.535105  
    1385A      1.535711  1386A      1.536727  1387A      1.537499  
    1388A      1.539182  1389A      1.540841  1390A      1.542451  
    1391A      1.544280  1392A      1.545205  1393A      1.545572  
    1394A      1.547315  1395A      1.548202  1396A      1.550309  
    1397A      1.551290  1398A      1.553876  1399A      1.555148  
    1400A      1.556398  1401A      1.557002  1402A      1.559204  
    1403A      1.560414  1404A      1.561802  1405A      1.562187  
    1406A      1.565056  1407A      1.565365  1408A      1.566925  
    1409A      1.567034  1410A      1.570366  1411A      1.570965  
    1412A      1.572328  1413A      1.573457  1414A      1.574722  
    1415A      1.575403  1416A      1.576065  1417A      1.579674  
    1418A      1.580873  1419A      1.581473  1420A      1.582470  
    1421A      1.585188  1422A      1.585483  1423A      1.587194  
    1424A      1.589021  1425A      1.590149  1426A      1.591351  
    1427A      1.592658  1428A      1.593485  1429A      1.595395  
    1430A      1.596013  1431A      1.599602  1432A      1.600005  
    1433A      1.600256  1434A      1.601772  1435A      1.602598  
    1436A      1.602986  1437A      1.605363  1438A      1.605904  
    1439A      1.607965  1440A      1.611233  1441A      1.611537  
    1442A      1.615383  1443A      1.617011  1444A      1.619291  
    1445A      1.620130  1446A      1.620913  1447A      1.623742  
    1448A      1.624019  1449A      1.624695  1450A      1.624856  
    1451A      1.625824  1452A      1.627931  1453A      1.627957  
    1454A      1.630064  1455A      1.633291  1456A      1.634427  
    1457A      1.635143  1458A      1.636539  1459A      1.637456  
    1460A      1.639600  1461A      1.640092  1462A      1.643148  
    1463A      1.643940  1464A      1.645068  1465A      1.647178  
    1466A      1.648792  1467A      1.649646  1468A      1.650740  
    1469A      1.651306  1470A      1.652521  1471A      1.654194  
    1472A      1.654501  1473A      1.656027  1474A      1.657172  
    1475A      1.660069  1476A      1.660664  1477A      1.663852  
    1478A      1.664707  1479A      1.667459  1480A      1.669579  
    1481A      1.669634  1482A      1.670652  1483A      1.672963  
    1484A      1.673347  1485A      1.676922  1486A      1.678182  
    1487A      1.678943  1488A      1.679768  1489A      1.682735  
    1490A      1.684204  1491A      1.685424  1492A      1.686632  
    1493A      1.687289  1494A      1.687914  1495A      1.689088  
    1496A      1.689332  1497A      1.690157  1498A      1.692568  
    1499A      1.693382  1500A      1.694973  1501A      1.695979  
    1502A      1.697573  1503A      1.698531  1504A      1.699821  
    1505A      1.701086  1506A      1.701560  1507A      1.704103  
    1508A      1.706960  1509A      1.707462  1510A      1.707707  
    1511A      1.710196  1512A      1.710269  1513A      1.711304  
    1514A      1.715542  1515A      1.715915  1516A      1.716411  
    1517A      1.719702  1518A      1.720072  1519A      1.720790  
    1520A      1.721938  1521A      1.723410  1522A      1.723710  
    1523A      1.725042  1524A      1.729819  1525A      1.730701  
    1526A      1.731528  1527A      1.732091  1528A      1.733875  
    1529A      1.734814  1530A      1.740763  1531A      1.741871  
    1532A      1.742174  1533A      1.744462  1534A      1.747410  
    1535A      1.748178  1536A      1.749581  1537A      1.750831  
    1538A      1.754082  1539A      1.754896  1540A      1.757387  
    1541A      1.759298  1542A      1.759646  1543A      1.762056  
    1544A      1.763056  1545A      1.764892  1546A      1.765270  
    1547A      1.766334  1548A      1.769788  1549A      1.770741  
    1550A      1.771486  1551A      1.773194  1552A      1.773571  
    1553A      1.774096  1554A      1.776702  1555A      1.777147  
    1556A      1.778614  1557A      1.779939  1558A      1.782315  
    1559A      1.783182  1560A      1.785666  1561A      1.788832  
    1562A      1.789406  1563A      1.790429  1564A      1.791526  
    1565A      1.792384  1566A      1.794136  1567A      1.794728  
    1568A      1.795977  1569A      1.797565  1570A      1.799794  
    1571A      1.800411  1572A      1.801879  1573A      1.804878  
    1574A      1.806074  1575A      1.806371  1576A      1.807698  
    1577A      1.807949  1578A      1.810066  1579A      1.816238  
    1580A      1.816514  1581A      1.816895  1582A      1.819204  
    1583A      1.822364  1584A      1.825023  1585A      1.825201  
    1586A      1.826318  1587A      1.827174  1588A      1.828470  
    1589A      1.831617  1590A      1.833760  1591A      1.835306  
    1592A      1.835644  1593A      1.837327  1594A      1.838842  
    1595A      1.840708  1596A      1.842032  1597A      1.843877  
    1598A      1.846173  1599A      1.847118  1600A      1.847855  
    1601A      1.849124  1602A      1.851272  1603A      1.852761  
    1604A      1.853821  1605A      1.856686  1606A      1.857796  
    1607A      1.859046  1608A      1.861644  1609A      1.862340  
    1610A      1.863193  1611A      1.864995  1612A      1.866676  
    1613A      1.868475  1614A      1.869103  1615A      1.870136  
    1616A      1.870831  1617A      1.871807  1618A      1.874026  
    1619A      1.874919  1620A      1.875680  1621A      1.878099  
    1622A      1.880385  1623A      1.880885  1624A      1.882956  
    1625A      1.885910  1626A      1.886216  1627A      1.886530  
    1628A      1.888677  1629A      1.890517  1630A      1.890893  
    1631A      1.891454  1632A      1.896933  1633A      1.898295  
    1634A      1.899359  1635A      1.899822  1636A      1.900487  
    1637A      1.901859  1638A      1.903147  1639A      1.906693  
    1640A      1.907449  1641A      1.909113  1642A      1.909575  
    1643A      1.911283  1644A      1.912368  1645A      1.913706  
    1646A      1.914322  1647A      1.914939  1648A      1.917398  
    1649A      1.923616  1650A      1.924554  1651A      1.925589  
    1652A      1.925929  1653A      1.926933  1654A      1.928733  
    1655A      1.929175  1656A      1.930551  1657A      1.933164  
    1658A      1.933274  1659A      1.934347  1660A      1.937441  
    1661A      1.937657  1662A      1.939591  1663A      1.940783  
    1664A      1.942946  1665A      1.943266  1666A      1.946807  
    1667A      1.948440  1668A      1.950436  1669A      1.955297  
    1670A      1.956032  1671A      1.956786  1672A      1.957296  
    1673A      1.958732  1674A      1.960087  1675A      1.962988  
    1676A      1.963417  1677A      1.965550  1678A      1.967753  
    1679A      1.968050  1680A      1.968319  1681A      1.970595  
    1682A      1.972489  1683A      1.974963  1684A      1.975914  
    1685A      1.979398  1686A      1.980101  1687A      1.981918  
    1688A      1.983398  1689A      1.983820  1690A      1.984359  
    1691A      1.986000  1692A      1.987271  1693A      1.990597  
    1694A      1.995132  1695A      1.995912  1696A      1.998798  
    1697A      1.999051  1698A      2.000265  1699A      2.002905  
    1700A      2.004201  1701A      2.005216  1702A      2.006030  
    1703A      2.010618  1704A      2.011363  1705A      2.012003  
    1706A      2.014200  1707A      2.015082  1708A      2.016503  
    1709A      2.020023  1710A      2.020887  1711A      2.024088  
    1712A      2.025092  1713A      2.025960  1714A      2.028422  
    1715A      2.028723  1716A      2.031551  1717A      2.033211  
    1718A      2.033304  1719A      2.034641  1720A      2.037311  
    1721A      2.038059  1722A      2.041147  1723A      2.043552  
    1724A      2.044457  1725A      2.046646  1726A      2.047905  
    1727A      2.048758  1728A      2.049422  1729A      2.050311  
    1730A      2.053811  1731A      2.054380  1732A      2.058647  
    1733A      2.059441  1734A      2.060439  1735A      2.065067  
    1736A      2.065769  1737A      2.067094  1738A      2.068143  
    1739A      2.070539  1740A      2.071482  1741A      2.072955  
    1742A      2.075893  1743A      2.076285  1744A      2.077583  
    1745A      2.080097  1746A      2.080903  1747A      2.084000  
    1748A      2.084825  1749A      2.087164  1750A      2.088023  
    1751A      2.089029  1752A      2.090746  1753A      2.091917  
    1754A      2.093349  1755A      2.094344  1756A      2.097734  
    1757A      2.098282  1758A      2.102563  1759A      2.103856  
    1760A      2.105743  1761A      2.107270  1762A      2.107949  
    1763A      2.110599  1764A      2.111898  1765A      2.113013  
    1766A      2.115391  1767A      2.116737  1768A      2.118195  
    1769A      2.120180  1770A      2.122083  1771A      2.123510  
    1772A      2.127218  1773A      2.128649  1774A      2.129421  
    1775A      2.131555  1776A      2.132998  1777A      2.135674  
    1778A      2.137680  1779A      2.138676  1780A      2.143572  
    1781A      2.144591  1782A      2.146641  1783A      2.147234  
    1784A      2.150963  1785A      2.151847  1786A      2.153059  
    1787A      2.157006  1788A      2.157842  1789A      2.158905  
    1790A      2.160364  1791A      2.163865  1792A      2.164787  
    1793A      2.168048  1794A      2.168745  1795A      2.170715  
    1796A      2.172277  1797A      2.174945  1798A      2.175878  
    1799A      2.178832  1800A      2.180251  1801A      2.181017  
    1802A      2.181927  1803A      2.184796  1804A      2.186438  
    1805A      2.187547  1806A      2.190261  1807A      2.191945  
    1808A      2.192270  1809A      2.195092  1810A      2.198800  
    1811A      2.200340  1812A      2.200952  1813A      2.205322  
    1814A      2.205824  1815A      2.206078  1816A      2.210690  
    1817A      2.210938  1818A      2.211876  1819A      2.217800  
    1820A      2.218983  1821A      2.219335  1822A      2.224301  
    1823A      2.225049  1824A      2.227095  1825A      2.228003  
    1826A      2.228946  1827A      2.230778  1828A      2.232313  
    1829A      2.233767  1830A      2.236974  1831A      2.238475  
    1832A      2.242197  1833A      2.243729  1834A      2.246376  
    1835A      2.247102  1836A      2.249177  1837A      2.253083  
    1838A      2.253661  1839A      2.256310  1840A      2.257971  
    1841A      2.260240  1842A      2.260922  1843A      2.262089  
    1844A      2.264318  1845A      2.267799  1846A      2.269196  
    1847A      2.271302  1848A      2.274550  1849A      2.276123  
    1850A      2.277781  1851A      2.280705  1852A      2.282845  
    1853A      2.284874  1854A      2.288270  1855A      2.288929  
    1856A      2.290632  1857A      2.291694  1858A      2.292709  
    1859A      2.293013  1860A      2.293407  1861A      2.298463  
    1862A      2.300939  1863A      2.304151  1864A      2.305837  
    1865A      2.308413  1866A      2.309622  1867A      2.311612  
    1868A      2.312178  1869A      2.313430  1870A      2.318313  
    1871A      2.320397  1872A      2.322820  1873A      2.323964  
    1874A      2.326163  1875A      2.327570  1876A      2.330845  
    1877A      2.331708  1878A      2.333709  1879A      2.336650  
    1880A      2.339135  1881A      2.342519  1882A      2.342625  
    1883A      2.343221  1884A      2.345651  1885A      2.349737  
    1886A      2.350868  1887A      2.353635  1888A      2.353954  
    1889A      2.356408  1890A      2.358554  1891A      2.358975  
    1892A      2.360298  1893A      2.362164  1894A      2.363536  
    1895A      2.369219  1896A      2.370656  1897A      2.370770  
    1898A      2.373445  1899A      2.376737  1900A      2.378031  
    1901A      2.379261  1902A      2.382378  1903A      2.384210  
    1904A      2.387115  1905A      2.388364  1906A      2.388927  
    1907A      2.391818  1908A      2.395470  1909A      2.397706  
    1910A      2.397961  1911A      2.399540  1912A      2.400530  
    1913A      2.402533  1914A      2.403569  1915A      2.404156  
    1916A      2.405260  1917A      2.406992  1918A      2.409168  
    1919A      2.412894  1920A      2.414515  1921A      2.417203  
    1922A      2.418718  1923A      2.420471  1924A      2.421710  
    1925A      2.423226  1926A      2.425263  1927A      2.429706  
    1928A      2.431711  1929A      2.433979  1930A      2.435223  
    1931A      2.437239  1932A      2.439374  1933A      2.440764  
    1934A      2.442439  1935A      2.444665  1936A      2.444934  
    1937A      2.445639  1938A      2.449787  1939A      2.450899  
    1940A      2.451691  1941A      2.453507  1942A      2.456089  
    1943A      2.457253  1944A      2.458283  1945A      2.463098  
    1946A      2.464170  1947A      2.464798  1948A      2.468084  
    1949A      2.471557  1950A      2.472260  1951A      2.473560  
    1952A      2.475933  1953A      2.476365  1954A      2.477115  
    1955A      2.478689  1956A      2.487142  1957A      2.488137  
    1958A      2.490094  1959A      2.493189  1960A      2.494519  
    1961A      2.498167  1962A      2.500226  1963A      2.502237  
    1964A      2.503098  1965A      2.503691  1966A      2.505330  
    1967A      2.507191  1968A      2.510463  1969A      2.513316  
    1970A      2.514278  1971A      2.517538  1972A      2.518494  
    1973A      2.521304  1974A      2.523563  1975A      2.525688  
    1976A      2.526597  1977A      2.528902  1978A      2.529813  
    1979A      2.534128  1980A      2.534945  1981A      2.535630  
    1982A      2.536619  1983A      2.536882  1984A      2.538697  
    1985A      2.543458  1986A      2.544240  1987A      2.550107  
    1988A      2.551827  1989A      2.552828  1990A      2.553480  
    1991A      2.554917  1992A      2.558709  1993A      2.560398  
    1994A      2.562362  1995A      2.564520  1996A      2.564884  
    1997A      2.570483  1998A      2.571225  1999A      2.572558  
    2000A      2.575537  2001A      2.576308  2002A      2.578415  
    2003A      2.579756  2004A      2.581034  2005A      2.585551  
    2006A      2.589220  2007A      2.590908  2008A      2.592572  
    2009A      2.593556  2010A      2.596865  2011A      2.597946  
    2012A      2.599745  2013A      2.603522  2014A      2.604661  
    2015A      2.608501  2016A      2.609951  2017A      2.610591  
    2018A      2.613757  2019A      2.615240  2020A      2.621064  
    2021A      2.622586  2022A      2.625290  2023A      2.626924  
    2024A      2.628474  2025A      2.630459  2026A      2.631676  
    2027A      2.632922  2028A      2.637380  2029A      2.639515  
    2030A      2.640508  2031A      2.648649  2032A      2.649145  
    2033A      2.652143  2034A      2.653020  2035A      2.657609  
    2036A      2.659326  2037A      2.660480  2038A      2.662178  
    2039A      2.664113  2040A      2.670810  2041A      2.671565  
    2042A      2.673787  2043A      2.678324  2044A      2.680284  
    2045A      2.684228  2046A      2.685819  2047A      2.688113  
    2048A      2.690944  2049A      2.693715  2050A      2.693903  
    2051A      2.696759  2052A      2.701311  2053A      2.702102  
    2054A      2.702923  2055A      2.707706  2056A      2.710661  
    2057A      2.714840  2058A      2.716344  2059A      2.718754  
    2060A      2.719942  2061A      2.721896  2062A      2.725100  
    2063A      2.727469  2064A      2.730816  2065A      2.731502  
    2066A      2.734278  2067A      2.741185  2068A      2.741542  
    2069A      2.742126  2070A      2.748530  2071A      2.749541  
    2072A      2.752424  2073A      2.753593  2074A      2.756800  
    2075A      2.760875  2076A      2.762837  2077A      2.765854  
    2078A      2.769954  2079A      2.773275  2080A      2.776141  
    2081A      2.785582  2082A      2.791809  2083A      2.792030  
    2084A      2.796967  2085A      2.798302  2086A      2.799193  
    2087A      2.800744  2088A      2.805056  2089A      2.809454  
    2090A      2.811231  2091A      2.815532  2092A      2.822586  
    2093A      2.826833  2094A      2.827426  2095A      2.836436  
    2096A      2.837398  2097A      2.837766  2098A      2.843800  
    2099A      2.845992  2100A      2.848988  2101A      2.855062  
    2102A      2.855894  2103A      2.859081  2104A      2.866068  
    2105A      2.866956  2106A      2.866964  2107A      2.872081  
    2108A      2.880959  2109A      2.887274  2110A      2.890787  
    2111A      2.891743  2112A      2.898746  2113A      2.900544  
    2114A      2.904559  2115A      2.907986  2116A      2.912594  
    2117A      2.917684  2118A      2.918289  2119A      2.928646  
    2120A      2.932371  2121A      2.934780  2122A      2.941014  
    2123A      2.944380  2124A      2.944644  2125A      2.950120  
    2126A      2.956247  2127A      2.959155  2128A      2.960099  
    2129A      2.966752  2130A      2.969220  2131A      2.974624  
    2132A      2.978527  2133A      2.983933  2134A      2.989452  
    2135A      3.000102  2136A      3.003367  2137A      3.014322  
    2138A      3.016291  2139A      3.020417  2140A      3.023829  
    2141A      3.029019  2142A      3.032356  2143A      3.037252  
    2144A      3.039690  2145A      3.043066  2146A      3.053600  
    2147A      3.060612  2148A      3.062919  2149A      3.065113  
    2150A      3.068487  2151A      3.074823  2152A      3.075629  
    2153A      3.082841  2154A      3.097178  2155A      3.101729  
    2156A      3.102523  2157A      3.109313  2158A      3.114165  
    2159A      3.116498  2160A      3.124339  2161A      3.128693  
    2162A      3.130208  2163A      3.133934  2164A      3.134691  
    2165A      3.142163  2166A      3.146796  2167A      3.147562  
    2168A      3.155466  2169A      3.160506  2170A      3.165023  
    2171A      3.172455  2172A      3.174254  2173A      3.175411  
    2174A      3.190640  2175A      3.192583  2176A      3.194152  
    2177A      3.195596  2178A      3.198354  2179A      3.202637  
    2180A      3.209802  2181A      3.219417  2182A      3.220467  
    2183A      3.222956  2184A      3.225200  2185A      3.228362  
    2186A      3.229470  2187A      3.232763  2188A      3.241952  
    2189A      3.251409  2190A      3.251660  2191A      3.254524  
    2192A      3.260302  2193A      3.261527  2194A      3.263815  
    2195A      3.264011  2196A      3.269146  2197A      3.269662  
    2198A      3.277554  2199A      3.278875  2200A      3.279575  
    2201A      3.281115  2202A      3.287755  2203A      3.288452  
    2204A      3.293577  2205A      3.294862  2206A      3.295627  
    2207A      3.299526  2208A      3.303733  2209A      3.307801  
    2210A      3.309817  2211A      3.312161  2212A      3.314556  
    2213A      3.315502  2214A      3.323704  2215A      3.327231  
    2216A      3.327445  2217A      3.330962  2218A      3.331338  
    2219A      3.337151  2220A      3.338262  2221A      3.340476  
    2222A      3.340585  2223A      3.343794  2224A      3.345528  
    2225A      3.349173  2226A      3.354806  2227A      3.356041  
    2228A      3.363011  2229A      3.363458  2230A      3.368033  
    2231A      3.368941  2232A      3.373125  2233A      3.375477  
    2234A      3.376826  2235A      3.377427  2236A      3.380204  
    2237A      3.381448  2238A      3.386816  2239A      3.387144  
    2240A      3.389360  2241A      3.392219  2242A      3.395148  
    2243A      3.396631  2244A      3.397476  2245A      3.402788  
    2246A      3.404392  2247A      3.405548  2248A      3.405956  
    2249A      3.410492  2250A      3.412529  2251A      3.415996  
    2252A      3.419422  2253A      3.420449  2254A      3.423635  
    2255A      3.425493  2256A      3.427251  2257A      3.429178  
    2258A      3.430282  2259A      3.435015  2260A      3.438007  
    2261A      3.441233  2262A      3.442461  2263A      3.444477  
    2264A      3.445537  2265A      3.447410  2266A      3.449117  
    2267A      3.451354  2268A      3.454465  2269A      3.455656  
    2270A      3.459511  2271A      3.460810  2272A      3.461293  
    2273A      3.463220  2274A      3.464330  2275A      3.467720  
    2276A      3.470958  2277A      3.471542  2278A      3.472498  
    2279A      3.477480  2280A      3.479623  2281A      3.481691  
    2282A      3.483282  2283A      3.486694  2284A      3.489564  
    2285A      3.492538  2286A      3.493504  2287A      3.498991  
    2288A      3.500391  2289A      3.501631  2290A      3.501777  
    2291A      3.505152  2292A      3.506746  2293A      3.508810  
    2294A      3.509368  2295A      3.512595  2296A      3.513708  
    2297A      3.517614  2298A      3.519669  2299A      3.522458  
    2300A      3.524800  2301A      3.526666  2302A      3.528034  
    2303A      3.530278  2304A      3.534197  2305A      3.535156  
    2306A      3.535516  2307A      3.541200  2308A      3.543537  
    2309A      3.548153  2310A      3.548726  2311A      3.549471  
    2312A      3.551251  2313A      3.554381  2314A      3.558425  
    2315A      3.559302  2316A      3.560821  2317A      3.562277  
    2318A      3.564479  2319A      3.565379  2320A      3.566311  
    2321A      3.569593  2322A      3.570336  2323A      3.571586  
    2324A      3.574794  2325A      3.575351  2326A      3.576975  
    2327A      3.578177  2328A      3.580253  2329A      3.582997  
    2330A      3.583675  2331A      3.585925  2332A      3.586443  
    2333A      3.589539  2334A      3.592968  2335A      3.595096  
    2336A      3.596091  2337A      3.599051  2338A      3.600239  
    2339A      3.600867  2340A      3.603131  2341A      3.605250  
    2342A      3.607931  2343A      3.609724  2344A      3.610546  
    2345A      3.612629  2346A      3.614597  2347A      3.615421  
    2348A      3.617142  2349A      3.621476  2350A      3.621840  
    2351A      3.624227  2352A      3.626090  2353A      3.626264  
    2354A      3.629392  2355A      3.631967  2356A      3.634313  
    2357A      3.634759  2358A      3.636403  2359A      3.637446  
    2360A      3.637701  2361A      3.640753  2362A      3.641810  
    2363A      3.643122  2364A      3.644350  2365A      3.645804  
    2366A      3.648896  2367A      3.652915  2368A      3.654024  
    2369A      3.658102  2370A      3.658349  2371A      3.660474  
    2372A      3.661622  2373A      3.663129  2374A      3.663496  
    2375A      3.669620  2376A      3.671090  2377A      3.671388  
    2378A      3.675807  2379A      3.676842  2380A      3.679145  
    2381A      3.679411  2382A      3.680090  2383A      3.682274  
    2384A      3.687141  2385A      3.687461  2386A      3.690372  
    2387A      3.691826  2388A      3.693787  2389A      3.694692  
    2390A      3.699689  2391A      3.700514  2392A      3.701474  
    2393A      3.702770  2394A      3.704910  2395A      3.705421  
    2396A      3.706824  2397A      3.707858  2398A      3.710858  
    2399A      3.713990  2400A      3.714538  2401A      3.721780  
    2402A      3.722417  2403A      3.723489  2404A      3.724730  
    2405A      3.725046  2406A      3.728580  2407A      3.728963  
    2408A      3.730522  2409A      3.733246  2410A      3.736884  
    2411A      3.741637  2412A      3.742278  2413A      3.744150  
    2414A      3.746676  2415A      3.747467  2416A      3.747770  
    2417A      3.748024  2418A      3.751624  2419A      3.752934  
    2420A      3.753272  2421A      3.753393  2422A      3.758043  
    2423A      3.758523  2424A      3.759483  2425A      3.761440  
    2426A      3.764223  2427A      3.764349  2428A      3.768763  
    2429A      3.769039  2430A      3.769810  2431A      3.772553  
    2432A      3.775650  2433A      3.776628  2434A      3.779034  
    2435A      3.781206  2436A      3.781358  2437A      3.785099  
    2438A      3.786463  2439A      3.789654  2440A      3.790304  
    2441A      3.793381  2442A      3.795059  2443A      3.795708  
    2444A      3.799496  2445A      3.800534  2446A      3.801110  
    2447A      3.801446  2448A      3.803419  2449A      3.806109  
    2450A      3.807504  2451A      3.809435  2452A      3.809823  
    2453A      3.813837  2454A      3.815091  2455A      3.817519  
    2456A      3.818977  2457A      3.822921  2458A      3.823772  
    2459A      3.826780  2460A      3.828397  2461A      3.829115  
    2462A      3.830326  2463A      3.834150  2464A      3.836140  
    2465A      3.839024  2466A      3.839642  2467A      3.841224  
    2468A      3.842156  2469A      3.849434  2470A      3.850134  
    2471A      3.850873  2472A      3.852332  2473A      3.853192  
    2474A      3.855857  2475A      3.856147  2476A      3.858676  
    2477A      3.861046  2478A      3.862615  2479A      3.864603  
    2480A      3.867470  2481A      3.868422  2482A      3.870203  
    2483A      3.871895  2484A      3.872758  2485A      3.874149  
    2486A      3.875873  2487A      3.877722  2488A      3.881779  
    2489A      3.883269  2490A      3.884153  2491A      3.885480  
    2492A      3.888829  2493A      3.891028  2494A      3.893240  
    2495A      3.893841  2496A      3.896741  2497A      3.897318  
    2498A      3.898108  2499A      3.900297  2500A      3.902335  
    2501A      3.903247  2502A      3.905393  2503A      3.908134  
    2504A      3.909838  2505A      3.911318  2506A      3.912258  
    2507A      3.912696  2508A      3.915409  2509A      3.917046  
    2510A      3.918403  2511A      3.919804  2512A      3.925156  
    2513A      3.927469  2514A      3.927942  2515A      3.929667  
    2516A      3.931260  2517A      3.931754  2518A      3.935374  
    2519A      3.936092  2520A      3.939376  2521A      3.940099  
    2522A      3.941347  2523A      3.946411  2524A      3.946614  
    2525A      3.949440  2526A      3.950661  2527A      3.952766  
    2528A      3.955567  2529A      3.956067  2530A      3.957774  
    2531A      3.959513  2532A      3.961202  2533A      3.966490  
    2534A      3.967303  2535A      3.969695  2536A      3.971456  
    2537A      3.972632  2538A      3.974229  2539A      3.974573  
    2540A      3.976342  2541A      3.977166  2542A      3.981552  
    2543A      3.983246  2544A      3.984067  2545A      3.989064  
    2546A      3.989651  2547A      3.992475  2548A      3.994064  
    2549A      4.000368  2550A      4.001023  2551A      4.002643  
    2552A      4.004605  2553A      4.006710  2554A      4.007945  
    2555A      4.008443  2556A      4.010564  2557A      4.011718  
    2558A      4.012686  2559A      4.015445  2560A      4.016457  
    2561A      4.018114  2562A      4.022311  2563A      4.022320  
    2564A      4.023974  2565A      4.028586  2566A      4.029454  
    2567A      4.032505  2568A      4.034070  2569A      4.034297  
    2570A      4.036797  2571A      4.044219  2572A      4.044505  
    2573A      4.046858  2574A      4.047486  2575A      4.050140  
    2576A      4.050637  2577A      4.056362  2578A      4.056791  
    2579A      4.057780  2580A      4.058839  2581A      4.063922  
    2582A      4.064203  2583A      4.066175  2584A      4.069903  
    2585A      4.071532  2586A      4.073235  2587A      4.074110  
    2588A      4.075342  2589A      4.077079  2590A      4.080990  
    2591A      4.081958  2592A      4.083990  2593A      4.085616  
    2594A      4.089543  2595A      4.091408  2596A      4.091897  
    2597A      4.093230  2598A      4.095427  2599A      4.096271  
    2600A      4.099130  2601A      4.100641  2602A      4.102752  
    2603A      4.106089  2604A      4.111400  2605A      4.116378  
    2606A      4.116484  2607A      4.117152  2608A      4.118903  
    2609A      4.120981  2610A      4.121576  2611A      4.125592  
    2612A      4.125751  2613A      4.127712  2614A      4.131746  
    2615A      4.133909  2616A      4.135777  2617A      4.136813  
    2618A      4.138922  2619A      4.139193  2620A      4.139641  
    2621A      4.142693  2622A      4.143429  2623A      4.145176  
    2624A      4.147518  2625A      4.151439  2626A      4.151755  
    2627A      4.153328  2628A      4.156004  2629A      4.158376  
    2630A      4.160598  2631A      4.160659  2632A      4.165398  
    2633A      4.166378  2634A      4.169774  2635A      4.170571  
    2636A      4.171663  2637A      4.174308  2638A      4.175262  
    2639A      4.175709  2640A      4.178182  2641A      4.180136  
    2642A      4.180177  2643A      4.182891  2644A      4.185295  
    2645A      4.186190  2646A      4.187164  2647A      4.188347  
    2648A      4.189853  2649A      4.194913  2650A      4.196048  
    2651A      4.196579  2652A      4.201569  2653A      4.203367  
    2654A      4.204802  2655A      4.205657  2656A      4.208590  
    2657A      4.209415  2658A      4.213356  2659A      4.213719  
    2660A      4.220411  2661A      4.220566  2662A      4.225073  
    2663A      4.225230  2664A      4.227746  2665A      4.228220  
    2666A      4.230015  2667A      4.231593  2668A      4.232696  
    2669A      4.236914  2670A      4.239199  2671A      4.240561  
    2672A      4.243131  2673A      4.243778  2674A      4.246680  
    2675A      4.246911  2676A      4.250590  2677A      4.254428  
    2678A      4.255478  2679A      4.258362  2680A      4.262391  
    2681A      4.265148  2682A      4.266005  2683A      4.266812  
    2684A      4.268328  2685A      4.271278  2686A      4.272736  
    2687A      4.274471  2688A      4.275622  2689A      4.278897  
    2690A      4.279725  2691A      4.279946  2692A      4.285019  
    2693A      4.286389  2694A      4.287952  2695A      4.289044  
    2696A      4.290338  2697A      4.291347  2698A      4.292005  
    2699A      4.299446  2700A      4.299708  2701A      4.301802  
    2702A      4.304062  2703A      4.306997  2704A      4.307684  
    2705A      4.311837  2706A      4.313080  2707A      4.314100  
    2708A      4.315375  2709A      4.318151  2710A      4.319215  
    2711A      4.319396  2712A      4.321681  2713A      4.327678  
    2714A      4.328497  2715A      4.330924  2716A      4.332151  
    2717A      4.332720  2718A      4.335081  2719A      4.337572  
    2720A      4.338755  2721A      4.341469  2722A      4.344109  
    2723A      4.345034  2724A      4.348435  2725A      4.349475  
    2726A      4.350236  2727A      4.353640  2728A      4.356678  
    2729A      4.359350  2730A      4.362450  2731A      4.363664  
    2732A      4.364978  2733A      4.367401  2734A      4.367954  
    2735A      4.368047  2736A      4.371026  2737A      4.373876  
    2738A      4.375585  2739A      4.376353  2740A      4.381999  
    2741A      4.383954  2742A      4.385949  2743A      4.388481  
    2744A      4.389717  2745A      4.390394  2746A      4.393064  
    2747A      4.393527  2748A      4.395354  2749A      4.397832  
    2750A      4.399586  2751A      4.400776  2752A      4.403776  
    2753A      4.405004  2754A      4.408456  2755A      4.411058  
    2756A      4.417521  2757A      4.418596  2758A      4.419667  
    2759A      4.421022  2760A      4.423610  2761A      4.423814  
    2762A      4.428080  2763A      4.430643  2764A      4.433784  
    2765A      4.433937  2766A      4.437567  2767A      4.438985  
    2768A      4.440556  2769A      4.441268  2770A      4.442031  
    2771A      4.445905  2772A      4.447611  2773A      4.454295  
    2774A      4.457430  2775A      4.457572  2776A      4.459342  
    2777A      4.460776  2778A      4.461423  2779A      4.464171  
    2780A      4.465413  2781A      4.466457  2782A      4.469278  
    2783A      4.474107  2784A      4.474828  2785A      4.476752  
    2786A      4.478621  2787A      4.478969  2788A      4.481727  
    2789A      4.488777  2790A      4.489183  2791A      4.490270  
    2792A      4.490876  2793A      4.494952  2794A      4.499796  
    2795A      4.502205  2796A      4.503181  2797A      4.505650  
    2798A      4.508090  2799A      4.510088  2800A      4.512029  
    2801A      4.513661  2802A      4.514179  2803A      4.515908  
    2804A      4.519297  2805A      4.524082  2806A      4.527011  
    2807A      4.530165  2808A      4.533189  2809A      4.533972  
    2810A      4.537315  2811A      4.537616  2812A      4.541651  
    2813A      4.546263  2814A      4.547478  2815A      4.548485  
    2816A      4.554455  2817A      4.555085  2818A      4.556322  
    2819A      4.560556  2820A      4.562463  2821A      4.563878  
    2822A      4.565525  2823A      4.567160  2824A      4.568655  
    2825A      4.572409  2826A      4.575206  2827A      4.575287  
    2828A      4.577548  2829A      4.584482  2830A      4.586450  
    2831A      4.586654  2832A      4.588846  2833A      4.594014  
    2834A      4.594477  2835A      4.596550  2836A      4.598553  
    2837A      4.602405  2838A      4.603428  2839A      4.606525  
    2840A      4.609933  2841A      4.611128  2842A      4.611692  
    2843A      4.616764  2844A      4.623477  2845A      4.627044  
    2846A      4.629873  2847A      4.630453  2848A      4.633857  
    2849A      4.635424  2850A      4.635783  2851A      4.637384  
    2852A      4.642720  2853A      4.644901  2854A      4.645426  
    2855A      4.648768  2856A      4.649630  2857A      4.651489  
    2858A      4.659661  2859A      4.664011  2860A      4.667736  
    2861A      4.669800  2862A      4.671244  2863A      4.672949  
    2864A      4.673487  2865A      4.676150  2866A      4.677840  
    2867A      4.679395  2868A      4.681384  2869A      4.688667  
    2870A      4.689053  2871A      4.694783  2872A      4.696240  
    2873A      4.699204  2874A      4.701798  2875A      4.702224  
    2876A      4.703014  2877A      4.708697  2878A      4.711365  
    2879A      4.713485  2880A      4.716258  2881A      4.719760  
    2882A      4.720187  2883A      4.723184  2884A      4.725819  
    2885A      4.726441  2886A      4.727948  2887A      4.729173  
    2888A      4.732230  2889A      4.734588  2890A      4.736198  
    2891A      4.737089  2892A      4.739339  2893A      4.745545  
    2894A      4.746654  2895A      4.749480  2896A      4.753547  
    2897A      4.756576  2898A      4.759570  2899A      4.760058  
    2900A      4.765200  2901A      4.771369  2902A      4.772498  
    2903A      4.773097  2904A      4.776909  2905A      4.777336  
    2906A      4.778328  2907A      4.783067  2908A      4.784832  
    2909A      4.785411  2910A      4.785800  2911A      4.790440  
    2912A      4.790791  2913A      4.793631  2914A      4.794871  
    2915A      4.798839  2916A      4.801989  2917A      4.805185  
    2918A      4.805503  2919A      4.807185  2920A      4.812211  
    2921A      4.815734  2922A      4.815995  2923A      4.820913  
    2924A      4.825206  2925A      4.825351  2926A      4.829047  
    2927A      4.830952  2928A      4.833275  2929A      4.834000  
    2930A      4.840924  2931A      4.842564  2932A      4.843789  
    2933A      4.847999  2934A      4.851011  2935A      4.852801  
    2936A      4.859205  2937A      4.860835  2938A      4.862344  
    2939A      4.863436  2940A      4.865290  2941A      4.870068  
    2942A      4.871408  2943A      4.871811  2944A      4.878758  
    2945A      4.880158  2946A      4.880597  2947A      4.884325  
    2948A      4.887047  2949A      4.889920  2950A      4.895879  
    2951A      4.896541  2952A      4.900001  2953A      4.901085  
    2954A      4.907140  2955A      4.909803  2956A      4.912795  
    2957A      4.913348  2958A      4.915754  2959A      4.921278  
    2960A      4.922569  2961A      4.926542  2962A      4.928142  
    2963A      4.928922  2964A      4.934023  2965A      4.936168  
    2966A      4.938355  2967A      4.941899  2968A      4.948952  
    2969A      4.951714  2970A      4.952382  2971A      4.954177  
    2972A      4.959013  2973A      4.960290  2974A      4.960730  
    2975A      4.963825  2976A      4.965961  2977A      4.971223  
    2978A      4.972679  2979A      4.976219  2980A      4.977002  
    2981A      4.979537  2982A      4.980106  2983A      4.983593  
    2984A      4.987676  2985A      4.991923  2986A      4.992056  
    2987A      5.000688  2988A      5.001496  2989A      5.002925  
    2990A      5.003627  2991A      5.004445  2992A      5.007711  
    2993A      5.009256  2994A      5.011882  2995A      5.016647  
    2996A      5.021531  2997A      5.024812  2998A      5.027886  
    2999A      5.029585  3000A      5.030180  3001A      5.032631  
    3002A      5.038287  3003A      5.038724  3004A      5.043167  
    3005A      5.044096  3006A      5.050911  3007A      5.052613  
    3008A      5.053782  3009A      5.058767  3010A      5.060674  
    3011A      5.063621  3012A      5.065279  3013A      5.072064  
    3014A      5.072973  3015A      5.075526  3016A      5.079462  
    3017A      5.081713  3018A      5.082965  3019A      5.084259  
    3020A      5.092281  3021A      5.092652  3022A      5.097661  
    3023A      5.099356  3024A      5.099843  3025A      5.108133  
    3026A      5.110480  3027A      5.113271  3028A      5.115286  
    3029A      5.117261  3030A      5.117651  3031A      5.117892  
    3032A      5.123938  3033A      5.125846  3034A      5.130220  
    3035A      5.130934  3036A      5.134398  3037A      5.135626  
    3038A      5.138905  3039A      5.141962  3040A      5.146187  
    3041A      5.148491  3042A      5.153011  3043A      5.156811  
    3044A      5.158539  3045A      5.160000  3046A      5.162281  
    3047A      5.164135  3048A      5.167607  3049A      5.170095  
    3050A      5.172478  3051A      5.184188  3052A      5.184753  
    3053A      5.187830  3054A      5.192611  3055A      5.195502  
    3056A      5.197346  3057A      5.202830  3058A      5.204483  
    3059A      5.207518  3060A      5.208985  3061A      5.213296  
    3062A      5.216262  3063A      5.219203  3064A      5.220521  
    3065A      5.223804  3066A      5.227418  3067A      5.229861  
    3068A      5.232590  3069A      5.233356  3070A      5.233547  
    3071A      5.235441  3072A      5.243314  3073A      5.243877  
    3074A      5.253971  3075A      5.254382  3076A      5.256224  
    3077A      5.260847  3078A      5.268266  3079A      5.268691  
    3080A      5.271497  3081A      5.273506  3082A      5.273957  
    3083A      5.278958  3084A      5.282601  3085A      5.282925  
    3086A      5.283851  3087A      5.284208  3088A      5.288209  
    3089A      5.290674  3090A      5.293028  3091A      5.295690  
    3092A      5.299478  3093A      5.307385  3094A      5.308789  
    3095A      5.317791  3096A      5.318898  3097A      5.319889  
    3098A      5.328396  3099A      5.337024  3100A      5.337611  
    3101A      5.338662  3102A      5.340497  3103A      5.342733  
    3104A      5.349245  3105A      5.351240  3106A      5.358473  
    3107A      5.360445  3108A      5.361367  3109A      5.368711  
    3110A      5.371494  3111A      5.372168  3112A      5.379390  
    3113A      5.387239  3114A      5.387791  3115A      5.388830  
    3116A      5.392274  3117A      5.392329  3118A      5.401234  
    3119A      5.403245  3120A      5.405951  3121A      5.407976  
    3122A      5.409782  3123A      5.411269  3124A      5.414336  
    3125A      5.416606  3126A      5.420983  3127A      5.426058  
    3128A      5.429906  3129A      5.433348  3130A      5.436195  
    3131A      5.442348  3132A      5.445028  3133A      5.446520  
    3134A      5.451397  3135A      5.452796  3136A      5.455270  
    3137A      5.459762  3138A      5.461388  3139A      5.462717  
    3140A      5.464430  3141A      5.473369  3142A      5.479282  
    3143A      5.482042  3144A      5.485623  3145A      5.486814  
    3146A      5.490849  3147A      5.493486  3148A      5.493537  
    3149A      5.495720  3150A      5.496648  3151A      5.502338  
    3152A      5.502821  3153A      5.504223  3154A      5.505529  
    3155A      5.515373  3156A      5.516003  3157A      5.518972  
    3158A      5.523231  3159A      5.523639  3160A      5.526792  
    3161A      5.528643  3162A      5.537131  3163A      5.539358  
    3164A      5.547732  3165A      5.549557  3166A      5.552613  
    3167A      5.561479  3168A      5.565278  3169A      5.573087  
    3170A      5.576935  3171A      5.581206  3172A      5.581970  
    3173A      5.593586  3174A      5.595939  3175A      5.596744  
    3176A      5.601045  3177A      5.602557  3178A      5.605628  
    3179A      5.611967  3180A      5.617975  3181A      5.618702  
    3182A      5.619559  3183A      5.624994  3184A      5.625982  
    3185A      5.629169  3186A      5.630883  3187A      5.638109  
    3188A      5.646263  3189A      5.647566  3190A      5.654068  
    3191A      5.656730  3192A      5.669205  3193A      5.669957  
    3194A      5.673593  3195A      5.686583  3196A      5.688474  
    3197A      5.691662  3198A      5.692399  3199A      5.696770  
    3200A      5.706487  3201A      5.712431  3202A      5.714776  
    3203A      5.719139  3204A      5.720245  3205A      5.728663  
    3206A      5.735903  3207A      5.740522  3208A      5.741394  
    3209A      5.745646  3210A      5.754038  3211A      5.756721  
    3212A      5.761930  3213A      5.770175  3214A      5.775680  
    3215A      5.789236  3216A      5.790332  3217A      5.790730  
    3218A      5.793002  3219A      5.804774  3220A      5.805874  
    3221A      5.811697  3222A      5.822155  3223A      5.835029  
    3224A      5.839427  3225A      5.841169  3226A      5.847886  
    3227A      5.852984  3228A      5.859661  3229A      5.868379  
    3230A      5.873394  3231A      5.880500  3232A      5.885205  
    3233A      5.896913  3234A      5.898506  3235A      5.904849  
    3236A      5.912951  3237A      5.916978  3238A      5.921155  
    3239A      5.931141  3240A      5.938824  3241A      5.944052  
    3242A      5.957167  3243A      5.963948  3244A      5.970470  
    3245A      5.973482  3246A      5.983968  3247A      5.994303  
    3248A      5.994596  3249A      6.001942  3250A      6.005541  
    3251A      6.007899  3252A      6.013397  3253A      6.015878  
    3254A      6.023698  3255A      6.026873  3256A      6.032133  
    3257A      6.055278  3258A      6.057450  3259A      6.063699  
    3260A      6.074208  3261A      6.075895  3262A      6.131474  
    3263A      6.138473  3264A      6.138911  3265A      6.160578  
    3266A      6.174894  3267A      6.190018  3268A      6.194450  
    3269A      6.199975  3270A      6.204706  3271A      6.207329  
    3272A      6.240125  3273A      6.244904  3274A      6.264037  
    3275A      6.275240  3276A      6.287615  3277A      6.298176  
    3278A      6.298999  3279A      6.305670  3280A      6.311320  
    3281A      6.319113  3282A      6.321471  3283A      6.325113  
    3284A      6.327579  3285A      6.342229  3286A      6.348615  
    3287A      6.350091  3288A      6.356896  3289A      6.357778  
    3290A      6.360449  3291A      6.363359  3292A      6.366568  
    3293A      6.368754  3294A      6.372931  3295A      6.375564  
    3296A      6.379886  3297A      6.385974  3298A      6.395285  
    3299A      6.407928  3300A      6.417724  3301A      6.433375  
    3302A      6.440214  3303A      6.454062  3304A      6.464493  
    3305A      6.480471  3306A      6.494065  3307A      6.500717  
    3308A      6.507060  3309A      6.517356  3310A      6.523008  
    3311A      6.534359  3312A      6.537663  3313A      6.566658  
    3314A      6.567465  3315A      6.586502  3316A      6.618593  
    3317A      6.651430  3318A      6.659259  3319A      6.665795  
    3320A      6.681177  3321A      6.683315  3322A      6.693667  
    3323A      6.700665  3324A      6.710572  3325A      6.723853  
    3326A      6.739625  3327A      6.740488  3328A      6.749518  
    3329A      6.752013  3330A      6.755677  3331A      6.780393  
    3332A      6.793538  3333A      6.811309  3334A      6.820233  
    3335A      6.821079  3336A      6.832873  3337A      6.834491  
    3338A      6.835232  3339A      6.839972  3340A      6.858893  
    3341A      6.867081  3342A      6.879130  3343A      6.884506  
    3344A      6.885017  3345A      6.887635  3346A      6.914974  
    3347A      6.916332  3348A      6.923028  3349A      6.949837  
    3350A      6.956551  3351A      6.976549  3352A      6.979428  
    3353A      7.038672  3354A      7.050374  3355A      7.062911  
    3356A      7.068995  3357A      7.089016  3358A      7.105205  
    3359A      7.120639  3360A      7.156637  3361A      7.245124  
    3362A     15.781540  3363A     15.841629  3364A     16.071944  
    3365A     16.115597  3366A     16.172306  3367A     16.308789  
    3368A     16.513524  3369A     16.563939  3370A     16.679403  
    3371A     16.807267  3372A     17.114547  3373A     17.684080  
    3374A     17.744853  3375A     18.033925  3376A     18.077981  
    3377A     18.118044  3378A     18.174070  3379A     18.174662  
    3380A     18.263980  3381A     18.306475  3382A     18.353715  
    3383A     18.484874  3384A     18.500075  3385A     18.545857  
    3386A     18.679439  3387A     18.738006  3388A     19.035196  
    3389A     19.452375  3390A     19.874387  3391A     19.936956  
    3392A     20.066375  3393A     20.213515  3394A     20.328336  
    3395A     20.360780  3396A     20.405042  3397A     20.560046  
    3398A     20.610919  3399A     20.813312  3400A     20.861616  
    3401A     21.042717  3402A     21.188870  3403A     21.230343  
    3404A     21.303506  3405A     21.381595  3406A     21.425462  
    3407A     21.447233  3408A     21.554642  3409A     21.573413  
    3410A     21.626616  3411A     21.653400  3412A     21.796181  
    3413A     22.028455  3414A     22.037162  3415A     22.076004  
    3416A     22.120101  3417A     22.397829  3418A     22.928723  
    3419A     23.081735  

    Final Occupation by Irrep:
              A 
    DOCC [   193 ]
    NA   [   193 ]
    NB   [   193 ]

  @DF-RKS Final Energy: -2297.09284119131280

   => Energetics <=

    Nuclear Repulsion Energy =           8253.9876492093371780
    One-Electron Energy =              -19552.6097589629171125
    Two-Electron Energy =                9231.1487048225935723
    DFT Exchange-Correlation Energy =    -229.4897475765239960
    Empirical Dispersion Energy =          -0.1296886838027475
    VV10 Nonlocal Energy =                  0.0000000000000000
    Total Energy =                      -2297.0928411913128002

Computation Completed


Properties will be evaluated at   0.000000,   0.000000,   0.000000 [a0]

Properties computed using the SCF density matrix


 Multipole Moments:

 ------------------------------------------------------------------------------------
     Multipole            Electronic (a.u.)      Nuclear  (a.u.)        Total (a.u.)
 ------------------------------------------------------------------------------------

 L = 1.  Multiply by 2.5417464519 to convert [e a0] to [Debye]
 Dipole X            :          7.9394194           -8.0244688           -0.0850495
 Dipole Y            :          1.4190344           -0.9323541            0.4866803
 Dipole Z            :          0.1137947           -0.1046661            0.0091285
 Magnitude           :                                                    0.4941401

 ------------------------------------------------------------------------------------

*** tstop() called on atl1-1-02-003-28-2.pace.gatech.edu at Sat Jun 13 16:53:20 2026
Module time:
	user time   =  108590.63 seconds =    1809.84 minutes
	system time =    6687.08 seconds =     111.45 minutes
	total time  =      16921 seconds =     282.02 minutes
Total time:
	user time   =  108590.63 seconds =    1809.84 minutes
	system time =    6687.08 seconds =     111.45 minutes
	total time  =      16921 seconds =     282.02 minutes

    Psi4 stopped on: Saturday, 13 June 2026 04:53PM
    Psi4 wall time for execution: 4:42:22.03

*** Psi4 exiting successfully. Buy a developer a beer!
