
    -----------------------------------------------------------------------
          Psi4: An Open-Source Ab Initio Electronic Structure Package
                               Psi4 1.9.1 release

                         Git: Rev {} zzzzzzz 


    D. G. A. Smith, L. A. Burns, A. C. Simmonett, R. M. Parrish,
    M. C. Schieber, R. Galvelis, P. Kraus, H. Kruse, R. Di Remigio,
    A. Alenaizan, A. M. James, S. Lehtola, J. P. Misiewicz, M. Scheurer,
    R. A. Shaw, J. B. Schriber, Y. Xie, Z. L. Glick, D. A. Sirianni,
    J. S. O'Brien, J. M. Waldrop, A. Kumar, E. G. Hohenstein,
    B. P. Pritchard, B. R. Brooks, H. F. Schaefer III, A. Yu. Sokolov,
    K. Patkowski, A. E. DePrince III, U. Bozkaya, R. A. King,
    F. A. Evangelista, J. M. Turney, T. D. Crawford, C. D. Sherrill,
    J. Chem. Phys. 152(18) 184108 (2020). https://doi.org/10.1063/5.0006002

                            Additional Code Authors
    E. T. Seidl, C. L. Janssen, E. F. Valeev, M. L. Leininger,
    J. F. Gonthier, R. M. Richard, H. R. McAlexander, M. Saitow, X. Wang,
    P. Verma, M. H. Lechner, A. Jiang, S. Behnle, A. G. Heide,
    M. F. Herbst, and D. L. Poole

             Previous Authors, Complete List of Code Contributors,
                       and Citations for Specific Modules
    https://github.com/psi4/psi4/blob/master/codemeta.json
    https://github.com/psi4/psi4/graphs/contributors
    http://psicode.org/psi4manual/master/introduction.html#citing-psifour

    -----------------------------------------------------------------------


    Psi4 started on: Saturday, 13 June 2026 12:37PM

    Process ID: 4022095
    Host:       atl1-1-03-004-14-1.pace.gatech.edu
    PSIDATADIR: /storage/home/hcoda1/5/vlita3/.conda/envs/p4_qcml/share/psi4
    Memory:     250.0 GiB
    Threads:    10
    
  ==> Input QCSchema <==

--------------------------------------------------------------------------
{'driver': 'energy',
 'extras': {},
 'id': '241',
 'keywords': {},
 'model': {'basis': 'aug-cc-pvtz', 'method': 'wb97x-d'},
 'molecule': {'extras': {},
              'fix_com': True,
              'fix_orientation': True,
              'fragment_charges': [0.0, 0.0],
              'fragment_multiplicities': [1, 1],
              'fragments': [[0, 1, 2, 3, 4, 5, 6, 7, 8, 9, 10, 11, 12, 13, 14, 15, 16, 17, 18, 19, 20, 21, 22, 23, 24,
                             25, 26, 27, 28, 29, 30, 31, 32, 33, 34, 35, 36, 37, 38, 39, 40, 41, 42, 43],
                            [44, 45, 46, 47, 48, 49, 50, 51, 52, 53, 54, 55, 56, 57, 58, 59, 60, 61, 62, 63, 64, 65, 66,
                             67, 68, 69, 70, 71, 72, 73, 74, 75, 76, 77, 78, 79, 80, 81, 82, 83, 84, 85, 86, 87]],
              'geometry': [25.47963781, 23.08351049, 43.1296896, 24.89690954, 20.52012331, 43.887087, 25.07057198,
                           18.48699404, 42.07353641, 25.8424877, 19.04880944, 39.52013663, 26.46903607, 21.61452675,
                           38.85199593, 26.30318821, 23.59330066, 40.54460103, 24.46577176, 15.9279092, 42.77036087,
                           23.76811717, 15.37695629, 45.40838081, 23.59859476, 17.38880058, 47.22265844, 24.1081018,
                           20.02007671, 46.44346413, 22.96694077, 16.77267612, 49.77192758, 22.51062738, 14.29130626,
                           50.58597185, 22.67427055, 12.32177999, 48.76231557, 23.27971306, 12.86309326, 46.25226043,
                           25.97467497, 17.0727052, 37.71068154, 25.34789586, 14.59123463, 38.39437083, 24.59969708,
                           14.0277518, 40.88784347, 25.20039992, 25.0588727, 44.92111126, 24.35321071, 24.59525103,
                           47.39946073, 23.84084877, 22.08099208, 48.12795237, 21.86046838, 13.69556932, 53.32235171,
                           24.04555383, 26.76370654, 49.27889773, 26.50915633, 27.41178979, 50.73375129, 26.93108599,
                           26.27094839, 39.72356046, 27.10311578, 21.98163565, 36.89906984, 22.32265299, 10.34583799,
                           49.33666834, 23.39372081, 11.28300305, 44.90489504, 26.57612038, 17.51973959, 35.76596134,
                           25.43664936, 13.06203906, 36.97800898, 24.12002947, 12.05854919, 41.3527408, 25.62817825,
                           27.01761767, 44.36171793, 23.18724332, 21.75219607, 50.07608394, 23.27013145, 12.38510294,
                           54.17857328, 21.79629273, 15.42803966, 54.50687769, 19.98705402, 12.74487252, 53.47527914,
                           22.53167906, 26.28198386, 50.6619148, 23.38069793, 28.48102898, 48.25612267, 27.19569266,
                           25.7565067, 51.83310019, 28.04156267, 27.96965392, 49.40821263, 28.39145441, 27.1428651,
                           40.95513515, 25.23456206, 27.51897461, 39.79892028, 27.66207922, 26.29954115, 37.75755015,
                           26.2022166, 29.00071195, 52.0780899, 22.83611537, 18.29134925, 51.1881473, 30.81342193,
                           18.71017989, 45.99359029, 31.5788239, 19.74555973, 43.58027113, 32.18922921, 22.39746574,
                           43.36009841, 32.04731473, 23.98056161, 45.57578145, 31.25562095, 22.88485355, 47.94186375,
                           30.64065655, 20.36296812, 48.19759324, 32.96098858, 23.46875558, 40.98068543, 32.9776879,
                           21.8498177, 38.71563215, 32.39688051, 19.20754673, 38.92783428, 31.75108262, 18.1119644,
                           41.41040042, 32.38510148, 17.70859001, 36.6883681, 32.89884869, 18.70388423, 34.28627015,
                           33.46045747, 21.32787429, 34.10603582, 33.50020544, 22.84413785, 36.26471359, 32.71084168,
                           26.57519902, 45.39430813, 33.51746054, 27.59229626, 43.0833912, 33.64071365, 26.05933156,
                           40.9078722, 30.26834315, 16.09166271, 46.16720061, 30.49746548, 14.47431826, 44.06910385,
                           31.23964841, 15.50757785, 41.72580743, 32.85245858, 17.05660123, 31.93007182, 30.0352396,
                           11.64386798, 44.33912194, 32.45644731, 10.16276856, 45.08627623, 29.83741229, 19.30937345,
                           50.74453249, 31.15944353, 24.13692378, 49.60598037, 33.86115259, 22.17547238, 32.24063318,
                           33.92403613, 24.86828461, 36.03931452, 32.60693264, 27.77144276, 47.1004289, 34.05705016,
                           29.60331272, 42.95688301, 34.27807476, 26.92308174, 39.12655219, 29.64722791, 15.28713696,
                           47.98302787, 31.38145507, 14.21615321, 40.10268471, 34.735737, 17.01308892, 30.98680081,
                           32.31443775, 15.0754773, 32.37170495, 31.48589123, 17.79122297, 30.50534659, 29.28049933,
                           10.88478084, 42.52649407, 28.54357618, 11.31799443, 45.78690148, 33.97269455, 10.41059171,
                           43.64975571, 33.2192207, 10.84125701, 46.92494523, 31.18221652, 17.84465276, 51.44063809,
                           27.94896357, 18.39273342, 50.64394079, 29.74125873, 20.82714016, 52.19033882, 32.06613232,
                           8.10297733, 45.26704002, 31.91846208, 15.68652669, 36.81860417],
              'id': 15,
              'identifiers': {'molecular_formula': 'C48H40',
                              'molecule_hash': '5e3296bad3c72e10e864464b8bcfe4a1199407a4'},
              'masses': [12.0, 12.0, 12.0, 12.0, 12.0, 12.0, 12.0, 12.0, 12.0, 12.0, 12.0, 12.0, 12.0, 12.0, 12.0, 12.0,
                         12.0, 12.0, 12.0, 12.0, 12.0, 12.0, 12.0, 12.0, 1.00782503223, 1.00782503223, 1.00782503223,
                         1.00782503223, 1.00782503223, 1.00782503223, 1.00782503223, 1.00782503223, 1.00782503223,
                         1.00782503223, 1.00782503223, 1.00782503223, 1.00782503223, 1.00782503223, 1.00782503223,
                         1.00782503223, 1.00782503223, 1.00782503223, 1.00782503223, 1.00782503223, 12.0, 12.0, 12.0,
                         12.0, 12.0, 12.0, 12.0, 12.0, 12.0, 12.0, 12.0, 12.0, 12.0, 12.0, 12.0, 12.0, 12.0, 12.0, 12.0,
                         12.0, 12.0, 12.0, 12.0, 12.0, 1.00782503223, 1.00782503223, 1.00782503223, 1.00782503223,
                         1.00782503223, 1.00782503223, 1.00782503223, 1.00782503223, 1.00782503223, 1.00782503223,
                         1.00782503223, 1.00782503223, 1.00782503223, 1.00782503223, 1.00782503223, 1.00782503223,
                         1.00782503223, 1.00782503223, 1.00782503223, 1.00782503223],
              'molecular_charge': 0.0,
              'molecular_multiplicity': 1,
              'name': 'C48H40 ([1],[0])',
              'provenance': {'creator': 'QCElemental',
                             'routine': 'qcelemental.molparse.from_schema',
                             'version': '0.29.0'},
              'real': [False, False, False, False, False, False, False, False, False, False, False, False, False, False,
                       False, False, False, False, False, False, False, False, False, False, False, False, False, False,
                       False, False, False, False, False, False, False, False, False, False, False, False, False, False,
                       False, False, True, True, True, True, True, True, True, True, True, True, True, True, True, True,
                       True, True, True, True, True, True, True, True, True, True, True, True, True, True, True, True,
                       True, True, True, True, True, True, True, True, True, True, True, True, True, True],
              'schema_name': 'qcschema_molecule',
              'schema_version': 2,
              'symbols': ['C', 'C', 'C', 'C', 'C', 'C', 'C', 'C', 'C', 'C', 'C', 'C', 'C', 'C', 'C', 'C', 'C', 'C', 'C',
                          'C', 'C', 'C', 'C', 'C', 'H', 'H', 'H', 'H', 'H', 'H', 'H', 'H', 'H', 'H', 'H', 'H', 'H', 'H',
                          'H', 'H', 'H', 'H', 'H', 'H', 'C', 'C', 'C', 'C', 'C', 'C', 'C', 'C', 'C', 'C', 'C', 'C', 'C',
                          'C', 'C', 'C', 'C', 'C', 'C', 'C', 'C', 'C', 'C', 'C', 'H', 'H', 'H', 'H', 'H', 'H', 'H', 'H',
                          'H', 'H', 'H', 'H', 'H', 'H', 'H', 'H', 'H', 'H', 'H', 'H'],
              'validated': True},
 'protocols': {},
 'provenance': {'creator': 'QCElemental', 'routine': 'qcelemental.models.results', 'version': '0.29.0'},
 'schema_name': 'qcschema_input',
 'schema_version': 1}
--------------------------------------------------------------------------

Scratch directory: /tmp/tmp9z0v8k6h_psi_scratch/
   => Libint2 <=

    Primary   basis highest AM E, G, H:  6, 6, 3
    Auxiliary basis highest AM E, G, H:  7, 7, 4
    Onebody   basis highest AM E, G, H:  -, -, -
    Solid Harmonics ordering:            Gaussian

*** tstart() called on atl1-1-03-004-14-1.pace.gatech.edu
*** at Sat Jun 13 12:37:38 2026

   => Loading Basis Set <=

    Name: AUG-CC-PVTZ
    Role: ORBITAL
    Keyword: BASIS
    atoms 1-24, 45-68  entry C          line   239 file /storage/home/hcoda1/5/vlita3/.conda/envs/p4_qcml/share/psi4/basis/aug-cc-pvtz.gbs 
    atoms 25-44, 69-88 entry H          line    40 file /storage/home/hcoda1/5/vlita3/.conda/envs/p4_qcml/share/psi4/basis/aug-cc-pvtz.gbs 

   => WB97X-D: Empirical Dispersion <=

    Chai and Head-Gordon Dispersion Correction
    Chai, J.-D.; Head-Gordon, M. (2010), J. Chem. Phys., 132: 6615-6620

        s6 =       1.000000


         ---------------------------------------------------------
                                   SCF
               by Justin Turney, Rob Parrish, Andy Simmonett
                          and Daniel G. A. Smith
                              RKS Reference
                       10 Threads, 256000 MiB Core
         ---------------------------------------------------------

  ==> Geometry <==

    Molecular point group: c1
    Full point group: C1

    Geometry (in Bohr), charge = 0, multiplicity = 1:

       Center              X                  Y                   Z               Mass       
    ------------   -----------------  -----------------  -----------------  -----------------
      Gh(C)          25.479637810000    23.083510490000    43.129689600000    12.000000000000
      Gh(C)          24.896909540000    20.520123310000    43.887087000000    12.000000000000
      Gh(C)          25.070571980000    18.486994040000    42.073536410000    12.000000000000
      Gh(C)          25.842487700000    19.048809440000    39.520136630000    12.000000000000
      Gh(C)          26.469036070000    21.614526750000    38.851995930000    12.000000000000
      Gh(C)          26.303188210000    23.593300660000    40.544601030000    12.000000000000
      Gh(C)          24.465771760000    15.927909200000    42.770360870000    12.000000000000
      Gh(C)          23.768117170000    15.376956290000    45.408380810000    12.000000000000
      Gh(C)          23.598594760000    17.388800580000    47.222658440000    12.000000000000
      Gh(C)          24.108101800000    20.020076710000    46.443464130000    12.000000000000
      Gh(C)          22.966940770000    16.772676120000    49.771927580000    12.000000000000
      Gh(C)          22.510627380000    14.291306260000    50.585971850000    12.000000000000
      Gh(C)          22.674270550000    12.321779990000    48.762315570000    12.000000000000
      Gh(C)          23.279713060000    12.863093260000    46.252260430000    12.000000000000
      Gh(C)          25.974674970000    17.072705200000    37.710681540000    12.000000000000
      Gh(C)          25.347895860000    14.591234630000    38.394370830000    12.000000000000
      Gh(C)          24.599697080000    14.027751800000    40.887843470000    12.000000000000
      Gh(C)          25.200399920000    25.058872700000    44.921111260000    12.000000000000
      Gh(C)          24.353210710000    24.595251030000    47.399460730000    12.000000000000
      Gh(C)          23.840848770000    22.080992080000    48.127952370000    12.000000000000
      Gh(C)          21.860468380000    13.695569320000    53.322351710000    12.000000000000
      Gh(C)          24.045553830000    26.763706540000    49.278897730000    12.000000000000
      Gh(C)          26.509156330000    27.411789790000    50.733751290000    12.000000000000
      Gh(C)          26.931085990000    26.270948390000    39.723560460000    12.000000000000
      Gh(H)          27.103115780000    21.981635650000    36.899069840000     1.007825032230
      Gh(H)          22.322652990000    10.345837990000    49.336668340000     1.007825032230
      Gh(H)          23.393720810000    11.283003050000    44.904895040000     1.007825032230
      Gh(H)          26.576120380000    17.519739590000    35.765961340000     1.007825032230
      Gh(H)          25.436649360000    13.062039060000    36.978008980000     1.007825032230
      Gh(H)          24.120029470000    12.058549190000    41.352740800000     1.007825032230
      Gh(H)          25.628178250000    27.017617670000    44.361717930000     1.007825032230
      Gh(H)          23.187243320000    21.752196070000    50.076083940000     1.007825032230
      Gh(H)          23.270131450000    12.385102940000    54.178573280000     1.007825032230
      Gh(H)          21.796292730000    15.428039660000    54.506877690000     1.007825032230
      Gh(H)          19.987054020000    12.744872520000    53.475279140000     1.007825032230
      Gh(H)          22.531679060000    26.281983860000    50.661914800000     1.007825032230
      Gh(H)          23.380697930000    28.481028980000    48.256122670000     1.007825032230
      Gh(H)          27.195692660000    25.756506700000    51.833100190000     1.007825032230
      Gh(H)          28.041562670000    27.969653920000    49.408212630000     1.007825032230
      Gh(H)          28.391454410000    27.142865100000    40.955135150000     1.007825032230
      Gh(H)          25.234562060000    27.518974610000    39.798920280000     1.007825032230
      Gh(H)          27.662079220000    26.299541150000    37.757550150000     1.007825032230
      Gh(H)          26.202216600000    29.000711950000    52.078089900000     1.007825032230
      Gh(H)          22.836115370000    18.291349250000    51.188147300000     1.007825032230
         C           30.813421930000    18.710179890000    45.993590290000    12.000000000000
         C           31.578823900000    19.745559730000    43.580271130000    12.000000000000
         C           32.189229210000    22.397465740000    43.360098410000    12.000000000000
         C           32.047314730000    23.980561610000    45.575781450000    12.000000000000
         C           31.255620950000    22.884853550000    47.941863750000    12.000000000000
         C           30.640656550000    20.362968120000    48.197593240000    12.000000000000
         C           32.960988580000    23.468755580000    40.980685430000    12.000000000000
         C           32.977687900000    21.849817700000    38.715632150000    12.000000000000
         C           32.396880510000    19.207546730000    38.927834280000    12.000000000000
         C           31.751082620000    18.111964400000    41.410400420000    12.000000000000
         C           32.385101480000    17.708590010000    36.688368100000    12.000000000000
         C           32.898848690000    18.703884230000    34.286270150000    12.000000000000
         C           33.460457470000    21.327874290000    34.106035820000    12.000000000000
         C           33.500205440000    22.844137850000    36.264713590000    12.000000000000
         C           32.710841680000    26.575199020000    45.394308130000    12.000000000000
         C           33.517460540000    27.592296260000    43.083391200000    12.000000000000
         C           33.640713650000    26.059331560000    40.907872200000    12.000000000000
         C           30.268343150000    16.091662710000    46.167200610000    12.000000000000
         C           30.497465480000    14.474318260000    44.069103850000    12.000000000000
         C           31.239648410000    15.507577850000    41.725807430000    12.000000000000
         C           32.852458580000    17.056601230000    31.930071820000    12.000000000000
         C           30.035239600000    11.643867980000    44.339121940000    12.000000000000
         C           32.456447310000    10.162768560000    45.086276230000    12.000000000000
         C           29.837412290000    19.309373450000    50.744532490000    12.000000000000
         H           31.159443530000    24.136923780000    49.605980370000     1.007825032230
         H           33.861152590000    22.175472380000    32.240633180000     1.007825032230
         H           33.924036130000    24.868284610000    36.039314520000     1.007825032230
         H           32.606932640000    27.771442760000    47.100428900000     1.007825032230
         H           34.057050160000    29.603312720000    42.956883010000     1.007825032230
         H           34.278074760000    26.923081740000    39.126552190000     1.007825032230
         H           29.647227910000    15.287136960000    47.983027870000     1.007825032230
         H           31.381455070000    14.216153210000    40.102684710000     1.007825032230
         H           34.735737000000    17.013088920000    30.986800810000     1.007825032230
         H           32.314437750000    15.075477300000    32.371704950000     1.007825032230
         H           31.485891230000    17.791222970000    30.505346590000     1.007825032230
         H           29.280499330000    10.884780840000    42.526494070000     1.007825032230
         H           28.543576180000    11.317994430000    45.786901480000     1.007825032230
         H           33.972694550000    10.410591710000    43.649755710000     1.007825032230
         H           33.219220700000    10.841257010000    46.924945230000     1.007825032230
         H           31.182216520000    17.844652760000    51.440638090000     1.007825032230
         H           27.948963570000    18.392733420000    50.643940790000     1.007825032230
         H           29.741258730000    20.827140160000    52.190338820000     1.007825032230
         H           32.066132320000     8.102977330000    45.267040020000     1.007825032230
         H           31.918462080000    15.686526690000    36.818604170000     1.007825032230

  Running in c1 symmetry.

  Rotational constants: A =      0.00210  B =      0.00003  C =      0.00003 [cm^-1]
  Rotational constants: A =     62.96897  B =      0.94325  C =      0.93874 [MHz]
  Nuclear repulsion = 1864.841208739238255

  Charge       = 0
  Multiplicity = 1
  Electrons    = 164
  Nalpha       = 82
  Nbeta        = 82

  ==> Algorithm <==

  SCF Algorithm Type is DF.
  DIIS enabled.
  MOM disabled.
  Fractional occupation disabled.
  Guess Type is SAD.
  Energy threshold   = 1.00e-06
  Density threshold  = 1.00e-06
  Integral threshold = 1.00e-12

  ==> Primary Basis <==

  Basis Set: AUG-CC-PVTZ
    Blend: AUG-CC-PVTZ
    Number of shells: 1032
    Number of basis functions: 3128
    Number of Cartesian functions: 3640
    Spherical Harmonics?: true
    Max angular momentum: 3

  ==> DFT Potential <==

   => LibXC <=

    Version 7.0.0
    S. Lehtola, C. Steigemann, M. J.T. Oliveira, and M. A.L. Marques.,  SoftwareX 7, 1–5 (2018) (10.1016/j.softx.2017.11.002)

   => Composite Functional: WB97X-D <= 

    wB97X-D Hyb-GGA Exchange-Correlation Functional

    J.-D. Chai and M. Head-Gordon.,  Phys. Chem. Chem. Phys. 10, 6615-6620 (2008) (10.1039/B810189B)

    Deriv               =              1
    GGA                 =           TRUE
    Meta                =          FALSE

    Exchange Hybrid     =           TRUE
    MP2 Hybrid          =          FALSE

   => Exchange-Correlation Functionals <=

    1.0000   wB97X-D range-separated functional

   => Exact (HF) Exchange <=

    0.7780            HF,LR [omega = 0.2000]
    0.2220               HF 

   => LibXC Density Thresholds  <==

    XC_HYB_GGA_XC_WB97X_D:  1.00E-14 

   => Molecular Quadrature <=

    Radial Scheme          =       TREUTLER
    Pruning Scheme         =           NONE
    Nuclear Scheme         =       TREUTLER

    Blocking Scheme        =         OCTREE
    BS radius alpha        =              1
    Pruning alpha          =              1
    Radial Points          =             75
    Spherical Points       =            302
    Total Points           =        1755895
    Total Blocks           =          12038
    Max Points             =            256
    Max Functions          =           2202
    Weights Tolerance      =       1.00E-15

   => Loading Basis Set <=

    Name: (AUG-CC-PVTZ AUX)
    Role: JKFIT
    Keyword: DF_BASIS_SCF
    atoms 1-24, 45-68  entry C          line   162 file /storage/home/hcoda1/5/vlita3/.conda/envs/p4_qcml/share/psi4/basis/aug-cc-pvtz-jkfit.gbs 
    atoms 25-44, 69-88 entry H          line    70 file /storage/home/hcoda1/5/vlita3/.conda/envs/p4_qcml/share/psi4/basis/aug-cc-pvtz-jkfit.gbs 

  ==> Integral Setup <==

  ==> DiskDFJK: Density-Fitted J/K Matrices <==

    J tasked:                  Yes
    K tasked:                  Yes
    wK tasked:                 Yes
    Omega:               2.000E-01
    OpenMP threads:             10
    Integrals threads:          10
    Memory [MiB]:           172800
    Algorithm:                Disk
    Integral Cache:           NONE
    Schwarz Cutoff:          1E-12
    Fitting Condition:       1E-10

   => Auxiliary Basis Set <=

  Basis Set: (AUG-CC-PVTZ AUX)
    Blend: AUG-CC-PVTZ-JKFIT
    Number of shells: 2000
    Number of basis functions: 6832
    Number of Cartesian functions: 8488
    Spherical Harmonics?: true
    Max angular momentum: 4

  Minimum eigenvalue in the overlap matrix is 6.3711160731E-10.
  Reciprocal condition number of the overlap matrix is 1.7895063395E-11.
    Using canonical orthogonalization.
  Overall, 29 of 3128 possible MOs eliminated.


  ==> Pre-Iterations <==

  SCF Guess: Superposition of Atomic Densities via on-the-fly atomic UHF (no occupation information).

   -------------------------
    Irrep   Nso     Nmo    
   -------------------------
     A       3128    3099 
   -------------------------
    Total    3128    3099
   -------------------------

  ==> Iterations <==

                           Total Energy        Delta E     RMS |[F,P]|

   @DF-RKS iter SAD:  -926.03752954209062   -9.26038e+02   0.00000e+00 
   @DF-RKS iter   1:  -925.68234966406817    3.55180e-01   4.27246e-04 ADIIS/DIIS
   @DF-RKS iter   2:  -926.23392181280974   -5.51572e-01   2.89117e-04 ADIIS/DIIS
   @DF-RKS iter   3:  -926.64257220975935   -4.08650e-01   3.02558e-05 DIIS
   @DF-RKS iter   4:  -926.64621526756082   -3.64306e-03   1.81295e-05 DIIS
   @DF-RKS iter   5:  -926.64774805889715   -1.53279e-03   5.10634e-06 DIIS
   @DF-RKS iter   6:  -926.64787384741919   -1.25789e-04   1.78065e-06 DIIS
   @DF-RKS iter   7:  -926.64789097974085   -1.71323e-05   5.29540e-07 DIIS
   @DF-RKS iter   8:  -926.64789306432590   -2.08459e-06   2.12217e-07 DIIS
   @DF-RKS iter   9:  -926.64789348427121   -4.19945e-07   9.03447e-08 DIIS
  Energy and wave function converged.


  ==> Post-Iterations <==

   Electrons on quadrature grid:
      Ntotal   =  163.9997286831 ; deviation = -2.713e-04 

    Orbital Energies [Eh]
    ---------------------

    Doubly Occupied:                                                      

       1A    -10.312388     2A    -10.312049     3A    -10.311359  
       4A    -10.310169     5A    -10.309623     6A    -10.309081  
       7A    -10.308978     8A    -10.308657     9A    -10.307644  
      10A    -10.306964    11A    -10.305279    12A    -10.299093  
      13A    -10.298706    14A    -10.298321    15A    -10.297302  
      16A    -10.297065    17A    -10.296583    18A    -10.295707  
      19A    -10.295401    20A    -10.294841    21A    -10.294496  
      22A    -10.293359    23A    -10.292638    24A    -10.286392  
      25A     -0.990627    26A     -0.957656    27A     -0.949692  
      28A     -0.918669    29A     -0.901431    30A     -0.879557  
      31A     -0.861457    32A     -0.857431    33A     -0.841040  
      34A     -0.816031    35A     -0.809866    36A     -0.781463  
      37A     -0.779469    38A     -0.734768    39A     -0.724126  
      40A     -0.705979    41A     -0.702366    42A     -0.691071  
      43A     -0.667914    44A     -0.631697    45A     -0.620440  
      46A     -0.609613    47A     -0.589134    48A     -0.578688  
      49A     -0.555155    50A     -0.551893    51A     -0.544873  
      52A     -0.532627    53A     -0.530408    54A     -0.518258  
      55A     -0.513272    56A     -0.506519    57A     -0.505617  
      58A     -0.500342    59A     -0.498236    60A     -0.490553  
      61A     -0.488700    62A     -0.483174    63A     -0.468919  
      64A     -0.468024    65A     -0.462939    66A     -0.457829  
      67A     -0.448517    68A     -0.446864    69A     -0.443717  
      70A     -0.437797    71A     -0.430969    72A     -0.425990  
      73A     -0.421814    74A     -0.396094    75A     -0.395293  
      76A     -0.389699    77A     -0.366635    78A     -0.364345  
      79A     -0.318311    80A     -0.317269    81A     -0.285111  
      82A     -0.265947  

    Virtual:                                                              

      83A     -0.004762    84A      0.015781    85A      0.017735  
      86A      0.022774    87A      0.024047    88A      0.029590  
      89A      0.030566    90A      0.031705    91A      0.034351  
      92A      0.035879    93A      0.037319    94A      0.041041  
      95A      0.041270    96A      0.043639    97A      0.044935  
      98A      0.047542    99A      0.049157   100A      0.051026  
     101A      0.053295   102A      0.055368   103A      0.055975  
     104A      0.056793   105A      0.061136   106A      0.063084  
     107A      0.064976   108A      0.067335   109A      0.067458  
     110A      0.067822   111A      0.070872   112A      0.071884  
     113A      0.072773   114A      0.076318   115A      0.078108  
     116A      0.079872   117A      0.083331   118A      0.084220  
     119A      0.084683   120A      0.086167   121A      0.087762  
     122A      0.088169   123A      0.090324   124A      0.091130  
     125A      0.093524   126A      0.094279   127A      0.096207  
     128A      0.097683   129A      0.099600   130A      0.100527  
     131A      0.101461   132A      0.102217   133A      0.104011  
     134A      0.106836   135A      0.108289   136A      0.109440  
     137A      0.111035   138A      0.112268   139A      0.113373  
     140A      0.114885   141A      0.116580   142A      0.117634  
     143A      0.118162   144A      0.118960   145A      0.120162  
     146A      0.121992   147A      0.123326   148A      0.126775  
     149A      0.128013   150A      0.128837   151A      0.130040  
     152A      0.130651   153A      0.134433   154A      0.135440  
     155A      0.137649   156A      0.137844   157A      0.138690  
     158A      0.140173   159A      0.140968   160A      0.141451  
     161A      0.142360   162A      0.143884   163A      0.144607  
     164A      0.146445   165A      0.147795   166A      0.149405  
     167A      0.151870   168A      0.152577   169A      0.154276  
     170A      0.156331   171A      0.158304   172A      0.159439  
     173A      0.160532   174A      0.162273   175A      0.163105  
     176A      0.165407   177A      0.165803   178A      0.166665  
     179A      0.168095   180A      0.168819   181A      0.171037  
     182A      0.171743   183A      0.172545   184A      0.174035  
     185A      0.174478   186A      0.177125   187A      0.177762  
     188A      0.178929   189A      0.180368   190A      0.180540  
     191A      0.182844   192A      0.183779   193A      0.185868  
     194A      0.187196   195A      0.189949   196A      0.190425  
     197A      0.190948   198A      0.192264   199A      0.193813  
     200A      0.194945   201A      0.197683   202A      0.199321  
     203A      0.200157   204A      0.201259   205A      0.202557  
     206A      0.203923   207A      0.204506   208A      0.205090  
     209A      0.205952   210A      0.209447   211A      0.210083  
     212A      0.211218   213A      0.212992   214A      0.213930  
     215A      0.215264   216A      0.216231   217A      0.217925  
     218A      0.219087   219A      0.220142   220A      0.220460  
     221A      0.222701   222A      0.224733   223A      0.225750  
     224A      0.225938   225A      0.228342   226A      0.228975  
     227A      0.230046   228A      0.230076   229A      0.233225  
     230A      0.234312   231A      0.236214   232A      0.236653  
     233A      0.238224   234A      0.240504   235A      0.241353  
     236A      0.242244   237A      0.242629   238A      0.243694  
     239A      0.245069   240A      0.245485   241A      0.247042  
     242A      0.248328   243A      0.249535   244A      0.250394  
     245A      0.250597   246A      0.251278   247A      0.252770  
     248A      0.254513   249A      0.255372   250A      0.257171  
     251A      0.258676   252A      0.260157   253A      0.261893  
     254A      0.263448   255A      0.264089   256A      0.266049  
     257A      0.266091   258A      0.268148   259A      0.269070  
     260A      0.269473   261A      0.271206   262A      0.271829  
     263A      0.274581   264A      0.275098   265A      0.276608  
     266A      0.278024   267A      0.279074   268A      0.279633  
     269A      0.281618   270A      0.282966   271A      0.283714  
     272A      0.286323   273A      0.287120   274A      0.288113  
     275A      0.289128   276A      0.290681   277A      0.291088  
     278A      0.292657   279A      0.293940   280A      0.294790  
     281A      0.295630   282A      0.296390   283A      0.298948  
     284A      0.299862   285A      0.301405   286A      0.303117  
     287A      0.304144   288A      0.305309   289A      0.307606  
     290A      0.309117   291A      0.310028   292A      0.311164  
     293A      0.311760   294A      0.313297   295A      0.314914  
     296A      0.315706   297A      0.316791   298A      0.317794  
     299A      0.318889   300A      0.319552   301A      0.321202  
     302A      0.322683   303A      0.324057   304A      0.325073  
     305A      0.326983   306A      0.327711   307A      0.329268  
     308A      0.329752   309A      0.331301   310A      0.332710  
     311A      0.333349   312A      0.334229   313A      0.336125  
     314A      0.337020   315A      0.338667   316A      0.339560  
     317A      0.340855   318A      0.342794   319A      0.344023  
     320A      0.344687   321A      0.345625   322A      0.347066  
     323A      0.348539   324A      0.349079   325A      0.351059  
     326A      0.351948   327A      0.353066   328A      0.355128  
     329A      0.356336   330A      0.357531   331A      0.360290  
     332A      0.361030   333A      0.362539   334A      0.363154  
     335A      0.364766   336A      0.366040   337A      0.366282  
     338A      0.367952   339A      0.369437   340A      0.370219  
     341A      0.372574   342A      0.375209   343A      0.375886  
     344A      0.376998   345A      0.379162   346A      0.379385  
     347A      0.379967   348A      0.381597   349A      0.383299  
     350A      0.385669   351A      0.386490   352A      0.388184  
     353A      0.389381   354A      0.390958   355A      0.393281  
     356A      0.394341   357A      0.395614   358A      0.396132  
     359A      0.397702   360A      0.398328   361A      0.399011  
     362A      0.399721   363A      0.401433   364A      0.402025  
     365A      0.403246   366A      0.406002   367A      0.406498  
     368A      0.408900   369A      0.410820   370A      0.411132  
     371A      0.413034   372A      0.414007   373A      0.415534  
     374A      0.416758   375A      0.417923   376A      0.418857  
     377A      0.420455   378A      0.423166   379A      0.423996  
     380A      0.425057   381A      0.426321   382A      0.427386  
     383A      0.429731   384A      0.431039   385A      0.433284  
     386A      0.434656   387A      0.435156   388A      0.436068  
     389A      0.437303   390A      0.438604   391A      0.440015  
     392A      0.440315   393A      0.441384   394A      0.444537  
     395A      0.445354   396A      0.446140   397A      0.448526  
     398A      0.449991   399A      0.450531   400A      0.452960  
     401A      0.453344   402A      0.454199   403A      0.455253  
     404A      0.456828   405A      0.458875   406A      0.459314  
     407A      0.460896   408A      0.462383   409A      0.463456  
     410A      0.465026   411A      0.466970   412A      0.468108  
     413A      0.469534   414A      0.470942   415A      0.471887  
     416A      0.471952   417A      0.474232   418A      0.475450  
     419A      0.477118   420A      0.478099   421A      0.478668  
     422A      0.480175   423A      0.481594   424A      0.484079  
     425A      0.485334   426A      0.485404   427A      0.487562  
     428A      0.488531   429A      0.489902   430A      0.490620  
     431A      0.491978   432A      0.492990   433A      0.494962  
     434A      0.495238   435A      0.496723   436A      0.498261  
     437A      0.499437   438A      0.500649   439A      0.501410  
     440A      0.501743   441A      0.503290   442A      0.504398  
     443A      0.505448   444A      0.507186   445A      0.507731  
     446A      0.510056   447A      0.510477   448A      0.511802  
     449A      0.514278   450A      0.515221   451A      0.516522  
     452A      0.516780   453A      0.517260   454A      0.517562  
     455A      0.518626   456A      0.520601   457A      0.521133  
     458A      0.522310   459A      0.523808   460A      0.524166  
     461A      0.525424   462A      0.526804   463A      0.528998  
     464A      0.529912   465A      0.530575   466A      0.532004  
     467A      0.533100   468A      0.535088   469A      0.536629  
     470A      0.537158   471A      0.538906   472A      0.539140  
     473A      0.540722   474A      0.542123   475A      0.543484  
     476A      0.544100   477A      0.546189   478A      0.546957  
     479A      0.548092   480A      0.548818   481A      0.552255  
     482A      0.552432   483A      0.553212   484A      0.554917  
     485A      0.556968   486A      0.559351   487A      0.560557  
     488A      0.561028   489A      0.562472   490A      0.563089  
     491A      0.564410   492A      0.566444   493A      0.567820  
     494A      0.568034   495A      0.569721   496A      0.570793  
     497A      0.571926   498A      0.573747   499A      0.575395  
     500A      0.576020   501A      0.576770   502A      0.578161  
     503A      0.579161   504A      0.580482   505A      0.582022  
     506A      0.582737   507A      0.584216   508A      0.586191  
     509A      0.588115   510A      0.589908   511A      0.592193  
     512A      0.592980   513A      0.594038   514A      0.596066  
     515A      0.597040   516A      0.599068   517A      0.599703  
     518A      0.601877   519A      0.602256   520A      0.605577  
     521A      0.606070   522A      0.608423   523A      0.609494  
     524A      0.610417   525A      0.611036   526A      0.613104  
     527A      0.613753   528A      0.614145   529A      0.615677  
     530A      0.618108   531A      0.619378   532A      0.620607  
     533A      0.622928   534A      0.623997   535A      0.624237  
     536A      0.625303   537A      0.625880   538A      0.626252  
     539A      0.628061   540A      0.632487   541A      0.633018  
     542A      0.634927   543A      0.636920   544A      0.638185  
     545A      0.639486   546A      0.639884   547A      0.642122  
     548A      0.645726   549A      0.647583   550A      0.649342  
     551A      0.650439   552A      0.651383   553A      0.652357  
     554A      0.652967   555A      0.655562   556A      0.656433  
     557A      0.657637   558A      0.659112   559A      0.661128  
     560A      0.663582   561A      0.665485   562A      0.665836  
     563A      0.667039   564A      0.668725   565A      0.670126  
     566A      0.672046   567A      0.672514   568A      0.673337  
     569A      0.675854   570A      0.677391   571A      0.678306  
     572A      0.680529   573A      0.681865   574A      0.683006  
     575A      0.683993   576A      0.685918   577A      0.688054  
     578A      0.690359   579A      0.690955   580A      0.692255  
     581A      0.693830   582A      0.696374   583A      0.696878  
     584A      0.699227   585A      0.700649   586A      0.701838  
     587A      0.702921   588A      0.703773   589A      0.705106  
     590A      0.706329   591A      0.707302   592A      0.710150  
     593A      0.712086   594A      0.713828   595A      0.714561  
     596A      0.715677   597A      0.716825   598A      0.719436  
     599A      0.720358   600A      0.722512   601A      0.723685  
     602A      0.723911   603A      0.726010   604A      0.727986  
     605A      0.729722   606A      0.731003   607A      0.732140  
     608A      0.733912   609A      0.736319   610A      0.737180  
     611A      0.737940   612A      0.740079   613A      0.742216  
     614A      0.744143   615A      0.744939   616A      0.746708  
     617A      0.748339   618A      0.748674   619A      0.749553  
     620A      0.751116   621A      0.752568   622A      0.754518  
     623A      0.756721   624A      0.757715   625A      0.758051  
     626A      0.759136   627A      0.760314   628A      0.760883  
     629A      0.762807   630A      0.764292   631A      0.765124  
     632A      0.767518   633A      0.769538   634A      0.771555  
     635A      0.774620   636A      0.776028   637A      0.777167  
     638A      0.778128   639A      0.779754   640A      0.780798  
     641A      0.781445   642A      0.782777   643A      0.785472  
     644A      0.786509   645A      0.787308   646A      0.788004  
     647A      0.790476   648A      0.791059   649A      0.793730  
     650A      0.795170   651A      0.795515   652A      0.798024  
     653A      0.800871   654A      0.801638   655A      0.803855  
     656A      0.805196   657A      0.805445   658A      0.806962  
     659A      0.807788   660A      0.809780   661A      0.810522  
     662A      0.811701   663A      0.813689   664A      0.816311  
     665A      0.817693   666A      0.818224   667A      0.819899  
     668A      0.821151   669A      0.822740   670A      0.824621  
     671A      0.826974   672A      0.827950   673A      0.829491  
     674A      0.831421   675A      0.832130   676A      0.832775  
     677A      0.834142   678A      0.835471   679A      0.836419  
     680A      0.839077   681A      0.841029   682A      0.842161  
     683A      0.844536   684A      0.845692   685A      0.847387  
     686A      0.848704   687A      0.849934   688A      0.851334  
     689A      0.852927   690A      0.854175   691A      0.855112  
     692A      0.856719   693A      0.857480   694A      0.858609  
     695A      0.860932   696A      0.862642   697A      0.863703  
     698A      0.865227   699A      0.867215   700A      0.867586  
     701A      0.868658   702A      0.869336   703A      0.872014  
     704A      0.873644   705A      0.874683   706A      0.876240  
     707A      0.877572   708A      0.880694   709A      0.881451  
     710A      0.883286   711A      0.884527   712A      0.885816  
     713A      0.886388   714A      0.888043   715A      0.889056  
     716A      0.890600   717A      0.892641   718A      0.893035  
     719A      0.895088   720A      0.896265   721A      0.897917  
     722A      0.899243   723A      0.900053   724A      0.903912  
     725A      0.903930   726A      0.905665   727A      0.907494  
     728A      0.908937   729A      0.910603   730A      0.911053  
     731A      0.911657   732A      0.914211   733A      0.916490  
     734A      0.917351   735A      0.919025   736A      0.921268  
     737A      0.921818   738A      0.924031   739A      0.925939  
     740A      0.926047   741A      0.927892   742A      0.929790  
     743A      0.930232   744A      0.932844   745A      0.933807  
     746A      0.935051   747A      0.935819   748A      0.937490  
     749A      0.938243   750A      0.938958   751A      0.941494  
     752A      0.942182   753A      0.943719   754A      0.945087  
     755A      0.945927   756A      0.949128   757A      0.949814  
     758A      0.952133   759A      0.954097   760A      0.954837  
     761A      0.956512   762A      0.957626   763A      0.958282  
     764A      0.959869   765A      0.962661   766A      0.963868  
     767A      0.965228   768A      0.966510   769A      0.966965  
     770A      0.967351   771A      0.969182   772A      0.970597  
     773A      0.972879   774A      0.975510   775A      0.977104  
     776A      0.977334   777A      0.979784   778A      0.980797  
     779A      0.981774   780A      0.982551   781A      0.984462  
     782A      0.986112   783A      0.987153   784A      0.988491  
     785A      0.989499   786A      0.991446   787A      0.992559  
     788A      0.995381   789A      0.997181   790A      0.999704  
     791A      1.000846   792A      1.001881   793A      1.002592  
     794A      1.004387   795A      1.006477   796A      1.007584  
     797A      1.009668   798A      1.010853   799A      1.011903  
     800A      1.012945   801A      1.014665   802A      1.016181  
     803A      1.018535   804A      1.019471   805A      1.020830  
     806A      1.022841   807A      1.025565   808A      1.027252  
     809A      1.027950   810A      1.031369   811A      1.031994  
     812A      1.032678   813A      1.034437   814A      1.036061  
     815A      1.037704   816A      1.040495   817A      1.040932  
     818A      1.042113   819A      1.042819   820A      1.043908  
     821A      1.045745   822A      1.046883   823A      1.048108  
     824A      1.049064   825A      1.051075   826A      1.052183  
     827A      1.054240   828A      1.056803   829A      1.057689  
     830A      1.059235   831A      1.060227   832A      1.062107  
     833A      1.064673   834A      1.066813   835A      1.068040  
     836A      1.069431   837A      1.071722   838A      1.072258  
     839A      1.073243   840A      1.075146   841A      1.077376  
     842A      1.079107   843A      1.081602   844A      1.083072  
     845A      1.084487   846A      1.085737   847A      1.086530  
     848A      1.089100   849A      1.091725   850A      1.093196  
     851A      1.093830   852A      1.095760   853A      1.096656  
     854A      1.097152   855A      1.099562   856A      1.100836  
     857A      1.103430   858A      1.104903   859A      1.106039  
     860A      1.107729   861A      1.108739   862A      1.109876  
     863A      1.111055   864A      1.112994   865A      1.114292  
     866A      1.116519   867A      1.118411   868A      1.119027  
     869A      1.121471   870A      1.123488   871A      1.125620  
     872A      1.126096   873A      1.127973   874A      1.129778  
     875A      1.131027   876A      1.131380   877A      1.133346  
     878A      1.134658   879A      1.135324   880A      1.137137  
     881A      1.139129   882A      1.139760   883A      1.141202  
     884A      1.143997   885A      1.144497   886A      1.145973  
     887A      1.146828   888A      1.151538   889A      1.152187  
     890A      1.152686   891A      1.153381   892A      1.157554  
     893A      1.158371   894A      1.159407   895A      1.160393  
     896A      1.161345   897A      1.162740   898A      1.163410  
     899A      1.165787   900A      1.167012   901A      1.168344  
     902A      1.169298   903A      1.170954   904A      1.171609  
     905A      1.174888   906A      1.175756   907A      1.181013  
     908A      1.181365   909A      1.182084   910A      1.182888  
     911A      1.184785   912A      1.185979   913A      1.187021  
     914A      1.189100   915A      1.191130   916A      1.192941  
     917A      1.193772   918A      1.194334   919A      1.195506  
     920A      1.197885   921A      1.199306   922A      1.203433  
     923A      1.204419   924A      1.205750   925A      1.206158  
     926A      1.208338   927A      1.211283   928A      1.212031  
     929A      1.215070   930A      1.215966   931A      1.216163  
     932A      1.219772   933A      1.220552   934A      1.220895  
     935A      1.222698   936A      1.224979   937A      1.225918  
     938A      1.226791   939A      1.228286   940A      1.231495  
     941A      1.233563   942A      1.235411   943A      1.237211  
     944A      1.238194   945A      1.239619   946A      1.243568  
     947A      1.244224   948A      1.244718   949A      1.246005  
     950A      1.246369   951A      1.248573   952A      1.252500  
     953A      1.253299   954A      1.254174   955A      1.256289  
     956A      1.257349   957A      1.259644   958A      1.261378  
     959A      1.262143   960A      1.263708   961A      1.265354  
     962A      1.266270   963A      1.268657   964A      1.269753  
     965A      1.271113   966A      1.272088   967A      1.274499  
     968A      1.275988   969A      1.278506   970A      1.279997  
     971A      1.280948   972A      1.283983   973A      1.285373  
     974A      1.287439   975A      1.288643   976A      1.290241  
     977A      1.291829   978A      1.292981   979A      1.294423  
     980A      1.297594   981A      1.298608   982A      1.299164  
     983A      1.302612   984A      1.303169   985A      1.305400  
     986A      1.306045   987A      1.307830   988A      1.309384  
     989A      1.310466   990A      1.311393   991A      1.314042  
     992A      1.316692   993A      1.317476   994A      1.318660  
     995A      1.320760   996A      1.321496   997A      1.322386  
     998A      1.324869   999A      1.326392  1000A      1.328135  
    1001A      1.329326  1002A      1.330097  1003A      1.332669  
    1004A      1.334324  1005A      1.336734  1006A      1.337505  
    1007A      1.338460  1008A      1.340518  1009A      1.342614  
    1010A      1.343351  1011A      1.345772  1012A      1.345974  
    1013A      1.347754  1014A      1.349519  1015A      1.350166  
    1016A      1.351128  1017A      1.354483  1018A      1.357174  
    1019A      1.357816  1020A      1.359986  1021A      1.360146  
    1022A      1.363889  1023A      1.364696  1024A      1.365431  
    1025A      1.366682  1026A      1.368642  1027A      1.370570  
    1028A      1.371268  1029A      1.375320  1030A      1.376605  
    1031A      1.378398  1032A      1.379482  1033A      1.380249  
    1034A      1.381602  1035A      1.384424  1036A      1.385226  
    1037A      1.388990  1038A      1.389229  1039A      1.390193  
    1040A      1.391644  1041A      1.392692  1042A      1.393714  
    1043A      1.395392  1044A      1.397584  1045A      1.398424  
    1046A      1.401953  1047A      1.403111  1048A      1.404789  
    1049A      1.406094  1050A      1.409801  1051A      1.411792  
    1052A      1.412218  1053A      1.413706  1054A      1.414341  
    1055A      1.415787  1056A      1.419897  1057A      1.420389  
    1058A      1.422776  1059A      1.423408  1060A      1.423896  
    1061A      1.425562  1062A      1.427196  1063A      1.428323  
    1064A      1.430446  1065A      1.431310  1066A      1.432255  
    1067A      1.434272  1068A      1.435296  1069A      1.436737  
    1070A      1.438450  1071A      1.441301  1072A      1.442414  
    1073A      1.445013  1074A      1.447093  1075A      1.447895  
    1076A      1.448983  1077A      1.450036  1078A      1.451201  
    1079A      1.454529  1080A      1.456405  1081A      1.457660  
    1082A      1.458917  1083A      1.460558  1084A      1.462222  
    1085A      1.464412  1086A      1.465847  1087A      1.467216  
    1088A      1.469860  1089A      1.471022  1090A      1.473069  
    1091A      1.473762  1092A      1.474650  1093A      1.476937  
    1094A      1.477380  1095A      1.478176  1096A      1.481574  
    1097A      1.482049  1098A      1.482416  1099A      1.484389  
    1100A      1.485426  1101A      1.487017  1102A      1.488305  
    1103A      1.490282  1104A      1.490665  1105A      1.491878  
    1106A      1.494574  1107A      1.496458  1108A      1.497148  
    1109A      1.498262  1110A      1.501586  1111A      1.502500  
    1112A      1.504368  1113A      1.505166  1114A      1.507070  
    1115A      1.507888  1116A      1.508720  1117A      1.511139  
    1118A      1.513133  1119A      1.515226  1120A      1.517002  
    1121A      1.518397  1122A      1.518971  1123A      1.519418  
    1124A      1.522590  1125A      1.523497  1126A      1.527146  
    1127A      1.527860  1128A      1.528877  1129A      1.530369  
    1130A      1.533313  1131A      1.533903  1132A      1.536719  
    1133A      1.537549  1134A      1.538984  1135A      1.540946  
    1136A      1.541467  1137A      1.542531  1138A      1.545484  
    1139A      1.547295  1140A      1.550216  1141A      1.550518  
    1142A      1.552404  1143A      1.553823  1144A      1.555322  
    1145A      1.556596  1146A      1.559155  1147A      1.559401  
    1148A      1.561116  1149A      1.562907  1150A      1.565648  
    1151A      1.566238  1152A      1.569460  1153A      1.569658  
    1154A      1.572103  1155A      1.573183  1156A      1.573933  
    1157A      1.576753  1158A      1.577371  1159A      1.578816  
    1160A      1.580571  1161A      1.581393  1162A      1.582880  
    1163A      1.584306  1164A      1.588058  1165A      1.588475  
    1166A      1.590999  1167A      1.591214  1168A      1.593385  
    1169A      1.594610  1170A      1.595737  1171A      1.596810  
    1172A      1.599055  1173A      1.600321  1174A      1.601547  
    1175A      1.603014  1176A      1.605651  1177A      1.608600  
    1178A      1.609266  1179A      1.609557  1180A      1.611433  
    1181A      1.612564  1182A      1.613010  1183A      1.614372  
    1184A      1.616180  1185A      1.617495  1186A      1.619593  
    1187A      1.620653  1188A      1.620805  1189A      1.623003  
    1190A      1.623619  1191A      1.625635  1192A      1.629724  
    1193A      1.630110  1194A      1.632596  1195A      1.634081  
    1196A      1.636132  1197A      1.637442  1198A      1.638941  
    1199A      1.639903  1200A      1.641935  1201A      1.642836  
    1202A      1.645874  1203A      1.646817  1204A      1.648305  
    1205A      1.649789  1206A      1.651588  1207A      1.652689  
    1208A      1.654134  1209A      1.655317  1210A      1.658847  
    1211A      1.659493  1212A      1.661748  1213A      1.663722  
    1214A      1.664481  1215A      1.665611  1216A      1.666094  
    1217A      1.667249  1218A      1.670397  1219A      1.671850  
    1220A      1.672922  1221A      1.674645  1222A      1.675347  
    1223A      1.676728  1224A      1.679268  1225A      1.681284  
    1226A      1.682816  1227A      1.683943  1228A      1.685783  
    1229A      1.687777  1230A      1.690778  1231A      1.691414  
    1232A      1.693619  1233A      1.697175  1234A      1.697936  
    1235A      1.698749  1236A      1.699306  1237A      1.700824  
    1238A      1.703988  1239A      1.704756  1240A      1.706269  
    1241A      1.707404  1242A      1.709509  1243A      1.710854  
    1244A      1.711866  1245A      1.713086  1246A      1.715084  
    1247A      1.716591  1248A      1.718276  1249A      1.719320  
    1250A      1.719854  1251A      1.721647  1252A      1.725429  
    1253A      1.726155  1254A      1.728280  1255A      1.729194  
    1256A      1.732236  1257A      1.733095  1258A      1.734298  
    1259A      1.734807  1260A      1.735861  1261A      1.737190  
    1262A      1.739260  1263A      1.743191  1264A      1.744999  
    1265A      1.746152  1266A      1.747882  1267A      1.749829  
    1268A      1.750230  1269A      1.752614  1270A      1.754325  
    1271A      1.754730  1272A      1.757132  1273A      1.759590  
    1274A      1.760879  1275A      1.762713  1276A      1.766612  
    1277A      1.767884  1278A      1.769128  1279A      1.771929  
    1280A      1.772157  1281A      1.773891  1282A      1.776614  
    1283A      1.777051  1284A      1.777902  1285A      1.779863  
    1286A      1.780942  1287A      1.782269  1288A      1.784614  
    1289A      1.786270  1290A      1.787333  1291A      1.790364  
    1292A      1.792657  1293A      1.793150  1294A      1.795677  
    1295A      1.797202  1296A      1.798164  1297A      1.801149  
    1298A      1.803671  1299A      1.805965  1300A      1.807699  
    1301A      1.808726  1302A      1.810214  1303A      1.812442  
    1304A      1.813291  1305A      1.813996  1306A      1.816245  
    1307A      1.819482  1308A      1.820488  1309A      1.821545  
    1310A      1.822293  1311A      1.825653  1312A      1.828315  
    1313A      1.829650  1314A      1.832365  1315A      1.833653  
    1316A      1.835539  1317A      1.837086  1318A      1.839928  
    1319A      1.840219  1320A      1.840594  1321A      1.842807  
    1322A      1.843598  1323A      1.846177  1324A      1.846969  
    1325A      1.848304  1326A      1.850974  1327A      1.852286  
    1328A      1.855686  1329A      1.856853  1330A      1.859740  
    1331A      1.860739  1332A      1.862395  1333A      1.864585  
    1334A      1.867932  1335A      1.868365  1336A      1.869591  
    1337A      1.871372  1338A      1.874282  1339A      1.875794  
    1340A      1.877019  1341A      1.878367  1342A      1.882172  
    1343A      1.882896  1344A      1.883349  1345A      1.884294  
    1346A      1.887704  1347A      1.889324  1348A      1.890046  
    1349A      1.893557  1350A      1.895968  1351A      1.897429  
    1352A      1.898432  1353A      1.900769  1354A      1.901675  
    1355A      1.904194  1356A      1.905593  1357A      1.907677  
    1358A      1.910910  1359A      1.912464  1360A      1.913926  
    1361A      1.915850  1362A      1.918342  1363A      1.919334  
    1364A      1.923672  1365A      1.924741  1366A      1.925209  
    1367A      1.926448  1368A      1.927976  1369A      1.929908  
    1370A      1.932513  1371A      1.933721  1372A      1.935474  
    1373A      1.937447  1374A      1.940407  1375A      1.942161  
    1376A      1.943192  1377A      1.945491  1378A      1.946536  
    1379A      1.947879  1380A      1.949412  1381A      1.950916  
    1382A      1.953511  1383A      1.954158  1384A      1.956445  
    1385A      1.957414  1386A      1.958942  1387A      1.961301  
    1388A      1.963309  1389A      1.964240  1390A      1.966928  
    1391A      1.967580  1392A      1.968352  1393A      1.971661  
    1394A      1.974184  1395A      1.974614  1396A      1.978440  
    1397A      1.980989  1398A      1.982058  1399A      1.986116  
    1400A      1.986810  1401A      1.987916  1402A      1.989710  
    1403A      1.992376  1404A      1.994785  1405A      1.995987  
    1406A      1.997639  1407A      1.999130  1408A      2.000992  
    1409A      2.002515  1410A      2.003518  1411A      2.005465  
    1412A      2.007393  1413A      2.008505  1414A      2.010639  
    1415A      2.012701  1416A      2.014989  1417A      2.017592  
    1418A      2.019068  1419A      2.021091  1420A      2.022180  
    1421A      2.023527  1422A      2.025183  1423A      2.028764  
    1424A      2.030415  1425A      2.031511  1426A      2.033006  
    1427A      2.035577  1428A      2.036533  1429A      2.037631  
    1430A      2.040108  1431A      2.043887  1432A      2.046326  
    1433A      2.046958  1434A      2.048136  1435A      2.052260  
    1436A      2.053759  1437A      2.054658  1438A      2.055940  
    1439A      2.058808  1440A      2.059804  1441A      2.061938  
    1442A      2.062530  1443A      2.064823  1444A      2.069024  
    1445A      2.070974  1446A      2.071731  1447A      2.073860  
    1448A      2.077906  1449A      2.080212  1450A      2.081412  
    1451A      2.083875  1452A      2.085605  1453A      2.087534  
    1454A      2.088369  1455A      2.089934  1456A      2.092629  
    1457A      2.094439  1458A      2.095225  1459A      2.096962  
    1460A      2.101219  1461A      2.101384  1462A      2.103338  
    1463A      2.108004  1464A      2.108407  1465A      2.110871  
    1466A      2.113172  1467A      2.113758  1468A      2.115560  
    1469A      2.115669  1470A      2.118914  1471A      2.122267  
    1472A      2.125486  1473A      2.126368  1474A      2.127873  
    1475A      2.131338  1476A      2.132170  1477A      2.133955  
    1478A      2.134731  1479A      2.136694  1480A      2.140317  
    1481A      2.141112  1482A      2.142097  1483A      2.143872  
    1484A      2.145100  1485A      2.148456  1486A      2.149605  
    1487A      2.151951  1488A      2.154147  1489A      2.154695  
    1490A      2.155093  1491A      2.158029  1492A      2.162055  
    1493A      2.163975  1494A      2.165235  1495A      2.166187  
    1496A      2.168201  1497A      2.171003  1498A      2.171375  
    1499A      2.173762  1500A      2.175939  1501A      2.177701  
    1502A      2.179573  1503A      2.181338  1504A      2.183519  
    1505A      2.186286  1506A      2.188092  1507A      2.191058  
    1508A      2.195403  1509A      2.197067  1510A      2.198218  
    1511A      2.199341  1512A      2.200717  1513A      2.202384  
    1514A      2.204003  1515A      2.208998  1516A      2.210070  
    1517A      2.211650  1518A      2.212995  1519A      2.216082  
    1520A      2.217813  1521A      2.219992  1522A      2.221813  
    1523A      2.223245  1524A      2.224418  1525A      2.228276  
    1526A      2.229784  1527A      2.232802  1528A      2.235052  
    1529A      2.235904  1530A      2.236939  1531A      2.241413  
    1532A      2.243166  1533A      2.245564  1534A      2.246264  
    1535A      2.248676  1536A      2.252094  1537A      2.252808  
    1538A      2.256822  1539A      2.258022  1540A      2.263009  
    1541A      2.266441  1542A      2.267815  1543A      2.270689  
    1544A      2.272017  1545A      2.273048  1546A      2.274792  
    1547A      2.277965  1548A      2.280496  1549A      2.281898  
    1550A      2.284941  1551A      2.286658  1552A      2.287453  
    1553A      2.289677  1554A      2.292479  1555A      2.293465  
    1556A      2.295468  1557A      2.296873  1558A      2.302388  
    1559A      2.303491  1560A      2.305502  1561A      2.307425  
    1562A      2.311791  1563A      2.314191  1564A      2.318009  
    1565A      2.318124  1566A      2.319876  1567A      2.320505  
    1568A      2.321974  1569A      2.326315  1570A      2.329814  
    1571A      2.330840  1572A      2.332750  1573A      2.334814  
    1574A      2.336134  1575A      2.339173  1576A      2.342799  
    1577A      2.344415  1578A      2.344895  1579A      2.345634  
    1580A      2.348474  1581A      2.351334  1582A      2.354596  
    1583A      2.356547  1584A      2.359605  1585A      2.359739  
    1586A      2.362195  1587A      2.364070  1588A      2.364730  
    1589A      2.369508  1590A      2.372496  1591A      2.375948  
    1592A      2.378015  1593A      2.379646  1594A      2.381704  
    1595A      2.384114  1596A      2.386522  1597A      2.389689  
    1598A      2.391404  1599A      2.392191  1600A      2.397657  
    1601A      2.401207  1602A      2.402631  1603A      2.406715  
    1604A      2.407347  1605A      2.408520  1606A      2.409297  
    1607A      2.411926  1608A      2.412338  1609A      2.415954  
    1610A      2.417185  1611A      2.419527  1612A      2.423371  
    1613A      2.424183  1614A      2.430605  1615A      2.432691  
    1616A      2.435117  1617A      2.436704  1618A      2.438786  
    1619A      2.440593  1620A      2.443721  1621A      2.444954  
    1622A      2.446743  1623A      2.449517  1624A      2.452858  
    1625A      2.454362  1626A      2.459396  1627A      2.460378  
    1628A      2.461806  1629A      2.464273  1630A      2.467084  
    1631A      2.469149  1632A      2.471904  1633A      2.475626  
    1634A      2.477105  1635A      2.478913  1636A      2.482300  
    1637A      2.486030  1638A      2.489302  1639A      2.490665  
    1640A      2.492787  1641A      2.494724  1642A      2.498853  
    1643A      2.499535  1644A      2.502546  1645A      2.509073  
    1646A      2.510175  1647A      2.511375  1648A      2.514251  
    1649A      2.517125  1650A      2.522376  1651A      2.526289  
    1652A      2.528061  1653A      2.528669  1654A      2.530068  
    1655A      2.532413  1656A      2.536301  1657A      2.540082  
    1658A      2.540548  1659A      2.541585  1660A      2.544329  
    1661A      2.546456  1662A      2.548915  1663A      2.551004  
    1664A      2.552470  1665A      2.554513  1666A      2.556762  
    1667A      2.563050  1668A      2.566102  1669A      2.567157  
    1670A      2.571021  1671A      2.575349  1672A      2.575658  
    1673A      2.578495  1674A      2.581795  1675A      2.583143  
    1676A      2.586862  1677A      2.588027  1678A      2.590179  
    1679A      2.593190  1680A      2.596648  1681A      2.598586  
    1682A      2.603272  1683A      2.604990  1684A      2.607637  
    1685A      2.611478  1686A      2.614637  1687A      2.615222  
    1688A      2.617211  1689A      2.620317  1690A      2.621907  
    1691A      2.625677  1692A      2.628126  1693A      2.629206  
    1694A      2.630039  1695A      2.632249  1696A      2.637965  
    1697A      2.640032  1698A      2.644434  1699A      2.646542  
    1700A      2.649111  1701A      2.651988  1702A      2.653736  
    1703A      2.656331  1704A      2.660443  1705A      2.661834  
    1706A      2.666145  1707A      2.666811  1708A      2.669437  
    1709A      2.672119  1710A      2.675528  1711A      2.677256  
    1712A      2.679159  1713A      2.681293  1714A      2.683329  
    1715A      2.686017  1716A      2.687037  1717A      2.689033  
    1718A      2.693152  1719A      2.694623  1720A      2.699622  
    1721A      2.702080  1722A      2.704462  1723A      2.704582  
    1724A      2.709881  1725A      2.713151  1726A      2.715184  
    1727A      2.715799  1728A      2.717147  1729A      2.721395  
    1730A      2.723185  1731A      2.729479  1732A      2.730954  
    1733A      2.732446  1734A      2.736064  1735A      2.737700  
    1736A      2.742222  1737A      2.745087  1738A      2.748480  
    1739A      2.749246  1740A      2.751548  1741A      2.756464  
    1742A      2.758341  1743A      2.760040  1744A      2.761089  
    1745A      2.766045  1746A      2.766741  1747A      2.772932  
    1748A      2.773493  1749A      2.775785  1750A      2.776427  
    1751A      2.779985  1752A      2.782346  1753A      2.784705  
    1754A      2.787187  1755A      2.788298  1756A      2.790495  
    1757A      2.794250  1758A      2.797280  1759A      2.800157  
    1760A      2.803074  1761A      2.808880  1762A      2.810831  
    1763A      2.812247  1764A      2.814229  1765A      2.816602  
    1766A      2.820573  1767A      2.821858  1768A      2.825478  
    1769A      2.829780  1770A      2.832389  1771A      2.834159  
    1772A      2.838028  1773A      2.840996  1774A      2.844816  
    1775A      2.846496  1776A      2.848662  1777A      2.851302  
    1778A      2.854133  1779A      2.856344  1780A      2.862055  
    1781A      2.862561  1782A      2.867584  1783A      2.868514  
    1784A      2.875372  1785A      2.878623  1786A      2.884336  
    1787A      2.885111  1788A      2.889828  1789A      2.893257  
    1790A      2.894961  1791A      2.897979  1792A      2.898413  
    1793A      2.906565  1794A      2.910516  1795A      2.913258  
    1796A      2.917313  1797A      2.918884  1798A      2.922930  
    1799A      2.926402  1800A      2.930357  1801A      2.932156  
    1802A      2.935870  1803A      2.938416  1804A      2.939959  
    1805A      2.946379  1806A      2.949971  1807A      2.951438  
    1808A      2.955747  1809A      2.958689  1810A      2.960261  
    1811A      2.969926  1812A      2.972424  1813A      2.973924  
    1814A      2.975297  1815A      2.976501  1816A      2.983752  
    1817A      2.984588  1818A      2.989617  1819A      2.993719  
    1820A      2.997662  1821A      3.006774  1822A      3.009867  
    1823A      3.010225  1824A      3.014831  1825A      3.018977  
    1826A      3.020514  1827A      3.021447  1828A      3.027659  
    1829A      3.030124  1830A      3.036746  1831A      3.040425  
    1832A      3.044490  1833A      3.045033  1834A      3.051202  
    1835A      3.055417  1836A      3.057477  1837A      3.060602  
    1838A      3.071482  1839A      3.077103  1840A      3.083038  
    1841A      3.086218  1842A      3.093509  1843A      3.097964  
    1844A      3.101521  1845A      3.105437  1846A      3.107924  
    1847A      3.114522  1848A      3.118197  1849A      3.122240  
    1850A      3.126049  1851A      3.126703  1852A      3.137432  
    1853A      3.141542  1854A      3.144995  1855A      3.153219  
    1856A      3.154628  1857A      3.158372  1858A      3.158875  
    1859A      3.168059  1860A      3.171030  1861A      3.176494  
    1862A      3.184539  1863A      3.186507  1864A      3.192515  
    1865A      3.195635  1866A      3.197032  1867A      3.203554  
    1868A      3.205229  1869A      3.206033  1870A      3.216719  
    1871A      3.217837  1872A      3.223389  1873A      3.224961  
    1874A      3.227224  1875A      3.229161  1876A      3.237626  
    1877A      3.241213  1878A      3.243009  1879A      3.246129  
    1880A      3.249523  1881A      3.258190  1882A      3.263806  
    1883A      3.270007  1884A      3.270342  1885A      3.276493  
    1886A      3.278751  1887A      3.283599  1888A      3.284725  
    1889A      3.291246  1890A      3.295781  1891A      3.298286  
    1892A      3.299926  1893A      3.302240  1894A      3.307467  
    1895A      3.310731  1896A      3.311986  1897A      3.317807  
    1898A      3.319532  1899A      3.326978  1900A      3.331694  
    1901A      3.335325  1902A      3.338191  1903A      3.342440  
    1904A      3.344983  1905A      3.347028  1906A      3.355119  
    1907A      3.359384  1908A      3.362287  1909A      3.362902  
    1910A      3.365294  1911A      3.370710  1912A      3.372111  
    1913A      3.376165  1914A      3.377536  1915A      3.381268  
    1916A      3.384957  1917A      3.388785  1918A      3.393689  
    1919A      3.396970  1920A      3.399587  1921A      3.402595  
    1922A      3.407186  1923A      3.412180  1924A      3.414896  
    1925A      3.417529  1926A      3.421578  1927A      3.429239  
    1928A      3.431555  1929A      3.434547  1930A      3.435544  
    1931A      3.439098  1932A      3.444234  1933A      3.446417  
    1934A      3.449882  1935A      3.451704  1936A      3.454550  
    1937A      3.456774  1938A      3.461881  1939A      3.464062  
    1940A      3.468598  1941A      3.469035  1942A      3.473105  
    1943A      3.475013  1944A      3.476692  1945A      3.480986  
    1946A      3.483733  1947A      3.487342  1948A      3.488399  
    1949A      3.491069  1950A      3.495507  1951A      3.499825  
    1952A      3.501186  1953A      3.503839  1954A      3.507938  
    1955A      3.510005  1956A      3.514869  1957A      3.516272  
    1958A      3.518390  1959A      3.521931  1960A      3.525246  
    1961A      3.526409  1962A      3.529907  1963A      3.534195  
    1964A      3.536988  1965A      3.542366  1966A      3.544681  
    1967A      3.547648  1968A      3.549340  1969A      3.551213  
    1970A      3.556948  1971A      3.560131  1972A      3.562240  
    1973A      3.568474  1974A      3.568682  1975A      3.570733  
    1976A      3.575199  1977A      3.576690  1978A      3.580611  
    1979A      3.582750  1980A      3.584531  1981A      3.586530  
    1982A      3.593109  1983A      3.594021  1984A      3.597089  
    1985A      3.599190  1986A      3.601079  1987A      3.607669  
    1988A      3.611142  1989A      3.612401  1990A      3.615367  
    1991A      3.617424  1992A      3.620289  1993A      3.626997  
    1994A      3.629814  1995A      3.632567  1996A      3.636493  
    1997A      3.639042  1998A      3.640624  1999A      3.642898  
    2000A      3.649057  2001A      3.650361  2002A      3.654990  
    2003A      3.657644  2004A      3.658559  2005A      3.663654  
    2006A      3.668814  2007A      3.670846  2008A      3.672956  
    2009A      3.677071  2010A      3.677856  2011A      3.679495  
    2012A      3.680587  2013A      3.685742  2014A      3.686889  
    2015A      3.690448  2016A      3.695864  2017A      3.697038  
    2018A      3.699082  2019A      3.702590  2020A      3.708229  
    2021A      3.710571  2022A      3.712610  2023A      3.716728  
    2024A      3.718736  2025A      3.722901  2026A      3.725482  
    2027A      3.726653  2028A      3.730504  2029A      3.733247  
    2030A      3.737300  2031A      3.739779  2032A      3.743955  
    2033A      3.744819  2034A      3.749631  2035A      3.755634  
    2036A      3.755914  2037A      3.759500  2038A      3.761683  
    2039A      3.766472  2040A      3.768602  2041A      3.773284  
    2042A      3.777235  2043A      3.780235  2044A      3.783002  
    2045A      3.790200  2046A      3.792459  2047A      3.796540  
    2048A      3.798049  2049A      3.798332  2050A      3.801461  
    2051A      3.806757  2052A      3.808131  2053A      3.812109  
    2054A      3.816221  2055A      3.820259  2056A      3.825387  
    2057A      3.826574  2058A      3.829653  2059A      3.830707  
    2060A      3.834543  2061A      3.838484  2062A      3.840336  
    2063A      3.841991  2064A      3.845270  2065A      3.846673  
    2066A      3.851188  2067A      3.857165  2068A      3.858418  
    2069A      3.862408  2070A      3.866270  2071A      3.868934  
    2072A      3.869402  2073A      3.874730  2074A      3.877446  
    2075A      3.881569  2076A      3.883860  2077A      3.886097  
    2078A      3.891676  2079A      3.896017  2080A      3.897513  
    2081A      3.903829  2082A      3.904940  2083A      3.908243  
    2084A      3.910026  2085A      3.915616  2086A      3.916183  
    2087A      3.919872  2088A      3.924063  2089A      3.925972  
    2090A      3.929400  2091A      3.930916  2092A      3.934251  
    2093A      3.938514  2094A      3.940469  2095A      3.944291  
    2096A      3.948040  2097A      3.948703  2098A      3.952281  
    2099A      3.957376  2100A      3.960093  2101A      3.963238  
    2102A      3.966030  2103A      3.971789  2104A      3.977473  
    2105A      3.978136  2106A      3.983150  2107A      3.984638  
    2108A      3.986619  2109A      3.992273  2110A      3.994981  
    2111A      3.996250  2112A      3.999935  2113A      4.001343  
    2114A      4.008316  2115A      4.011174  2116A      4.015082  
    2117A      4.016592  2118A      4.019640  2119A      4.021626  
    2120A      4.025401  2121A      4.026196  2122A      4.033661  
    2123A      4.036021  2124A      4.036971  2125A      4.045956  
    2126A      4.047302  2127A      4.049584  2128A      4.054225  
    2129A      4.058266  2130A      4.058961  2131A      4.060448  
    2132A      4.062020  2133A      4.069139  2134A      4.069976  
    2135A      4.073204  2136A      4.076790  2137A      4.081469  
    2138A      4.082956  2139A      4.084161  2140A      4.087927  
    2141A      4.092782  2142A      4.094947  2143A      4.100230  
    2144A      4.103141  2145A      4.104465  2146A      4.109062  
    2147A      4.109486  2148A      4.111630  2149A      4.114442  
    2150A      4.115066  2151A      4.119910  2152A      4.123351  
    2153A      4.127401  2154A      4.127753  2155A      4.131755  
    2156A      4.135072  2157A      4.139946  2158A      4.143489  
    2159A      4.144821  2160A      4.148150  2161A      4.150232  
    2162A      4.150939  2163A      4.157492  2164A      4.158535  
    2165A      4.162685  2166A      4.166370  2167A      4.169708  
    2168A      4.173454  2169A      4.175138  2170A      4.178210  
    2171A      4.180399  2172A      4.182865  2173A      4.185369  
    2174A      4.190310  2175A      4.192504  2176A      4.196293  
    2177A      4.197781  2178A      4.202410  2179A      4.202760  
    2180A      4.205590  2181A      4.209683  2182A      4.212597  
    2183A      4.217934  2184A      4.219222  2185A      4.221297  
    2186A      4.221980  2187A      4.224095  2188A      4.227413  
    2189A      4.228628  2190A      4.230447  2191A      4.232365  
    2192A      4.235361  2193A      4.239369  2194A      4.240997  
    2195A      4.246513  2196A      4.247078  2197A      4.250390  
    2198A      4.251998  2199A      4.253185  2200A      4.256923  
    2201A      4.258923  2202A      4.264426  2203A      4.265970  
    2204A      4.268879  2205A      4.269339  2206A      4.271938  
    2207A      4.274652  2208A      4.275964  2209A      4.278799  
    2210A      4.281624  2211A      4.284637  2212A      4.286482  
    2213A      4.286900  2214A      4.290622  2215A      4.293702  
    2216A      4.297512  2217A      4.301173  2218A      4.301544  
    2219A      4.304693  2220A      4.307395  2221A      4.308512  
    2222A      4.313169  2223A      4.317665  2224A      4.319454  
    2225A      4.322121  2226A      4.325186  2227A      4.326234  
    2228A      4.327714  2229A      4.329291  2230A      4.332797  
    2231A      4.334555  2232A      4.337421  2233A      4.340120  
    2234A      4.341403  2235A      4.345419  2236A      4.347146  
    2237A      4.349206  2238A      4.349748  2239A      4.353962  
    2240A      4.356578  2241A      4.358166  2242A      4.359960  
    2243A      4.361140  2244A      4.363816  2245A      4.366213  
    2246A      4.368659  2247A      4.372084  2248A      4.373189  
    2249A      4.374817  2250A      4.378349  2251A      4.380695  
    2252A      4.384121  2253A      4.384298  2254A      4.387054  
    2255A      4.388554  2256A      4.389154  2257A      4.390171  
    2258A      4.397947  2259A      4.399191  2260A      4.402321  
    2261A      4.405524  2262A      4.407061  2263A      4.409440  
    2264A      4.411760  2265A      4.414906  2266A      4.417100  
    2267A      4.419559  2268A      4.422033  2269A      4.424234  
    2270A      4.426445  2271A      4.431177  2272A      4.434039  
    2273A      4.435055  2274A      4.438411  2275A      4.440564  
    2276A      4.442821  2277A      4.443933  2278A      4.445022  
    2279A      4.450186  2280A      4.450774  2281A      4.454071  
    2282A      4.456606  2283A      4.457751  2284A      4.459723  
    2285A      4.460937  2286A      4.465096  2287A      4.469049  
    2288A      4.473196  2289A      4.474218  2290A      4.475308  
    2291A      4.477113  2292A      4.480671  2293A      4.482092  
    2294A      4.486179  2295A      4.486926  2296A      4.489433  
    2297A      4.489595  2298A      4.492659  2299A      4.495484  
    2300A      4.496976  2301A      4.498511  2302A      4.500660  
    2303A      4.504202  2304A      4.505952  2305A      4.506982  
    2306A      4.511151  2307A      4.513001  2308A      4.516764  
    2309A      4.517859  2310A      4.519690  2311A      4.522326  
    2312A      4.524223  2313A      4.527131  2314A      4.528149  
    2315A      4.529426  2316A      4.531790  2317A      4.535282  
    2318A      4.537167  2319A      4.541240  2320A      4.545891  
    2321A      4.547753  2322A      4.549946  2323A      4.550402  
    2324A      4.556812  2325A      4.558292  2326A      4.560352  
    2327A      4.561894  2328A      4.563624  2329A      4.566528  
    2330A      4.570194  2331A      4.571367  2332A      4.574137  
    2333A      4.574255  2334A      4.576426  2335A      4.580950  
    2336A      4.582659  2337A      4.584874  2338A      4.586211  
    2339A      4.589460  2340A      4.594391  2341A      4.599445  
    2342A      4.600963  2343A      4.602235  2344A      4.604598  
    2345A      4.606444  2346A      4.610177  2347A      4.611621  
    2348A      4.612643  2349A      4.617455  2350A      4.619122  
    2351A      4.623538  2352A      4.627629  2353A      4.630014  
    2354A      4.631754  2355A      4.634523  2356A      4.635920  
    2357A      4.637635  2358A      4.639132  2359A      4.640865  
    2360A      4.642839  2361A      4.646290  2362A      4.650775  
    2363A      4.653321  2364A      4.654782  2365A      4.657447  
    2366A      4.660336  2367A      4.661264  2368A      4.666020  
    2369A      4.667767  2370A      4.669955  2371A      4.671779  
    2372A      4.673486  2373A      4.676309  2374A      4.678784  
    2375A      4.679374  2376A      4.684596  2377A      4.686436  
    2378A      4.691228  2379A      4.693590  2380A      4.699037  
    2381A      4.701524  2382A      4.702656  2383A      4.704666  
    2384A      4.705793  2385A      4.708230  2386A      4.710087  
    2387A      4.712264  2388A      4.716178  2389A      4.717466  
    2390A      4.719297  2391A      4.721030  2392A      4.724189  
    2393A      4.727524  2394A      4.732371  2395A      4.735161  
    2396A      4.735656  2397A      4.739919  2398A      4.742998  
    2399A      4.743667  2400A      4.745862  2401A      4.750521  
    2402A      4.754446  2403A      4.754518  2404A      4.756630  
    2405A      4.760296  2406A      4.764064  2407A      4.766131  
    2408A      4.768586  2409A      4.769975  2410A      4.774046  
    2411A      4.776472  2412A      4.779795  2413A      4.781769  
    2414A      4.782823  2415A      4.788821  2416A      4.789730  
    2417A      4.794475  2418A      4.795407  2419A      4.799256  
    2420A      4.801356  2421A      4.802845  2422A      4.803867  
    2423A      4.807069  2424A      4.811188  2425A      4.816163  
    2426A      4.818590  2427A      4.820557  2428A      4.824346  
    2429A      4.827179  2430A      4.830000  2431A      4.834273  
    2432A      4.834490  2433A      4.837903  2434A      4.838576  
    2435A      4.839369  2436A      4.842235  2437A      4.845113  
    2438A      4.847378  2439A      4.850124  2440A      4.855283  
    2441A      4.857256  2442A      4.860952  2443A      4.861500  
    2444A      4.864235  2445A      4.869643  2446A      4.870907  
    2447A      4.872284  2448A      4.877300  2449A      4.880217  
    2450A      4.881959  2451A      4.884709  2452A      4.889198  
    2453A      4.890268  2454A      4.892972  2455A      4.894313  
    2456A      4.897852  2457A      4.901830  2458A      4.906333  
    2459A      4.909423  2460A      4.912198  2461A      4.912353  
    2462A      4.919611  2463A      4.921523  2464A      4.922304  
    2465A      4.925276  2466A      4.926380  2467A      4.929817  
    2468A      4.932501  2469A      4.937158  2470A      4.937348  
    2471A      4.939538  2472A      4.939847  2473A      4.947014  
    2474A      4.947975  2475A      4.949879  2476A      4.954212  
    2477A      4.958761  2478A      4.962338  2479A      4.965193  
    2480A      4.967164  2481A      4.968675  2482A      4.972948  
    2483A      4.977276  2484A      4.981422  2485A      4.981817  
    2486A      4.984333  2487A      4.987008  2488A      4.988029  
    2489A      4.991665  2490A      4.993363  2491A      4.994961  
    2492A      4.998920  2493A      5.001488  2494A      5.006251  
    2495A      5.009397  2496A      5.012373  2497A      5.016521  
    2498A      5.019044  2499A      5.021211  2500A      5.023657  
    2501A      5.025145  2502A      5.027560  2503A      5.032990  
    2504A      5.035069  2505A      5.035401  2506A      5.041980  
    2507A      5.043350  2508A      5.047477  2509A      5.048711  
    2510A      5.053567  2511A      5.055838  2512A      5.057704  
    2513A      5.061650  2514A      5.063261  2515A      5.065976  
    2516A      5.067711  2517A      5.071055  2518A      5.073664  
    2519A      5.075417  2520A      5.080040  2521A      5.080365  
    2522A      5.081001  2523A      5.086465  2524A      5.088101  
    2525A      5.089675  2526A      5.095833  2527A      5.098251  
    2528A      5.100575  2529A      5.102624  2530A      5.103286  
    2531A      5.108114  2532A      5.109840  2533A      5.115601  
    2534A      5.116824  2535A      5.119554  2536A      5.122148  
    2537A      5.124576  2538A      5.127479  2539A      5.131423  
    2540A      5.133226  2541A      5.136179  2542A      5.140929  
    2543A      5.141044  2544A      5.144659  2545A      5.148714  
    2546A      5.153861  2547A      5.156726  2548A      5.160053  
    2549A      5.161502  2550A      5.165102  2551A      5.166900  
    2552A      5.171722  2553A      5.177233  2554A      5.178620  
    2555A      5.179269  2556A      5.183776  2557A      5.186328  
    2558A      5.189851  2559A      5.192161  2560A      5.196078  
    2561A      5.199375  2562A      5.199523  2563A      5.205257  
    2564A      5.207799  2565A      5.209779  2566A      5.215045  
    2567A      5.219565  2568A      5.222045  2569A      5.225824  
    2570A      5.231301  2571A      5.233768  2572A      5.236812  
    2573A      5.240027  2574A      5.243593  2575A      5.247117  
    2576A      5.249977  2577A      5.252869  2578A      5.253828  
    2579A      5.261292  2580A      5.266407  2581A      5.269505  
    2582A      5.274529  2583A      5.275484  2584A      5.279359  
    2585A      5.283649  2586A      5.285491  2587A      5.286287  
    2588A      5.287759  2589A      5.290755  2590A      5.290883  
    2591A      5.296273  2592A      5.298228  2593A      5.299266  
    2594A      5.302872  2595A      5.306363  2596A      5.312840  
    2597A      5.314735  2598A      5.317034  2599A      5.322917  
    2600A      5.325203  2601A      5.331797  2602A      5.333153  
    2603A      5.333954  2604A      5.336866  2605A      5.340014  
    2606A      5.342800  2607A      5.348005  2608A      5.349432  
    2609A      5.353148  2610A      5.356606  2611A      5.359342  
    2612A      5.366271  2613A      5.367738  2614A      5.370833  
    2615A      5.373150  2616A      5.374596  2617A      5.379011  
    2618A      5.383303  2619A      5.388331  2620A      5.391138  
    2621A      5.391886  2622A      5.394511  2623A      5.399381  
    2624A      5.403633  2625A      5.405020  2626A      5.407709  
    2627A      5.409968  2628A      5.414580  2629A      5.416813  
    2630A      5.424813  2631A      5.427366  2632A      5.433471  
    2633A      5.436202  2634A      5.436635  2635A      5.443383  
    2636A      5.445317  2637A      5.445931  2638A      5.448090  
    2639A      5.451964  2640A      5.458575  2641A      5.459129  
    2642A      5.463531  2643A      5.465042  2644A      5.471478  
    2645A      5.473026  2646A      5.473291  2647A      5.479388  
    2648A      5.481121  2649A      5.487643  2650A      5.489090  
    2651A      5.493589  2652A      5.495243  2653A      5.499935  
    2654A      5.505390  2655A      5.507885  2656A      5.512422  
    2657A      5.514879  2658A      5.516106  2659A      5.521238  
    2660A      5.524014  2661A      5.525899  2662A      5.529443  
    2663A      5.531499  2664A      5.534945  2665A      5.539847  
    2666A      5.544901  2667A      5.547058  2668A      5.550149  
    2669A      5.552811  2670A      5.560611  2671A      5.562783  
    2672A      5.566903  2673A      5.570881  2674A      5.573894  
    2675A      5.578483  2676A      5.583748  2677A      5.588854  
    2678A      5.589057  2679A      5.593976  2680A      5.596958  
    2681A      5.598158  2682A      5.602466  2683A      5.606866  
    2684A      5.611205  2685A      5.613431  2686A      5.618300  
    2687A      5.621631  2688A      5.623876  2689A      5.629168  
    2690A      5.630354  2691A      5.633627  2692A      5.636044  
    2693A      5.641562  2694A      5.643762  2695A      5.648960  
    2696A      5.652377  2697A      5.655454  2698A      5.657108  
    2699A      5.661427  2700A      5.662711  2701A      5.673609  
    2702A      5.679651  2703A      5.681011  2704A      5.686062  
    2705A      5.688118  2706A      5.689922  2707A      5.695618  
    2708A      5.702236  2709A      5.703497  2710A      5.707598  
    2711A      5.711416  2712A      5.714439  2713A      5.718854  
    2714A      5.721200  2715A      5.728321  2716A      5.738055  
    2717A      5.739546  2718A      5.740799  2719A      5.742573  
    2720A      5.746502  2721A      5.748537  2722A      5.751182  
    2723A      5.755567  2724A      5.761570  2725A      5.764256  
    2726A      5.768496  2727A      5.771614  2728A      5.783313  
    2729A      5.784635  2730A      5.787867  2731A      5.790187  
    2732A      5.795994  2733A      5.799193  2734A      5.810065  
    2735A      5.815511  2736A      5.818144  2737A      5.820389  
    2738A      5.826173  2739A      5.828632  2740A      5.833352  
    2741A      5.834627  2742A      5.841684  2743A      5.844020  
    2744A      5.852601  2745A      5.855480  2746A      5.858908  
    2747A      5.865935  2748A      5.871299  2749A      5.874829  
    2750A      5.877013  2751A      5.882790  2752A      5.886933  
    2753A      5.891597  2754A      5.893825  2755A      5.901131  
    2756A      5.908242  2757A      5.912019  2758A      5.915404  
    2759A      5.924251  2760A      5.928141  2761A      5.928980  
    2762A      5.933694  2763A      5.934434  2764A      5.938470  
    2765A      5.944585  2766A      5.947441  2767A      5.951369  
    2768A      5.955286  2769A      5.962922  2770A      5.964901  
    2771A      5.971315  2772A      5.976382  2773A      5.982671  
    2774A      5.985829  2775A      5.989748  2776A      5.991594  
    2777A      5.997799  2778A      5.999994  2779A      6.004967  
    2780A      6.008996  2781A      6.019009  2782A      6.020808  
    2783A      6.028831  2784A      6.033471  2785A      6.034987  
    2786A      6.039155  2787A      6.043225  2788A      6.051428  
    2789A      6.055330  2790A      6.064720  2791A      6.068772  
    2792A      6.070987  2793A      6.074966  2794A      6.077201  
    2795A      6.082785  2796A      6.086006  2797A      6.094415  
    2798A      6.097386  2799A      6.103344  2800A      6.108206  
    2801A      6.111019  2802A      6.115987  2803A      6.120106  
    2804A      6.122558  2805A      6.126242  2806A      6.130377  
    2807A      6.133933  2808A      6.137211  2809A      6.144814  
    2810A      6.151968  2811A      6.159996  2812A      6.169985  
    2813A      6.175671  2814A      6.178055  2815A      6.181774  
    2816A      6.182853  2817A      6.197300  2818A      6.207370  
    2819A      6.217779  2820A      6.225507  2821A      6.227176  
    2822A      6.234440  2823A      6.238011  2824A      6.244497  
    2825A      6.252006  2826A      6.259914  2827A      6.261838  
    2828A      6.263266  2829A      6.267548  2830A      6.278958  
    2831A      6.280207  2832A      6.288496  2833A      6.289346  
    2834A      6.295273  2835A      6.302701  2836A      6.304240  
    2837A      6.314023  2838A      6.316499  2839A      6.320617  
    2840A      6.335682  2841A      6.345347  2842A      6.349072  
    2843A      6.354040  2844A      6.358521  2845A      6.365444  
    2846A      6.381831  2847A      6.387567  2848A      6.396598  
    2849A      6.402315  2850A      6.407854  2851A      6.416882  
    2852A      6.426481  2853A      6.429635  2854A      6.432347  
    2855A      6.441341  2856A      6.448596  2857A      6.460263  
    2858A      6.473166  2859A      6.482197  2860A      6.501768  
    2861A      6.509431  2862A      6.529307  2863A      6.541226  
    2864A      6.552412  2865A      6.557598  2866A      6.565586  
    2867A      6.585677  2868A      6.593980  2869A      6.602183  
    2870A      6.608526  2871A      6.612032  2872A      6.619227  
    2873A      6.622845  2874A      6.628593  2875A      6.647120  
    2876A      6.653994  2877A      6.660837  2878A      6.665215  
    2879A      6.672330  2880A      6.682675  2881A      6.689891  
    2882A      6.699938  2883A      6.726467  2884A      6.735550  
    2885A      6.740864  2886A      6.747596  2887A      6.749434  
    2888A      6.759095  2889A      6.776228  2890A      6.781113  
    2891A      6.786809  2892A      6.795539  2893A      6.801854  
    2894A      6.812175  2895A      6.816099  2896A      6.835683  
    2897A      6.852347  2898A      6.855530  2899A      6.868487  
    2900A      6.871133  2901A      6.874899  2902A      6.884529  
    2903A      6.909583  2904A      6.918513  2905A      6.935909  
    2906A      6.948951  2907A      6.952498  2908A      6.963185  
    2909A      6.982753  2910A      7.013714  2911A      7.025180  
    2912A      7.027682  2913A      7.042329  2914A      7.061215  
    2915A      7.075277  2916A      7.086076  2917A      7.115640  
    2918A      7.129894  2919A      7.143813  2920A      7.166632  
    2921A      7.173665  2922A      7.186078  2923A      7.205537  
    2924A      7.212046  2925A      7.232476  2926A      7.245124  
    2927A      7.262873  2928A      7.289181  2929A      7.296744  
    2930A      7.324451  2931A      7.345427  2932A      7.369238  
    2933A      7.381134  2934A      7.388704  2935A      7.412213  
    2936A      7.416334  2937A      7.435897  2938A      7.452221  
    2939A      7.469782  2940A      7.478711  2941A      7.484779  
    2942A      7.505204  2943A      7.516560  2944A      7.523660  
    2945A      7.548247  2946A      7.562159  2947A      7.572416  
    2948A      7.598326  2949A      7.618385  2950A      7.640412  
    2951A      7.650445  2952A      7.672846  2953A      7.693477  
    2954A      7.706326  2955A      7.714065  2956A      7.737013  
    2957A      7.741560  2958A      7.748736  2959A      7.770565  
    2960A      7.781843  2961A      7.792721  2962A      7.802784  
    2963A      7.816694  2964A      7.822522  2965A      7.833627  
    2966A      7.844355  2967A      7.859860  2968A      7.877336  
    2969A      7.898147  2970A      7.904112  2971A      7.914506  
    2972A      7.943416  2973A      7.948777  2974A      7.987143  
    2975A      8.001252  2976A      8.020317  2977A      8.089973  
    2978A      8.111605  2979A      8.157624  2980A      8.178173  
    2981A      8.190370  2982A      8.225533  2983A      8.233792  
    2984A      8.251278  2985A      8.288782  2986A      8.290712  
    2987A      8.327806  2988A      8.341437  2989A      8.393557  
    2990A      8.404597  2991A      8.423255  2992A      8.440347  
    2993A      8.465820  2994A      8.493467  2995A      8.599720  
    2996A      8.614586  2997A      8.633450  2998A      8.661456  
    2999A      8.704124  3000A      8.735002  3001A      8.796135  
    3002A      8.864813  3003A      8.900422  3004A      9.013459  
    3005A      9.021962  3006A      9.069356  3007A      9.201002  
    3008A      9.300606  3009A      9.383247  3010A      9.446541  
    3011A      9.582685  3012A      9.611134  3013A      9.671156  
    3014A      9.749878  3015A      9.752884  3016A      9.821431  
    3017A      9.937319  3018A      9.965869  3019A     10.001090  
    3020A     10.040405  3021A     10.046961  3022A     10.113627  
    3023A     10.137398  3024A     10.227371  3025A     10.315844  
    3026A     10.371868  3027A     10.449066  3028A     10.523325  
    3029A     10.561895  3030A     10.697719  3031A     10.741925  
    3032A     10.825056  3033A     10.966525  3034A     11.050119  
    3035A     11.169926  3036A     11.243180  3037A     11.296751  
    3038A     11.389831  3039A     11.405257  3040A     11.458761  
    3041A     11.666019  3042A     11.844014  3043A     11.898031  
    3044A     11.979512  3045A     12.145064  3046A     12.227741  
    3047A     12.286931  3048A     12.330267  3049A     12.546175  
    3050A     12.627758  3051A     12.683336  3052A     15.243168  
    3053A     15.633249  3054A     15.991293  3055A     16.480949  
    3056A     16.806348  3057A     17.040754  3058A     17.170075  
    3059A     17.606237  3060A     18.065646  3061A     18.400497  
    3062A     18.825907  3063A     19.205629  3064A     19.590670  
    3065A     20.090772  3066A     20.612677  3067A     21.166454  
    3068A     21.412251  3069A     21.638822  3070A     21.718790  
    3071A     22.010721  3072A     22.132590  3073A     22.694819  
    3074A     22.989667  3075A     23.120797  3076A     49.709406  
    3077A     50.662756  3078A     51.451875  3079A     52.219353  
    3080A     52.840356  3081A     53.354117  3082A     53.700382  
    3083A     54.266751  3084A     55.101326  3085A     55.724470  
    3086A     56.656633  3087A     57.453880  3088A     57.993093  
    3089A     58.768734  3090A     59.760243  3091A     60.565718  
    3092A     61.026398  3093A     61.631054  3094A     61.844997  
    3095A     62.430114  3096A     62.654628  3097A     63.610694  
    3098A     63.948215  3099A     64.249147  

    Final Occupation by Irrep:
              A 
    DOCC [    82 ]
    NA   [    82 ]
    NB   [    82 ]

  @DF-RKS Final Energy:  -926.64789348427121

   => Energetics <=

    Nuclear Repulsion Energy =           1864.8412087392382546
    One-Electron Energy =               -4956.8279947333794553
    Two-Electron Energy =                2259.6485347269094746
    DFT Exchange-Correlation Energy =     -94.2758853460748725
    Empirical Dispersion Energy =          -0.0337568709644428
    VV10 Nonlocal Energy =                  0.0000000000000000
    Total Energy =                       -926.6478934842713215

Computation Completed


Properties will be evaluated at   0.000000,   0.000000,   0.000000 [a0]

Properties computed using the SCF density matrix


 Multipole Moments:

 ------------------------------------------------------------------------------------
     Multipole            Electronic (a.u.)      Nuclear  (a.u.)        Total (a.u.)
 ------------------------------------------------------------------------------------

 L = 1.  Multiply by 2.5417464519 to convert [e a0] to [Debye]
 Dipole X            :      -5244.8655785         5244.7985666           -0.0670118
 Dipole Y            :      -3214.2023088         3213.8331896           -0.3691192
 Dipole Z            :      -6901.1613379         6901.1289601           -0.0323778
 Magnitude           :                                                    0.3765473

 ------------------------------------------------------------------------------------

*** tstop() called on atl1-1-03-004-14-1.pace.gatech.edu at Sat Jun 13 15:40:17 2026
Module time:
	user time   =   65093.46 seconds =    1084.89 minutes
	system time =    4900.21 seconds =      81.67 minutes
	total time  =      10959 seconds =     182.65 minutes
Total time:
	user time   =   65093.46 seconds =    1084.89 minutes
	system time =    4900.21 seconds =      81.67 minutes
	total time  =      10959 seconds =     182.65 minutes

    Psi4 stopped on: Saturday, 13 June 2026 03:40PM
    Psi4 wall time for execution: 3:02:57.04

*** Psi4 exiting successfully. Buy a developer a beer!
