
    -----------------------------------------------------------------------
          Psi4: An Open-Source Ab Initio Electronic Structure Package
                               Psi4 1.9.1 release

                         Git: Rev {} zzzzzzz 


    D. G. A. Smith, L. A. Burns, A. C. Simmonett, R. M. Parrish,
    M. C. Schieber, R. Galvelis, P. Kraus, H. Kruse, R. Di Remigio,
    A. Alenaizan, A. M. James, S. Lehtola, J. P. Misiewicz, M. Scheurer,
    R. A. Shaw, J. B. Schriber, Y. Xie, Z. L. Glick, D. A. Sirianni,
    J. S. O'Brien, J. M. Waldrop, A. Kumar, E. G. Hohenstein,
    B. P. Pritchard, B. R. Brooks, H. F. Schaefer III, A. Yu. Sokolov,
    K. Patkowski, A. E. DePrince III, U. Bozkaya, R. A. King,
    F. A. Evangelista, J. M. Turney, T. D. Crawford, C. D. Sherrill,
    J. Chem. Phys. 152(18) 184108 (2020). https://doi.org/10.1063/5.0006002

                            Additional Code Authors
    E. T. Seidl, C. L. Janssen, E. F. Valeev, M. L. Leininger,
    J. F. Gonthier, R. M. Richard, H. R. McAlexander, M. Saitow, X. Wang,
    P. Verma, M. H. Lechner, A. Jiang, S. Behnle, A. G. Heide,
    M. F. Herbst, and D. L. Poole

             Previous Authors, Complete List of Code Contributors,
                       and Citations for Specific Modules
    https://github.com/psi4/psi4/blob/master/codemeta.json
    https://github.com/psi4/psi4/graphs/contributors
    http://psicode.org/psi4manual/master/introduction.html#citing-psifour

    -----------------------------------------------------------------------


    Psi4 started on: Saturday, 13 June 2026 03:57PM

    Process ID: 3495081
    Host:       atl1-1-02-004-4-1.pace.gatech.edu
    PSIDATADIR: /storage/home/hcoda1/5/vlita3/.conda/envs/p4_qcml/share/psi4
    Memory:     250.0 GiB
    Threads:    10
    
  ==> Input QCSchema <==

--------------------------------------------------------------------------
{'driver': 'energy',
 'extras': {},
 'id': '261',
 'keywords': {},
 'model': {'basis': 'aug-cc-pvtz', 'method': 'wb97x-v'},
 'molecule': {'extras': {},
              'fix_com': True,
              'fix_orientation': True,
              'fragment_charges': [0.0, 0.0],
              'fragment_multiplicities': [1, 1],
              'fragments': [[0, 1, 2, 3, 4, 5, 6, 7, 8, 9, 10, 11, 12, 13, 14, 15, 16, 17, 18, 19, 20, 21, 22, 23, 24,
                             25, 26, 27, 28, 29, 30, 31, 32, 33, 34, 35, 36, 37, 38, 39, 40, 41, 42, 43, 44, 45, 46, 47,
                             48, 49, 50, 51, 52, 53, 54, 55, 56, 57, 58, 59, 60, 61, 62, 63, 64, 65, 66, 67],
                            [68, 69, 70, 71, 72, 73, 74, 75, 76, 77, 78, 79, 80, 81, 82, 83]],
              'geometry': [-5.34620642, -4.85206741, -0.42040662, -6.29696543, -3.97249137, -2.73196591, -7.16652857,
                           -1.39360971, -2.91024059, -7.07225732, 0.1478346, -0.75712917, -6.06055521, -0.70522859,
                           1.52779916, -5.14660825, -3.28275871, 1.6937689, -8.00940954, -0.47795161, -5.29622845,
                           -8.00389532, -2.01265111, -7.39175445, -7.1739962, -4.55869367, -7.20967896, -6.3482405,
                           -5.51081404, -4.93971915, -5.79174545, 0.94432733, 3.66064233, -4.5983628, 0.0799819,
                           5.76970066, -3.62293398, -2.4551662, 5.90550866, -3.92400421, -4.11631993, 3.96419018,
                           -2.16569152, -2.61945029, 8.3885177, 0.07636213, -0.84617571, 7.95116799, -0.9078112,
                           1.61784783, 7.8674416, -3.76570071, 1.39135281, 8.20497635, -3.85671125, -0.88804523,
                           10.06281411, 2.58001171, -1.3655127, 7.31184057, 4.1057488, 0.7110172, 6.7716308, 3.12911434,
                           3.1826792, 6.68292857, 0.58226752, 3.66820181, 7.1546987, 5.22477035, 4.85680231, 5.5947568,
                           5.45773257, 3.95265056, 2.86034162, 6.48712479, 1.44012834, 2.99187034, 6.82098554,
                           0.8515344, 5.79382301, 7.56885523, 3.52377684, 6.77238443, 6.80325367, 0.01007923,
                           0.87853632, 6.01230407, 0.99764822, -1.51581981, 4.9476594, 3.51769873, -1.64633715,
                           4.72513697, 4.9862546, 0.62058001, 6.12205861, -0.46131862, -3.71310038, 5.15756848,
                           0.40687221, -6.02295948, 4.08395781, 2.91056166, -6.14884699, 4.05329983, 4.41018879,
                           -3.96462935, 5.13306837, -1.12454068, -8.23614739, 4.07851898, -0.25961114, -10.44460058,
                           2.99478619, 2.19392857, -10.56107574, 3.00851807, 3.73807424, -8.47334713, 3.50361025,
                           -3.823107, 7.21233591, -0.52564981, 6.01194181, 6.93361699, 5.05829719, 6.89567715,
                           5.87089814, 8.0356414, -0.74107273, 6.26352729, 7.58901842, 3.63875572, 8.83518962,
                           9.35421802, 4.19783591, 5.97522954, -5.76611566, -1.64188193, 10.31542343, -2.98864212,
                           -0.45542891, 11.88758146, -4.77253092, 3.11242428, 8.71181923, -1.70891184, -4.50721847,
                           9.0671295, 7.55489696, -1.89976737, 0.96862939, 3.89947197, 6.86430373, 0.5027639,
                           -6.46680418, 2.87873678, 3.51311765, -3.18323648, -6.03153223, 4.04964208, 3.22722344,
                           6.29110633, -4.05969977, 6.91726822, -2.35617478, -3.61337858, 2.17488807, 5.6139636,
                           -8.5558299, 2.15939666, 2.84829877, -12.31851423, 4.06363758, -1.45295543, -12.11512622,
                           5.94772646, -3.00842661, -8.1365677, -4.65219392, -6.78410677, -0.29846731, -7.72607119,
                           2.09308409, -0.89347536, -5.69192784, -7.45269585, -4.79824367, -8.63836085, 1.47325902,
                           -5.4323305, -8.64382367, -1.28398557, -9.20131008, -7.19028923, -5.75067773, -8.88116704,
                           0.69471926, 7.16657411, 6.19908801, 3.21943853, -4.43255237, 5.4924338, -1.01804176,
                           -2.06721752, -6.41424693, -0.04006805, -3.69463605, -4.59993014, 0.29508244, -2.88730801,
                           -2.09508758, -0.32679714, -0.42272984, -1.41690966, -1.32071561, 1.15392876, -3.24915277,
                           -1.68814035, 0.37514049, -5.74325186, 0.62349756, -6.02367305, -5.33266218, 1.25684872,
                           -4.55988854, -0.10878832, -2.01790096, 3.74535177, -2.52671085, -2.46962752, 1.68011751,
                           -7.10722613, -0.06092458, 0.2181685, 0.50639917, -1.23619836, -2.74752497, -8.33105453,
                           2.06085935, -3.52195874, 1.83306118, 1.18336559, -6.86024705, -0.44470452, -2.90698951,
                           5.11929396, -4.19647021, -1.67462389, 4.39177019, -0.3135118],
              'id': 6,
              'identifiers': {'molecular_formula': 'C46FH29N2O6',
                              'molecule_hash': '6059439b7d3ff97eb634aabdaf8efaa815866e92'},
              'molecular_charge': 0.0,
              'molecular_multiplicity': 1,
              'name': 'C46FH29N2O6',
              'provenance': {'creator': 'QCElemental',
                             'routine': 'qcelemental.molparse.from_string',
                             'version': '0.29.0'},
              'schema_name': 'qcschema_molecule',
              'schema_version': 2,
              'symbols': ['C', 'C', 'C', 'C', 'C', 'C', 'C', 'C', 'C', 'C', 'C', 'C', 'C', 'C', 'C', 'C', 'C', 'C', 'C',
                          'C', 'C', 'C', 'C', 'C', 'C', 'C', 'C', 'C', 'C', 'C', 'C', 'C', 'C', 'C', 'C', 'C', 'C', 'C',
                          'C', 'C', 'O', 'O', 'H', 'H', 'H', 'H', 'H', 'H', 'H', 'H', 'H', 'H', 'H', 'H', 'H', 'H', 'H',
                          'H', 'H', 'H', 'H', 'H', 'H', 'H', 'H', 'H', 'H', 'H', 'C', 'C', 'C', 'C', 'C', 'C', 'F', 'N',
                          'N', 'H', 'H', 'H', 'O', 'O', 'O', 'O'],
              'validated': True},
 'protocols': {},
 'provenance': {'creator': 'QCElemental', 'routine': 'qcelemental.models.results', 'version': '0.29.0'},
 'schema_name': 'qcschema_input',
 'schema_version': 1}
--------------------------------------------------------------------------

Scratch directory: /tmp/tmpjem2wg7q_psi_scratch/
   => Libint2 <=

    Primary   basis highest AM E, G, H:  6, 6, 3
    Auxiliary basis highest AM E, G, H:  7, 7, 4
    Onebody   basis highest AM E, G, H:  -, -, -
    Solid Harmonics ordering:            Gaussian

*** tstart() called on atl1-1-02-004-4-1.pace.gatech.edu
*** at Sat Jun 13 15:57:29 2026

   => Loading Basis Set <=

    Name: AUG-CC-PVTZ
    Role: ORBITAL
    Keyword: BASIS
    atoms 1-40, 69-74  entry C          line   239 file /storage/home/hcoda1/5/vlita3/.conda/envs/p4_qcml/share/psi4/basis/aug-cc-pvtz.gbs 
    atoms 41-42, 81-84 entry O          line   331 file /storage/home/hcoda1/5/vlita3/.conda/envs/p4_qcml/share/psi4/basis/aug-cc-pvtz.gbs 
    atoms 43-68, 78-80 entry H          line    40 file /storage/home/hcoda1/5/vlita3/.conda/envs/p4_qcml/share/psi4/basis/aug-cc-pvtz.gbs 
    atoms 75           entry F          line   377 file /storage/home/hcoda1/5/vlita3/.conda/envs/p4_qcml/share/psi4/basis/aug-cc-pvtz.gbs 
    atoms 76-77        entry N          line   285 file /storage/home/hcoda1/5/vlita3/.conda/envs/p4_qcml/share/psi4/basis/aug-cc-pvtz.gbs 


         ---------------------------------------------------------
                                   SCF
               by Justin Turney, Rob Parrish, Andy Simmonett
                          and Daniel G. A. Smith
                              RKS Reference
                       10 Threads, 256000 MiB Core
         ---------------------------------------------------------

  ==> Geometry <==

    Molecular point group: c1
    Full point group: C1

    Geometry (in Bohr), charge = 0, multiplicity = 1:

       Center              X                  Y                   Z               Mass       
    ------------   -----------------  -----------------  -----------------  -----------------
         C           -5.346206420000    -4.852067410000    -0.420406620000    12.000000000000
         C           -6.296965430000    -3.972491370000    -2.731965910000    12.000000000000
         C           -7.166528570000    -1.393609710000    -2.910240590000    12.000000000000
         C           -7.072257320000     0.147834600000    -0.757129170000    12.000000000000
         C           -6.060555210000    -0.705228590000     1.527799160000    12.000000000000
         C           -5.146608250000    -3.282758710000     1.693768900000    12.000000000000
         C           -8.009409540000    -0.477951610000    -5.296228450000    12.000000000000
         C           -8.003895320000    -2.012651110000    -7.391754450000    12.000000000000
         C           -7.173996200000    -4.558693670000    -7.209678960000    12.000000000000
         C           -6.348240500000    -5.510814040000    -4.939719150000    12.000000000000
         C           -5.791745450000     0.944327330000     3.660642330000    12.000000000000
         C           -4.598362800000     0.079981900000     5.769700660000    12.000000000000
         C           -3.622933980000    -2.455166200000     5.905508660000    12.000000000000
         C           -3.924004210000    -4.116319930000     3.964190180000    12.000000000000
         C           -2.165691520000    -2.619450290000     8.388517700000    12.000000000000
         C            0.076362130000    -0.846175710000     7.951167990000    12.000000000000
         C           -0.907811200000     1.617847830000     7.867441600000    12.000000000000
         C           -3.765700710000     1.391352810000     8.204976350000    12.000000000000
         C           -3.856711250000    -0.888045230000    10.062814110000    12.000000000000
         C            2.580011710000    -1.365512700000     7.311840570000    12.000000000000
         C            4.105748800000     0.711017200000     6.771630800000    12.000000000000
         C            3.129114340000     3.182679200000     6.682928570000    12.000000000000
         C            0.582267520000     3.668201810000     7.154698700000    12.000000000000
         C            5.224770350000     4.856802310000     5.594756800000    12.000000000000
         C            5.457732570000     3.952650560000     2.860341620000    12.000000000000
         C            6.487124790000     1.440128340000     2.991870340000    12.000000000000
         C            6.820985540000     0.851534400000     5.793823010000    12.000000000000
         C            7.568855230000     3.523776840000     6.772384430000    12.000000000000
         C            6.803253670000     0.010079230000     0.878536320000    12.000000000000
         C            6.012304070000     0.997648220000    -1.515819810000    12.000000000000
         C            4.947659400000     3.517698730000    -1.646337150000    12.000000000000
         C            4.725136970000     4.986254600000     0.620580010000    12.000000000000
         C            6.122058610000    -0.461318620000    -3.713100380000    12.000000000000
         C            5.157568480000     0.406872210000    -6.022959480000    12.000000000000
         C            4.083957810000     2.910561660000    -6.148846990000    12.000000000000
         C            4.053299830000     4.410188790000    -3.964629350000    12.000000000000
         C            5.133068370000    -1.124540680000    -8.236147390000    12.000000000000
         C            4.078518980000    -0.259611140000   -10.444600580000    12.000000000000
         C            2.994786190000     2.193928570000   -10.561075740000    12.000000000000
         C            3.008518070000     3.738074240000    -8.473347130000    12.000000000000
         O            3.503610250000    -3.823107000000     7.212335910000    15.994914619570
         O           -0.525649810000     6.011941810000     6.933616990000    15.994914619570
         H            5.058297190000     6.895677150000     5.870898140000     1.007825032230
         H            8.035641400000    -0.741072730000     6.263527290000     1.007825032230
         H            7.589018420000     3.638755720000     8.835189620000     1.007825032230
         H            9.354218020000     4.197835910000     5.975229540000     1.007825032230
         H           -5.766115660000    -1.641881930000    10.315423430000     1.007825032230
         H           -2.988642120000    -0.455428910000    11.887581460000     1.007825032230
         H           -4.772530920000     3.112424280000     8.711819230000     1.007825032230
         H           -1.708911840000    -4.507218470000     9.067129500000     1.007825032230
         H            7.554896960000    -1.899767370000     0.968629390000     1.007825032230
         H            3.899471970000     6.864303730000     0.502763900000     1.007825032230
         H           -6.466804180000     2.878736780000     3.513117650000     1.007825032230
         H           -3.183236480000    -6.031532230000     4.049642080000     1.007825032230
         H            3.227223440000     6.291106330000    -4.059699770000     1.007825032230
         H            6.917268220000    -2.356174780000    -3.613378580000     1.007825032230
         H            2.174888070000     5.613963600000    -8.555829900000     1.007825032230
         H            2.159396660000     2.848298770000   -12.318514230000     1.007825032230
         H            4.063637580000    -1.452955430000   -12.115126220000     1.007825032230
         H            5.947726460000    -3.008426610000    -8.136567700000     1.007825032230
         H           -4.652193920000    -6.784106770000    -0.298467310000     1.007825032230
         H           -7.726071190000     2.093084090000    -0.893475360000     1.007825032230
         H           -5.691927840000    -7.452695850000    -4.798243670000     1.007825032230
         H           -8.638360850000     1.473259020000    -5.432330500000     1.007825032230
         H           -8.643823670000    -1.283985570000    -9.201310080000     1.007825032230
         H           -7.190289230000    -5.750677730000    -8.881167040000     1.007825032230
         H            0.694719260000     7.166574110000     6.199088010000     1.007825032230
         H            3.219438530000    -4.432552370000     5.492433800000     1.007825032230
         C           -1.018041760000    -2.067217520000    -6.414246930000    12.000000000000
         C           -0.040068050000    -3.694636050000    -4.599930140000    12.000000000000
         C            0.295082440000    -2.887308010000    -2.095087580000    12.000000000000
         C           -0.326797140000    -0.422729840000    -1.416909660000    12.000000000000
         C           -1.320715610000     1.153928760000    -3.249152770000    12.000000000000
         C           -1.688140350000     0.375140490000    -5.743251860000    12.000000000000
         F            0.623497560000    -6.023673050000    -5.332662180000    18.998403162730
         N            1.256848720000    -4.559888540000    -0.108788320000    14.003074004430
         N           -2.017900960000     3.745351770000    -2.526710850000    14.003074004430
         H           -2.469627520000     1.680117510000    -7.107226130000     1.007825032230
         H           -0.060924580000     0.218168500000     0.506399170000     1.007825032230
         H           -1.236198360000    -2.747524970000    -8.331054530000     1.007825032230
         O            2.060859350000    -3.521958740000     1.833061180000    15.994914619570
         O            1.183365590000    -6.860247050000    -0.444704520000    15.994914619570
         O           -2.906989510000     5.119293960000    -4.196470210000    15.994914619570
         O           -1.674623890000     4.391770190000    -0.313511800000    15.994914619570

  Running in c1 symmetry.

  Rotational constants: A =      0.00269  B =      0.00202  C =      0.00154 [cm^-1]
  Rotational constants: A =     80.53073  B =     60.67005  C =     46.28054 [MHz]
  Nuclear repulsion = 8036.031125408757362

  Charge       = 0
  Multiplicity = 1
  Electrons    = 376
  Nalpha       = 188
  Nbeta        = 188

  ==> Algorithm <==

  SCF Algorithm Type is DF.
  DIIS enabled.
  MOM disabled.
  Fractional occupation disabled.
  Guess Type is SAD.
  Energy threshold   = 1.00e-06
  Density threshold  = 1.00e-06
  Integral threshold = 1.00e-12

  ==> Primary Basis <==

  Basis Set: AUG-CC-PVTZ
    Blend: AUG-CC-PVTZ
    Number of shells: 1031
    Number of basis functions: 3197
    Number of Cartesian functions: 3750
    Spherical Harmonics?: true
    Max angular momentum: 3

  ==> DFT Potential <==

   => LibXC <=

    Version 7.0.0
    S. Lehtola, C. Steigemann, M. J.T. Oliveira, and M. A.L. Marques.,  SoftwareX 7, 1–5 (2018) (10.1016/j.softx.2017.11.002)

   => Composite Functional: WB97X-V <= 

    wB97X-V Hyb-GGA Exchange-Correlation Functional

    N. Mardirossian and M. Head-Gordon.,  Phys. Chem. Chem. Phys. 16, 9904-9924 (2014) (10.1039/C3CP54374A)

    Deriv               =              1
    GGA                 =           TRUE
    Meta                =          FALSE

    Exchange Hybrid     =           TRUE
    MP2 Hybrid          =          FALSE

   => Exchange-Correlation Functionals <=

    1.0000   wB97X-V range-separated functional

   => Exact (HF) Exchange <=

    0.8330            HF,LR [omega = 0.3000]
    0.1670               HF 

   => LibXC Density Thresholds  <==

    XC_HYB_GGA_XC_WB97X_V:  1.00E-14 

   => VV10 Non-Local Parameters <=

    VV10 B              =     6.0000E+00
    VV10 C              =     1.0000E-02

   => Molecular Quadrature <=

    Radial Scheme          =       TREUTLER
    Pruning Scheme         =           NONE
    Nuclear Scheme         =       TREUTLER

    Blocking Scheme        =         OCTREE
    BS radius alpha        =              1
    Pruning alpha          =              1
    Radial Points          =             75
    Spherical Points       =            302
    Total Points           =        1660585
    Total Blocks           =          11397
    Max Points             =            256
    Max Functions          =           2139
    Weights Tolerance      =       1.00E-15

   => Loading Basis Set <=

    Name: (AUG-CC-PVTZ AUX)
    Role: JKFIT
    Keyword: DF_BASIS_SCF
    atoms 1-40, 69-74  entry C          line   162 file /storage/home/hcoda1/5/vlita3/.conda/envs/p4_qcml/share/psi4/basis/aug-cc-pvtz-jkfit.gbs 
    atoms 41-42, 81-84 entry O          line   286 file /storage/home/hcoda1/5/vlita3/.conda/envs/p4_qcml/share/psi4/basis/aug-cc-pvtz-jkfit.gbs 
    atoms 43-68, 78-80 entry H          line    70 file /storage/home/hcoda1/5/vlita3/.conda/envs/p4_qcml/share/psi4/basis/aug-cc-pvtz-jkfit.gbs 
    atoms 75           entry F          line   348 file /storage/home/hcoda1/5/vlita3/.conda/envs/p4_qcml/share/psi4/basis/aug-cc-pvtz-jkfit.gbs 
    atoms 76-77        entry N          line   224 file /storage/home/hcoda1/5/vlita3/.conda/envs/p4_qcml/share/psi4/basis/aug-cc-pvtz-jkfit.gbs 

  ==> Integral Setup <==

  ==> DiskDFJK: Density-Fitted J/K Matrices <==

    J tasked:                  Yes
    K tasked:                  Yes
    wK tasked:                 Yes
    Omega:               3.000E-01
    OpenMP threads:             10
    Integrals threads:          10
    Memory [MiB]:           172800
    Algorithm:                Disk
    Integral Cache:           NONE
    Schwarz Cutoff:          1E-12
    Fitting Condition:       1E-10

   => Auxiliary Basis Set <=

  Basis Set: (AUG-CC-PVTZ AUX)
    Blend: AUG-CC-PVTZ-JKFIT
    Number of shells: 2056
    Number of basis functions: 7054
    Number of Cartesian functions: 8800
    Spherical Harmonics?: true
    Max angular momentum: 4

  Minimum eigenvalue in the overlap matrix is 8.4696743678E-09.
  Reciprocal condition number of the overlap matrix is 2.5542464085E-10.
    Using canonical orthogonalization.
  Overall, 16 of 3197 possible MOs eliminated.


  ==> Pre-Iterations <==

  SCF Guess: Superposition of Atomic Densities via on-the-fly atomic UHF (no occupation information).

   -------------------------
    Irrep   Nso     Nmo    
   -------------------------
     A       3197    3181 
   -------------------------
    Total    3197    3181
   -------------------------

  ==> Iterations <==

                           Total Energy        Delta E     RMS |[F,P]|

   @DF-RKS iter SAD: -2433.29025463508651   -2.43329e+03   0.00000e+00 
   @DF-RKS iter   1: -2429.28790591537017    4.00235e+00   6.08632e-04 ADIIS/DIIS
   @DF-RKS iter   2: -2429.88161790824279   -5.93712e-01   5.48395e-04 ADIIS/DIIS
   @DF-RKS iter   3: -2431.02207223901178   -1.14045e+00   1.09963e-04 ADIIS/DIIS
   @DF-RKS iter   4: -2431.06256948706005   -4.04972e-02   4.34373e-05 DIIS
   @DF-RKS iter   5: -2431.06896060221379   -6.39112e-03   2.01747e-05 DIIS
   @DF-RKS iter   6: -2431.07041408235546   -1.45348e-03   6.51908e-06 DIIS
   @DF-RKS iter   7: -2431.07058400368442   -1.69921e-04   2.19884e-06 DIIS
   @DF-RKS iter   8: -2431.07061158829356   -2.75846e-05   6.07125e-07 DIIS
   @DF-RKS iter   9: -2431.07061675441128   -5.16612e-06   3.43276e-07 DIIS
   @DF-RKS iter  10: -2431.07061800915881   -1.25475e-06   1.33373e-07 DIIS
   @DF-RKS iter  11: -2431.07061828043516   -2.71276e-07   9.17632e-08 DIIS
  Energy and wave function converged.


  ==> Post-Iterations <==

   Electrons on quadrature grid:
      Ntotal   =  375.9997158721 ; deviation = -2.841e-04 

    Orbital Energies [Eh]
    ---------------------

    Doubly Occupied:                                                      

       1A    -24.811643     2A    -19.277461     3A    -19.275679  
       4A    -19.266298     5A    -19.265286     6A    -19.249173  
       7A    -19.221965     8A    -14.685588     9A    -14.672473  
      10A    -10.416306    11A    -10.368975    12A    -10.357643  
      13A    -10.337402    14A    -10.334608    15A    -10.330031  
      16A    -10.323775    17A    -10.318070    18A    -10.305573  
      19A    -10.297389    20A    -10.297009    21A    -10.296962  
      22A    -10.296656    23A    -10.296476    24A    -10.294755  
      25A    -10.294549    26A    -10.294231    27A    -10.294124  
      28A    -10.293787    29A    -10.293474    30A    -10.292583  
      31A    -10.290212    32A    -10.290080    33A    -10.290052  
      34A    -10.289466    35A    -10.289149    36A    -10.288222  
      37A    -10.288131    38A    -10.287976    39A    -10.287828  
      40A    -10.287515    41A    -10.287116    42A    -10.287062  
      43A    -10.286513    44A    -10.286353    45A    -10.284527  
      46A    -10.284249    47A    -10.284044    48A    -10.282551  
      49A    -10.282325    50A    -10.281275    51A    -10.280294  
      52A    -10.279981    53A    -10.279849    54A    -10.278911  
      55A    -10.277758    56A     -1.396406    57A     -1.381616  
      58A     -1.371239    59A     -1.205775    60A     -1.194883  
      61A     -1.189508    62A     -1.161951    63A     -1.062479  
      64A     -1.055814    65A     -1.048280    66A     -1.026908  
      67A     -1.024181    68A     -0.992831    69A     -0.986882  
      70A     -0.982353    71A     -0.957960    72A     -0.951001  
      73A     -0.934435    74A     -0.930308    75A     -0.927511  
      76A     -0.921614    77A     -0.903769    78A     -0.899675  
      79A     -0.880246    80A     -0.874049    81A     -0.865568  
      82A     -0.864995    83A     -0.864162    84A     -0.848049  
      85A     -0.843776    86A     -0.838895    87A     -0.824423  
      88A     -0.801530    89A     -0.782163    90A     -0.780066  
      91A     -0.778459    92A     -0.749739    93A     -0.740884  
      94A     -0.736606    95A     -0.734877    96A     -0.733307  
      97A     -0.732014    98A     -0.729168    99A     -0.723748  
     100A     -0.713300   101A     -0.708874   102A     -0.693762  
     103A     -0.689667   104A     -0.686426   105A     -0.681295  
     106A     -0.670749   107A     -0.668044   108A     -0.663997  
     109A     -0.663153   110A     -0.651875   111A     -0.649235  
     112A     -0.649053   113A     -0.646626   114A     -0.641361  
     115A     -0.635704   116A     -0.627299   117A     -0.622986  
     118A     -0.620966   119A     -0.618087   120A     -0.612738  
     121A     -0.602169   122A     -0.592763   123A     -0.591155  
     124A     -0.576754   125A     -0.573135   126A     -0.573070  
     127A     -0.569736   128A     -0.566248   129A     -0.562297  
     130A     -0.558033   131A     -0.553932   132A     -0.550913  
     133A     -0.549425   134A     -0.540149   135A     -0.539199  
     136A     -0.537437   137A     -0.536680   138A     -0.534269  
     139A     -0.530726   140A     -0.530334   141A     -0.528418  
     142A     -0.527566   143A     -0.524197   144A     -0.517863  
     145A     -0.512354   146A     -0.507285   147A     -0.504023  
     148A     -0.498603   149A     -0.493681   150A     -0.492725  
     151A     -0.486834   152A     -0.485837   153A     -0.485382  
     154A     -0.477453   155A     -0.472444   156A     -0.466101  
     157A     -0.461703   158A     -0.459815   159A     -0.452846  
     160A     -0.451784   161A     -0.448533   162A     -0.446429  
     163A     -0.443425   164A     -0.441733   165A     -0.440747  
     166A     -0.437895   167A     -0.436647   168A     -0.433515  
     169A     -0.429860   170A     -0.429618   171A     -0.425631  
     172A     -0.420806   173A     -0.420125   174A     -0.413400  
     175A     -0.410762   176A     -0.406629   177A     -0.404206  
     178A     -0.399159   179A     -0.385614   180A     -0.377415  
     181A     -0.360862   182A     -0.355015   183A     -0.336713  
     184A     -0.325669   185A     -0.307600   186A     -0.302939  
     187A     -0.283747   188A     -0.280902  

    Virtual:                                                              

     189A     -0.036148   190A     -0.027184   191A     -0.008179  
     192A     -0.000211   193A      0.019527   194A      0.025260  
     195A      0.028556   196A      0.030736   197A      0.031933  
     198A      0.033849   199A      0.034836   200A      0.036533  
     201A      0.037896   202A      0.039317   203A      0.043971  
     204A      0.044890   205A      0.046099   206A      0.046725  
     207A      0.047936   208A      0.048738   209A      0.053430  
     210A      0.057613   211A      0.057859   212A      0.058980  
     213A      0.059743   214A      0.062993   215A      0.064787  
     216A      0.065721   217A      0.069808   218A      0.070548  
     219A      0.071204   220A      0.071724   221A      0.074016  
     222A      0.077302   223A      0.077411   224A      0.078915  
     225A      0.080443   226A      0.082660   227A      0.084930  
     228A      0.087732   229A      0.088300   230A      0.091679  
     231A      0.092707   232A      0.093439   233A      0.094965  
     234A      0.096446   235A      0.097347   236A      0.099064  
     237A      0.100168   238A      0.100944   239A      0.101975  
     240A      0.103261   241A      0.103986   242A      0.105492  
     243A      0.105638   244A      0.106386   245A      0.109197  
     246A      0.110847   247A      0.111615   248A      0.113995  
     249A      0.114767   250A      0.116240   251A      0.118493  
     252A      0.119357   253A      0.120032   254A      0.122291  
     255A      0.122669   256A      0.124487   257A      0.127048  
     258A      0.128182   259A      0.128905   260A      0.129308  
     261A      0.131247   262A      0.132426   263A      0.133933  
     264A      0.134588   265A      0.136711   266A      0.137574  
     267A      0.138299   268A      0.141436   269A      0.143160  
     270A      0.143392   271A      0.144919   272A      0.145311  
     273A      0.147054   274A      0.148505   275A      0.149656  
     276A      0.152460   277A      0.153387   278A      0.154141  
     279A      0.154888   280A      0.156487   281A      0.157451  
     282A      0.160260   283A      0.161459   284A      0.161900  
     285A      0.163550   286A      0.164247   287A      0.166551  
     288A      0.168974   289A      0.169177   290A      0.172581  
     291A      0.173145   292A      0.174613   293A      0.176007  
     294A      0.178487   295A      0.179534   296A      0.181247  
     297A      0.181711   298A      0.182608   299A      0.183607  
     300A      0.184658   301A      0.186823   302A      0.189380  
     303A      0.191096   304A      0.191653   305A      0.192903  
     306A      0.193772   307A      0.195422   308A      0.198533  
     309A      0.199539   310A      0.200997   311A      0.202131  
     312A      0.202402   313A      0.203632   314A      0.206064  
     315A      0.207063   316A      0.208737   317A      0.210134  
     318A      0.211345   319A      0.211478   320A      0.212779  
     321A      0.213765   322A      0.216348   323A      0.217544  
     324A      0.218701   325A      0.219431   326A      0.220028  
     327A      0.221559   328A      0.222437   329A      0.222569  
     330A      0.224019   331A      0.224625   332A      0.225439  
     333A      0.225796   334A      0.227624   335A      0.228231  
     336A      0.229932   337A      0.231045   338A      0.231352  
     339A      0.233275   340A      0.233652   341A      0.234628  
     342A      0.234895   343A      0.236654   344A      0.237223  
     345A      0.238267   346A      0.238983   347A      0.239284  
     348A      0.240583   349A      0.242639   350A      0.243238  
     351A      0.243983   352A      0.245071   353A      0.246898  
     354A      0.247978   355A      0.248498   356A      0.249281  
     357A      0.249706   358A      0.250567   359A      0.251324  
     360A      0.252371   361A      0.253374   362A      0.254073  
     363A      0.255522   364A      0.256008   365A      0.256963  
     366A      0.257906   367A      0.258073   368A      0.259766  
     369A      0.261426   370A      0.262361   371A      0.264082  
     372A      0.264670   373A      0.265303   374A      0.265707  
     375A      0.268391   376A      0.269112   377A      0.270360  
     378A      0.271292   379A      0.272721   380A      0.272861  
     381A      0.273793   382A      0.275108   383A      0.275990  
     384A      0.276676   385A      0.278138   386A      0.279245  
     387A      0.279793   388A      0.280685   389A      0.281385  
     390A      0.282558   391A      0.282708   392A      0.284280  
     393A      0.285169   394A      0.287288   395A      0.288201  
     396A      0.289587   397A      0.290380   398A      0.290910  
     399A      0.294126   400A      0.294169   401A      0.296014  
     402A      0.297470   403A      0.298987   404A      0.299742  
     405A      0.300780   406A      0.302322   407A      0.302905  
     408A      0.304673   409A      0.306378   410A      0.308894  
     411A      0.310158   412A      0.310901   413A      0.312857  
     414A      0.314373   415A      0.315287   416A      0.315685  
     417A      0.317106   418A      0.318097   419A      0.318926  
     420A      0.320809   421A      0.321554   422A      0.322222  
     423A      0.323129   424A      0.325223   425A      0.325617  
     426A      0.326543   427A      0.328361   428A      0.329263  
     429A      0.331055   430A      0.331715   431A      0.333688  
     432A      0.334532   433A      0.335861   434A      0.338085  
     435A      0.338870   436A      0.339839   437A      0.340971  
     438A      0.341174   439A      0.343036   440A      0.344124  
     441A      0.346025   442A      0.347117   443A      0.348554  
     444A      0.349220   445A      0.350163   446A      0.350641  
     447A      0.351958   448A      0.353523   449A      0.354134  
     450A      0.355104   451A      0.356255   452A      0.357127  
     453A      0.358127   454A      0.359718   455A      0.360297  
     456A      0.362934   457A      0.364491   458A      0.365415  
     459A      0.366798   460A      0.367051   461A      0.368125  
     462A      0.369014   463A      0.370595   464A      0.373982  
     465A      0.374461   466A      0.375766   467A      0.376922  
     468A      0.378081   469A      0.379401   470A      0.380621  
     471A      0.381634   472A      0.382698   473A      0.383693  
     474A      0.386059   475A      0.387352   476A      0.388624  
     477A      0.389896   478A      0.390608   479A      0.392243  
     480A      0.395040   481A      0.395359   482A      0.398337  
     483A      0.398549   484A      0.399982   485A      0.400685  
     486A      0.402218   487A      0.404253   488A      0.405499  
     489A      0.405953   490A      0.407799   491A      0.410001  
     492A      0.411154   493A      0.412269   494A      0.412478  
     495A      0.414332   496A      0.414510   497A      0.415671  
     498A      0.417598   499A      0.418374   500A      0.419538  
     501A      0.421048   502A      0.421903   503A      0.424072  
     504A      0.424697   505A      0.426018   506A      0.426423  
     507A      0.427715   508A      0.427940   509A      0.429823  
     510A      0.430974   511A      0.433163   512A      0.434232  
     513A      0.436406   514A      0.438088   515A      0.439301  
     516A      0.440962   517A      0.441496   518A      0.442924  
     519A      0.443817   520A      0.444875   521A      0.446005  
     522A      0.447471   523A      0.450674   524A      0.451559  
     525A      0.452198   526A      0.455002   527A      0.456031  
     528A      0.456647   529A      0.457746   530A      0.459085  
     531A      0.459773   532A      0.461019   533A      0.462665  
     534A      0.463127   535A      0.464884   536A      0.466291  
     537A      0.467052   538A      0.467605   539A      0.468664  
     540A      0.469054   541A      0.470714   542A      0.471681  
     543A      0.472325   544A      0.473448   545A      0.473743  
     546A      0.475048   547A      0.477145   548A      0.477961  
     549A      0.478469   550A      0.479707   551A      0.480852  
     552A      0.481861   553A      0.483080   554A      0.485657  
     555A      0.485742   556A      0.487729   557A      0.488059  
     558A      0.489653   559A      0.491181   560A      0.492136  
     561A      0.493966   562A      0.495464   563A      0.496245  
     564A      0.497948   565A      0.499370   566A      0.500456  
     567A      0.500578   568A      0.502683   569A      0.503215  
     570A      0.505159   571A      0.506436   572A      0.506757  
     573A      0.507550   574A      0.508537   575A      0.509217  
     576A      0.509740   577A      0.511483   578A      0.512125  
     579A      0.513009   580A      0.515301   581A      0.516531  
     582A      0.518114   583A      0.519203   584A      0.520390  
     585A      0.521186   586A      0.522421   587A      0.522525  
     588A      0.524081   589A      0.524226   590A      0.524761  
     591A      0.527125   592A      0.527585   593A      0.528283  
     594A      0.529501   595A      0.531965   596A      0.532145  
     597A      0.534389   598A      0.534932   599A      0.535402  
     600A      0.536646   601A      0.537431   602A      0.537729  
     603A      0.539630   604A      0.541404   605A      0.542802  
     606A      0.545373   607A      0.545887   608A      0.546221  
     609A      0.548243   610A      0.548723   611A      0.550287  
     612A      0.551295   613A      0.552673   614A      0.554059  
     615A      0.554719   616A      0.555695   617A      0.558369  
     618A      0.558984   619A      0.559817   620A      0.560346  
     621A      0.562723   622A      0.562939   623A      0.563660  
     624A      0.564805   625A      0.566809   626A      0.567991  
     627A      0.568270   628A      0.568888   629A      0.570340  
     630A      0.570908   631A      0.571794   632A      0.572783  
     633A      0.573703   634A      0.576359   635A      0.578033  
     636A      0.579091   637A      0.579752   638A      0.581957  
     639A      0.582746   640A      0.583661   641A      0.585358  
     642A      0.586989   643A      0.588229   644A      0.589963  
     645A      0.592397   646A      0.593433   647A      0.595395  
     648A      0.595805   649A      0.596340   650A      0.598215  
     651A      0.598948   652A      0.600142   653A      0.601048  
     654A      0.603224   655A      0.604804   656A      0.606075  
     657A      0.606183   658A      0.608996   659A      0.610782  
     660A      0.612457   661A      0.614903   662A      0.617194  
     663A      0.617506   664A      0.618496   665A      0.619977  
     666A      0.622322   667A      0.623824   668A      0.624870  
     669A      0.625622   670A      0.628302   671A      0.629064  
     672A      0.630394   673A      0.631643   674A      0.633755  
     675A      0.635087   676A      0.636352   677A      0.636906  
     678A      0.638141   679A      0.639516   680A      0.640277  
     681A      0.641539   682A      0.643901   683A      0.644748  
     684A      0.648198   685A      0.649451   686A      0.649855  
     687A      0.650648   688A      0.651951   689A      0.652963  
     690A      0.653801   691A      0.656544   692A      0.656927  
     693A      0.658797   694A      0.659587   695A      0.662505  
     696A      0.663413   697A      0.665943   698A      0.666790  
     699A      0.668597   700A      0.669399   701A      0.670870  
     702A      0.674502   703A      0.674852   704A      0.675554  
     705A      0.677590   706A      0.679832   707A      0.681433  
     708A      0.682643   709A      0.684407   710A      0.684883  
     711A      0.685978   712A      0.687991   713A      0.689579  
     714A      0.692952   715A      0.693369   716A      0.694656  
     717A      0.695913   718A      0.697219   719A      0.698972  
     720A      0.700771   721A      0.702111   722A      0.702783  
     723A      0.704226   724A      0.705929   725A      0.708257  
     726A      0.708326   727A      0.709789   728A      0.710221  
     729A      0.713143   730A      0.714235   731A      0.715879  
     732A      0.717747   733A      0.719209   734A      0.720839  
     735A      0.723348   736A      0.724766   737A      0.725657  
     738A      0.726821   739A      0.729115   740A      0.729428  
     741A      0.732865   742A      0.733470   743A      0.733968  
     744A      0.734369   745A      0.737016   746A      0.738469  
     747A      0.740716   748A      0.741193   749A      0.742944  
     750A      0.745207   751A      0.746552   752A      0.748644  
     753A      0.749411   754A      0.750863   755A      0.751615  
     756A      0.752754   757A      0.755088   758A      0.757079  
     759A      0.757910   760A      0.758567   761A      0.759025  
     762A      0.761333   763A      0.761664   764A      0.763366  
     765A      0.764013   766A      0.766728   767A      0.768563  
     768A      0.769221   769A      0.770890   770A      0.771439  
     771A      0.773665   772A      0.774575   773A      0.777849  
     774A      0.779300   775A      0.779586   776A      0.781114  
     777A      0.781799   778A      0.784572   779A      0.785916  
     780A      0.786931   781A      0.787907   782A      0.788598  
     783A      0.789705   784A      0.790432   785A      0.791826  
     786A      0.795146   787A      0.796488   788A      0.797170  
     789A      0.799193   790A      0.801695   791A      0.802914  
     792A      0.804651   793A      0.805263   794A      0.806499  
     795A      0.807320   796A      0.809737   797A      0.811898  
     798A      0.812911   799A      0.815537   800A      0.816963  
     801A      0.818129   802A      0.818244   803A      0.819466  
     804A      0.822172   805A      0.824297   806A      0.826243  
     807A      0.827053   808A      0.828328   809A      0.828721  
     810A      0.830292   811A      0.831516   812A      0.832556  
     813A      0.833660   814A      0.836652   815A      0.838854  
     816A      0.840244   817A      0.840577   818A      0.842515  
     819A      0.843294   820A      0.844453   821A      0.845918  
     822A      0.847503   823A      0.848352   824A      0.849689  
     825A      0.850193   826A      0.854309   827A      0.855602  
     828A      0.856943   829A      0.858560   830A      0.858859  
     831A      0.860595   832A      0.861149   833A      0.862450  
     834A      0.865601   835A      0.866706   836A      0.867742  
     837A      0.868582   838A      0.869723   839A      0.870643  
     840A      0.872899   841A      0.874742   842A      0.875564  
     843A      0.877685   844A      0.879236   845A      0.880257  
     846A      0.880997   847A      0.881859   848A      0.883917  
     849A      0.884364   850A      0.885030   851A      0.886434  
     852A      0.889455   853A      0.890404   854A      0.891939  
     855A      0.892448   856A      0.894265   857A      0.895508  
     858A      0.896572   859A      0.897989   860A      0.899349  
     861A      0.900129   862A      0.901854   863A      0.903289  
     864A      0.904898   865A      0.905913   866A      0.906287  
     867A      0.907341   868A      0.908292   869A      0.909846  
     870A      0.910290   871A      0.911888   872A      0.913776  
     873A      0.915336   874A      0.916432   875A      0.918709  
     876A      0.919923   877A      0.922060   878A      0.923219  
     879A      0.923630   880A      0.924908   881A      0.926181  
     882A      0.928177   883A      0.928561   884A      0.930026  
     885A      0.932552   886A      0.932834   887A      0.933040  
     888A      0.934519   889A      0.937056   890A      0.937899  
     891A      0.939135   892A      0.939819   893A      0.940863  
     894A      0.942052   895A      0.943134   896A      0.944879  
     897A      0.945880   898A      0.946744   899A      0.949105  
     900A      0.950211   901A      0.951669   902A      0.952413  
     903A      0.954249   904A      0.955709   905A      0.957108  
     906A      0.957610   907A      0.958381   908A      0.960163  
     909A      0.962623   910A      0.963124   911A      0.966888  
     912A      0.968059   913A      0.970120   914A      0.971816  
     915A      0.972209   916A      0.972553   917A      0.974663  
     918A      0.976342   919A      0.977925   920A      0.978659  
     921A      0.979382   922A      0.980398   923A      0.983092  
     924A      0.984498   925A      0.985112   926A      0.988720  
     927A      0.989778   928A      0.990381   929A      0.992772  
     930A      0.994261   931A      0.996381   932A      0.997507  
     933A      0.999109   934A      1.001834   935A      1.003002  
     936A      1.004306   937A      1.006669   938A      1.006806  
     939A      1.008933   940A      1.009661   941A      1.011744  
     942A      1.012244   943A      1.013857   944A      1.015522  
     945A      1.016720   946A      1.017688   947A      1.020014  
     948A      1.020640   949A      1.021474   950A      1.024016  
     951A      1.026080   952A      1.026879   953A      1.028782  
     954A      1.029978   955A      1.031133   956A      1.032256  
     957A      1.033356   958A      1.034425   959A      1.035796  
     960A      1.038700   961A      1.039690   962A      1.040837  
     963A      1.042347   964A      1.044331   965A      1.045480  
     966A      1.047872   967A      1.050089   968A      1.051085  
     969A      1.051535   970A      1.055116   971A      1.056231  
     972A      1.058108   973A      1.061779   974A      1.062661  
     975A      1.063553   976A      1.066657   977A      1.067169  
     978A      1.068652   979A      1.070628   980A      1.070843  
     981A      1.072515   982A      1.075666   983A      1.076937  
     984A      1.078721   985A      1.079183   986A      1.080647  
     987A      1.081931   988A      1.083712   989A      1.084636  
     990A      1.087225   991A      1.088415   992A      1.089399  
     993A      1.091691   994A      1.093449   995A      1.094988  
     996A      1.095447   997A      1.096522   998A      1.098402  
     999A      1.099569  1000A      1.101355  1001A      1.103419  
    1002A      1.104729  1003A      1.106387  1004A      1.107401  
    1005A      1.109853  1006A      1.110645  1007A      1.113680  
    1008A      1.115040  1009A      1.115234  1010A      1.116777  
    1011A      1.118560  1012A      1.119447  1013A      1.121650  
    1014A      1.122318  1015A      1.125015  1016A      1.125188  
    1017A      1.126070  1018A      1.126730  1019A      1.129919  
    1020A      1.131692  1021A      1.133463  1022A      1.134873  
    1023A      1.136106  1024A      1.138350  1025A      1.139696  
    1026A      1.140073  1027A      1.141312  1028A      1.142830  
    1029A      1.144218  1030A      1.146532  1031A      1.146630  
    1032A      1.148241  1033A      1.150263  1034A      1.151358  
    1035A      1.153356  1036A      1.153618  1037A      1.154724  
    1038A      1.156860  1039A      1.160139  1040A      1.160695  
    1041A      1.163244  1042A      1.165413  1043A      1.166765  
    1044A      1.168568  1045A      1.169050  1046A      1.170478  
    1047A      1.172949  1048A      1.173600  1049A      1.175637  
    1050A      1.176670  1051A      1.179293  1052A      1.179939  
    1053A      1.182173  1054A      1.184352  1055A      1.186512  
    1056A      1.187325  1057A      1.188202  1058A      1.189556  
    1059A      1.191186  1060A      1.192818  1061A      1.195328  
    1062A      1.197314  1063A      1.198694  1064A      1.200700  
    1065A      1.201521  1066A      1.203227  1067A      1.205419  
    1068A      1.205968  1069A      1.206734  1070A      1.209212  
    1071A      1.210112  1072A      1.211647  1073A      1.212400  
    1074A      1.214632  1075A      1.215545  1076A      1.217221  
    1077A      1.219139  1078A      1.219943  1079A      1.220838  
    1080A      1.223111  1081A      1.225881  1082A      1.227519  
    1083A      1.229639  1084A      1.230778  1085A      1.232826  
    1086A      1.233919  1087A      1.235974  1088A      1.238226  
    1089A      1.239204  1090A      1.239917  1091A      1.241039  
    1092A      1.242988  1093A      1.243377  1094A      1.246111  
    1095A      1.247505  1096A      1.247981  1097A      1.250767  
    1098A      1.251666  1099A      1.253839  1100A      1.256642  
    1101A      1.257743  1102A      1.258441  1103A      1.259300  
    1104A      1.260995  1105A      1.261400  1106A      1.262902  
    1107A      1.264110  1108A      1.265255  1109A      1.267984  
    1110A      1.269723  1111A      1.271428  1112A      1.271815  
    1113A      1.274179  1114A      1.277293  1115A      1.279343  
    1116A      1.280375  1117A      1.282012  1118A      1.282670  
    1119A      1.285117  1120A      1.286472  1121A      1.288658  
    1122A      1.289813  1123A      1.291398  1124A      1.292153  
    1125A      1.293543  1126A      1.294678  1127A      1.296522  
    1128A      1.297805  1129A      1.298936  1130A      1.301128  
    1131A      1.303482  1132A      1.304630  1133A      1.307193  
    1134A      1.310092  1135A      1.310873  1136A      1.311458  
    1137A      1.314415  1138A      1.316658  1139A      1.316809  
    1140A      1.320262  1141A      1.323090  1142A      1.323439  
    1143A      1.324127  1144A      1.325413  1145A      1.327708  
    1146A      1.329080  1147A      1.330468  1148A      1.332379  
    1149A      1.333334  1150A      1.334655  1151A      1.335754  
    1152A      1.337388  1153A      1.340285  1154A      1.340645  
    1155A      1.341759  1156A      1.343739  1157A      1.345598  
    1158A      1.347226  1159A      1.348679  1160A      1.349442  
    1161A      1.350798  1162A      1.352399  1163A      1.356133  
    1164A      1.357422  1165A      1.359129  1166A      1.361252  
    1167A      1.363161  1168A      1.364938  1169A      1.366300  
    1170A      1.369368  1171A      1.370008  1172A      1.370423  
    1173A      1.372489  1174A      1.374216  1175A      1.374594  
    1176A      1.375895  1177A      1.378451  1178A      1.381105  
    1179A      1.381409  1180A      1.383164  1181A      1.384508  
    1182A      1.387331  1183A      1.388824  1184A      1.390653  
    1185A      1.393643  1186A      1.394209  1187A      1.395065  
    1188A      1.398067  1189A      1.399655  1190A      1.400146  
    1191A      1.400619  1192A      1.401676  1193A      1.404286  
    1194A      1.404814  1195A      1.407115  1196A      1.408656  
    1197A      1.410963  1198A      1.412116  1199A      1.413143  
    1200A      1.414482  1201A      1.416805  1202A      1.417731  
    1203A      1.419986  1204A      1.421609  1205A      1.422945  
    1206A      1.424014  1207A      1.425068  1208A      1.426961  
    1209A      1.429392  1210A      1.431369  1211A      1.433083  
    1212A      1.434944  1213A      1.436014  1214A      1.437085  
    1215A      1.439778  1216A      1.440302  1217A      1.440947  
    1218A      1.442598  1219A      1.442980  1220A      1.446215  
    1221A      1.446832  1222A      1.448408  1223A      1.449872  
    1224A      1.450397  1225A      1.453593  1226A      1.455351  
    1227A      1.456510  1228A      1.458339  1229A      1.462149  
    1230A      1.462691  1231A      1.463654  1232A      1.466845  
    1233A      1.467671  1234A      1.469107  1235A      1.471936  
    1236A      1.474172  1237A      1.474625  1238A      1.476306  
    1239A      1.476943  1240A      1.478082  1241A      1.480606  
    1242A      1.482366  1243A      1.483097  1244A      1.485030  
    1245A      1.486887  1246A      1.487390  1247A      1.489402  
    1248A      1.493021  1249A      1.494105  1250A      1.495522  
    1251A      1.497152  1252A      1.499107  1253A      1.500237  
    1254A      1.500822  1255A      1.503149  1256A      1.504661  
    1257A      1.506031  1258A      1.506420  1259A      1.509607  
    1260A      1.511072  1261A      1.513255  1262A      1.516722  
    1263A      1.517464  1264A      1.518003  1265A      1.519097  
    1266A      1.520106  1267A      1.523138  1268A      1.525309  
    1269A      1.526400  1270A      1.528085  1271A      1.530102  
    1272A      1.531478  1273A      1.532450  1274A      1.534836  
    1275A      1.535591  1276A      1.536435  1277A      1.538471  
    1278A      1.540141  1279A      1.541919  1280A      1.542915  
    1281A      1.546891  1282A      1.548324  1283A      1.549715  
    1284A      1.551374  1285A      1.552158  1286A      1.553988  
    1287A      1.555402  1288A      1.558044  1289A      1.559174  
    1290A      1.560836  1291A      1.562281  1292A      1.564395  
    1293A      1.565865  1294A      1.566564  1295A      1.567681  
    1296A      1.568861  1297A      1.571248  1298A      1.572283  
    1299A      1.573361  1300A      1.576381  1301A      1.577607  
    1302A      1.578483  1303A      1.578768  1304A      1.582042  
    1305A      1.583393  1306A      1.584973  1307A      1.587428  
    1308A      1.588963  1309A      1.589385  1310A      1.591135  
    1311A      1.592579  1312A      1.594957  1313A      1.596196  
    1314A      1.597835  1315A      1.600149  1316A      1.601221  
    1317A      1.601693  1318A      1.603618  1319A      1.605501  
    1320A      1.606536  1321A      1.608694  1322A      1.609684  
    1323A      1.611309  1324A      1.612350  1325A      1.613779  
    1326A      1.614886  1327A      1.617557  1328A      1.618243  
    1329A      1.619546  1330A      1.623128  1331A      1.624002  
    1332A      1.624513  1333A      1.628192  1334A      1.628834  
    1335A      1.630656  1336A      1.633105  1337A      1.634105  
    1338A      1.635698  1339A      1.636329  1340A      1.636996  
    1341A      1.640269  1342A      1.641039  1343A      1.643979  
    1344A      1.644631  1345A      1.645770  1346A      1.646780  
    1347A      1.647871  1348A      1.651039  1349A      1.651109  
    1350A      1.652799  1351A      1.654957  1352A      1.656102  
    1353A      1.657549  1354A      1.659040  1355A      1.660322  
    1356A      1.662544  1357A      1.663128  1358A      1.665925  
    1359A      1.667932  1360A      1.670008  1361A      1.671088  
    1362A      1.672376  1363A      1.676131  1364A      1.677163  
    1365A      1.678516  1366A      1.683353  1367A      1.684530  
    1368A      1.685421  1369A      1.686154  1370A      1.688009  
    1371A      1.689301  1372A      1.689588  1373A      1.692474  
    1374A      1.693070  1375A      1.695011  1376A      1.697406  
    1377A      1.698487  1378A      1.700611  1379A      1.702384  
    1380A      1.703280  1381A      1.704305  1382A      1.706187  
    1383A      1.708260  1384A      1.710163  1385A      1.711866  
    1386A      1.712622  1387A      1.714626  1388A      1.717111  
    1389A      1.718541  1390A      1.720396  1391A      1.722716  
    1392A      1.723057  1393A      1.723951  1394A      1.724647  
    1395A      1.726003  1396A      1.728614  1397A      1.731224  
    1398A      1.733422  1399A      1.734299  1400A      1.735642  
    1401A      1.738467  1402A      1.740322  1403A      1.741104  
    1404A      1.741781  1405A      1.742988  1406A      1.747236  
    1407A      1.749005  1408A      1.750551  1409A      1.751143  
    1410A      1.753274  1411A      1.753874  1412A      1.755805  
    1413A      1.758182  1414A      1.760760  1415A      1.762652  
    1416A      1.763347  1417A      1.765583  1418A      1.766539  
    1419A      1.768480  1420A      1.770054  1421A      1.772086  
    1422A      1.772805  1423A      1.774899  1424A      1.776253  
    1425A      1.778011  1426A      1.778986  1427A      1.781832  
    1428A      1.782603  1429A      1.783704  1430A      1.785169  
    1431A      1.785870  1432A      1.789390  1433A      1.789884  
    1434A      1.792909  1435A      1.794217  1436A      1.796649  
    1437A      1.797924  1438A      1.801038  1439A      1.801965  
    1440A      1.802520  1441A      1.804780  1442A      1.806807  
    1443A      1.807924  1444A      1.810870  1445A      1.811648  
    1446A      1.814794  1447A      1.815884  1448A      1.817711  
    1449A      1.819227  1450A      1.822209  1451A      1.822718  
    1452A      1.824668  1453A      1.826199  1454A      1.830212  
    1455A      1.830627  1456A      1.831670  1457A      1.835780  
    1458A      1.836996  1459A      1.839353  1460A      1.841230  
    1461A      1.842136  1462A      1.844669  1463A      1.845618  
    1464A      1.848528  1465A      1.852486  1466A      1.854435  
    1467A      1.855052  1468A      1.857567  1469A      1.859582  
    1470A      1.861099  1471A      1.863634  1472A      1.864522  
    1473A      1.866117  1474A      1.867025  1475A      1.867554  
    1476A      1.870420  1477A      1.872631  1478A      1.875611  
    1479A      1.877430  1480A      1.878719  1481A      1.881072  
    1482A      1.883862  1483A      1.884229  1484A      1.887214  
    1485A      1.888466  1486A      1.888677  1487A      1.889543  
    1488A      1.890417  1489A      1.895059  1490A      1.896924  
    1491A      1.898073  1492A      1.901364  1493A      1.902044  
    1494A      1.903639  1495A      1.905309  1496A      1.906618  
    1497A      1.907607  1498A      1.909766  1499A      1.912098  
    1500A      1.914667  1501A      1.915380  1502A      1.916825  
    1503A      1.918200  1504A      1.920815  1505A      1.922452  
    1506A      1.923422  1507A      1.925107  1508A      1.926976  
    1509A      1.931402  1510A      1.933209  1511A      1.933879  
    1512A      1.935294  1513A      1.936759  1514A      1.940597  
    1515A      1.941091  1516A      1.943329  1517A      1.946100  
    1518A      1.948685  1519A      1.950010  1520A      1.952350  
    1521A      1.953145  1522A      1.953914  1523A      1.956788  
    1524A      1.958322  1525A      1.961013  1526A      1.961763  
    1527A      1.964735  1528A      1.967332  1529A      1.969076  
    1530A      1.970822  1531A      1.971827  1532A      1.974946  
    1533A      1.977996  1534A      1.978671  1535A      1.979360  
    1536A      1.982157  1537A      1.983470  1538A      1.984762  
    1539A      1.986882  1540A      1.987673  1541A      1.990515  
    1542A      1.992186  1543A      1.993170  1544A      1.993600  
    1545A      1.998674  1546A      2.001430  1547A      2.002576  
    1548A      2.003982  1549A      2.005032  1550A      2.005655  
    1551A      2.010188  1552A      2.011110  1553A      2.012944  
    1554A      2.016169  1555A      2.016592  1556A      2.018316  
    1557A      2.020100  1558A      2.022710  1559A      2.024030  
    1560A      2.025216  1561A      2.028454  1562A      2.028783  
    1563A      2.030653  1564A      2.032182  1565A      2.034395  
    1566A      2.037648  1567A      2.038880  1568A      2.040135  
    1569A      2.044418  1570A      2.047704  1571A      2.048415  
    1572A      2.050899  1573A      2.052579  1574A      2.054332  
    1575A      2.056228  1576A      2.059472  1577A      2.061408  
    1578A      2.064640  1579A      2.064911  1580A      2.066172  
    1581A      2.068401  1582A      2.071822  1583A      2.073888  
    1584A      2.075156  1585A      2.076495  1586A      2.078736  
    1587A      2.079399  1588A      2.081168  1589A      2.083660  
    1590A      2.084226  1591A      2.086221  1592A      2.089932  
    1593A      2.091315  1594A      2.093144  1595A      2.094868  
    1596A      2.096600  1597A      2.099108  1598A      2.102669  
    1599A      2.103548  1600A      2.104216  1601A      2.106948  
    1602A      2.109306  1603A      2.110760  1604A      2.111251  
    1605A      2.114882  1606A      2.115581  1607A      2.116866  
    1608A      2.119240  1609A      2.123040  1610A      2.124206  
    1611A      2.127451  1612A      2.128129  1613A      2.130813  
    1614A      2.132933  1615A      2.135258  1616A      2.136476  
    1617A      2.139655  1618A      2.140387  1619A      2.142780  
    1620A      2.146727  1621A      2.149012  1622A      2.149622  
    1623A      2.150791  1624A      2.153277  1625A      2.154946  
    1626A      2.155510  1627A      2.158178  1628A      2.159240  
    1629A      2.163641  1630A      2.165529  1631A      2.168745  
    1632A      2.168847  1633A      2.171328  1634A      2.171742  
    1635A      2.173701  1636A      2.176091  1637A      2.176959  
    1638A      2.179692  1639A      2.182567  1640A      2.183247  
    1641A      2.185154  1642A      2.186501  1643A      2.188023  
    1644A      2.191261  1645A      2.193415  1646A      2.195525  
    1647A      2.196544  1648A      2.198164  1649A      2.199618  
    1650A      2.200368  1651A      2.205275  1652A      2.206315  
    1653A      2.208811  1654A      2.210741  1655A      2.212089  
    1656A      2.215061  1657A      2.216006  1658A      2.217860  
    1659A      2.219897  1660A      2.222743  1661A      2.226161  
    1662A      2.228789  1663A      2.229970  1664A      2.232681  
    1665A      2.234990  1666A      2.238195  1667A      2.239758  
    1668A      2.242248  1669A      2.243822  1670A      2.247318  
    1671A      2.247994  1672A      2.251157  1673A      2.254061  
    1674A      2.254877  1675A      2.257504  1676A      2.260214  
    1677A      2.262058  1678A      2.264045  1679A      2.266084  
    1680A      2.268542  1681A      2.269938  1682A      2.272847  
    1683A      2.276822  1684A      2.277708  1685A      2.280314  
    1686A      2.282671  1687A      2.283798  1688A      2.284816  
    1689A      2.290388  1690A      2.291449  1691A      2.292292  
    1692A      2.293773  1693A      2.295264  1694A      2.298421  
    1695A      2.300768  1696A      2.303711  1697A      2.305320  
    1698A      2.306538  1699A      2.308850  1700A      2.310102  
    1701A      2.313258  1702A      2.315466  1703A      2.316161  
    1704A      2.317460  1705A      2.320617  1706A      2.323254  
    1707A      2.323996  1708A      2.328909  1709A      2.332399  
    1710A      2.332537  1711A      2.335428  1712A      2.339568  
    1713A      2.340127  1714A      2.342478  1715A      2.342683  
    1716A      2.346153  1717A      2.350303  1718A      2.352847  
    1719A      2.354110  1720A      2.354716  1721A      2.358272  
    1722A      2.360136  1723A      2.361901  1724A      2.362534  
    1725A      2.364723  1726A      2.366305  1727A      2.368048  
    1728A      2.369950  1729A      2.371765  1730A      2.375455  
    1731A      2.377429  1732A      2.378340  1733A      2.380815  
    1734A      2.385148  1735A      2.385961  1736A      2.386987  
    1737A      2.387396  1738A      2.390395  1739A      2.393743  
    1740A      2.395174  1741A      2.396949  1742A      2.401276  
    1743A      2.401373  1744A      2.403821  1745A      2.406289  
    1746A      2.408994  1747A      2.410533  1748A      2.412478  
    1749A      2.415475  1750A      2.418516  1751A      2.419846  
    1752A      2.422693  1753A      2.424474  1754A      2.426406  
    1755A      2.430130  1756A      2.431709  1757A      2.434265  
    1758A      2.435287  1759A      2.438019  1760A      2.440250  
    1761A      2.443603  1762A      2.447744  1763A      2.449317  
    1764A      2.452018  1765A      2.453710  1766A      2.457066  
    1767A      2.458441  1768A      2.461089  1769A      2.464154  
    1770A      2.466336  1771A      2.467443  1772A      2.468920  
    1773A      2.469538  1774A      2.474376  1775A      2.475450  
    1776A      2.478326  1777A      2.480258  1778A      2.482697  
    1779A      2.484204  1780A      2.486088  1781A      2.488189  
    1782A      2.490869  1783A      2.495727  1784A      2.496411  
    1785A      2.501975  1786A      2.504203  1787A      2.506718  
    1788A      2.509775  1789A      2.511734  1790A      2.515334  
    1791A      2.517099  1792A      2.518987  1793A      2.520278  
    1794A      2.524291  1795A      2.527272  1796A      2.530753  
    1797A      2.531989  1798A      2.534161  1799A      2.537209  
    1800A      2.540628  1801A      2.542972  1802A      2.543116  
    1803A      2.544572  1804A      2.547196  1805A      2.548851  
    1806A      2.556091  1807A      2.556551  1808A      2.559518  
    1809A      2.561803  1810A      2.564100  1811A      2.564521  
    1812A      2.566723  1813A      2.568156  1814A      2.571217  
    1815A      2.576495  1816A      2.577524  1817A      2.579990  
    1818A      2.586064  1819A      2.588041  1820A      2.588484  
    1821A      2.590760  1822A      2.595265  1823A      2.596767  
    1824A      2.600046  1825A      2.604128  1826A      2.606668  
    1827A      2.608772  1828A      2.610958  1829A      2.612533  
    1830A      2.617876  1831A      2.619912  1832A      2.621504  
    1833A      2.622701  1834A      2.628220  1835A      2.633740  
    1836A      2.634027  1837A      2.636285  1838A      2.640208  
    1839A      2.642800  1840A      2.643258  1841A      2.646763  
    1842A      2.647413  1843A      2.651311  1844A      2.653189  
    1845A      2.656326  1846A      2.658830  1847A      2.661886  
    1848A      2.665274  1849A      2.666272  1850A      2.667611  
    1851A      2.670920  1852A      2.674730  1853A      2.675378  
    1854A      2.677136  1855A      2.682947  1856A      2.684487  
    1857A      2.685021  1858A      2.689112  1859A      2.694596  
    1860A      2.697226  1861A      2.700166  1862A      2.702576  
    1863A      2.704943  1864A      2.708752  1865A      2.712695  
    1866A      2.713630  1867A      2.716895  1868A      2.718577  
    1869A      2.719574  1870A      2.722034  1871A      2.724718  
    1872A      2.727858  1873A      2.730176  1874A      2.732203  
    1875A      2.736664  1876A      2.738090  1877A      2.740478  
    1878A      2.742978  1879A      2.745089  1880A      2.750406  
    1881A      2.751581  1882A      2.755821  1883A      2.757444  
    1884A      2.763555  1885A      2.763982  1886A      2.768213  
    1887A      2.771127  1888A      2.773003  1889A      2.775211  
    1890A      2.779103  1891A      2.782087  1892A      2.783768  
    1893A      2.787347  1894A      2.791069  1895A      2.794310  
    1896A      2.795448  1897A      2.800809  1898A      2.803720  
    1899A      2.805632  1900A      2.808533  1901A      2.810626  
    1902A      2.813493  1903A      2.818543  1904A      2.823423  
    1905A      2.825729  1906A      2.827912  1907A      2.830144  
    1908A      2.832316  1909A      2.835442  1910A      2.838906  
    1911A      2.843096  1912A      2.846913  1913A      2.847523  
    1914A      2.853246  1915A      2.856371  1916A      2.863154  
    1917A      2.865231  1918A      2.869682  1919A      2.871153  
    1920A      2.874949  1921A      2.878992  1922A      2.880873  
    1923A      2.884798  1924A      2.889155  1925A      2.890717  
    1926A      2.899594  1927A      2.900653  1928A      2.906340  
    1929A      2.909411  1930A      2.913070  1931A      2.916702  
    1932A      2.920255  1933A      2.924554  1934A      2.927392  
    1935A      2.933531  1936A      2.937963  1937A      2.939953  
    1938A      2.945292  1939A      2.948209  1940A      2.949154  
    1941A      2.957801  1942A      2.965007  1943A      2.967839  
    1944A      2.972247  1945A      2.975558  1946A      2.980071  
    1947A      2.988099  1948A      2.989442  1949A      2.994168  
    1950A      2.995424  1951A      2.999931  1952A      3.003712  
    1953A      3.005886  1954A      3.012809  1955A      3.020179  
    1956A      3.021280  1957A      3.027546  1958A      3.030316  
    1959A      3.034855  1960A      3.041455  1961A      3.046520  
    1962A      3.047087  1963A      3.051201  1964A      3.055209  
    1965A      3.058700  1966A      3.063494  1967A      3.067967  
    1968A      3.070860  1969A      3.076452  1970A      3.083461  
    1971A      3.086221  1972A      3.091336  1973A      3.095065  
    1974A      3.099146  1975A      3.099506  1976A      3.107879  
    1977A      3.109097  1978A      3.112957  1979A      3.117865  
    1980A      3.119464  1981A      3.126332  1982A      3.133225  
    1983A      3.135984  1984A      3.138767  1985A      3.143746  
    1986A      3.144951  1987A      3.148771  1988A      3.152942  
    1989A      3.159335  1990A      3.162741  1991A      3.164754  
    1992A      3.168744  1993A      3.174760  1994A      3.177092  
    1995A      3.179042  1996A      3.182193  1997A      3.184847  
    1998A      3.188574  1999A      3.194365  2000A      3.197679  
    2001A      3.198244  2002A      3.204780  2003A      3.205988  
    2004A      3.209026  2005A      3.211975  2006A      3.215613  
    2007A      3.218293  2008A      3.224127  2009A      3.227565  
    2010A      3.233019  2011A      3.234998  2012A      3.241415  
    2013A      3.241996  2014A      3.249121  2015A      3.251358  
    2016A      3.257011  2017A      3.259878  2018A      3.261960  
    2019A      3.267924  2020A      3.268254  2021A      3.272004  
    2022A      3.273814  2023A      3.277918  2024A      3.281213  
    2025A      3.283592  2026A      3.284112  2027A      3.286157  
    2028A      3.288652  2029A      3.291417  2030A      3.298150  
    2031A      3.301352  2032A      3.302915  2033A      3.305605  
    2034A      3.306905  2035A      3.310730  2036A      3.312648  
    2037A      3.317426  2038A      3.322644  2039A      3.323358  
    2040A      3.326353  2041A      3.332188  2042A      3.333066  
    2043A      3.334588  2044A      3.335646  2045A      3.339757  
    2046A      3.341889  2047A      3.345671  2048A      3.346738  
    2049A      3.350633  2050A      3.353299  2051A      3.357231  
    2052A      3.359467  2053A      3.364287  2054A      3.364778  
    2055A      3.366460  2056A      3.370676  2057A      3.375348  
    2058A      3.377505  2059A      3.377925  2060A      3.379434  
    2061A      3.381707  2062A      3.383591  2063A      3.385541  
    2064A      3.387380  2065A      3.389501  2066A      3.392816  
    2067A      3.397954  2068A      3.398765  2069A      3.400889  
    2070A      3.404675  2071A      3.404996  2072A      3.408254  
    2073A      3.411293  2074A      3.412508  2075A      3.416901  
    2076A      3.418297  2077A      3.421417  2078A      3.423308  
    2079A      3.424703  2080A      3.428204  2081A      3.430038  
    2082A      3.432305  2083A      3.437069  2084A      3.438650  
    2085A      3.442822  2086A      3.444901  2087A      3.447678  
    2088A      3.448645  2089A      3.450871  2090A      3.453931  
    2091A      3.455370  2092A      3.457328  2093A      3.460185  
    2094A      3.464007  2095A      3.467354  2096A      3.468985  
    2097A      3.469453  2098A      3.472499  2099A      3.476196  
    2100A      3.479248  2101A      3.481088  2102A      3.482580  
    2103A      3.484120  2104A      3.486611  2105A      3.487847  
    2106A      3.490622  2107A      3.493275  2108A      3.495437  
    2109A      3.497750  2110A      3.500184  2111A      3.501481  
    2112A      3.505625  2113A      3.508651  2114A      3.512465  
    2115A      3.513683  2116A      3.515290  2117A      3.516823  
    2118A      3.518899  2119A      3.519537  2120A      3.521688  
    2121A      3.524388  2122A      3.526096  2123A      3.528584  
    2124A      3.529580  2125A      3.532274  2126A      3.533921  
    2127A      3.537999  2128A      3.539751  2129A      3.541456  
    2130A      3.543723  2131A      3.548915  2132A      3.551356  
    2133A      3.552225  2134A      3.554946  2135A      3.558050  
    2136A      3.559426  2137A      3.562284  2138A      3.565261  
    2139A      3.566364  2140A      3.570690  2141A      3.571459  
    2142A      3.573465  2143A      3.574359  2144A      3.578141  
    2145A      3.580725  2146A      3.582329  2147A      3.583744  
    2148A      3.584831  2149A      3.588019  2150A      3.590688  
    2151A      3.592196  2152A      3.594973  2153A      3.596598  
    2154A      3.600742  2155A      3.603760  2156A      3.606454  
    2157A      3.607065  2158A      3.608531  2159A      3.611015  
    2160A      3.611885  2161A      3.614579  2162A      3.616715  
    2163A      3.617778  2164A      3.623402  2165A      3.625253  
    2166A      3.625482  2167A      3.627949  2168A      3.628831  
    2169A      3.633941  2170A      3.635162  2171A      3.637687  
    2172A      3.640873  2173A      3.642240  2174A      3.644920  
    2175A      3.646973  2176A      3.648388  2177A      3.651094  
    2178A      3.652162  2179A      3.653572  2180A      3.658816  
    2181A      3.661219  2182A      3.662865  2183A      3.664173  
    2184A      3.666348  2185A      3.668917  2186A      3.672996  
    2187A      3.674881  2188A      3.676378  2189A      3.678623  
    2190A      3.681022  2191A      3.681865  2192A      3.683926  
    2193A      3.687484  2194A      3.688840  2195A      3.689868  
    2196A      3.693938  2197A      3.695558  2198A      3.699245  
    2199A      3.700657  2200A      3.702350  2201A      3.702736  
    2202A      3.706288  2203A      3.708733  2204A      3.710202  
    2205A      3.715582  2206A      3.717120  2207A      3.717879  
    2208A      3.720952  2209A      3.723435  2210A      3.725990  
    2211A      3.726615  2212A      3.728772  2213A      3.729914  
    2214A      3.732011  2215A      3.734820  2216A      3.735903  
    2217A      3.738042  2218A      3.741173  2219A      3.742210  
    2220A      3.746073  2221A      3.747011  2222A      3.748584  
    2223A      3.750656  2224A      3.751617  2225A      3.752691  
    2226A      3.755121  2227A      3.759322  2228A      3.762166  
    2229A      3.764321  2230A      3.766019  2231A      3.768393  
    2232A      3.769357  2233A      3.772371  2234A      3.773640  
    2235A      3.776325  2236A      3.778053  2237A      3.781397  
    2238A      3.785497  2239A      3.786007  2240A      3.786880  
    2241A      3.789159  2242A      3.791184  2243A      3.791391  
    2244A      3.794667  2245A      3.795460  2246A      3.799223  
    2247A      3.801743  2248A      3.804395  2249A      3.806852  
    2250A      3.807691  2251A      3.810055  2252A      3.811281  
    2253A      3.814621  2254A      3.816004  2255A      3.819346  
    2256A      3.820856  2257A      3.825339  2258A      3.827351  
    2259A      3.828233  2260A      3.830482  2261A      3.833501  
    2262A      3.834340  2263A      3.837657  2264A      3.841544  
    2265A      3.841870  2266A      3.843910  2267A      3.846494  
    2268A      3.847787  2269A      3.849056  2270A      3.851207  
    2271A      3.851811  2272A      3.856081  2273A      3.857461  
    2274A      3.861159  2275A      3.861656  2276A      3.863118  
    2277A      3.864557  2278A      3.867315  2279A      3.867840  
    2280A      3.871539  2281A      3.874431  2282A      3.876308  
    2283A      3.878269  2284A      3.880999  2285A      3.883977  
    2286A      3.886417  2287A      3.888217  2288A      3.890477  
    2289A      3.890666  2290A      3.893126  2291A      3.895174  
    2292A      3.897425  2293A      3.899834  2294A      3.903171  
    2295A      3.904150  2296A      3.905459  2297A      3.908556  
    2298A      3.909756  2299A      3.911813  2300A      3.914615  
    2301A      3.915479  2302A      3.917698  2303A      3.919497  
    2304A      3.921938  2305A      3.925234  2306A      3.926690  
    2307A      3.927359  2308A      3.927511  2309A      3.933274  
    2310A      3.933929  2311A      3.936935  2312A      3.938009  
    2313A      3.939959  2314A      3.941017  2315A      3.944773  
    2316A      3.946530  2317A      3.947909  2318A      3.951714  
    2319A      3.955313  2320A      3.956233  2321A      3.958365  
    2322A      3.961450  2323A      3.962757  2324A      3.963939  
    2325A      3.964540  2326A      3.967949  2327A      3.969254  
    2328A      3.970925  2329A      3.975106  2330A      3.977115  
    2331A      3.978972  2332A      3.984539  2333A      3.985039  
    2334A      3.987404  2335A      3.989881  2336A      3.990524  
    2337A      3.991423  2338A      3.992980  2339A      3.997680  
    2340A      4.000183  2341A      4.002753  2342A      4.004077  
    2343A      4.007244  2344A      4.009187  2345A      4.012102  
    2346A      4.013920  2347A      4.017896  2348A      4.021023  
    2349A      4.021761  2350A      4.022754  2351A      4.025621  
    2352A      4.027857  2353A      4.030518  2354A      4.032758  
    2355A      4.034486  2356A      4.035915  2357A      4.036755  
    2358A      4.040124  2359A      4.042172  2360A      4.045506  
    2361A      4.047062  2362A      4.049234  2363A      4.052958  
    2364A      4.055257  2365A      4.058999  2366A      4.060941  
    2367A      4.063976  2368A      4.066364  2369A      4.068686  
    2370A      4.072148  2371A      4.074557  2372A      4.076958  
    2373A      4.079075  2374A      4.080312  2375A      4.082452  
    2376A      4.082680  2377A      4.085231  2378A      4.086652  
    2379A      4.087517  2380A      4.089585  2381A      4.090564  
    2382A      4.094964  2383A      4.098504  2384A      4.098965  
    2385A      4.103054  2386A      4.106049  2387A      4.107515  
    2388A      4.110176  2389A      4.113581  2390A      4.115420  
    2391A      4.117289  2392A      4.118679  2393A      4.123110  
    2394A      4.125623  2395A      4.126069  2396A      4.127614  
    2397A      4.129852  2398A      4.131410  2399A      4.134610  
    2400A      4.135041  2401A      4.138050  2402A      4.140923  
    2403A      4.142873  2404A      4.146292  2405A      4.149134  
    2406A      4.153042  2407A      4.154429  2408A      4.158244  
    2409A      4.160649  2410A      4.162226  2411A      4.166221  
    2412A      4.167723  2413A      4.168117  2414A      4.171590  
    2415A      4.174282  2416A      4.175240  2417A      4.178265  
    2418A      4.179255  2419A      4.180457  2420A      4.184226  
    2421A      4.186722  2422A      4.187647  2423A      4.188785  
    2424A      4.191824  2425A      4.193249  2426A      4.194334  
    2427A      4.198108  2428A      4.200633  2429A      4.202364  
    2430A      4.204274  2431A      4.205327  2432A      4.206655  
    2433A      4.208963  2434A      4.211735  2435A      4.212021  
    2436A      4.214488  2437A      4.216754  2438A      4.219755  
    2439A      4.223119  2440A      4.224640  2441A      4.227369  
    2442A      4.228714  2443A      4.231850  2444A      4.232298  
    2445A      4.234678  2446A      4.236643  2447A      4.240066  
    2448A      4.240731  2449A      4.244410  2450A      4.247460  
    2451A      4.248534  2452A      4.250632  2453A      4.253392  
    2454A      4.254522  2455A      4.256588  2456A      4.259258  
    2457A      4.262138  2458A      4.263074  2459A      4.264950  
    2460A      4.267133  2461A      4.271590  2462A      4.273314  
    2463A      4.274140  2464A      4.276636  2465A      4.279450  
    2466A      4.280344  2467A      4.282430  2468A      4.286711  
    2469A      4.290008  2470A      4.292027  2471A      4.293776  
    2472A      4.295202  2473A      4.295891  2474A      4.298746  
    2475A      4.300536  2476A      4.303838  2477A      4.307006  
    2478A      4.310397  2479A      4.311295  2480A      4.313158  
    2481A      4.315034  2482A      4.318998  2483A      4.319571  
    2484A      4.322334  2485A      4.325349  2486A      4.325825  
    2487A      4.327429  2488A      4.329824  2489A      4.333254  
    2490A      4.334428  2491A      4.338740  2492A      4.342457  
    2493A      4.343913  2494A      4.345870  2495A      4.347522  
    2496A      4.349015  2497A      4.352445  2498A      4.354669  
    2499A      4.357436  2500A      4.359715  2501A      4.363987  
    2502A      4.365570  2503A      4.366259  2504A      4.366819  
    2505A      4.369407  2506A      4.371886  2507A      4.374535  
    2508A      4.375398  2509A      4.377807  2510A      4.384310  
    2511A      4.387526  2512A      4.390762  2513A      4.391532  
    2514A      4.394036  2515A      4.396744  2516A      4.398986  
    2517A      4.401151  2518A      4.405615  2519A      4.407079  
    2520A      4.407813  2521A      4.412426  2522A      4.414863  
    2523A      4.417385  2524A      4.422303  2525A      4.424310  
    2526A      4.427763  2527A      4.429103  2528A      4.430191  
    2529A      4.432533  2530A      4.435016  2531A      4.435749  
    2532A      4.440061  2533A      4.440716  2534A      4.441562  
    2535A      4.445826  2536A      4.447676  2537A      4.448589  
    2538A      4.452392  2539A      4.453749  2540A      4.458177  
    2541A      4.459602  2542A      4.462475  2543A      4.466239  
    2544A      4.468243  2545A      4.469782  2546A      4.471623  
    2547A      4.473673  2548A      4.478485  2549A      4.482159  
    2550A      4.484864  2551A      4.486417  2552A      4.486989  
    2553A      4.489437  2554A      4.493309  2555A      4.496226  
    2556A      4.497673  2557A      4.500483  2558A      4.501298  
    2559A      4.503932  2560A      4.505328  2561A      4.506617  
    2562A      4.508757  2563A      4.516451  2564A      4.517712  
    2565A      4.519122  2566A      4.521421  2567A      4.523553  
    2568A      4.526183  2569A      4.530171  2570A      4.532571  
    2571A      4.535089  2572A      4.539585  2573A      4.542592  
    2574A      4.543958  2575A      4.548853  2576A      4.549989  
    2577A      4.552223  2578A      4.554191  2579A      4.556547  
    2580A      4.559378  2581A      4.560957  2582A      4.562444  
    2583A      4.567219  2584A      4.572904  2585A      4.574388  
    2586A      4.577352  2587A      4.579290  2588A      4.580009  
    2589A      4.583594  2590A      4.586224  2591A      4.589287  
    2592A      4.592233  2593A      4.594416  2594A      4.595289  
    2595A      4.597046  2596A      4.600803  2597A      4.602456  
    2598A      4.603409  2599A      4.608844  2600A      4.609627  
    2601A      4.615542  2602A      4.616638  2603A      4.617540  
    2604A      4.623219  2605A      4.624213  2606A      4.625835  
    2607A      4.629121  2608A      4.630592  2609A      4.635109  
    2610A      4.637509  2611A      4.637982  2612A      4.640450  
    2613A      4.645763  2614A      4.648138  2615A      4.650423  
    2616A      4.652560  2617A      4.656305  2618A      4.660992  
    2619A      4.663514  2620A      4.664876  2621A      4.668183  
    2622A      4.670283  2623A      4.671931  2624A      4.673064  
    2625A      4.676812  2626A      4.678040  2627A      4.681845  
    2628A      4.688041  2629A      4.689734  2630A      4.694889  
    2631A      4.695199  2632A      4.701320  2633A      4.703227  
    2634A      4.708451  2635A      4.709040  2636A      4.713615  
    2637A      4.714733  2638A      4.716472  2639A      4.720594  
    2640A      4.725450  2641A      4.728284  2642A      4.730460  
    2643A      4.734225  2644A      4.736386  2645A      4.737592  
    2646A      4.744330  2647A      4.746715  2648A      4.747999  
    2649A      4.751113  2650A      4.754388  2651A      4.758486  
    2652A      4.759351  2653A      4.764083  2654A      4.765821  
    2655A      4.766422  2656A      4.767579  2657A      4.772953  
    2658A      4.775895  2659A      4.777820  2660A      4.779599  
    2661A      4.785241  2662A      4.788471  2663A      4.790206  
    2664A      4.792102  2665A      4.794937  2666A      4.797004  
    2667A      4.800436  2668A      4.803814  2669A      4.806657  
    2670A      4.807925  2671A      4.813809  2672A      4.815156  
    2673A      4.816542  2674A      4.818262  2675A      4.823122  
    2676A      4.824456  2677A      4.827285  2678A      4.832300  
    2679A      4.833266  2680A      4.835821  2681A      4.839653  
    2682A      4.840823  2683A      4.845460  2684A      4.850455  
    2685A      4.852170  2686A      4.855460  2687A      4.856323  
    2688A      4.857943  2689A      4.863239  2690A      4.866861  
    2691A      4.868892  2692A      4.871892  2693A      4.875785  
    2694A      4.878312  2695A      4.880674  2696A      4.884452  
    2697A      4.887360  2698A      4.892455  2699A      4.893241  
    2700A      4.896784  2701A      4.899407  2702A      4.903150  
    2703A      4.906156  2704A      4.907319  2705A      4.910925  
    2706A      4.913603  2707A      4.917693  2708A      4.924787  
    2709A      4.931183  2710A      4.933938  2711A      4.938011  
    2712A      4.939982  2713A      4.942836  2714A      4.947068  
    2715A      4.949994  2716A      4.953042  2717A      4.956821  
    2718A      4.958820  2719A      4.960869  2720A      4.962503  
    2721A      4.967888  2722A      4.970516  2723A      4.974219  
    2724A      4.976650  2725A      4.977786  2726A      4.982217  
    2727A      4.986544  2728A      4.988012  2729A      4.993034  
    2730A      4.995713  2731A      4.998297  2732A      5.001610  
    2733A      5.002656  2734A      5.006210  2735A      5.009966  
    2736A      5.011175  2737A      5.014895  2738A      5.019274  
    2739A      5.020792  2740A      5.025652  2741A      5.029383  
    2742A      5.029555  2743A      5.031634  2744A      5.034452  
    2745A      5.035335  2746A      5.037748  2747A      5.042372  
    2748A      5.045494  2749A      5.047469  2750A      5.053562  
    2751A      5.057186  2752A      5.058818  2753A      5.061454  
    2754A      5.069413  2755A      5.072912  2756A      5.075123  
    2757A      5.079256  2758A      5.082403  2759A      5.087733  
    2760A      5.091957  2761A      5.093116  2762A      5.098813  
    2763A      5.102305  2764A      5.106210  2765A      5.107251  
    2766A      5.116429  2767A      5.118475  2768A      5.121411  
    2769A      5.124164  2770A      5.125220  2771A      5.128406  
    2772A      5.132533  2773A      5.136696  2774A      5.137456  
    2775A      5.141144  2776A      5.145503  2777A      5.149972  
    2778A      5.151382  2779A      5.152866  2780A      5.156731  
    2781A      5.158494  2782A      5.164867  2783A      5.170811  
    2784A      5.171748  2785A      5.174407  2786A      5.177005  
    2787A      5.183071  2788A      5.185576  2789A      5.186575  
    2790A      5.191097  2791A      5.191746  2792A      5.195823  
    2793A      5.198499  2794A      5.201675  2795A      5.202498  
    2796A      5.205545  2797A      5.208417  2798A      5.215009  
    2799A      5.218702  2800A      5.219160  2801A      5.221691  
    2802A      5.222320  2803A      5.230516  2804A      5.235367  
    2805A      5.236990  2806A      5.241104  2807A      5.242731  
    2808A      5.244994  2809A      5.253310  2810A      5.254146  
    2811A      5.256535  2812A      5.258739  2813A      5.267674  
    2814A      5.269410  2815A      5.276291  2816A      5.278057  
    2817A      5.281647  2818A      5.285328  2819A      5.294119  
    2820A      5.294996  2821A      5.301354  2822A      5.308657  
    2823A      5.315230  2824A      5.316184  2825A      5.319927  
    2826A      5.321763  2827A      5.326634  2828A      5.329338  
    2829A      5.337208  2830A      5.337390  2831A      5.342563  
    2832A      5.345710  2833A      5.346035  2834A      5.351829  
    2835A      5.355653  2836A      5.358084  2837A      5.361838  
    2838A      5.363805  2839A      5.374291  2840A      5.377780  
    2841A      5.385420  2842A      5.390409  2843A      5.394470  
    2844A      5.399258  2845A      5.404722  2846A      5.411039  
    2847A      5.417788  2848A      5.419569  2849A      5.427472  
    2850A      5.430753  2851A      5.438975  2852A      5.439951  
    2853A      5.446387  2854A      5.448113  2855A      5.453229  
    2856A      5.457901  2857A      5.466052  2858A      5.468983  
    2859A      5.471872  2860A      5.480179  2861A      5.480500  
    2862A      5.483130  2863A      5.488048  2864A      5.490709  
    2865A      5.495759  2866A      5.497881  2867A      5.500713  
    2868A      5.506707  2869A      5.509143  2870A      5.510891  
    2871A      5.516251  2872A      5.520104  2873A      5.523386  
    2874A      5.525240  2875A      5.526608  2876A      5.531081  
    2877A      5.534497  2878A      5.542382  2879A      5.544471  
    2880A      5.554620  2881A      5.560705  2882A      5.568371  
    2883A      5.573211  2884A      5.578068  2885A      5.582712  
    2886A      5.584390  2887A      5.589460  2888A      5.596554  
    2889A      5.598689  2890A      5.601180  2891A      5.607670  
    2892A      5.608470  2893A      5.612856  2894A      5.626424  
    2895A      5.633512  2896A      5.642090  2897A      5.645123  
    2898A      5.652858  2899A      5.659453  2900A      5.675729  
    2901A      5.678166  2902A      5.682532  2903A      5.690083  
    2904A      5.699454  2905A      5.702028  2906A      5.702938  
    2907A      5.712448  2908A      5.715028  2909A      5.724590  
    2910A      5.726784  2911A      5.733784  2912A      5.737184  
    2913A      5.741772  2914A      5.745782  2915A      5.753164  
    2916A      5.758731  2917A      5.762861  2918A      5.766252  
    2919A      5.775109  2920A      5.776121  2921A      5.785120  
    2922A      5.796592  2923A      5.807764  2924A      5.817321  
    2925A      5.822105  2926A      5.827695  2927A      5.839014  
    2928A      5.853007  2929A      5.860463  2930A      5.860834  
    2931A      5.868805  2932A      5.884524  2933A      5.896366  
    2934A      5.909226  2935A      5.909732  2936A      5.916028  
    2937A      5.923789  2938A      5.927521  2939A      5.931703  
    2940A      5.942199  2941A      5.945095  2942A      5.974340  
    2943A      5.991495  2944A      5.993668  2945A      5.998356  
    2946A      6.002873  2947A      6.013036  2948A      6.023148  
    2949A      6.026531  2950A      6.032040  2951A      6.037285  
    2952A      6.049480  2953A      6.063888  2954A      6.082887  
    2955A      6.090140  2956A      6.094385  2957A      6.110221  
    2958A      6.118269  2959A      6.125584  2960A      6.150545  
    2961A      6.163849  2962A      6.181671  2963A      6.194914  
    2964A      6.208302  2965A      6.210545  2966A      6.223506  
    2967A      6.237170  2968A      6.243502  2969A      6.249815  
    2970A      6.255959  2971A      6.263692  2972A      6.278753  
    2973A      6.289190  2974A      6.297360  2975A      6.321061  
    2976A      6.330983  2977A      6.336617  2978A      6.338425  
    2979A      6.340739  2980A      6.346522  2981A      6.348412  
    2982A      6.359186  2983A      6.364114  2984A      6.365529  
    2985A      6.370693  2986A      6.380480  2987A      6.385863  
    2988A      6.394578  2989A      6.401068  2990A      6.414333  
    2991A      6.421944  2992A      6.428990  2993A      6.434641  
    2994A      6.446430  2995A      6.450011  2996A      6.456372  
    2997A      6.464514  2998A      6.473412  2999A      6.478774  
    3000A      6.481115  3001A      6.498400  3002A      6.500979  
    3003A      6.506079  3004A      6.513883  3005A      6.518198  
    3006A      6.526428  3007A      6.531666  3008A      6.538124  
    3009A      6.551622  3010A      6.557717  3011A      6.562582  
    3012A      6.568683  3013A      6.577510  3014A      6.600291  
    3015A      6.608172  3016A      6.618404  3017A      6.626473  
    3018A      6.637324  3019A      6.641764  3020A      6.656979  
    3021A      6.667499  3022A      6.672642  3023A      6.674774  
    3024A      6.680921  3025A      6.683042  3026A      6.685768  
    3027A      6.695699  3028A      6.698189  3029A      6.707735  
    3030A      6.716592  3031A      6.721766  3032A      6.724211  
    3033A      6.740465  3034A      6.752388  3035A      6.754936  
    3036A      6.766902  3037A      6.785104  3038A      6.787248  
    3039A      6.796202  3040A      6.798850  3041A      6.804505  
    3042A      6.815576  3043A      6.822080  3044A      6.833483  
    3045A      6.837013  3046A      6.845991  3047A      6.854236  
    3048A      6.862930  3049A      6.869294  3050A      6.874907  
    3051A      6.895438  3052A      6.901350  3053A      6.910197  
    3054A      6.913265  3055A      6.918939  3056A      6.930033  
    3057A      6.937697  3058A      6.950299  3059A      6.958543  
    3060A      6.974965  3061A      7.001174  3062A      7.020588  
    3063A      7.035014  3064A      7.051273  3065A      7.065329  
    3066A      7.073016  3067A      7.094479  3068A      7.099238  
    3069A      7.115540  3070A      7.130774  3071A      7.135179  
    3072A      7.138401  3073A      7.140817  3074A      7.147004  
    3075A      7.158303  3076A      7.167064  3077A      7.179162  
    3078A      7.191741  3079A      7.197383  3080A      7.221431  
    3081A      7.236658  3082A      7.239865  3083A      7.288825  
    3084A      7.322029  3085A      7.351636  3086A      7.366472  
    3087A      7.393783  3088A      7.412351  3089A      7.419450  
    3090A      7.431916  3091A      7.453105  3092A      7.501338  
    3093A      7.513710  3094A      7.528045  3095A      7.564837  
    3096A      7.626987  3097A      7.659706  3098A      7.686125  
    3099A      7.689347  3100A      7.696199  3101A      7.736811  
    3102A      7.761593  3103A      7.769159  3104A      7.828079  
    3105A      7.862371  3106A      7.868649  3107A      7.909508  
    3108A      8.115235  3109A      8.138004  3110A      8.178670  
    3111A      8.360314  3112A      8.410920  3113A      8.424264  
    3114A      8.511304  3115A      8.589208  3116A      8.711669  
    3117A      8.889762  3118A      8.931635  3119A      9.072711  
    3120A      9.174191  3121A      9.199371  3122A      9.213195  
    3123A      9.264685  3124A      9.319189  3125A      9.588469  
    3126A      9.694415  3127A     15.417854  3128A     15.444041  
    3129A     15.873271  3130A     16.085351  3131A     16.255670  
    3132A     16.263532  3133A     16.322598  3134A     16.378690  
    3135A     16.444953  3136A     16.618726  3137A     16.809674  
    3138A     16.927268  3139A     17.067701  3140A     17.182139  
    3141A     17.379246  3142A     17.600994  3143A     17.621886  
    3144A     17.672291  3145A     17.893058  3146A     17.932156  
    3147A     18.000729  3148A     18.115281  3149A     18.286572  
    3150A     18.346614  3151A     18.876482  3152A     19.073887  
    3153A     19.100488  3154A     19.389309  3155A     19.617869  
    3156A     19.655013  3157A     19.717177  3158A     20.365883  
    3159A     20.620306  3160A     20.677201  3161A     20.808492  
    3162A     20.906612  3163A     20.944521  3164A     21.145723  
    3165A     21.291905  3166A     21.295881  3167A     21.419185  
    3168A     21.431836  3169A     21.503447  3170A     21.587567  
    3171A     21.649944  3172A     21.803379  3173A     21.881327  
    3174A     21.944132  3175A     21.991308  3176A     22.177586  
    3177A     22.215752  3178A     22.311291  3179A     22.435874  
    3180A     22.607053  3181A     22.673536  

    Final Occupation by Irrep:
              A 
    DOCC [   188 ]
    NA   [   188 ]
    NB   [   188 ]

  @DF-RKS Final Energy: -2431.07061828043516

   => Energetics <=

    Nuclear Repulsion Energy =           8036.0311254087573616
    One-Electron Energy =              -19316.6526680719543947
    Two-Electron Energy =                9082.6739567255372094
    DFT Exchange-Correlation Energy =    -234.4636882093448662
    Empirical Dispersion Energy =           0.0000000000000000
    VV10 Nonlocal Energy =                  1.3406558665696457
    Total Energy =                      -2431.0706182804351556

Computation Completed


Properties will be evaluated at   0.000000,   0.000000,   0.000000 [a0]

Properties computed using the SCF density matrix


 Multipole Moments:

 ------------------------------------------------------------------------------------
     Multipole            Electronic (a.u.)      Nuclear  (a.u.)        Total (a.u.)
 ------------------------------------------------------------------------------------

 L = 1.  Multiply by 2.5417464519 to convert [e a0] to [Debye]
 Dipole X            :        -10.8167016           10.8896665            0.0729649
 Dipole Y            :         38.7379583          -38.3816908            0.3562675
 Dipole Z            :        -32.7051737           31.3327632           -1.3724105
 Magnitude           :                                                    1.4197750

 ------------------------------------------------------------------------------------

*** tstop() called on atl1-1-02-004-4-1.pace.gatech.edu at Sat Jun 13 20:28:24 2026
Module time:
	user time   =  110778.43 seconds =    1846.31 minutes
	system time =    5756.28 seconds =      95.94 minutes
	total time  =      16255 seconds =     270.92 minutes
Total time:
	user time   =  110778.43 seconds =    1846.31 minutes
	system time =    5756.28 seconds =      95.94 minutes
	total time  =      16255 seconds =     270.92 minutes

    Psi4 stopped on: Saturday, 13 June 2026 08:28PM
    Psi4 wall time for execution: 4:31:11.79

*** Psi4 exiting successfully. Buy a developer a beer!
