
    -----------------------------------------------------------------------
          Psi4: An Open-Source Ab Initio Electronic Structure Package
                               Psi4 1.9.1 release

                         Git: Rev {} zzzzzzz 


    D. G. A. Smith, L. A. Burns, A. C. Simmonett, R. M. Parrish,
    M. C. Schieber, R. Galvelis, P. Kraus, H. Kruse, R. Di Remigio,
    A. Alenaizan, A. M. James, S. Lehtola, J. P. Misiewicz, M. Scheurer,
    R. A. Shaw, J. B. Schriber, Y. Xie, Z. L. Glick, D. A. Sirianni,
    J. S. O'Brien, J. M. Waldrop, A. Kumar, E. G. Hohenstein,
    B. P. Pritchard, B. R. Brooks, H. F. Schaefer III, A. Yu. Sokolov,
    K. Patkowski, A. E. DePrince III, U. Bozkaya, R. A. King,
    F. A. Evangelista, J. M. Turney, T. D. Crawford, C. D. Sherrill,
    J. Chem. Phys. 152(18) 184108 (2020). https://doi.org/10.1063/5.0006002

                            Additional Code Authors
    E. T. Seidl, C. L. Janssen, E. F. Valeev, M. L. Leininger,
    J. F. Gonthier, R. M. Richard, H. R. McAlexander, M. Saitow, X. Wang,
    P. Verma, M. H. Lechner, A. Jiang, S. Behnle, A. G. Heide,
    M. F. Herbst, and D. L. Poole

             Previous Authors, Complete List of Code Contributors,
                       and Citations for Specific Modules
    https://github.com/psi4/psi4/blob/master/codemeta.json
    https://github.com/psi4/psi4/graphs/contributors
    http://psicode.org/psi4manual/master/introduction.html#citing-psifour

    -----------------------------------------------------------------------


    Psi4 started on: Saturday, 13 June 2026 12:57PM

    Process ID: 2359520
    Host:       atl1-1-03-004-18-1.pace.gatech.edu
    PSIDATADIR: /storage/home/hcoda1/5/vlita3/.conda/envs/p4_qcml/share/psi4
    Memory:     250.0 GiB
    Threads:    10
    
  ==> Input QCSchema <==

--------------------------------------------------------------------------
{'driver': 'energy',
 'extras': {},
 'id': '245',
 'keywords': {},
 'model': {'basis': 'aug-cc-pvtz', 'method': 'wb97x-v'},
 'molecule': {'extras': {},
              'fix_com': True,
              'fix_orientation': True,
              'fragment_charges': [0.0, 0.0],
              'fragment_multiplicities': [1, 1],
              'fragments': [[0, 1, 2, 3, 4, 5, 6, 7, 8, 9, 10, 11, 12, 13, 14],
                            [15, 16, 17, 18, 19, 20, 21, 22, 23, 24, 25, 26, 27, 28, 29, 30, 31, 32, 33, 34, 35, 36, 37,
                             38, 39, 40, 41, 42, 43, 44, 45, 46, 47, 48, 49, 50, 51, 52, 53, 54, 55, 56, 57, 58, 59, 60,
                             61, 62, 63, 64, 65, 66, 67, 68, 69, 70, 71, 72, 73, 74, 75, 76, 77, 78, 79, 80, 81, 82, 83,
                             84, 85, 86]],
              'geometry': [-4.21408926, -0.28723837, 4.89628039, -1.79523982, -1.39650761, 4.99454615, 0.24755412,
                           0.2891281, 5.03989958, -2.26011245, 3.62260498, 4.98698725, 1.49477337, -3.70764266,
                           4.95864135, -4.39928242, 2.25255354, 4.90194957, 0.14172946, 2.81947138, 5.05312766,
                           -0.98265759, -3.88905637, 4.94352354, 2.3583782, -1.24532952, 5.0417893, -6.38349485,
                           -1.67240762, 4.84336806, -2.52278438, 5.65972975, 4.97375916, 2.79301521, -5.28367425,
                           4.88305231, 4.17440501, -0.66140414, 4.90761875, -7.96519562, -0.73321374, 4.3180242,
                           -6.25499348, -3.50544196, 4.31424474, 11.7540965, -2.40373163, -0.19464179, 12.01109925,
                           0.16251645, -0.12661165, 9.86437037, 1.80657818, -0.31180481, 7.41339559, 0.69163976,
                           -0.57447674, 7.14694421, -1.98232271, -0.66329387, 9.3239087, -3.57536183, -0.45353427,
                           4.71108723, -3.08214331, -0.90706854, 9.01399362, -6.20397087, -0.50077742, 6.6253798,
                           -7.32646819, -0.72754456, 4.43707694, -5.7504366, -0.94486306, 6.28333937, -10.01365874,
                           -0.73699319, 3.93440979, -11.06812592, -0.89950964, 1.70453297, -9.53744776, -1.06580553,
                           1.98988161, -6.8502572, -1.09415143, -0.17763426, -5.27989479, -1.26233705, 0.09637603,
                           -2.60026315, -1.26422678, 2.53601246, -1.50233227, -1.12627677, 5.24776945, 2.2638919,
                           -0.77667744, 2.80246384, 1.16407129, -1.01856238, 0.63305825, 2.7344337, -1.15651239,
                           -1.80279872, 1.63650282, -1.33414664, -2.07491929, -1.02990074, -1.34926445, -2.62293986,
                           -6.37593595, -1.31902884, -4.79990436, -4.80179408, -1.37005144, -4.52967352, -2.1335008,
                           -1.44375076, -0.72565483, -10.5824663, -1.15840211, -2.8931707, -9.0631265, -1.26044733,
                           -7.27166613, -5.89972496, -1.3889487, -9.39193884, -4.31424474, -1.4324124, -9.16517171,
                           -1.67618707, -1.46642747, -6.70285857, -0.56124866, -1.45130966, -3.98732212, 3.21064469,
                           -1.35115418, -6.430738, 2.11082408, -1.44186103, -5.39138864, -10.11003477, -1.29257267,
                           -7.48142573, -8.6001436, -1.34737473, -8.61904086, 3.69819403, -1.42863295, -11.06056701,
                           2.52845356, -1.46453775, -11.32323894, -0.03779452, -1.47776583, -8.3110155, 6.32680307,
                           -1.36627199, -5.9167325, 7.44930039, -1.28123431, -3.71709129, 5.87704825, -1.27745486,
                           -1.27367541, 6.97686886, -1.09415143, 0.90328909, 5.4102859, -1.048798, 3.34103579,
                           6.50632705, -0.82203086, 5.51044138, 4.93218519, -0.65195551, 7.9708648, 6.02822634,
                           -0.40629112, 10.08546833, 4.44274612, -0.23810549, 8.17306549, 8.72864497, -0.31936372,
                           3.59803854, 9.1935176, -0.69541921, 6.08680785, 10.23853615, -0.45920345, -0.99588567,
                           9.66405941, -0.98454731, 1.42863295, 10.70907795, -0.7955747, -5.58036125, 10.13649094,
                           -1.18107883, -3.23143167, 11.19284784, -1.04312882, 13.40760686, -3.61315635, -0.04535343,
                           13.87058976, 1.01100348, 0.06991987, 10.67317316, -7.40772641, -0.34204043, 7.94629836,
                           -11.20985538, -0.59526373, 3.71331184, -13.11280958, -0.88817128, -0.93919388, -12.62714997,
                           -1.12249732, -11.26843689, -5.1570626, -1.44186103, -5.59169961, -12.15471844, -1.2585576,
                           -9.3598135, -9.43351282, -1.36060281, -12.72163628, 3.739768, -1.47020693, -13.19406781,
                           -0.88817128, -1.49288364, -9.97964367, 7.52866888, -1.35871308, 11.95062802, 5.28556397,
                           -0.0434637, 10.04200463, 9.56012447, -0.13228083, 6.28144964, 12.28321982, -0.37983495,
                           1.6346131, 12.75376162, -0.7086473, -7.25276887, 11.32890812, -1.20753499, -3.0160029,
                           13.23564178, -0.9618706],
              'id': 8,
              'identifiers': {'molecular_formula': 'C59H23N5',
                              'molecule_hash': 'f0ddb680e931cf1e25d7124fec297d5d0fb09058'},
              'masses': [12.0, 12.0, 12.0, 12.0, 12.0, 14.00307400443, 14.00307400443, 14.00307400443, 14.00307400443,
                         14.00307400443, 1.00782503223, 1.00782503223, 1.00782503223, 1.00782503223, 1.00782503223,
                         12.0, 12.0, 12.0, 12.0, 12.0, 12.0, 12.0, 12.0, 12.0, 12.0, 12.0, 12.0, 12.0, 12.0, 12.0, 12.0,
                         12.0, 12.0, 12.0, 12.0, 12.0, 12.0, 12.0, 12.0, 12.0, 12.0, 12.0, 12.0, 12.0, 12.0, 12.0, 12.0,
                         12.0, 12.0, 12.0, 12.0, 12.0, 12.0, 12.0, 12.0, 12.0, 12.0, 12.0, 12.0, 12.0, 12.0, 12.0, 12.0,
                         12.0, 12.0, 12.0, 12.0, 12.0, 12.0, 1.00782503223, 1.00782503223, 1.00782503223, 1.00782503223,
                         1.00782503223, 1.00782503223, 1.00782503223, 1.00782503223, 1.00782503223, 1.00782503223,
                         1.00782503223, 1.00782503223, 1.00782503223, 1.00782503223, 1.00782503223, 1.00782503223,
                         1.00782503223, 1.00782503223],
              'molecular_charge': 0.0,
              'molecular_multiplicity': 1,
              'name': 'C59H23N5 ([0],[1])',
              'provenance': {'creator': 'QCElemental',
                             'routine': 'qcelemental.molparse.from_schema',
                             'version': '0.29.0'},
              'real': [True, True, True, True, True, True, True, True, True, True, True, True, True, True, True, False,
                       False, False, False, False, False, False, False, False, False, False, False, False, False, False,
                       False, False, False, False, False, False, False, False, False, False, False, False, False, False,
                       False, False, False, False, False, False, False, False, False, False, False, False, False, False,
                       False, False, False, False, False, False, False, False, False, False, False, False, False, False,
                       False, False, False, False, False, False, False, False, False, False, False, False, False, False,
                       False],
              'schema_name': 'qcschema_molecule',
              'schema_version': 2,
              'symbols': ['C', 'C', 'C', 'C', 'C', 'N', 'N', 'N', 'N', 'N', 'H', 'H', 'H', 'H', 'H', 'C', 'C', 'C', 'C',
                          'C', 'C', 'C', 'C', 'C', 'C', 'C', 'C', 'C', 'C', 'C', 'C', 'C', 'C', 'C', 'C', 'C', 'C', 'C',
                          'C', 'C', 'C', 'C', 'C', 'C', 'C', 'C', 'C', 'C', 'C', 'C', 'C', 'C', 'C', 'C', 'C', 'C', 'C',
                          'C', 'C', 'C', 'C', 'C', 'C', 'C', 'C', 'C', 'C', 'C', 'C', 'H', 'H', 'H', 'H', 'H', 'H', 'H',
                          'H', 'H', 'H', 'H', 'H', 'H', 'H', 'H', 'H', 'H', 'H'],
              'validated': True},
 'protocols': {},
 'provenance': {'creator': 'QCElemental', 'routine': 'qcelemental.models.results', 'version': '0.29.0'},
 'schema_name': 'qcschema_input',
 'schema_version': 1}
--------------------------------------------------------------------------

Scratch directory: /tmp/tmpawc9az45_psi_scratch/
   => Libint2 <=

    Primary   basis highest AM E, G, H:  6, 6, 3
    Auxiliary basis highest AM E, G, H:  7, 7, 4
    Onebody   basis highest AM E, G, H:  -, -, -
    Solid Harmonics ordering:            Gaussian

*** tstart() called on atl1-1-03-004-18-1.pace.gatech.edu
*** at Sat Jun 13 12:57:33 2026

   => Loading Basis Set <=

    Name: AUG-CC-PVTZ
    Role: ORBITAL
    Keyword: BASIS
    atoms 1-5, 16-69   entry C          line   239 file /storage/home/hcoda1/5/vlita3/.conda/envs/p4_qcml/share/psi4/basis/aug-cc-pvtz.gbs 
    atoms 6-10         entry N          line   285 file /storage/home/hcoda1/5/vlita3/.conda/envs/p4_qcml/share/psi4/basis/aug-cc-pvtz.gbs 
    atoms 11-15, 70-87 entry H          line    40 file /storage/home/hcoda1/5/vlita3/.conda/envs/p4_qcml/share/psi4/basis/aug-cc-pvtz.gbs 


         ---------------------------------------------------------
                                   SCF
               by Justin Turney, Rob Parrish, Andy Simmonett
                          and Daniel G. A. Smith
                              RKS Reference
                       10 Threads, 256000 MiB Core
         ---------------------------------------------------------

  ==> Geometry <==

    Molecular point group: c1
    Full point group: C1

    Geometry (in Bohr), charge = 0, multiplicity = 1:

       Center              X                  Y                   Z               Mass       
    ------------   -----------------  -----------------  -----------------  -----------------
         C           -4.214089260000    -0.287238370000     4.896280390000    12.000000000000
         C           -1.795239820000    -1.396507610000     4.994546150000    12.000000000000
         C            0.247554120000     0.289128100000     5.039899580000    12.000000000000
         C           -2.260112450000     3.622604980000     4.986987250000    12.000000000000
         C            1.494773370000    -3.707642660000     4.958641350000    12.000000000000
         N           -4.399282420000     2.252553540000     4.901949570000    14.003074004430
         N            0.141729460000     2.819471380000     5.053127660000    14.003074004430
         N           -0.982657590000    -3.889056370000     4.943523540000    14.003074004430
         N            2.358378200000    -1.245329520000     5.041789300000    14.003074004430
         N           -6.383494850000    -1.672407620000     4.843368060000    14.003074004430
         H           -2.522784380000     5.659729750000     4.973759160000     1.007825032230
         H            2.793015210000    -5.283674250000     4.883052310000     1.007825032230
         H            4.174405010000    -0.661404140000     4.907618750000     1.007825032230
         H           -7.965195620000    -0.733213740000     4.318024200000     1.007825032230
         H           -6.254993480000    -3.505441960000     4.314244740000     1.007825032230
      Gh(C)          11.754096500000    -2.403731630000    -0.194641790000    12.000000000000
      Gh(C)          12.011099250000     0.162516450000    -0.126611650000    12.000000000000
      Gh(C)           9.864370370000     1.806578180000    -0.311804810000    12.000000000000
      Gh(C)           7.413395590000     0.691639760000    -0.574476740000    12.000000000000
      Gh(C)           7.146944210000    -1.982322710000    -0.663293870000    12.000000000000
      Gh(C)           9.323908700000    -3.575361830000    -0.453534270000    12.000000000000
      Gh(C)           4.711087230000    -3.082143310000    -0.907068540000    12.000000000000
      Gh(C)           9.013993620000    -6.203970870000    -0.500777420000    12.000000000000
      Gh(C)           6.625379800000    -7.326468190000    -0.727544560000    12.000000000000
      Gh(C)           4.437076940000    -5.750436600000    -0.944863060000    12.000000000000
      Gh(C)           6.283339370000   -10.013658740000    -0.736993190000    12.000000000000
      Gh(C)           3.934409790000   -11.068125920000    -0.899509640000    12.000000000000
      Gh(C)           1.704532970000    -9.537447760000    -1.065805530000    12.000000000000
      Gh(C)           1.989881610000    -6.850257200000    -1.094151430000    12.000000000000
      Gh(C)          -0.177634260000    -5.279894790000    -1.262337050000    12.000000000000
      Gh(C)           0.096376030000    -2.600263150000    -1.264226780000    12.000000000000
      Gh(C)           2.536012460000    -1.502332270000    -1.126276770000    12.000000000000
      Gh(C)           5.247769450000     2.263891900000    -0.776677440000    12.000000000000
      Gh(C)           2.802463840000     1.164071290000    -1.018562380000    12.000000000000
      Gh(C)           0.633058250000     2.734433700000    -1.156512390000    12.000000000000
      Gh(C)          -1.802798720000     1.636502820000    -1.334146640000    12.000000000000
      Gh(C)          -2.074919290000    -1.029900740000    -1.349264450000    12.000000000000
      Gh(C)          -2.622939860000    -6.375935950000    -1.319028840000    12.000000000000
      Gh(C)          -4.799904360000    -4.801794080000    -1.370051440000    12.000000000000
      Gh(C)          -4.529673520000    -2.133500800000    -1.443750760000    12.000000000000
      Gh(C)          -0.725654830000   -10.582466300000    -1.158402110000    12.000000000000
      Gh(C)          -2.893170700000    -9.063126500000    -1.260447330000    12.000000000000
      Gh(C)          -7.271666130000    -5.899724960000    -1.388948700000    12.000000000000
      Gh(C)          -9.391938840000    -4.314244740000    -1.432412400000    12.000000000000
      Gh(C)          -9.165171710000    -1.676187070000    -1.466427470000    12.000000000000
      Gh(C)          -6.702858570000    -0.561248660000    -1.451309660000    12.000000000000
      Gh(C)          -3.987322120000     3.210644690000    -1.351154180000    12.000000000000
      Gh(C)          -6.430738000000     2.110824080000    -1.441861030000    12.000000000000
      Gh(C)          -5.391388640000   -10.110034770000    -1.292572670000    12.000000000000
      Gh(C)          -7.481425730000    -8.600143600000    -1.347374730000    12.000000000000
      Gh(C)          -8.619040860000     3.698194030000    -1.428632950000    12.000000000000
      Gh(C)         -11.060567010000     2.528453560000    -1.464537750000    12.000000000000
      Gh(C)         -11.323238940000    -0.037794520000    -1.477765830000    12.000000000000
      Gh(C)          -8.311015500000     6.326803070000    -1.366271990000    12.000000000000
      Gh(C)          -5.916732500000     7.449300390000    -1.281234310000    12.000000000000
      Gh(C)          -3.717091290000     5.877048250000    -1.277454860000    12.000000000000
      Gh(C)          -1.273675410000     6.976868860000    -1.094151430000    12.000000000000
      Gh(C)           0.903289090000     5.410285900000    -1.048798000000    12.000000000000
      Gh(C)           3.341035790000     6.506327050000    -0.822030860000    12.000000000000
      Gh(C)           5.510441380000     4.932185190000    -0.651955510000    12.000000000000
      Gh(C)           7.970864800000     6.028226340000    -0.406291120000    12.000000000000
      Gh(C)          10.085468330000     4.442746120000    -0.238105490000    12.000000000000
      Gh(C)           8.173065490000     8.728644970000    -0.319363720000    12.000000000000
      Gh(C)           3.598038540000     9.193517600000    -0.695419210000    12.000000000000
      Gh(C)           6.086807850000    10.238536150000    -0.459203450000    12.000000000000
      Gh(C)          -0.995885670000     9.664059410000    -0.984547310000    12.000000000000
      Gh(C)           1.428632950000    10.709077950000    -0.795574700000    12.000000000000
      Gh(C)          -5.580361250000    10.136490940000    -1.181078830000    12.000000000000
      Gh(C)          -3.231431670000    11.192847840000    -1.043128820000    12.000000000000
      Gh(H)          13.407606860000    -3.613156350000    -0.045353430000     1.007825032230
      Gh(H)          13.870589760000     1.011003480000     0.069919870000     1.007825032230
      Gh(H)          10.673173160000    -7.407726410000    -0.342040430000     1.007825032230
      Gh(H)           7.946298360000   -11.209855380000    -0.595263730000     1.007825032230
      Gh(H)           3.713311840000   -13.112809580000    -0.888171280000     1.007825032230
      Gh(H)          -0.939193880000   -12.627149970000    -1.122497320000     1.007825032230
      Gh(H)         -11.268436890000    -5.157062600000    -1.441861030000     1.007825032230
      Gh(H)          -5.591699610000   -12.154718440000    -1.258557600000     1.007825032230
      Gh(H)          -9.359813500000    -9.433512820000    -1.360602810000     1.007825032230
      Gh(H)         -12.721636280000     3.739768000000    -1.470206930000     1.007825032230
      Gh(H)         -13.194067810000    -0.888171280000    -1.492883640000     1.007825032230
      Gh(H)          -9.979643670000     7.528668880000    -1.358713080000     1.007825032230
      Gh(H)          11.950628020000     5.285563970000    -0.043463700000     1.007825032230
      Gh(H)          10.042004630000     9.560124470000    -0.132280830000     1.007825032230
      Gh(H)           6.281449640000    12.283219820000    -0.379834950000     1.007825032230
      Gh(H)           1.634613100000    12.753761620000    -0.708647300000     1.007825032230
      Gh(H)          -7.252768870000    11.328908120000    -1.207534990000     1.007825032230
      Gh(H)          -3.016002900000    13.235641780000    -0.961870600000     1.007825032230

  Running in c1 symmetry.

  Rotational constants: A =      0.00187  B =      0.00184  C =      0.00106 [cm^-1]
  Rotational constants: A =     56.02922  B =     55.09335  C =     31.77172 [MHz]
  Nuclear repulsion =  501.223593857768037

  Charge       = 0
  Multiplicity = 1
  Electrons    = 70
  Nalpha       = 35
  Nbeta        = 35

  ==> Algorithm <==

  SCF Algorithm Type is DF.
  DIIS enabled.
  MOM disabled.
  Fractional occupation disabled.
  Guess Type is SAD.
  Energy threshold   = 1.00e-06
  Density threshold  = 1.00e-06
  Integral threshold = 1.00e-12

  ==> Primary Basis <==

  Basis Set: AUG-CC-PVTZ
    Blend: AUG-CC-PVTZ
    Number of shells: 1103
    Number of basis functions: 3473
    Number of Cartesian functions: 4095
    Spherical Harmonics?: true
    Max angular momentum: 3

  ==> DFT Potential <==

   => LibXC <=

    Version 7.0.0
    S. Lehtola, C. Steigemann, M. J.T. Oliveira, and M. A.L. Marques.,  SoftwareX 7, 1–5 (2018) (10.1016/j.softx.2017.11.002)

   => Composite Functional: WB97X-V <= 

    wB97X-V Hyb-GGA Exchange-Correlation Functional

    N. Mardirossian and M. Head-Gordon.,  Phys. Chem. Chem. Phys. 16, 9904-9924 (2014) (10.1039/C3CP54374A)

    Deriv               =              1
    GGA                 =           TRUE
    Meta                =          FALSE

    Exchange Hybrid     =           TRUE
    MP2 Hybrid          =          FALSE

   => Exchange-Correlation Functionals <=

    1.0000   wB97X-V range-separated functional

   => Exact (HF) Exchange <=

    0.8330            HF,LR [omega = 0.3000]
    0.1670               HF 

   => LibXC Density Thresholds  <==

    XC_HYB_GGA_XC_WB97X_V:  1.00E-14 

   => VV10 Non-Local Parameters <=

    VV10 B              =     6.0000E+00
    VV10 C              =     1.0000E-02

   => Molecular Quadrature <=

    Radial Scheme          =       TREUTLER
    Pruning Scheme         =           NONE
    Nuclear Scheme         =       TREUTLER

    Blocking Scheme        =         OCTREE
    BS radius alpha        =              1
    Pruning alpha          =              1
    Radial Points          =             75
    Spherical Points       =            302
    Total Points           =        1715496
    Total Blocks           =          11517
    Max Points             =            256
    Max Functions          =           2168
    Weights Tolerance      =       1.00E-15

   => Loading Basis Set <=

    Name: (AUG-CC-PVTZ AUX)
    Role: JKFIT
    Keyword: DF_BASIS_SCF
    atoms 1-5, 16-69   entry C          line   162 file /storage/home/hcoda1/5/vlita3/.conda/envs/p4_qcml/share/psi4/basis/aug-cc-pvtz-jkfit.gbs 
    atoms 6-10         entry N          line   224 file /storage/home/hcoda1/5/vlita3/.conda/envs/p4_qcml/share/psi4/basis/aug-cc-pvtz-jkfit.gbs 
    atoms 11-15, 70-87 entry H          line    70 file /storage/home/hcoda1/5/vlita3/.conda/envs/p4_qcml/share/psi4/basis/aug-cc-pvtz-jkfit.gbs 

  ==> Integral Setup <==

  ==> DiskDFJK: Density-Fitted J/K Matrices <==

    J tasked:                  Yes
    K tasked:                  Yes
    wK tasked:                 Yes
    Omega:               3.000E-01
    OpenMP threads:             10
    Integrals threads:          10
    Memory [MiB]:           172800
    Algorithm:                Disk
    Integral Cache:           NONE
    Schwarz Cutoff:          1E-12
    Fitting Condition:       1E-10

   => Auxiliary Basis Set <=

  Basis Set: (AUG-CC-PVTZ AUX)
    Blend: AUG-CC-PVTZ-JKFIT
    Number of shells: 2242
    Number of basis functions: 7714
    Number of Cartesian functions: 9649
    Spherical Harmonics?: true
    Max angular momentum: 4

  Minimum eigenvalue in the overlap matrix is 6.5964717033E-12.
  Reciprocal condition number of the overlap matrix is 1.9686718001E-13.
    Using canonical orthogonalization.
  Overall, 56 of 3473 possible MOs eliminated.


  ==> Pre-Iterations <==

  SCF Guess: Superposition of Atomic Densities via on-the-fly atomic UHF (no occupation information).

   -------------------------
    Irrep   Nso     Nmo    
   -------------------------
     A       3473    3417 
   -------------------------
    Total    3473    3417
   -------------------------

  ==> Iterations <==

                           Total Energy        Delta E     RMS |[F,P]|

   @DF-RKS iter SAD:  -467.11856290332412   -4.67119e+02   0.00000e+00 
   @DF-RKS iter   1:  -467.00705614357940    1.11507e-01   2.61066e-04 DIIS/ADIIS
   @DF-RKS iter   2:  -467.16565120523273   -1.58595e-01   2.04445e-04 DIIS/ADIIS
   @DF-RKS iter   3:  -467.35168204765125   -1.86031e-01   3.14647e-05 DIIS
   @DF-RKS iter   4:  -467.35595695345711   -4.27491e-03   1.41906e-05 DIIS
   @DF-RKS iter   5:  -467.35693691588540   -9.79962e-04   4.05653e-06 DIIS
   @DF-RKS iter   6:  -467.35702397674686   -8.70609e-05   1.18674e-06 DIIS
   @DF-RKS iter   7:  -467.35703374135022   -9.76460e-06   3.27380e-07 DIIS
   @DF-RKS iter   8:  -467.35703493641961   -1.19507e-06   1.78466e-07 DIIS
   @DF-RKS iter   9:  -467.35703527604056   -3.39621e-07   6.36409e-08 DIIS
  Energy and wave function converged.


  ==> Post-Iterations <==

   Electrons on quadrature grid:
      Ntotal   =   70.0001735774 ; deviation = 1.736e-04 

    Orbital Energies [Eh]
    ---------------------

    Doubly Occupied:                                                      

       1A    -14.483843     2A    -14.436918     3A    -14.419829  
       4A    -14.412149     5A    -14.406170     6A    -10.369498  
       7A    -10.357350     8A    -10.352301     9A    -10.340749  
      10A    -10.303285    11A     -1.175849    12A     -1.116823  
      13A     -1.072598    14A     -1.023422    15A     -0.991497  
      16A     -0.899922    17A     -0.793463    18A     -0.777045  
      19A     -0.752770    20A     -0.700382    21A     -0.665531  
      22A     -0.628981    23A     -0.611133    24A     -0.593265  
      25A     -0.571659    26A     -0.552099    27A     -0.531796  
      28A     -0.522706    29A     -0.473556    30A     -0.436365  
      31A     -0.404869    32A     -0.398506    33A     -0.368024  
      34A     -0.362705    35A     -0.317970  

    Virtual:                                                              

      36A      0.012818    37A      0.018977    38A      0.021693  
      39A      0.028186    40A      0.029020    41A      0.032908  
      42A      0.035491    43A      0.038313    44A      0.039003  
      45A      0.039935    46A      0.043872    47A      0.046248  
      48A      0.048395    49A      0.049967    50A      0.051074  
      51A      0.051111    52A      0.055084    53A      0.059398  
      54A      0.061981    55A      0.063373    56A      0.063852  
      57A      0.064290    58A      0.064598    59A      0.068736  
      60A      0.071276    61A      0.073193    62A      0.074283  
      63A      0.077369    64A      0.078497    65A      0.079564  
      66A      0.080281    67A      0.082922    68A      0.084043  
      69A      0.084583    70A      0.086344    71A      0.086545  
      72A      0.088242    73A      0.090666    74A      0.093350  
      75A      0.094912    76A      0.095669    77A      0.099585  
      78A      0.099870    79A      0.100847    80A      0.101457  
      81A      0.103425    82A      0.105129    83A      0.105398  
      84A      0.106702    85A      0.108561    86A      0.109476  
      87A      0.110449    88A      0.110972    89A      0.112926  
      90A      0.113412    91A      0.114299    92A      0.114798  
      93A      0.115559    94A      0.119031    95A      0.121127  
      96A      0.121656    97A      0.122755    98A      0.124989  
      99A      0.125745   100A      0.126900   101A      0.127661  
     102A      0.128296   103A      0.130487   104A      0.131379  
     105A      0.133383   106A      0.134354   107A      0.137194  
     108A      0.138985   109A      0.139702   110A      0.140892  
     111A      0.142105   112A      0.143697   113A      0.144254  
     114A      0.144478   115A      0.148280   116A      0.148635  
     117A      0.150272   118A      0.150809   119A      0.151381  
     120A      0.152133   121A      0.154191   122A      0.161661  
     123A      0.162752   124A      0.163344   125A      0.163927  
     126A      0.164922   127A      0.165777   128A      0.166145  
     129A      0.168375   130A      0.168501   131A      0.169221  
     132A      0.170504   133A      0.171972   134A      0.172858  
     135A      0.173215   136A      0.173775   137A      0.174214  
     138A      0.175611   139A      0.178222   140A      0.180463  
     141A      0.181178   142A      0.182215   143A      0.183386  
     144A      0.184933   145A      0.186555   146A      0.187995  
     147A      0.188696   148A      0.189552   149A      0.190103  
     150A      0.195202   151A      0.196222   152A      0.198688  
     153A      0.198746   154A      0.199224   155A      0.200597  
     156A      0.200961   157A      0.202935   158A      0.204384  
     159A      0.204964   160A      0.205929   161A      0.207214  
     162A      0.208168   163A      0.209655   164A      0.210146  
     165A      0.212510   166A      0.213826   167A      0.215478  
     168A      0.217195   169A      0.217466   170A      0.218598  
     171A      0.219257   172A      0.220823   173A      0.222610  
     174A      0.224444   175A      0.226038   176A      0.226762  
     177A      0.228053   178A      0.228598   179A      0.229674  
     180A      0.230520   181A      0.230627   182A      0.231519  
     183A      0.232697   184A      0.234119   185A      0.234436  
     186A      0.235168   187A      0.237540   188A      0.241153  
     189A      0.241536   190A      0.242610   191A      0.243294  
     192A      0.243698   193A      0.244419   194A      0.247358  
     195A      0.249685   196A      0.250035   197A      0.250959  
     198A      0.253421   199A      0.255256   200A      0.255884  
     201A      0.257093   202A      0.258642   203A      0.259921  
     204A      0.261564   205A      0.263503   206A      0.264388  
     207A      0.265442   208A      0.266926   209A      0.268446  
     210A      0.269262   211A      0.269934   212A      0.271473  
     213A      0.272889   214A      0.273461   215A      0.273786  
     216A      0.276358   217A      0.277946   218A      0.279871  
     219A      0.280322   220A      0.280451   221A      0.283019  
     222A      0.283488   223A      0.285308   224A      0.287000  
     225A      0.288046   226A      0.290193   227A      0.291566  
     228A      0.292519   229A      0.293215   230A      0.294278  
     231A      0.295021   232A      0.296585   233A      0.296986  
     234A      0.298139   235A      0.299555   236A      0.301031  
     237A      0.301681   238A      0.302253   239A      0.303230  
     240A      0.303879   241A      0.305412   242A      0.307315  
     243A      0.308804   244A      0.310871   245A      0.312631  
     246A      0.312779   247A      0.314114   248A      0.315050  
     249A      0.316330   250A      0.317933   251A      0.319372  
     252A      0.322134   253A      0.322334   254A      0.323325  
     255A      0.324503   256A      0.325646   257A      0.326492  
     258A      0.329285   259A      0.329573   260A      0.331033  
     261A      0.333207   262A      0.333475   263A      0.334486  
     264A      0.336184   265A      0.337083   266A      0.338166  
     267A      0.339277   268A      0.339395   269A      0.341545  
     270A      0.342491   271A      0.343715   272A      0.344326  
     273A      0.345551   274A      0.346096   275A      0.346912  
     276A      0.348505   277A      0.349163   278A      0.350628  
     279A      0.350680   280A      0.351308   281A      0.353576  
     282A      0.354401   283A      0.355161   284A      0.356343  
     285A      0.357750   286A      0.358432   287A      0.360055  
     288A      0.361321   289A      0.365220   290A      0.365853  
     291A      0.367468   292A      0.369134   293A      0.370178  
     294A      0.371537   295A      0.372329   296A      0.373587  
     297A      0.375756   298A      0.376511   299A      0.377123  
     300A      0.378265   301A      0.379508   302A      0.379801  
     303A      0.382683   304A      0.383142   305A      0.385005  
     306A      0.385674   307A      0.386884   308A      0.386982  
     309A      0.388484   310A      0.390468   311A      0.391131  
     312A      0.392316   313A      0.394495   314A      0.395435  
     315A      0.396131   316A      0.396656   317A      0.398061  
     318A      0.398990   319A      0.400345   320A      0.400700  
     321A      0.401700   322A      0.402555   323A      0.404015  
     324A      0.405036   325A      0.405913   326A      0.406056  
     327A      0.406903   328A      0.408959   329A      0.410111  
     330A      0.410875   331A      0.413016   332A      0.413383  
     333A      0.414444   334A      0.416055   335A      0.416946  
     336A      0.419582   337A      0.420538   338A      0.422140  
     339A      0.424380   340A      0.425049   341A      0.426032  
     342A      0.427099   343A      0.427243   344A      0.429014  
     345A      0.429560   346A      0.431547   347A      0.433317  
     348A      0.433920   349A      0.434783   350A      0.436620  
     351A      0.439316   352A      0.439868   353A      0.441638  
     354A      0.442528   355A      0.443213   356A      0.446631  
     357A      0.447971   358A      0.448872   359A      0.449347  
     360A      0.451797   361A      0.453497   362A      0.454706  
     363A      0.455643   364A      0.458305   365A      0.458735  
     366A      0.459342   367A      0.460676   368A      0.462178  
     369A      0.464272   370A      0.465466   371A      0.465999  
     372A      0.467280   373A      0.468745   374A      0.470160  
     375A      0.470786   376A      0.473997   377A      0.475375  
     378A      0.476280   379A      0.477199   380A      0.478627  
     381A      0.480087   382A      0.480304   383A      0.482018  
     384A      0.483082   385A      0.484409   386A      0.485743  
     387A      0.486266   388A      0.486575   389A      0.488358  
     390A      0.489365   391A      0.490956   392A      0.491711  
     393A      0.493803   394A      0.494388   395A      0.496483  
     396A      0.497535   397A      0.498165   398A      0.499943  
     399A      0.501017   400A      0.502140   401A      0.503644  
     402A      0.504136   403A      0.504552   404A      0.505664  
     405A      0.507354   406A      0.508421   407A      0.509726  
     408A      0.511881   409A      0.513158   410A      0.514123  
     411A      0.514829   412A      0.518494   413A      0.518995  
     414A      0.519757   415A      0.522694   416A      0.524471  
     417A      0.525080   418A      0.525404   419A      0.526332  
     420A      0.528120   421A      0.529136   422A      0.530990  
     423A      0.532242   424A      0.534352   425A      0.534787  
     426A      0.536190   427A      0.537777   428A      0.539947  
     429A      0.541150   430A      0.542024   431A      0.543560  
     432A      0.543687   433A      0.545489   434A      0.547194  
     435A      0.548045   436A      0.549849   437A      0.550958  
     438A      0.553330   439A      0.555230   440A      0.557527  
     441A      0.558454   442A      0.559339   443A      0.560177  
     444A      0.562389   445A      0.563248   446A      0.564115  
     447A      0.565771   448A      0.568193   449A      0.569742  
     450A      0.571332   451A      0.572187   452A      0.572572  
     453A      0.573711   454A      0.576608   455A      0.577880  
     456A      0.578371   457A      0.579304   458A      0.580238  
     459A      0.580384   460A      0.582231   461A      0.583420  
     462A      0.584271   463A      0.585099   464A      0.586737  
     465A      0.586997   466A      0.587815   467A      0.589489  
     468A      0.590864   469A      0.592007   470A      0.593104  
     471A      0.594921   472A      0.597009   473A      0.597682  
     474A      0.599293   475A      0.600092   476A      0.601525  
     477A      0.602228   478A      0.604945   479A      0.605710  
     480A      0.607325   481A      0.607930   482A      0.609350  
     483A      0.610198   484A      0.612545   485A      0.613580  
     486A      0.615102   487A      0.615450   488A      0.617160  
     489A      0.618012   490A      0.618500   491A      0.621034  
     492A      0.621521   493A      0.623122   494A      0.624109  
     495A      0.625581   496A      0.627639   497A      0.629440  
     498A      0.630229   499A      0.630982   500A      0.632920  
     501A      0.634551   502A      0.635449   503A      0.636263  
     504A      0.639466   505A      0.640398   506A      0.641022  
     507A      0.643861   508A      0.645193   509A      0.648179  
     510A      0.650018   511A      0.652282   512A      0.654059  
     513A      0.655363   514A      0.657135   515A      0.659073  
     516A      0.659774   517A      0.662097   518A      0.662814  
     519A      0.664031   520A      0.666026   521A      0.667609  
     522A      0.669513   523A      0.670384   524A      0.671764  
     525A      0.672093   526A      0.673424   527A      0.674177  
     528A      0.674927   529A      0.676468   530A      0.678511  
     531A      0.680373   532A      0.680884   533A      0.683207  
     534A      0.684282   535A      0.685967   536A      0.686766  
     537A      0.687784   538A      0.689330   539A      0.691246  
     540A      0.693557   541A      0.695115   542A      0.697462  
     543A      0.698321   544A      0.699360   545A      0.702271  
     546A      0.703028   547A      0.704795   548A      0.705387  
     549A      0.706509   550A      0.707824   551A      0.708400  
     552A      0.709610   553A      0.710194   554A      0.713552  
     555A      0.714854   556A      0.716404   557A      0.717119  
     558A      0.719365   559A      0.720096   560A      0.720590  
     561A      0.722265   562A      0.722919   563A      0.723860  
     564A      0.725164   565A      0.726686   566A      0.728026  
     567A      0.728974   568A      0.731330   569A      0.731388  
     570A      0.732332   571A      0.733827   572A      0.734490  
     573A      0.735088   574A      0.737152   575A      0.737971  
     576A      0.738950   577A      0.740534   578A      0.741386  
     579A      0.741954   580A      0.744012   581A      0.746992  
     582A      0.749511   583A      0.750123   584A      0.751262  
     585A      0.752428   586A      0.752918   587A      0.754702  
     588A      0.755193   589A      0.756589   590A      0.756816  
     591A      0.758257   592A      0.759108   593A      0.760659  
     594A      0.761189   595A      0.762964   596A      0.764533  
     597A      0.765801   598A      0.766691   599A      0.766988  
     600A      0.769443   601A      0.771510   602A      0.773435  
     603A      0.774120   604A      0.775388   605A      0.776455  
     606A      0.778581   607A      0.780701   608A      0.782020  
     609A      0.782954   610A      0.784196   611A      0.785471  
     612A      0.787818   613A      0.788397   614A      0.790239  
     615A      0.791050   616A      0.792897   617A      0.794899  
     618A      0.795848   619A      0.796789   620A      0.798647  
     621A      0.799107   622A      0.803263   623A      0.804642  
     624A      0.805370   625A      0.806329   626A      0.807279  
     627A      0.808717   628A      0.810598   629A      0.811616  
     630A      0.813696   631A      0.813839   632A      0.815729  
     633A      0.817075   634A      0.817651   635A      0.820207  
     636A      0.820528   637A      0.822097   638A      0.822656  
     639A      0.823682   640A      0.824916   641A      0.826739  
     642A      0.827948   643A      0.829448   644A      0.830262  
     645A      0.833090   646A      0.835919   647A      0.837346  
     648A      0.838742   649A      0.839694   650A      0.839968  
     651A      0.841304   652A      0.843160   653A      0.843877  
     654A      0.846071   655A      0.849290   656A      0.849928  
     657A      0.851204   658A      0.853307   659A      0.854532  
     660A      0.855044   661A      0.855838   662A      0.858216  
     663A      0.860058   664A      0.861698   665A      0.864360  
     666A      0.866456   667A      0.867127   668A      0.867935  
     669A      0.870318   670A      0.870781   671A      0.873087  
     672A      0.873449   673A      0.874226   674A      0.876031  
     675A      0.876587   676A      0.877903   677A      0.878758  
     678A      0.880124   679A      0.882487   680A      0.883334  
     681A      0.883771   682A      0.885608   683A      0.886204  
     684A      0.887636   685A      0.889026   686A      0.889815  
     687A      0.891225   688A      0.891757   689A      0.892264  
     690A      0.893431   691A      0.896591   692A      0.898766  
     693A      0.899510   694A      0.901208   695A      0.901955  
     696A      0.903166   697A      0.903225   698A      0.904711  
     699A      0.906215   700A      0.909273   701A      0.910195  
     702A      0.911510   703A      0.913109   704A      0.915045  
     705A      0.916235   706A      0.918512   707A      0.920076  
     708A      0.921862   709A      0.922802   710A      0.925345  
     711A      0.926489   712A      0.926885   713A      0.929421  
     714A      0.930710   715A      0.931873   716A      0.935566  
     717A      0.935924   718A      0.937844   719A      0.940439  
     720A      0.941376   721A      0.943678   722A      0.945853  
     723A      0.947684   724A      0.948430   725A      0.950340  
     726A      0.952587   727A      0.953835   728A      0.954756  
     729A      0.955794   730A      0.958490   731A      0.958773  
     732A      0.961029   733A      0.962678   734A      0.963572  
     735A      0.965182   736A      0.966539   737A      0.968050  
     738A      0.970564   739A      0.971540   740A      0.972457  
     741A      0.973904   742A      0.975446   743A      0.977277  
     744A      0.978773   745A      0.980471   746A      0.981154  
     747A      0.982822   748A      0.984407   749A      0.985014  
     750A      0.986638   751A      0.990741   752A      0.992536  
     753A      0.992940   754A      0.994989   755A      0.995343  
     756A      0.996872   757A      0.997634   758A      0.998423  
     759A      1.000921   760A      1.002739   761A      1.004231  
     762A      1.006242   763A      1.007022   764A      1.007602  
     765A      1.009712   766A      1.011503   767A      1.013936  
     768A      1.015665   769A      1.016207   770A      1.018732  
     771A      1.018888   772A      1.020738   773A      1.022170  
     774A      1.023403   775A      1.024342   776A      1.026765  
     777A      1.028128   778A      1.028950   779A      1.030661  
     780A      1.033119   781A      1.033506   782A      1.035558  
     783A      1.037821   784A      1.039325   785A      1.039994  
     786A      1.041166   787A      1.042238   788A      1.044166  
     789A      1.045778   790A      1.046224   791A      1.048311  
     792A      1.049965   793A      1.050990   794A      1.051446  
     795A      1.055390   796A      1.056951   797A      1.059024  
     798A      1.060186   799A      1.060497   800A      1.062674  
     801A      1.064167   802A      1.065163   803A      1.065657  
     804A      1.067606   805A      1.067938   806A      1.069465  
     807A      1.071819   808A      1.074057   809A      1.075747  
     810A      1.076481   811A      1.077959   812A      1.078833  
     813A      1.079980   814A      1.080894   815A      1.082274  
     816A      1.084388   817A      1.084610   818A      1.087054  
     819A      1.088732   820A      1.091388   821A      1.092156  
     822A      1.092930   823A      1.094955   824A      1.095462  
     825A      1.098467   826A      1.098938   827A      1.099644  
     828A      1.100712   829A      1.101579   830A      1.104070  
     831A      1.104584   832A      1.105305   833A      1.105965  
     834A      1.108341   835A      1.109064   836A      1.111669  
     837A      1.111958   838A      1.113568   839A      1.114254  
     840A      1.115640   841A      1.116665   842A      1.119507  
     843A      1.121101   844A      1.122103   845A      1.123424  
     846A      1.124998   847A      1.125468   848A      1.126977  
     849A      1.128897   850A      1.130447   851A      1.131960  
     852A      1.132842   853A      1.134885   854A      1.135950  
     855A      1.137357   856A      1.138285   857A      1.139165  
     858A      1.142180   859A      1.143873   860A      1.145478  
     861A      1.146088   862A      1.148631   863A      1.149818  
     864A      1.152325   865A      1.153512   866A      1.155729  
     867A      1.157392   868A      1.158180   869A      1.159812  
     870A      1.161733   871A      1.162407   872A      1.163423  
     873A      1.165895   874A      1.166654   875A      1.167012  
     876A      1.170206   877A      1.171360   878A      1.172129  
     879A      1.173027   880A      1.173091   881A      1.174641  
     882A      1.177276   883A      1.178239   884A      1.179027  
     885A      1.180788   886A      1.182728   887A      1.184985  
     888A      1.186132   889A      1.186425   890A      1.188206  
     891A      1.190868   892A      1.192781   893A      1.193266  
     894A      1.195070   895A      1.197632   896A      1.198037  
     897A      1.198862   898A      1.201249   899A      1.202129  
     900A      1.203037   901A      1.204116   902A      1.206178  
     903A      1.206960   904A      1.208286   905A      1.210940  
     906A      1.212179   907A      1.214143   908A      1.215672  
     909A      1.217484   910A      1.218659   911A      1.219246  
     912A      1.221149   913A      1.224289   914A      1.225216  
     915A      1.227403   916A      1.227754   917A      1.228766  
     918A      1.230798   919A      1.233931   920A      1.234345  
     921A      1.235482   922A      1.237613   923A      1.239578  
     924A      1.240605   925A      1.242209   926A      1.244736  
     927A      1.245755   928A      1.246695   929A      1.248982  
     930A      1.250894   931A      1.252076   932A      1.255661  
     933A      1.256703   934A      1.258077   935A      1.259504  
     936A      1.261831   937A      1.263196   938A      1.264590  
     939A      1.266230   940A      1.267015   941A      1.268111  
     942A      1.270613   943A      1.271769   944A      1.273759  
     945A      1.275353   946A      1.276543   947A      1.277736  
     948A      1.279826   949A      1.281854   950A      1.282218  
     951A      1.283816   952A      1.285120   953A      1.286840  
     954A      1.288819   955A      1.289664   956A      1.290534  
     957A      1.292297   958A      1.293319   959A      1.295511  
     960A      1.296998   961A      1.298080   962A      1.300486  
     963A      1.302448   964A      1.302675   965A      1.303941  
     966A      1.305189   967A      1.306318   968A      1.307356  
     969A      1.309327   970A      1.311374   971A      1.312493  
     972A      1.313362   973A      1.317659   974A      1.318554  
     975A      1.320990   976A      1.322146   977A      1.323890  
     978A      1.325513   979A      1.326413   980A      1.329792  
     981A      1.330429   982A      1.332407   983A      1.333568  
     984A      1.335297   985A      1.336413   986A      1.338072  
     987A      1.341178   988A      1.343004   989A      1.343635  
     990A      1.344430   991A      1.347097   992A      1.348772  
     993A      1.350842   994A      1.351812   995A      1.353481  
     996A      1.355996   997A      1.357124   998A      1.358369  
     999A      1.359742  1000A      1.361629  1001A      1.364493  
    1002A      1.364785  1003A      1.366557  1004A      1.369921  
    1005A      1.370526  1006A      1.371599  1007A      1.372911  
    1008A      1.375199  1009A      1.377037  1010A      1.378818  
    1011A      1.380326  1012A      1.382114  1013A      1.383384  
    1014A      1.388039  1015A      1.389456  1016A      1.390223  
    1017A      1.391209  1018A      1.392131  1019A      1.393440  
    1020A      1.394599  1021A      1.397062  1022A      1.399192  
    1023A      1.401190  1024A      1.402547  1025A      1.405386  
    1026A      1.406565  1027A      1.408873  1028A      1.410469  
    1029A      1.411034  1030A      1.412588  1031A      1.414502  
    1032A      1.415719  1033A      1.416723  1034A      1.417996  
    1035A      1.419149  1036A      1.421636  1037A      1.423689  
    1038A      1.425749  1039A      1.428362  1040A      1.430225  
    1041A      1.432885  1042A      1.434012  1043A      1.435417  
    1044A      1.435876  1045A      1.436808  1046A      1.438259  
    1047A      1.438781  1048A      1.440936  1049A      1.443516  
    1050A      1.445583  1051A      1.446116  1052A      1.446767  
    1053A      1.449028  1054A      1.449969  1055A      1.450532  
    1056A      1.452763  1057A      1.453999  1058A      1.456449  
    1059A      1.458112  1060A      1.459570  1061A      1.460517  
    1062A      1.462709  1063A      1.464728  1064A      1.465304  
    1065A      1.465746  1066A      1.467867  1067A      1.469503  
    1068A      1.470683  1069A      1.471699  1070A      1.472788  
    1071A      1.474577  1072A      1.475755  1073A      1.476863  
    1074A      1.477752  1075A      1.480033  1076A      1.480955  
    1077A      1.481602  1078A      1.483341  1079A      1.485714  
    1080A      1.487800  1081A      1.487965  1082A      1.489525  
    1083A      1.490162  1084A      1.491837  1085A      1.493317  
    1086A      1.495031  1087A      1.496984  1088A      1.497738  
    1089A      1.499947  1090A      1.500627  1091A      1.501539  
    1092A      1.503033  1093A      1.504477  1094A      1.505299  
    1095A      1.507307  1096A      1.509472  1097A      1.509886  
    1098A      1.510329  1099A      1.512224  1100A      1.512944  
    1101A      1.515333  1102A      1.515691  1103A      1.517721  
    1104A      1.518372  1105A      1.520353  1106A      1.521563  
    1107A      1.524401  1108A      1.525923  1109A      1.527961  
    1110A      1.529217  1111A      1.530994  1112A      1.531865  
    1113A      1.533926  1114A      1.534042  1115A      1.535154  
    1116A      1.536827  1117A      1.537906  1118A      1.539201  
    1119A      1.541195  1120A      1.544009  1121A      1.544153  
    1122A      1.547097  1123A      1.547529  1124A      1.548364  
    1125A      1.549510  1126A      1.551100  1127A      1.552348  
    1128A      1.553337  1129A      1.555253  1130A      1.555911  
    1131A      1.556882  1132A      1.559693  1133A      1.561917  
    1134A      1.562813  1135A      1.564260  1136A      1.565416  
    1137A      1.566975  1138A      1.567272  1139A      1.569460  
    1140A      1.571460  1141A      1.572128  1142A      1.574095  
    1143A      1.575779  1144A      1.577297  1145A      1.577628  
    1146A      1.579277  1147A      1.580582  1148A      1.581370  
    1149A      1.583937  1150A      1.585184  1151A      1.586599  
    1152A      1.587597  1153A      1.590235  1154A      1.592017  
    1155A      1.594301  1156A      1.595430  1157A      1.596276  
    1158A      1.596410  1159A      1.598950  1160A      1.600042  
    1161A      1.600872  1162A      1.603411  1163A      1.604458  
    1164A      1.604971  1165A      1.607545  1166A      1.609610  
    1167A      1.609899  1168A      1.610877  1169A      1.612335  
    1170A      1.612526  1171A      1.614819  1172A      1.616802  
    1173A      1.617504  1174A      1.618191  1175A      1.620345  
    1176A      1.621755  1177A      1.622959  1178A      1.625080  
    1179A      1.625983  1180A      1.626633  1181A      1.627214  
    1182A      1.628571  1183A      1.630887  1184A      1.632694  
    1185A      1.633348  1186A      1.634283  1187A      1.634955  
    1188A      1.636468  1189A      1.637571  1190A      1.640835  
    1191A      1.641809  1192A      1.643084  1193A      1.644370  
    1194A      1.645319  1195A      1.646059  1196A      1.648090  
    1197A      1.649767  1198A      1.651364  1199A      1.652697  
    1200A      1.654546  1201A      1.655616  1202A      1.657826  
    1203A      1.658697  1204A      1.659102  1205A      1.662095  
    1206A      1.663980  1207A      1.666671  1208A      1.667238  
    1209A      1.668610  1210A      1.670304  1211A      1.670993  
    1212A      1.672015  1213A      1.673360  1214A      1.674850  
    1215A      1.677916  1216A      1.679462  1217A      1.679682  
    1218A      1.680349  1219A      1.681319  1220A      1.683658  
    1221A      1.685754  1222A      1.687955  1223A      1.690785  
    1224A      1.692012  1225A      1.694338  1226A      1.695500  
    1227A      1.695920  1228A      1.698077  1229A      1.698956  
    1230A      1.700205  1231A      1.701603  1232A      1.702814  
    1233A      1.704226  1234A      1.705225  1235A      1.706971  
    1236A      1.709695  1237A      1.711383  1238A      1.712140  
    1239A      1.713825  1240A      1.716353  1241A      1.717724  
    1242A      1.718284  1243A      1.720122  1244A      1.722740  
    1245A      1.723588  1246A      1.724566  1247A      1.725449  
    1248A      1.727056  1249A      1.731865  1250A      1.732439  
    1251A      1.735207  1252A      1.736102  1253A      1.737168  
    1254A      1.740531  1255A      1.741752  1256A      1.743162  
    1257A      1.744562  1258A      1.745174  1259A      1.746944  
    1260A      1.748769  1261A      1.751696  1262A      1.752410  
    1263A      1.753406  1264A      1.755255  1265A      1.755985  
    1266A      1.757170  1267A      1.759711  1268A      1.761155  
    1269A      1.763201  1270A      1.764937  1271A      1.765822  
    1272A      1.767616  1273A      1.769842  1274A      1.771462  
    1275A      1.772223  1276A      1.773577  1277A      1.775216  
    1278A      1.777124  1279A      1.777886  1280A      1.780051  
    1281A      1.781577  1282A      1.784835  1283A      1.785748  
    1284A      1.786913  1285A      1.788154  1286A      1.789490  
    1287A      1.792029  1288A      1.792176  1289A      1.793782  
    1290A      1.796077  1291A      1.796502  1292A      1.797362  
    1293A      1.799386  1294A      1.801842  1295A      1.802064  
    1296A      1.804218  1297A      1.804265  1298A      1.807109  
    1299A      1.809727  1300A      1.811002  1301A      1.813119  
    1302A      1.814619  1303A      1.816844  1304A      1.818729  
    1305A      1.819370  1306A      1.820620  1307A      1.823164  
    1308A      1.824995  1309A      1.825407  1310A      1.827729  
    1311A      1.829778  1312A      1.830549  1313A      1.831881  
    1314A      1.833098  1315A      1.834888  1316A      1.837225  
    1317A      1.839589  1318A      1.841003  1319A      1.841339  
    1320A      1.841750  1321A      1.844734  1322A      1.846224  
    1323A      1.847332  1324A      1.848369  1325A      1.849214  
    1326A      1.851478  1327A      1.852652  1328A      1.854041  
    1329A      1.856129  1330A      1.856536  1331A      1.857855  
    1332A      1.858795  1333A      1.861455  1334A      1.863283  
    1335A      1.864705  1336A      1.865419  1337A      1.867354  
    1338A      1.868874  1339A      1.871620  1340A      1.873584  
    1341A      1.874452  1342A      1.875966  1343A      1.879580  
    1344A      1.880755  1345A      1.881406  1346A      1.884159  
    1347A      1.886781  1348A      1.888129  1349A      1.889559  
    1350A      1.891511  1351A      1.894648  1352A      1.895690  
    1353A      1.895948  1354A      1.898908  1355A      1.899610  
    1356A      1.902948  1357A      1.903447  1358A      1.905272  
    1359A      1.906344  1360A      1.907344  1361A      1.910118  
    1362A      1.913654  1363A      1.915753  1364A      1.916738  
    1365A      1.918942  1366A      1.919497  1367A      1.921094  
    1368A      1.923275  1369A      1.925114  1370A      1.927244  
    1371A      1.928256  1372A      1.931225  1373A      1.934255  
    1374A      1.935724  1375A      1.938323  1376A      1.939574  
    1377A      1.942487  1378A      1.944561  1379A      1.946730  
    1380A      1.947826  1381A      1.950280  1382A      1.951944  
    1383A      1.952611  1384A      1.953699  1385A      1.955445  
    1386A      1.957103  1387A      1.959915  1388A      1.961524  
    1389A      1.964147  1390A      1.964962  1391A      1.968903  
    1392A      1.970856  1393A      1.973243  1394A      1.976013  
    1395A      1.977100  1396A      1.978713  1397A      1.981250  
    1398A      1.983116  1399A      1.984796  1400A      1.986168  
    1401A      1.986594  1402A      1.987845  1403A      1.990201  
    1404A      1.991149  1405A      1.992781  1406A      1.999380  
    1407A      2.000098  1408A      2.001569  1409A      2.003667  
    1410A      2.004074  1411A      2.007793  1412A      2.008674  
    1413A      2.010757  1414A      2.011574  1415A      2.012762  
    1416A      2.015035  1417A      2.016459  1418A      2.018001  
    1419A      2.021119  1420A      2.023046  1421A      2.024228  
    1422A      2.026439  1423A      2.027661  1424A      2.029764  
    1425A      2.031423  1426A      2.033287  1427A      2.035068  
    1428A      2.036161  1429A      2.037550  1430A      2.044091  
    1431A      2.045008  1432A      2.047018  1433A      2.047781  
    1434A      2.049952  1435A      2.052346  1436A      2.054892  
    1437A      2.058510  1438A      2.059123  1439A      2.060959  
    1440A      2.063532  1441A      2.064010  1442A      2.066787  
    1443A      2.068574  1444A      2.068901  1445A      2.071087  
    1446A      2.072064  1447A      2.074659  1448A      2.077287  
    1449A      2.078837  1450A      2.080806  1451A      2.081744  
    1452A      2.082787  1453A      2.085823  1454A      2.087199  
    1455A      2.088119  1456A      2.091585  1457A      2.092081  
    1458A      2.096410  1459A      2.097247  1460A      2.098488  
    1461A      2.102963  1462A      2.107926  1463A      2.110434  
    1464A      2.112070  1465A      2.112810  1466A      2.113998  
    1467A      2.117357  1468A      2.117771  1469A      2.120739  
    1470A      2.122354  1471A      2.124754  1472A      2.127497  
    1473A      2.128563  1474A      2.132940  1475A      2.134037  
    1476A      2.134115  1477A      2.138571  1478A      2.139317  
    1479A      2.143395  1480A      2.149075  1481A      2.152146  
    1482A      2.153037  1483A      2.159328  1484A      2.160334  
    1485A      2.162147  1486A      2.165419  1487A      2.169251  
    1488A      2.171253  1489A      2.173196  1490A      2.175667  
    1491A      2.176216  1492A      2.177410  1493A      2.181292  
    1494A      2.182690  1495A      2.185825  1496A      2.187748  
    1497A      2.188637  1498A      2.190935  1499A      2.194563  
    1500A      2.198913  1501A      2.199442  1502A      2.202401  
    1503A      2.204899  1504A      2.208270  1505A      2.208474  
    1506A      2.211507  1507A      2.215429  1508A      2.216234  
    1509A      2.217383  1510A      2.222212  1511A      2.222296  
    1512A      2.223190  1513A      2.227164  1514A      2.230410  
    1515A      2.231459  1516A      2.233285  1517A      2.235696  
    1518A      2.236368  1519A      2.239295  1520A      2.241846  
    1521A      2.242656  1522A      2.245644  1523A      2.247168  
    1524A      2.251783  1525A      2.256174  1526A      2.258476  
    1527A      2.260207  1528A      2.262025  1529A      2.264633  
    1530A      2.266389  1531A      2.268023  1532A      2.269307  
    1533A      2.272641  1534A      2.275671  1535A      2.277848  
    1536A      2.279130  1537A      2.279383  1538A      2.282542  
    1539A      2.283102  1540A      2.284775  1541A      2.287860  
    1542A      2.289257  1543A      2.290426  1544A      2.294010  
    1545A      2.296222  1546A      2.298604  1547A      2.300042  
    1548A      2.302446  1549A      2.305266  1550A      2.306105  
    1551A      2.309212  1552A      2.311909  1553A      2.313953  
    1554A      2.318219  1555A      2.319156  1556A      2.321215  
    1557A      2.323221  1558A      2.326364  1559A      2.328010  
    1560A      2.329583  1561A      2.332585  1562A      2.334835  
    1563A      2.335881  1564A      2.337288  1565A      2.339254  
    1566A      2.341263  1567A      2.342619  1568A      2.344314  
    1569A      2.344962  1570A      2.347217  1571A      2.351531  
    1572A      2.351953  1573A      2.355049  1574A      2.357416  
    1575A      2.359229  1576A      2.360931  1577A      2.362234  
    1578A      2.362866  1579A      2.365991  1580A      2.367968  
    1581A      2.372494  1582A      2.373949  1583A      2.375515  
    1584A      2.377331  1585A      2.379835  1586A      2.382326  
    1587A      2.385458  1588A      2.387609  1589A      2.389230  
    1590A      2.392722  1591A      2.393822  1592A      2.394526  
    1593A      2.396143  1594A      2.398629  1595A      2.399628  
    1596A      2.402213  1597A      2.403830  1598A      2.406105  
    1599A      2.407910  1600A      2.409806  1601A      2.413028  
    1602A      2.414807  1603A      2.415754  1604A      2.418319  
    1605A      2.419659  1606A      2.422468  1607A      2.423010  
    1608A      2.424131  1609A      2.425056  1610A      2.428255  
    1611A      2.429469  1612A      2.430703  1613A      2.432345  
    1614A      2.434083  1615A      2.436440  1616A      2.437336  
    1617A      2.440341  1618A      2.443685  1619A      2.444487  
    1620A      2.449460  1621A      2.452597  1622A      2.454825  
    1623A      2.457133  1624A      2.459157  1625A      2.460418  
    1626A      2.463411  1627A      2.466272  1628A      2.468377  
    1629A      2.470694  1630A      2.474895  1631A      2.475719  
    1632A      2.476368  1633A      2.479498  1634A      2.481912  
    1635A      2.483695  1636A      2.485457  1637A      2.486869  
    1638A      2.488529  1639A      2.489972  1640A      2.491212  
    1641A      2.491276  1642A      2.495049  1643A      2.497031  
    1644A      2.497854  1645A      2.501410  1646A      2.502196  
    1647A      2.504583  1648A      2.506879  1649A      2.508343  
    1650A      2.510422  1651A      2.513921  1652A      2.514390  
    1653A      2.516808  1654A      2.518657  1655A      2.520535  
    1656A      2.522659  1657A      2.523622  1658A      2.524875  
    1659A      2.527751  1660A      2.529698  1661A      2.530888  
    1662A      2.533213  1663A      2.534967  1664A      2.536765  
    1665A      2.538847  1666A      2.540066  1667A      2.543669  
    1668A      2.544705  1669A      2.546734  1670A      2.548036  
    1671A      2.550737  1672A      2.553501  1673A      2.555189  
    1674A      2.556884  1675A      2.559987  1676A      2.561157  
    1677A      2.562242  1678A      2.565055  1679A      2.565683  
    1680A      2.567459  1681A      2.569085  1682A      2.572268  
    1683A      2.574349  1684A      2.576078  1685A      2.577629  
    1686A      2.578548  1687A      2.579997  1688A      2.582257  
    1689A      2.584957  1690A      2.585070  1691A      2.587543  
    1692A      2.589533  1693A      2.591400  1694A      2.592247  
    1695A      2.593776  1696A      2.596630  1697A      2.599744  
    1698A      2.600835  1699A      2.603149  1700A      2.604255  
    1701A      2.606435  1702A      2.608564  1703A      2.610623  
    1704A      2.612003  1705A      2.612792  1706A      2.619073  
    1707A      2.619829  1708A      2.622721  1709A      2.623414  
    1710A      2.625716  1711A      2.627880  1712A      2.630964  
    1713A      2.633273  1714A      2.634102  1715A      2.637826  
    1716A      2.640118  1717A      2.641204  1718A      2.644110  
    1719A      2.646115  1720A      2.646764  1721A      2.647981  
    1722A      2.649328  1723A      2.651138  1724A      2.653139  
    1725A      2.656196  1726A      2.658627  1727A      2.660371  
    1728A      2.661395  1729A      2.663802  1730A      2.666469  
    1731A      2.666583  1732A      2.668748  1733A      2.669947  
    1734A      2.670401  1735A      2.673669  1736A      2.676551  
    1737A      2.678688  1738A      2.680529  1739A      2.682948  
    1740A      2.683784  1741A      2.685345  1742A      2.686317  
    1743A      2.689373  1744A      2.690219  1745A      2.692645  
    1746A      2.694890  1747A      2.697473  1748A      2.698406  
    1749A      2.699557  1750A      2.701568  1751A      2.705629  
    1752A      2.707914  1753A      2.709038  1754A      2.710525  
    1755A      2.712449  1756A      2.715506  1757A      2.717536  
    1758A      2.719458  1759A      2.722891  1760A      2.724250  
    1761A      2.726064  1762A      2.728783  1763A      2.731020  
    1764A      2.731582  1765A      2.733438  1766A      2.738942  
    1767A      2.740717  1768A      2.741042  1769A      2.743470  
    1770A      2.744487  1771A      2.746702  1772A      2.748721  
    1773A      2.751054  1774A      2.752484  1775A      2.753980  
    1776A      2.757544  1777A      2.758032  1778A      2.759723  
    1779A      2.764037  1780A      2.766005  1781A      2.766894  
    1782A      2.768760  1783A      2.770786  1784A      2.772917  
    1785A      2.775480  1786A      2.776869  1787A      2.779152  
    1788A      2.779797  1789A      2.782006  1790A      2.784378  
    1791A      2.787115  1792A      2.788406  1793A      2.790635  
    1794A      2.792433  1795A      2.794346  1796A      2.795062  
    1797A      2.797050  1798A      2.798429  1799A      2.799663  
    1800A      2.802139  1801A      2.804819  1802A      2.807692  
    1803A      2.810174  1804A      2.811298  1805A      2.813256  
    1806A      2.814817  1807A      2.819421  1808A      2.819770  
    1809A      2.821023  1810A      2.824984  1811A      2.826787  
    1812A      2.828441  1813A      2.830005  1814A      2.833994  
    1815A      2.835727  1816A      2.838916  1817A      2.839482  
    1818A      2.840615  1819A      2.844013  1820A      2.848072  
    1821A      2.848628  1822A      2.850286  1823A      2.853625  
    1824A      2.856427  1825A      2.859260  1826A      2.861594  
    1827A      2.862837  1828A      2.864902  1829A      2.868126  
    1830A      2.868685  1831A      2.870114  1832A      2.875177  
    1833A      2.877264  1834A      2.880652  1835A      2.882025  
    1836A      2.883303  1837A      2.884822  1838A      2.885430  
    1839A      2.890539  1840A      2.893719  1841A      2.894371  
    1842A      2.898443  1843A      2.898822  1844A      2.899545  
    1845A      2.903976  1846A      2.904553  1847A      2.906350  
    1848A      2.907219  1849A      2.908165  1850A      2.910476  
    1851A      2.914216  1852A      2.916511  1853A      2.917602  
    1854A      2.920857  1855A      2.921600  1856A      2.924562  
    1857A      2.926497  1858A      2.928469  1859A      2.934842  
    1860A      2.935963  1861A      2.939668  1862A      2.941190  
    1863A      2.944123  1864A      2.947275  1865A      2.948123  
    1866A      2.951903  1867A      2.957291  1868A      2.958060  
    1869A      2.963214  1870A      2.965726  1871A      2.971154  
    1872A      2.972879  1873A      2.975265  1874A      2.976495  
    1875A      2.978724  1876A      2.981537  1877A      2.983564  
    1878A      2.986287  1879A      2.987640  1880A      2.991934  
    1881A      2.994377  1882A      2.996748  1883A      3.002024  
    1884A      3.004268  1885A      3.006769  1886A      3.010963  
    1887A      3.011909  1888A      3.016027  1889A      3.018255  
    1890A      3.020475  1891A      3.026458  1892A      3.031244  
    1893A      3.034036  1894A      3.037286  1895A      3.042120  
    1896A      3.045695  1897A      3.047814  1898A      3.049012  
    1899A      3.050275  1900A      3.055099  1901A      3.056859  
    1902A      3.063163  1903A      3.063508  1904A      3.065680  
    1905A      3.070859  1906A      3.073461  1907A      3.081914  
    1908A      3.082781  1909A      3.085761  1910A      3.086670  
    1911A      3.092866  1912A      3.097929  1913A      3.102195  
    1914A      3.107116  1915A      3.110708  1916A      3.114670  
    1917A      3.116179  1918A      3.117788  1919A      3.123729  
    1920A      3.130128  1921A      3.130547  1922A      3.133083  
    1923A      3.134567  1924A      3.136671  1925A      3.143520  
    1926A      3.145299  1927A      3.149635  1928A      3.150396  
    1929A      3.154544  1930A      3.157509  1931A      3.160234  
    1932A      3.163011  1933A      3.167043  1934A      3.168139  
    1935A      3.170408  1936A      3.177470  1937A      3.180176  
    1938A      3.180409  1939A      3.185020  1940A      3.187028  
    1941A      3.189716  1942A      3.192303  1943A      3.197063  
    1944A      3.198567  1945A      3.202571  1946A      3.202919  
    1947A      3.204902  1948A      3.207064  1949A      3.210470  
    1950A      3.214582  1951A      3.215826  1952A      3.219527  
    1953A      3.222082  1954A      3.224400  1955A      3.228592  
    1956A      3.231461  1957A      3.234678  1958A      3.241248  
    1959A      3.243425  1960A      3.247480  1961A      3.250965  
    1962A      3.253365  1963A      3.258064  1964A      3.260574  
    1965A      3.263622  1966A      3.270819  1967A      3.273827  
    1968A      3.276772  1969A      3.280589  1970A      3.285277  
    1971A      3.293504  1972A      3.294774  1973A      3.299840  
    1974A      3.307977  1975A      3.316806  1976A      3.318159  
    1977A      3.320714  1978A      3.322435  1979A      3.329159  
    1980A      3.333277  1981A      3.337957  1982A      3.339073  
    1983A      3.343894  1984A      3.345938  1985A      3.348762  
    1986A      3.351044  1987A      3.352887  1988A      3.359637  
    1989A      3.364699  1990A      3.370958  1991A      3.376548  
    1992A      3.383880  1993A      3.387384  1994A      3.388563  
    1995A      3.392096  1996A      3.394636  1997A      3.400736  
    1998A      3.407285  1999A      3.409418  2000A      3.416034  
    2001A      3.417862  2002A      3.421669  2003A      3.425413  
    2004A      3.432537  2005A      3.437618  2006A      3.438868  
    2007A      3.443622  2008A      3.448420  2009A      3.452550  
    2010A      3.458190  2011A      3.460699  2012A      3.462934  
    2013A      3.465574  2014A      3.468029  2015A      3.474255  
    2016A      3.477423  2017A      3.478556  2018A      3.482461  
    2019A      3.486131  2020A      3.490211  2021A      3.498470  
    2022A      3.503084  2023A      3.506727  2024A      3.511519  
    2025A      3.515931  2026A      3.518673  2027A      3.526884  
    2028A      3.531345  2029A      3.539221  2030A      3.546410  
    2031A      3.552023  2032A      3.553753  2033A      3.559608  
    2034A      3.565523  2035A      3.570629  2036A      3.573018  
    2037A      3.584405  2038A      3.590229  2039A      3.593966  
    2040A      3.596557  2041A      3.600325  2042A      3.602611  
    2043A      3.607076  2044A      3.610421  2045A      3.614342  
    2046A      3.619684  2047A      3.622780  2048A      3.627839  
    2049A      3.629277  2050A      3.634601  2051A      3.637019  
    2052A      3.643970  2053A      3.646275  2054A      3.664287  
    2055A      3.669175  2056A      3.672885  2057A      3.684783  
    2058A      3.689102  2059A      3.694247  2060A      3.697342  
    2061A      3.698894  2062A      3.706396  2063A      3.710810  
    2064A      3.718056  2065A      3.723733  2066A      3.725112  
    2067A      3.731478  2068A      3.736396  2069A      3.739537  
    2070A      3.747112  2071A      3.748154  2072A      3.754673  
    2073A      3.756987  2074A      3.757950  2075A      3.765311  
    2076A      3.768409  2077A      3.774567  2078A      3.775206  
    2079A      3.776685  2080A      3.783531  2081A      3.788140  
    2082A      3.794265  2083A      3.800512  2084A      3.806374  
    2085A      3.815704  2086A      3.827181  2087A      3.833254  
    2088A      3.841395  2089A      3.843308  2090A      3.845655  
    2091A      3.850164  2092A      3.852316  2093A      3.856167  
    2094A      3.859305  2095A      3.862288  2096A      3.864750  
    2097A      3.868322  2098A      3.881268  2099A      3.882480  
    2100A      3.889129  2101A      3.905945  2102A      3.912426  
    2103A      3.915942  2104A      3.919877  2105A      3.920809  
    2106A      3.925416  2107A      3.928193  2108A      3.946349  
    2109A      3.948440  2110A      3.958949  2111A      3.965628  
    2112A      3.970457  2113A      3.974720  2114A      3.980990  
    2115A      3.986707  2116A      3.992764  2117A      3.999529  
    2118A      4.000861  2119A      4.004062  2120A      4.006541  
    2121A      4.009991  2122A      4.014180  2123A      4.018690  
    2124A      4.019876  2125A      4.022165  2126A      4.025426  
    2127A      4.031033  2128A      4.034528  2129A      4.038101  
    2130A      4.040063  2131A      4.041891  2132A      4.046020  
    2133A      4.047918  2134A      4.052239  2135A      4.053195  
    2136A      4.057772  2137A      4.062845  2138A      4.064626  
    2139A      4.064687  2140A      4.071203  2141A      4.071873  
    2142A      4.074682  2143A      4.075446  2144A      4.078539  
    2145A      4.079855  2146A      4.082664  2147A      4.083987  
    2148A      4.087673  2149A      4.091740  2150A      4.092866  
    2151A      4.093510  2152A      4.096384  2153A      4.098712  
    2154A      4.101696  2155A      4.103159  2156A      4.105722  
    2157A      4.106628  2158A      4.107732  2159A      4.113722  
    2160A      4.119546  2161A      4.121785  2162A      4.122890  
    2163A      4.124913  2164A      4.128231  2165A      4.129953  
    2166A      4.132794  2167A      4.135501  2168A      4.136483  
    2169A      4.137935  2170A      4.141991  2171A      4.143023  
    2172A      4.145457  2173A      4.149584  2174A      4.151094  
    2175A      4.155346  2176A      4.156434  2177A      4.159825  
    2178A      4.161767  2179A      4.162900  2180A      4.167311  
    2181A      4.168166  2182A      4.171898  2183A      4.173386  
    2184A      4.174290  2185A      4.177301  2186A      4.179851  
    2187A      4.180565  2188A      4.184331  2189A      4.189071  
    2190A      4.192000  2191A      4.192149  2192A      4.195004  
    2193A      4.199119  2194A      4.199899  2195A      4.203655  
    2196A      4.205520  2197A      4.207556  2198A      4.208613  
    2199A      4.210103  2200A      4.213647  2201A      4.217258  
    2202A      4.220153  2203A      4.221563  2204A      4.223863  
    2205A      4.225351  2206A      4.226200  2207A      4.229212  
    2208A      4.231704  2209A      4.233892  2210A      4.234769  
    2211A      4.237923  2212A      4.239678  2213A      4.242088  
    2214A      4.243276  2215A      4.246882  2216A      4.248062  
    2217A      4.249575  2218A      4.251611  2219A      4.253512  
    2220A      4.256288  2221A      4.258081  2222A      4.261268  
    2223A      4.261873  2224A      4.266016  2225A      4.268087  
    2226A      4.269053  2227A      4.271507  2228A      4.272442  
    2229A      4.275118  2230A      4.277922  2231A      4.281630  
    2232A      4.283501  2233A      4.286102  2234A      4.290259  
    2235A      4.291333  2236A      4.294037  2237A      4.295630  
    2238A      4.297623  2239A      4.298745  2240A      4.300957  
    2241A      4.303321  2242A      4.305501  2243A      4.307791  
    2244A      4.310074  2245A      4.311045  2246A      4.313383  
    2247A      4.317226  2248A      4.318045  2249A      4.323186  
    2250A      4.324167  2251A      4.325566  2252A      4.327134  
    2253A      4.329049  2254A      4.330410  2255A      4.331488  
    2256A      4.333081  2257A      4.335938  2258A      4.337708  
    2259A      4.338859  2260A      4.342133  2261A      4.343226  
    2262A      4.346282  2263A      4.346774  2264A      4.350065  
    2265A      4.352818  2266A      4.353136  2267A      4.355996  
    2268A      4.358177  2269A      4.358526  2270A      4.360622  
    2271A      4.361144  2272A      4.365221  2273A      4.368277  
    2274A      4.369635  2275A      4.373334  2276A      4.377086  
    2277A      4.378843  2278A      4.381512  2279A      4.384285  
    2280A      4.386769  2281A      4.388718  2282A      4.392493  
    2283A      4.395259  2284A      4.399141  2285A      4.401594  
    2286A      4.402657  2287A      4.405399  2288A      4.407158  
    2289A      4.410331  2290A      4.412042  2291A      4.414226  
    2292A      4.416513  2293A      4.417771  2294A      4.419305  
    2295A      4.421506  2296A      4.425032  2297A      4.425468  
    2298A      4.428729  2299A      4.430958  2300A      4.433569  
    2301A      4.435888  2302A      4.438221  2303A      4.441809  
    2304A      4.443874  2305A      4.447431  2306A      4.448512  
    2307A      4.450939  2308A      4.455297  2309A      4.457575  
    2310A      4.458199  2311A      4.459600  2312A      4.464855  
    2313A      4.466346  2314A      4.467589  2315A      4.471428  
    2316A      4.473003  2317A      4.475815  2318A      4.476280  
    2319A      4.481037  2320A      4.484431  2321A      4.487347  
    2322A      4.491096  2323A      4.491468  2324A      4.493104  
    2325A      4.495515  2326A      4.500129  2327A      4.502299  
    2328A      4.503646  2329A      4.506576  2330A      4.508440  
    2331A      4.513109  2332A      4.515549  2333A      4.516424  
    2334A      4.518796  2335A      4.520732  2336A      4.522697  
    2337A      4.522935  2338A      4.527697  2339A      4.528791  
    2340A      4.532565  2341A      4.536656  2342A      4.539886  
    2343A      4.539912  2344A      4.541762  2345A      4.545411  
    2346A      4.546733  2347A      4.548594  2348A      4.552541  
    2349A      4.552651  2350A      4.555617  2351A      4.556436  
    2352A      4.560272  2353A      4.561565  2354A      4.561770  
    2355A      4.564926  2356A      4.567775  2357A      4.570538  
    2358A      4.574283  2359A      4.576086  2360A      4.579428  
    2361A      4.580604  2362A      4.582105  2363A      4.586585  
    2364A      4.589365  2365A      4.593249  2366A      4.597591  
    2367A      4.598590  2368A      4.601585  2369A      4.604070  
    2370A      4.604992  2371A      4.605624  2372A      4.609193  
    2373A      4.609970  2374A      4.611505  2375A      4.615644  
    2376A      4.617838  2377A      4.620002  2378A      4.624735  
    2379A      4.624965  2380A      4.626831  2381A      4.629083  
    2382A      4.630902  2383A      4.634417  2384A      4.636982  
    2385A      4.639782  2386A      4.642970  2387A      4.645914  
    2388A      4.648500  2389A      4.651668  2390A      4.654339  
    2391A      4.655289  2392A      4.656788  2393A      4.658900  
    2394A      4.663696  2395A      4.664700  2396A      4.665772  
    2397A      4.669729  2398A      4.671253  2399A      4.674659  
    2400A      4.676876  2401A      4.677779  2402A      4.678751  
    2403A      4.681918  2404A      4.684307  2405A      4.688383  
    2406A      4.691000  2407A      4.693586  2408A      4.695882  
    2409A      4.697843  2410A      4.699098  2411A      4.700774  
    2412A      4.706186  2413A      4.707296  2414A      4.709345  
    2415A      4.711846  2416A      4.714699  2417A      4.717150  
    2418A      4.720788  2419A      4.723300  2420A      4.725853  
    2421A      4.727772  2422A      4.732021  2423A      4.733718  
    2424A      4.738108  2425A      4.739549  2426A      4.740830  
    2427A      4.742684  2428A      4.744703  2429A      4.749923  
    2430A      4.752518  2431A      4.754422  2432A      4.758438  
    2433A      4.759862  2434A      4.762173  2435A      4.763646  
    2436A      4.766446  2437A      4.769651  2438A      4.770377  
    2439A      4.773001  2440A      4.776862  2441A      4.779726  
    2442A      4.780248  2443A      4.783163  2444A      4.786585  
    2445A      4.791489  2446A      4.795059  2447A      4.796930  
    2448A      4.799863  2449A      4.803974  2450A      4.806142  
    2451A      4.807279  2452A      4.810139  2453A      4.812161  
    2454A      4.814705  2455A      4.818285  2456A      4.821542  
    2457A      4.823007  2458A      4.824789  2459A      4.829612  
    2460A      4.830354  2461A      4.831520  2462A      4.834234  
    2463A      4.835724  2464A      4.838598  2465A      4.841174  
    2466A      4.843475  2467A      4.849450  2468A      4.851703  
    2469A      4.854179  2470A      4.856494  2471A      4.861394  
    2472A      4.863450  2473A      4.866786  2474A      4.868158  
    2475A      4.871437  2476A      4.873884  2477A      4.875535  
    2478A      4.877275  2479A      4.880465  2480A      4.883238  
    2481A      4.884292  2482A      4.885619  2483A      4.893916  
    2484A      4.895505  2485A      4.899435  2486A      4.902529  
    2487A      4.905915  2488A      4.906531  2489A      4.908436  
    2490A      4.909653  2491A      4.911250  2492A      4.916012  
    2493A      4.916672  2494A      4.919591  2495A      4.922892  
    2496A      4.926263  2497A      4.930697  2498A      4.932535  
    2499A      4.934920  2500A      4.937882  2501A      4.941633  
    2502A      4.946188  2503A      4.948863  2504A      4.951353  
    2505A      4.953380  2506A      4.954136  2507A      4.959268  
    2508A      4.962795  2509A      4.964196  2510A      4.965805  
    2511A      4.972083  2512A      4.976501  2513A      4.981013  
    2514A      4.983186  2515A      4.985498  2516A      4.990180  
    2517A      4.991642  2518A      4.994269  2519A      4.998168  
    2520A      5.004611  2521A      5.007150  2522A      5.009146  
    2523A      5.010257  2524A      5.014007  2525A      5.014408  
    2526A      5.017643  2527A      5.024164  2528A      5.027879  
    2529A      5.031359  2530A      5.033117  2531A      5.037300  
    2532A      5.039824  2533A      5.042800  2534A      5.047812  
    2535A      5.049271  2536A      5.051249  2537A      5.052975  
    2538A      5.053916  2539A      5.056834  2540A      5.059614  
    2541A      5.060305  2542A      5.063417  2543A      5.067462  
    2544A      5.068820  2545A      5.073547  2546A      5.077670  
    2547A      5.080878  2548A      5.081715  2549A      5.087395  
    2550A      5.089601  2551A      5.095766  2552A      5.097643  
    2553A      5.100874  2554A      5.101942  2555A      5.105377  
    2556A      5.109952  2557A      5.115329  2558A      5.117078  
    2559A      5.120063  2560A      5.122224  2561A      5.122947  
    2562A      5.124956  2563A      5.128573  2564A      5.129724  
    2565A      5.130991  2566A      5.133883  2567A      5.137457  
    2568A      5.141102  2569A      5.144513  2570A      5.149725  
    2571A      5.151088  2572A      5.151641  2573A      5.154833  
    2574A      5.158472  2575A      5.159367  2576A      5.160318  
    2577A      5.168877  2578A      5.169721  2579A      5.170773  
    2580A      5.177074  2581A      5.182043  2582A      5.184822  
    2583A      5.186289  2584A      5.189693  2585A      5.193214  
    2586A      5.195934  2587A      5.198580  2588A      5.201943  
    2589A      5.203922  2590A      5.205300  2591A      5.207598  
    2592A      5.210190  2593A      5.212113  2594A      5.213840  
    2595A      5.216946  2596A      5.219489  2597A      5.221594  
    2598A      5.223654  2599A      5.226554  2600A      5.228497  
    2601A      5.230933  2602A      5.233739  2603A      5.235246  
    2604A      5.238357  2605A      5.239376  2606A      5.239625  
    2607A      5.242422  2608A      5.246012  2609A      5.248183  
    2610A      5.250941  2611A      5.252435  2612A      5.257961  
    2613A      5.259673  2614A      5.260940  2615A      5.263717  
    2616A      5.267949  2617A      5.270078  2618A      5.272653  
    2619A      5.274915  2620A      5.275745  2621A      5.276391  
    2622A      5.280885  2623A      5.282081  2624A      5.283240  
    2625A      5.284407  2626A      5.286414  2627A      5.289050  
    2628A      5.292811  2629A      5.295329  2630A      5.297850  
    2631A      5.299791  2632A      5.301809  2633A      5.304062  
    2634A      5.304992  2635A      5.307953  2636A      5.311368  
    2637A      5.313669  2638A      5.317544  2639A      5.319451  
    2640A      5.319547  2641A      5.323294  2642A      5.329602  
    2643A      5.333560  2644A      5.334188  2645A      5.337906  
    2646A      5.341291  2647A      5.348515  2648A      5.349840  
    2649A      5.353165  2650A      5.357731  2651A      5.361232  
    2652A      5.364858  2653A      5.365575  2654A      5.366701  
    2655A      5.368644  2656A      5.372496  2657A      5.374941  
    2658A      5.376511  2659A      5.380035  2660A      5.382899  
    2661A      5.385524  2662A      5.388194  2663A      5.391527  
    2664A      5.394490  2665A      5.396903  2666A      5.398690  
    2667A      5.401565  2668A      5.402685  2669A      5.405886  
    2670A      5.408945  2671A      5.415792  2672A      5.420262  
    2673A      5.425580  2674A      5.426949  2675A      5.431498  
    2676A      5.432720  2677A      5.434528  2678A      5.437661  
    2679A      5.439298  2680A      5.442057  2681A      5.444771  
    2682A      5.446396  2683A      5.450733  2684A      5.453275  
    2685A      5.456212  2686A      5.457666  2687A      5.460513  
    2688A      5.464306  2689A      5.466291  2690A      5.466889  
    2691A      5.469082  2692A      5.473489  2693A      5.476838  
    2694A      5.479053  2695A      5.481617  2696A      5.482052  
    2697A      5.485272  2698A      5.487683  2699A      5.490600  
    2700A      5.491233  2701A      5.492958  2702A      5.493574  
    2703A      5.495482  2704A      5.496183  2705A      5.499266  
    2706A      5.502790  2707A      5.503578  2708A      5.504496  
    2709A      5.505943  2710A      5.510179  2711A      5.512011  
    2712A      5.516424  2713A      5.516786  2714A      5.519869  
    2715A      5.522384  2716A      5.522784  2717A      5.525828  
    2718A      5.528185  2719A      5.528821  2720A      5.530763  
    2721A      5.530891  2722A      5.535415  2723A      5.537757  
    2724A      5.539786  2725A      5.540577  2726A      5.543801  
    2727A      5.545423  2728A      5.547227  2729A      5.547682  
    2730A      5.550942  2731A      5.554267  2732A      5.555808  
    2733A      5.558928  2734A      5.562398  2735A      5.563045  
    2736A      5.566379  2737A      5.567483  2738A      5.571138  
    2739A      5.572693  2740A      5.577746  2741A      5.579235  
    2742A      5.581850  2743A      5.583811  2744A      5.585072  
    2745A      5.586486  2746A      5.590625  2747A      5.592043  
    2748A      5.595847  2749A      5.598659  2750A      5.599856  
    2751A      5.602582  2752A      5.603901  2753A      5.605754  
    2754A      5.606464  2755A      5.608657  2756A      5.610649  
    2757A      5.614044  2758A      5.617044  2759A      5.619741  
    2760A      5.622867  2761A      5.623281  2762A      5.624253  
    2763A      5.629210  2764A      5.632125  2765A      5.633287  
    2766A      5.636680  2767A      5.638663  2768A      5.640195  
    2769A      5.643056  2770A      5.644480  2771A      5.647382  
    2772A      5.649230  2773A      5.652817  2774A      5.653418  
    2775A      5.656424  2776A      5.657248  2777A      5.662514  
    2778A      5.663508  2779A      5.664239  2780A      5.667022  
    2781A      5.668530  2782A      5.671668  2783A      5.673872  
    2784A      5.677989  2785A      5.679759  2786A      5.680016  
    2787A      5.684000  2788A      5.684545  2789A      5.687897  
    2790A      5.690937  2791A      5.692815  2792A      5.696847  
    2793A      5.698574  2794A      5.701138  2795A      5.702111  
    2796A      5.704893  2797A      5.705859  2798A      5.707397  
    2799A      5.709310  2800A      5.713493  2801A      5.716967  
    2802A      5.721411  2803A      5.723165  2804A      5.726690  
    2805A      5.728386  2806A      5.730638  2807A      5.733261  
    2808A      5.736376  2809A      5.738176  2810A      5.738912  
    2811A      5.744064  2812A      5.748786  2813A      5.755394  
    2814A      5.760032  2815A      5.761459  2816A      5.764524  
    2817A      5.766759  2818A      5.770032  2819A      5.771424  
    2820A      5.773446  2821A      5.776135  2822A      5.779214  
    2823A      5.779319  2824A      5.780887  2825A      5.783360  
    2826A      5.787032  2827A      5.788160  2828A      5.790831  
    2829A      5.792774  2830A      5.799130  2831A      5.800361  
    2832A      5.805906  2833A      5.807779  2834A      5.811789  
    2835A      5.813041  2836A      5.817505  2837A      5.819744  
    2838A      5.822056  2839A      5.826467  2840A      5.830288  
    2841A      5.835423  2842A      5.838331  2843A      5.840263  
    2844A      5.844173  2845A      5.846747  2846A      5.848570  
    2847A      5.852204  2848A      5.855838  2849A      5.858458  
    2850A      5.863058  2851A      5.865282  2852A      5.871131  
    2853A      5.876231  2854A      5.877944  2855A      5.884257  
    2856A      5.888434  2857A      5.894059  2858A      5.895325  
    2859A      5.896836  2860A      5.902880  2861A      5.906862  
    2862A      5.910767  2863A      5.915304  2864A      5.916111  
    2865A      5.919545  2866A      5.923191  2867A      5.926444  
    2868A      5.932346  2869A      5.935723  2870A      5.941498  
    2871A      5.944362  2872A      5.945941  2873A      5.949002  
    2874A      5.951743  2875A      5.952642  2876A      5.958704  
    2877A      5.959221  2878A      5.962261  2879A      5.964422  
    2880A      5.965947  2881A      5.968194  2882A      5.973016  
    2883A      5.975264  2884A      5.977005  2885A      5.980461  
    2886A      5.983633  2887A      5.985306  2888A      5.986199  
    2889A      5.989167  2890A      5.990260  2891A      5.993537  
    2892A      5.996684  2893A      6.000524  2894A      6.002470  
    2895A      6.005383  2896A      6.011493  2897A      6.014185  
    2898A      6.016806  2899A      6.018672  2900A      6.024718  
    2901A      6.025708  2902A      6.026895  2903A      6.029619  
    2904A      6.032197  2905A      6.039367  2906A      6.046158  
    2907A      6.050796  2908A      6.052869  2909A      6.055916  
    2910A      6.056596  2911A      6.061975  2912A      6.062994  
    2913A      6.067951  2914A      6.069416  2915A      6.070226  
    2916A      6.074038  2917A      6.077786  2918A      6.080331  
    2919A      6.082580  2920A      6.086617  2921A      6.087628  
    2922A      6.090865  2923A      6.092149  2924A      6.094643  
    2925A      6.098681  2926A      6.101803  2927A      6.110581  
    2928A      6.115410  2929A      6.118163  2930A      6.118606  
    2931A      6.122523  2932A      6.131102  2933A      6.135878  
    2934A      6.143578  2935A      6.154539  2936A      6.159623  
    2937A      6.167406  2938A      6.171663  2939A      6.173308  
    2940A      6.175159  2941A      6.181043  2942A      6.182847  
    2943A      6.184326  2944A      6.184525  2945A      6.187683  
    2946A      6.192437  2947A      6.208284  2948A      6.211941  
    2949A      6.216436  2950A      6.229322  2951A      6.246677  
    2952A      6.248988  2953A      6.253197  2954A      6.257559  
    2955A      6.262318  2956A      6.267359  2957A      6.268553  
    2958A      6.279329  2959A      6.281782  2960A      6.283326  
    2961A      6.288333  2962A      6.297888  2963A      6.303108  
    2964A      6.306240  2965A      6.313254  2966A      6.314310  
    2967A      6.317052  2968A      6.343203  2969A      6.353007  
    2970A      6.354878  2971A      6.359661  2972A      6.364179  
    2973A      6.367203  2974A      6.371479  2975A      6.378159  
    2976A      6.389091  2977A      6.395729  2978A      6.400002  
    2979A      6.409098  2980A      6.412281  2981A      6.416133  
    2982A      6.421776  2983A      6.424515  2984A      6.425086  
    2985A      6.428892  2986A      6.429354  2987A      6.439500  
    2988A      6.441075  2989A      6.444972  2990A      6.453664  
    2991A      6.456375  2992A      6.461571  2993A      6.471081  
    2994A      6.478032  2995A      6.486456  2996A      6.487423  
    2997A      6.492772  2998A      6.495728  2999A      6.500108  
    3000A      6.502088  3001A      6.509791  3002A      6.512823  
    3003A      6.530106  3004A      6.534227  3005A      6.547801  
    3006A      6.555266  3007A      6.561480  3008A      6.563324  
    3009A      6.574337  3010A      6.579114  3011A      6.582423  
    3012A      6.583256  3013A      6.605174  3014A      6.623508  
    3015A      6.625381  3016A      6.626965  3017A      6.643855  
    3018A      6.651831  3019A      6.652136  3020A      6.655814  
    3021A      6.667412  3022A      6.686871  3023A      6.689680  
    3024A      6.693201  3025A      6.700113  3026A      6.708021  
    3027A      6.718231  3028A      6.732692  3029A      6.739659  
    3030A      6.743270  3031A      6.746119  3032A      6.761462  
    3033A      6.766741  3034A      6.773448  3035A      6.792782  
    3036A      6.797512  3037A      6.817249  3038A      6.833957  
    3039A      6.849672  3040A      6.859718  3041A      6.862363  
    3042A      6.883120  3043A      6.888635  3044A      6.888968  
    3045A      6.894530  3046A      6.899239  3047A      6.902689  
    3048A      6.905357  3049A      6.922600  3050A      6.952301  
    3051A      6.953466  3052A      6.965286  3053A      6.966197  
    3054A      6.973783  3055A      6.978409  3056A      6.983631  
    3057A      6.986979  3058A      7.000785  3059A      7.002520  
    3060A      7.035759  3061A      7.047899  3062A      7.065730  
    3063A      7.068123  3064A      7.072569  3065A      7.075844  
    3066A      7.084204  3067A      7.127920  3068A      7.131120  
    3069A      7.132156  3070A      7.140198  3071A      7.142183  
    3072A      7.147952  3073A      7.152018  3074A      7.154075  
    3075A      7.160975  3076A      7.163586  3077A      7.165079  
    3078A      7.169785  3079A      7.176810  3080A      7.184637  
    3081A      7.186420  3082A      7.191185  3083A      7.204395  
    3084A      7.208077  3085A      7.231119  3086A      7.241317  
    3087A      7.245081  3088A      7.249044  3089A      7.252380  
    3090A      7.268867  3091A      7.279806  3092A      7.287209  
    3093A      7.291534  3094A      7.293762  3095A      7.297956  
    3096A      7.304942  3097A      7.311462  3098A      7.315390  
    3099A      7.323583  3100A      7.328239  3101A      7.336136  
    3102A      7.341382  3103A      7.348344  3104A      7.351562  
    3105A      7.354906  3106A      7.362838  3107A      7.364771  
    3108A      7.368924  3109A      7.379355  3110A      7.385204  
    3111A      7.398351  3112A      7.408927  3113A      7.410769  
    3114A      7.421911  3115A      7.426203  3116A      7.456892  
    3117A      7.492656  3118A      7.497605  3119A      7.502165  
    3120A      7.503721  3121A      7.507544  3122A      7.518428  
    3123A      7.521544  3124A      7.522365  3125A      7.527643  
    3126A      7.528047  3127A      7.543478  3128A      7.546153  
    3129A      7.555160  3130A      7.555544  3131A      7.564919  
    3132A      7.574570  3133A      7.577131  3134A      7.578330  
    3135A      7.580962  3136A      7.584881  3137A      7.588373  
    3138A      7.594803  3139A      7.613772  3140A      7.625476  
    3141A      7.630478  3142A      7.636876  3143A      7.638879  
    3144A      7.645445  3145A      7.660079  3146A      7.662815  
    3147A      7.664003  3148A      7.671637  3149A      7.674217  
    3150A      7.680591  3151A      7.706605  3152A      7.717194  
    3153A      7.723373  3154A      7.724121  3155A      7.727928  
    3156A      7.731902  3157A      7.738287  3158A      7.744114  
    3159A      7.760185  3160A      7.772797  3161A      7.777029  
    3162A      7.779783  3163A      7.785528  3164A      7.796519  
    3165A      7.806493  3166A      7.819948  3167A      7.825205  
    3168A      7.828068  3169A      7.838349  3170A      7.839977  
    3171A      7.842466  3172A      7.864200  3173A      7.894505  
    3174A      7.939014  3175A      7.943589  3176A      7.949919  
    3177A      7.953654  3178A      7.956472  3179A      7.984625  
    3180A      7.997224  3181A      7.999907  3182A      8.004161  
    3183A      8.009844  3184A      8.013127  3185A      8.037449  
    3186A      8.073007  3187A      8.085399  3188A      8.093233  
    3189A      8.096491  3190A      8.099033  3191A      8.101307  
    3192A      8.109484  3193A      8.164621  3194A      8.167464  
    3195A      8.188432  3196A      8.196376  3197A      8.222575  
    3198A      8.225658  3199A      8.228165  3200A      8.231179  
    3201A      8.236334  3202A      8.268313  3203A      8.270573  
    3204A      8.271801  3205A      8.295181  3206A      8.306649  
    3207A      8.335026  3208A      8.340561  3209A      8.346231  
    3210A      8.373646  3211A      8.378903  3212A      8.379918  
    3213A      8.403204  3214A      8.406305  3215A      8.480905  
    3216A      8.485942  3217A      8.486593  3218A      8.489114  
    3219A      8.506999  3220A      8.554243  3221A      8.576435  
    3222A      8.597366  3223A      8.601065  3224A      8.651606  
    3225A      8.655228  3226A      8.665471  3227A      8.667545  
    3228A      8.692000  3229A      8.738284  3230A      8.745509  
    3231A      8.801223  3232A      8.842934  3233A      8.848557  
    3234A      8.887570  3235A      8.909669  3236A      8.917848  
    3237A      8.932304  3238A      9.024527  3239A      9.029575  
    3240A      9.037660  3241A      9.041857  3242A      9.062294  
    3243A      9.109351  3244A      9.222357  3245A      9.275924  
    3246A      9.293928  3247A      9.302232  3248A      9.306980  
    3249A      9.364093  3250A      9.366482  3251A      9.499297  
    3252A      9.504349  3253A      9.524528  3254A      9.619084  
    3255A      9.649552  3256A      9.680754  3257A      9.690986  
    3258A      9.697830  3259A      9.710978  3260A      9.724865  
    3261A      9.792633  3262A      9.794356  3263A      9.811726  
    3264A      9.829773  3265A      9.839799  3266A      9.850808  
    3267A      9.864247  3268A      9.869198  3269A      9.916044  
    3270A      9.921263  3271A      9.923648  3272A      9.973747  
    3273A     10.010688  3274A     10.020444  3275A     10.024882  
    3276A     10.029110  3277A     10.042471  3278A     10.046857  
    3279A     10.143043  3280A     10.148992  3281A     10.155642  
    3282A     10.170569  3283A     10.253647  3284A     10.258612  
    3285A     10.263423  3286A     10.272506  3287A     10.275254  
    3288A     10.281446  3289A     10.334627  3290A     10.336684  
    3291A     10.577884  3292A     10.581348  3293A     10.710192  
    3294A     10.763745  3295A     10.774783  3296A     10.814206  
    3297A     10.823662  3298A     10.982709  3299A     10.986490  
    3300A     11.233094  3301A     11.272676  3302A     11.279290  
    3303A     11.294065  3304A     11.297771  3305A     11.300601  
    3306A     11.356647  3307A     11.370661  3308A     11.395136  
    3309A     11.400325  3310A     11.410548  3311A     11.463132  
    3312A     11.482369  3313A     11.487862  3314A     11.497334  
    3315A     11.506797  3316A     11.571217  3317A     11.687654  
    3318A     11.705046  3319A     11.790800  3320A     11.801980  
    3321A     11.859427  3322A     11.865405  3323A     11.881564  
    3324A     11.895434  3325A     11.914628  3326A     11.920424  
    3327A     11.960771  3328A     11.966527  3329A     11.996298  
    3330A     12.023821  3331A     12.079650  3332A     12.085326  
    3333A     12.172250  3334A     12.189970  3335A     12.280515  
    3336A     12.301543  3337A     12.303716  3338A     12.318839  
    3339A     12.450915  3340A     12.485249  3341A     12.495518  
    3342A     12.518844  3343A     12.530135  3344A     12.544038  
    3345A     12.581629  3346A     12.623414  3347A     12.644567  
    3348A     12.661188  3349A     12.767406  3350A     12.784803  
    3351A     12.902074  3352A     12.933800  3353A     12.955292  
    3354A     16.007711  3355A     16.130388  3356A     16.479407  
    3357A     17.710485  3358A     18.502576  3359A     19.073311  
    3360A     19.556494  3361A     19.805565  3362A     20.442915  
    3363A     21.222213  3364A     49.905603  3365A     49.987308  
    3366A     50.209607  3367A     50.523202  3368A     53.013779  
    3369A     53.110738  3370A     53.187131  3371A     53.258179  
    3372A     53.380166  3373A     53.388744  3374A     53.412712  
    3375A     53.425801  3376A     55.036398  3377A     55.059829  
    3378A     56.004703  3379A     56.615794  3380A     56.644436  
    3381A     56.698609  3382A     57.115190  3383A     57.174776  
    3384A     57.401883  3385A     58.006696  3386A     58.900848  
    3387A     59.014047  3388A     59.970447  3389A     60.018482  
    3390A     60.077825  3391A     60.114879  3392A     60.139403  
    3393A     60.422445  3394A     60.480686  3395A     60.857067  
    3396A     61.152661  3397A     61.857584  3398A     62.312975  
    3399A     62.373606  3400A     62.709681  3401A     62.762632  
    3402A     62.841251  3403A     63.634810  3404A     63.668985  
    3405A     63.754885  3406A     63.835538  3407A     64.001394  
    3408A     64.134277  3409A     64.343594  3410A     64.469576  
    3411A     64.942517  3412A     65.019593  3413A     65.116505  
    3414A     65.165578  3415A     65.448734  3416A     65.635710  
    3417A     65.696967  

    Final Occupation by Irrep:
              A 
    DOCC [    35 ]
    NA   [    35 ]
    NB   [    35 ]

  @DF-RKS Final Energy:  -467.35703527604056

   => Energetics <=

    Nuclear Repulsion Energy =            501.2235938577680372
    One-Electron Energy =               -1626.2385845474823327
    Two-Electron Energy =                 701.8274755437153090
    DFT Exchange-Correlation Energy =     -44.4355681624133609
    Empirical Dispersion Energy =           0.0000000000000000
    VV10 Nonlocal Energy =                  0.2660480323717722
    Total Energy =                       -467.3570352760405626

Computation Completed


Properties will be evaluated at   0.000000,   0.000000,   0.000000 [a0]

Properties computed using the SCF density matrix


 Multipole Moments:

 ------------------------------------------------------------------------------------
     Multipole            Electronic (a.u.)      Nuclear  (a.u.)        Total (a.u.)
 ------------------------------------------------------------------------------------

 L = 1.  Multiply by 2.5417464519 to convert [e a0] to [Debye]
 Dipole X            :        114.4243953         -113.7955279            0.6288674
 Dipole Y            :         24.8149367          -25.5453178           -0.7303812
 Dipole Z            :       -346.5059969          346.1411344           -0.3648626
 Magnitude           :                                                    1.0305608

 ------------------------------------------------------------------------------------

*** tstop() called on atl1-1-03-004-18-1.pace.gatech.edu at Sat Jun 13 17:18:02 2026
Module time:
	user time   =  100016.71 seconds =    1666.95 minutes
	system time =    6058.82 seconds =     100.98 minutes
	total time  =      15629 seconds =     260.48 minutes
Total time:
	user time   =  100016.71 seconds =    1666.95 minutes
	system time =    6058.82 seconds =     100.98 minutes
	total time  =      15629 seconds =     260.48 minutes

    Psi4 stopped on: Saturday, 13 June 2026 05:18PM
    Psi4 wall time for execution: 4:20:48.96

*** Psi4 exiting successfully. Buy a developer a beer!
