
    -----------------------------------------------------------------------
          Psi4: An Open-Source Ab Initio Electronic Structure Package
                               Psi4 1.9.1 release

                         Git: Rev {} zzzzzzz 


    D. G. A. Smith, L. A. Burns, A. C. Simmonett, R. M. Parrish,
    M. C. Schieber, R. Galvelis, P. Kraus, H. Kruse, R. Di Remigio,
    A. Alenaizan, A. M. James, S. Lehtola, J. P. Misiewicz, M. Scheurer,
    R. A. Shaw, J. B. Schriber, Y. Xie, Z. L. Glick, D. A. Sirianni,
    J. S. O'Brien, J. M. Waldrop, A. Kumar, E. G. Hohenstein,
    B. P. Pritchard, B. R. Brooks, H. F. Schaefer III, A. Yu. Sokolov,
    K. Patkowski, A. E. DePrince III, U. Bozkaya, R. A. King,
    F. A. Evangelista, J. M. Turney, T. D. Crawford, C. D. Sherrill,
    J. Chem. Phys. 152(18) 184108 (2020). https://doi.org/10.1063/5.0006002

                            Additional Code Authors
    E. T. Seidl, C. L. Janssen, E. F. Valeev, M. L. Leininger,
    J. F. Gonthier, R. M. Richard, H. R. McAlexander, M. Saitow, X. Wang,
    P. Verma, M. H. Lechner, A. Jiang, S. Behnle, A. G. Heide,
    M. F. Herbst, and D. L. Poole

             Previous Authors, Complete List of Code Contributors,
                       and Citations for Specific Modules
    https://github.com/psi4/psi4/blob/master/codemeta.json
    https://github.com/psi4/psi4/graphs/contributors
    http://psicode.org/psi4manual/master/introduction.html#citing-psifour

    -----------------------------------------------------------------------


    Psi4 started on: Saturday, 13 June 2026 01:23PM

    Process ID: 382260
    Host:       atl1-1-03-004-8-2.pace.gatech.edu
    PSIDATADIR: /storage/home/hcoda1/5/vlita3/.conda/envs/p4_qcml/share/psi4
    Memory:     250.0 GiB
    Threads:    10
    
  ==> Input QCSchema <==

--------------------------------------------------------------------------
{'driver': 'energy',
 'extras': {},
 'id': '249',
 'keywords': {},
 'model': {'basis': 'aug-cc-pvtz', 'method': 'wb97x-v'},
 'molecule': {'extras': {},
              'fix_com': True,
              'fix_orientation': True,
              'fragment_charges': [0.0, 0.0],
              'fragment_multiplicities': [1, 1],
              'fragments': [[0, 1, 2, 3, 4, 5, 6, 7, 8, 9, 10, 11, 12, 13, 14, 15, 16, 17, 18, 19, 20, 21, 22, 23, 24,
                             25, 26, 27, 28, 29, 30, 31, 32, 33, 34, 35],
                            [36, 37, 38, 39, 40, 41, 42, 43, 44, 45, 46, 47, 48, 49, 50, 51, 52, 53, 54, 55, 56, 57, 58,
                             59, 60, 61, 62, 63, 64, 65, 66, 67, 68, 69, 70, 71]],
              'geometry': [-2.81102804, -2.32727976, -3.26733672, -0.12371685, -2.32727976, -3.26733672, 1.21993874,
                           0.0, -3.26733672, -0.12371685, 2.32727976, -3.26733672, -2.81102804, 2.32727976, -3.26733672,
                           -4.15468364, 0.0, -3.26733672, 1.21375609, -4.64385085, -3.26733672, -0.17645855,
                           -6.93684965, -3.26733672, -2.75828635, -6.93684965, -3.26733672, -4.14850099, -4.64385085,
                           -3.26733672, -6.82962953, 0.0, -3.26733672, -8.12031742, -2.3504606, -3.26733672,
                           -6.82940352, -4.58638906, -3.26733672, -8.12031742, 2.3504606, -3.26733672, -6.82940352,
                           4.58638906, -3.26733672, -4.14850099, 4.64385085, -3.26733672, -2.75828635, 6.93684965,
                           -3.26733672, -0.17645855, 6.93684965, -3.26733672, 1.21375609, 4.64385085, -3.26733672,
                           3.89465863, 4.58638906, -3.26733672, 5.18557252, 2.3504606, -3.26733672, 3.89488463, 0.0,
                           -3.26733672, 5.18557252, -2.3504606, -3.26733672, 3.89465863, -4.58638906, -3.26733672,
                           0.84958395, -8.70675598, -3.26733672, -3.78432885, -8.70675598, -3.26733672, -7.84916611,
                           -6.35992109, -3.26733672, -10.16612251, -2.34683489, -3.26733672, -10.16612251, 2.34683489,
                           -3.26733672, -7.84916611, 6.35992109, -3.26733672, -3.78432885, 8.70675598, -3.26733672,
                           0.84958395, 8.70675598, -3.26733672, 4.91442121, 6.35992109, -3.26733672, 7.23137761,
                           2.34683489, -3.26733672, 7.23137761, -2.34683489, -3.26733672, 4.91442121, -6.35992109,
                           -3.26733672, 0.12371685, -2.32727976, 3.26733672, 2.81102804, -2.32727976, 3.26733672,
                           4.15468364, 0.0, 3.26733672, 2.81102804, 2.32727976, 3.26733672, 0.12371685, 2.32727976,
                           3.26733672, -1.21993874, 0.0, 3.26733672, 4.14850099, -4.64385085, 3.26733672, 2.75828635,
                           -6.93684965, 3.26733672, 0.17645855, -6.93684965, 3.26733672, -1.21375609, -4.64385085,
                           3.26733672, -3.89488463, 0.0, 3.26733672, -5.18557252, -2.3504606, 3.26733672, -3.89465863,
                           -4.58638906, 3.26733672, -5.18557252, 2.3504606, 3.26733672, -3.89465863, 4.58638906,
                           3.26733672, -1.21375609, 4.64385085, 3.26733672, 0.17645855, 6.93684965, 3.26733672,
                           2.75828635, 6.93684965, 3.26733672, 4.14850099, 4.64385085, 3.26733672, 6.82940352,
                           4.58638906, 3.26733672, 8.12031742, 2.3504606, 3.26733672, 6.82962953, 0.0, 3.26733672,
                           8.12031742, -2.3504606, 3.26733672, 6.82940352, -4.58638906, 3.26733672, 3.78432885,
                           -8.70675598, 3.26733672, -0.84958395, -8.70675598, 3.26733672, -4.91442121, -6.35992109,
                           3.26733672, -7.23137761, -2.34683489, 3.26733672, -7.23137761, 2.34683489, 3.26733672,
                           -4.91442121, 6.35992109, 3.26733672, -0.84958395, 8.70675598, 3.26733672, 3.78432885,
                           8.70675598, 3.26733672, 7.84916611, 6.35992109, 3.26733672, 10.16612251, 2.34683489,
                           3.26733672, 10.16612251, -2.34683489, 3.26733672, 7.84916611, -6.35992109, 3.26733672],
              'id': 2,
              'identifiers': {'molecular_formula': 'C48H24',
                              'molecule_hash': '5e8f6cf798e5af2fc45ad63c8cba340f6c4842b2'},
              'molecular_charge': 0.0,
              'molecular_multiplicity': 1,
              'name': 'C48H24',
              'provenance': {'creator': 'QCElemental',
                             'routine': 'qcelemental.molparse.from_string',
                             'version': '0.29.0'},
              'schema_name': 'qcschema_molecule',
              'schema_version': 2,
              'symbols': ['C', 'C', 'C', 'C', 'C', 'C', 'C', 'C', 'C', 'C', 'C', 'C', 'C', 'C', 'C', 'C', 'C', 'C', 'C',
                          'C', 'C', 'C', 'C', 'C', 'H', 'H', 'H', 'H', 'H', 'H', 'H', 'H', 'H', 'H', 'H', 'H', 'C', 'C',
                          'C', 'C', 'C', 'C', 'C', 'C', 'C', 'C', 'C', 'C', 'C', 'C', 'C', 'C', 'C', 'C', 'C', 'C', 'C',
                          'C', 'C', 'C', 'H', 'H', 'H', 'H', 'H', 'H', 'H', 'H', 'H', 'H', 'H', 'H'],
              'validated': True},
 'protocols': {},
 'provenance': {'creator': 'QCElemental', 'routine': 'qcelemental.models.results', 'version': '0.29.0'},
 'schema_name': 'qcschema_input',
 'schema_version': 1}
--------------------------------------------------------------------------

Scratch directory: /tmp/tmpd9li1kmj_psi_scratch/
   => Libint2 <=

    Primary   basis highest AM E, G, H:  6, 6, 3
    Auxiliary basis highest AM E, G, H:  7, 7, 4
    Onebody   basis highest AM E, G, H:  -, -, -
    Solid Harmonics ordering:            Gaussian

*** tstart() called on atl1-1-03-004-8-2.pace.gatech.edu
*** at Sat Jun 13 13:23:39 2026

   => Loading Basis Set <=

    Name: AUG-CC-PVTZ
    Role: ORBITAL
    Keyword: BASIS
    atoms 1-24, 37-60  entry C          line   239 file /storage/home/hcoda1/5/vlita3/.conda/envs/p4_qcml/share/psi4/basis/aug-cc-pvtz.gbs 
    atoms 25-36, 61-72 entry H          line    40 file /storage/home/hcoda1/5/vlita3/.conda/envs/p4_qcml/share/psi4/basis/aug-cc-pvtz.gbs 


         ---------------------------------------------------------
                                   SCF
               by Justin Turney, Rob Parrish, Andy Simmonett
                          and Daniel G. A. Smith
                              RKS Reference
                       10 Threads, 256000 MiB Core
         ---------------------------------------------------------

  ==> Geometry <==

    Molecular point group: c2h
    Full point group: C2h

    Geometry (in Bohr), charge = 0, multiplicity = 1:

       Center              X                  Y                   Z               Mass       
    ------------   -----------------  -----------------  -----------------  -----------------
         C           -2.811028040000    -2.327279760000    -3.267336720000    12.000000000000
         C           -0.123716850000    -2.327279760000    -3.267336720000    12.000000000000
         C            1.219938740000     0.000000000000    -3.267336720000    12.000000000000
         C           -0.123716850000     2.327279760000    -3.267336720000    12.000000000000
         C           -2.811028040000     2.327279760000    -3.267336720000    12.000000000000
         C           -4.154683640000     0.000000000000    -3.267336720000    12.000000000000
         C            1.213756090000    -4.643850850000    -3.267336720000    12.000000000000
         C           -0.176458550000    -6.936849650000    -3.267336720000    12.000000000000
         C           -2.758286350000    -6.936849650000    -3.267336720000    12.000000000000
         C           -4.148500990000    -4.643850850000    -3.267336720000    12.000000000000
         C           -6.829629530000     0.000000000000    -3.267336720000    12.000000000000
         C           -8.120317420000    -2.350460600000    -3.267336720000    12.000000000000
         C           -6.829403520000    -4.586389060000    -3.267336720000    12.000000000000
         C           -8.120317420000     2.350460600000    -3.267336720000    12.000000000000
         C           -6.829403520000     4.586389060000    -3.267336720000    12.000000000000
         C           -4.148500990000     4.643850850000    -3.267336720000    12.000000000000
         C           -2.758286350000     6.936849650000    -3.267336720000    12.000000000000
         C           -0.176458550000     6.936849650000    -3.267336720000    12.000000000000
         C            1.213756090000     4.643850850000    -3.267336720000    12.000000000000
         C            3.894658630000     4.586389060000    -3.267336720000    12.000000000000
         C            5.185572520000     2.350460600000    -3.267336720000    12.000000000000
         C            3.894884630000     0.000000000000    -3.267336720000    12.000000000000
         C            5.185572520000    -2.350460600000    -3.267336720000    12.000000000000
         C            3.894658630000    -4.586389060000    -3.267336720000    12.000000000000
         H            0.849583950000    -8.706755980000    -3.267336720000     1.007825032230
         H           -3.784328850000    -8.706755980000    -3.267336720000     1.007825032230
         H           -7.849166110000    -6.359921090000    -3.267336720000     1.007825032230
         H          -10.166122510000    -2.346834890000    -3.267336720000     1.007825032230
         H          -10.166122510000     2.346834890000    -3.267336720000     1.007825032230
         H           -7.849166110000     6.359921090000    -3.267336720000     1.007825032230
         H           -3.784328850000     8.706755980000    -3.267336720000     1.007825032230
         H            0.849583950000     8.706755980000    -3.267336720000     1.007825032230
         H            4.914421210000     6.359921090000    -3.267336720000     1.007825032230
         H            7.231377610000     2.346834890000    -3.267336720000     1.007825032230
         H            7.231377610000    -2.346834890000    -3.267336720000     1.007825032230
         H            4.914421210000    -6.359921090000    -3.267336720000     1.007825032230
         C            0.123716850000    -2.327279760000     3.267336720000    12.000000000000
         C            2.811028040000    -2.327279760000     3.267336720000    12.000000000000
         C            4.154683640000     0.000000000000     3.267336720000    12.000000000000
         C            2.811028040000     2.327279760000     3.267336720000    12.000000000000
         C            0.123716850000     2.327279760000     3.267336720000    12.000000000000
         C           -1.219938740000     0.000000000000     3.267336720000    12.000000000000
         C            4.148500990000    -4.643850850000     3.267336720000    12.000000000000
         C            2.758286350000    -6.936849650000     3.267336720000    12.000000000000
         C            0.176458550000    -6.936849650000     3.267336720000    12.000000000000
         C           -1.213756090000    -4.643850850000     3.267336720000    12.000000000000
         C           -3.894884630000     0.000000000000     3.267336720000    12.000000000000
         C           -5.185572520000    -2.350460600000     3.267336720000    12.000000000000
         C           -3.894658630000    -4.586389060000     3.267336720000    12.000000000000
         C           -5.185572520000     2.350460600000     3.267336720000    12.000000000000
         C           -3.894658630000     4.586389060000     3.267336720000    12.000000000000
         C           -1.213756090000     4.643850850000     3.267336720000    12.000000000000
         C            0.176458550000     6.936849650000     3.267336720000    12.000000000000
         C            2.758286350000     6.936849650000     3.267336720000    12.000000000000
         C            4.148500990000     4.643850850000     3.267336720000    12.000000000000
         C            6.829403520000     4.586389060000     3.267336720000    12.000000000000
         C            8.120317420000     2.350460600000     3.267336720000    12.000000000000
         C            6.829629530000     0.000000000000     3.267336720000    12.000000000000
         C            8.120317420000    -2.350460600000     3.267336720000    12.000000000000
         C            6.829403520000    -4.586389060000     3.267336720000    12.000000000000
         H            3.784328850000    -8.706755980000     3.267336720000     1.007825032230
         H           -0.849583950000    -8.706755980000     3.267336720000     1.007825032230
         H           -4.914421210000    -6.359921090000     3.267336720000     1.007825032230
         H           -7.231377610000    -2.346834890000     3.267336720000     1.007825032230
         H           -7.231377610000     2.346834890000     3.267336720000     1.007825032230
         H           -4.914421210000     6.359921090000     3.267336720000     1.007825032230
         H           -0.849583950000     8.706755980000     3.267336720000     1.007825032230
         H            3.784328850000     8.706755980000     3.267336720000     1.007825032230
         H            7.849166110000     6.359921090000     3.267336720000     1.007825032230
         H           10.166122510000     2.346834890000     3.267336720000     1.007825032230
         H           10.166122510000    -2.346834890000     3.267336720000     1.007825032230
         H            7.849166110000    -6.359921090000     3.267336720000     1.007825032230

  Running in c2h symmetry.

  Rotational constants: A =      0.00378  B =      0.00326  C =      0.00251 [cm^-1]
  Rotational constants: A =    113.23902  B =     97.86670  C =     75.24221 [MHz]
  Nuclear repulsion = 6088.170067665134411

  Charge       = 0
  Multiplicity = 1
  Electrons    = 312
  Nalpha       = 156
  Nbeta        = 156

  ==> Algorithm <==

  SCF Algorithm Type is DF.
  DIIS enabled.
  MOM disabled.
  Fractional occupation disabled.
  Guess Type is SAD.
  Energy threshold   = 1.00e-06
  Density threshold  = 1.00e-06
  Integral threshold = 1.00e-12

  ==> Primary Basis <==

  Basis Set: AUG-CC-PVTZ
    Blend: AUG-CC-PVTZ
    Number of shells: 888
    Number of basis functions: 2760
    Number of Cartesian functions: 3240
    Spherical Harmonics?: true
    Max angular momentum: 3

  ==> DFT Potential <==

   => LibXC <=

    Version 7.0.0
    S. Lehtola, C. Steigemann, M. J.T. Oliveira, and M. A.L. Marques.,  SoftwareX 7, 1–5 (2018) (10.1016/j.softx.2017.11.002)

   => Composite Functional: WB97X-V <= 

    wB97X-V Hyb-GGA Exchange-Correlation Functional

    N. Mardirossian and M. Head-Gordon.,  Phys. Chem. Chem. Phys. 16, 9904-9924 (2014) (10.1039/C3CP54374A)

    Deriv               =              1
    GGA                 =           TRUE
    Meta                =          FALSE

    Exchange Hybrid     =           TRUE
    MP2 Hybrid          =          FALSE

   => Exchange-Correlation Functionals <=

    1.0000   wB97X-V range-separated functional

   => Exact (HF) Exchange <=

    0.8330            HF,LR [omega = 0.3000]
    0.1670               HF 

   => LibXC Density Thresholds  <==

    XC_HYB_GGA_XC_WB97X_V:  1.00E-14 

   => VV10 Non-Local Parameters <=

    VV10 B              =     6.0000E+00
    VV10 C              =     1.0000E-02

   => Molecular Quadrature <=

    Radial Scheme          =       TREUTLER
    Pruning Scheme         =           NONE
    Nuclear Scheme         =       TREUTLER

    Blocking Scheme        =         OCTREE
    BS radius alpha        =              1
    Pruning alpha          =              1
    Radial Points          =             75
    Spherical Points       =            302
    Total Points           =        1423706
    Total Blocks           =           9482
    Max Points             =            256
    Max Functions          =           2109
    Weights Tolerance      =       1.00E-15

   => Loading Basis Set <=

    Name: (AUG-CC-PVTZ AUX)
    Role: JKFIT
    Keyword: DF_BASIS_SCF
    atoms 1-24, 37-60  entry C          line   162 file /storage/home/hcoda1/5/vlita3/.conda/envs/p4_qcml/share/psi4/basis/aug-cc-pvtz-jkfit.gbs 
    atoms 25-36, 61-72 entry H          line    70 file /storage/home/hcoda1/5/vlita3/.conda/envs/p4_qcml/share/psi4/basis/aug-cc-pvtz-jkfit.gbs 

  ==> Integral Setup <==

  ==> DiskDFJK: Density-Fitted J/K Matrices <==

    J tasked:                  Yes
    K tasked:                  Yes
    wK tasked:                 Yes
    Omega:               3.000E-01
    OpenMP threads:             10
    Integrals threads:          10
    Memory [MiB]:           147036
    Algorithm:                Disk
    Integral Cache:           NONE
    Schwarz Cutoff:          1E-12
    Fitting Condition:       1E-10

   => Auxiliary Basis Set <=

  Basis Set: (AUG-CC-PVTZ AUX)
    Blend: AUG-CC-PVTZ-JKFIT
    Number of shells: 1776
    Number of basis functions: 6096
    Number of Cartesian functions: 7608
    Spherical Harmonics?: true
    Max angular momentum: 4

  Cached 50.0% of DFT collocation blocks in 28.297 [GiB].

  Minimum eigenvalue in the overlap matrix is 1.3049964763E-10.
  Reciprocal condition number of the overlap matrix is 4.3273072668E-12.
    Using canonical orthogonalization.
  Overall, 31 of 2760 possible MOs eliminated.


  ==> Pre-Iterations <==

  SCF Guess: Superposition of Atomic Densities via on-the-fly atomic UHF (no occupation information).

   -------------------------
    Irrep   Nso     Nmo    
   -------------------------
     Ag       718     710 
     Bg       662     655 
     Au       662     654 
     Bu       718     710 
   -------------------------
    Total    2760    2729
   -------------------------

  ==> Iterations <==

                           Total Energy        Delta E     RMS |[F,P]|

   @DF-RKS iter SAD: -1847.02420106069508   -1.84702e+03   0.00000e+00 
   @DF-RKS iter   1: -1842.60266616039758    4.42153e+00   1.14459e-03 DIIS/ADIIS
   @DF-RKS iter   2: -1843.33905831891934   -7.36392e-01   7.73156e-04 DIIS/ADIIS
   @DF-RKS iter   3: -1843.85190028470743   -5.12842e-01   2.55327e-04 DIIS/ADIIS
   @DF-RKS iter   4: -1843.90658165532841   -5.46814e-02   8.17633e-05 DIIS
   @DF-RKS iter   5: -1843.91285225724778   -6.27060e-03   2.32045e-05 DIIS
   @DF-RKS iter   6: -1843.91336986808733   -5.17611e-04   6.30362e-06 DIIS
   @DF-RKS iter   7: -1843.91342798773508   -5.81196e-05   1.57285e-06 DIIS
   @DF-RKS iter   8: -1843.91343976081293   -1.17731e-05   9.78868e-07 DIIS
   @DF-RKS iter   9: -1843.91344252639669   -2.76558e-06   4.74734e-07 DIIS
   @DF-RKS iter  10: -1843.91344319437462   -6.67978e-07   1.50474e-07 DIIS
  Energy and wave function converged.


  ==> Post-Iterations <==

   Electrons on quadrature grid:
      Ntotal   =  312.0005980284 ; deviation = 5.980e-04 

    Orbital Energies [Eh]
    ---------------------

    Doubly Occupied:                                                      

       1Ag   -10.285575     1Bu   -10.285574     2Ag   -10.285143  
       2Bu   -10.285142     1Au   -10.285024     1Bg   -10.285023  
       3Bu   -10.284932     3Ag   -10.284932     2Bg   -10.284459  
       2Au   -10.284458     4Bu   -10.284443     4Ag   -10.284443  
       5Bu   -10.284014     5Ag   -10.284014     3Au   -10.284001  
       3Bg   -10.284000     6Ag   -10.283626     6Bu   -10.283626  
       4Bg   -10.283408     4Au   -10.283408     7Bu   -10.283396  
       7Ag   -10.283395     8Bu   -10.282883     8Ag   -10.282883  
       5Bg   -10.278137     5Au   -10.278136     9Bu   -10.278116  
       9Ag   -10.278115     6Au   -10.277264     6Bg   -10.277263  
      10Ag   -10.277262    10Bu   -10.277262    11Bu   -10.276874  
      11Ag   -10.276871     7Bg   -10.276870     7Au   -10.276870  
      12Bu   -10.275962    12Ag   -10.275962     8Au   -10.275952  
       8Bg   -10.275952     9Au   -10.275257     9Bg   -10.275256  
      13Ag   -10.275242    13Bu   -10.275241    10Au   -10.274070  
      10Bg   -10.274069    14Ag   -10.274064    14Bu   -10.274064  
      15Ag    -1.047882    15Bu    -1.043217    11Au    -1.009653  
      16Bu    -1.008937    16Ag    -1.005996    11Bg    -1.005346  
      17Ag    -0.959863    12Bg    -0.959793    17Bu    -0.957338  
      12Au    -0.957157    18Ag    -0.942468    18Bu    -0.940103  
      13Au    -0.909557    13Bg    -0.907854    19Bu    -0.893643  
      19Ag    -0.892226    14Au    -0.875770    20Ag    -0.874420  
      20Bu    -0.874375    14Bg    -0.873293    21Ag    -0.841566  
      15Au    -0.840698    15Bg    -0.840405    21Bu    -0.839869  
      16Bg    -0.760032    22Ag    -0.759590    22Bu    -0.759533  
      16Au    -0.759164    23Ag    -0.755437    17Au    -0.755342  
      23Bu    -0.754884    17Bg    -0.754776    24Ag    -0.748399  
      24Bu    -0.747927    18Au    -0.680980    18Bg    -0.680689  
      25Bu    -0.672958    25Ag    -0.672757    19Au    -0.657081  
      26Ag    -0.656465    26Bu    -0.655823    19Bg    -0.655657  
      20Au    -0.654557    20Bg    -0.654242    27Bu    -0.631472  
      27Ag    -0.631328    28Ag    -0.587453    21Au    -0.586884  
      21Bg    -0.586365    28Bu    -0.586249    29Ag    -0.569052  
      22Bg    -0.568592    29Bu    -0.568473    22Au    -0.568421  
      30Ag    -0.568138    23Bg    -0.565530    30Bu    -0.565221  
      23Au    -0.565040    31Ag    -0.564987    31Bu    -0.536435  
      32Ag    -0.535080    32Bu    -0.533373    24Au    -0.526927  
      33Ag    -0.526859    24Bg    -0.526326    33Bu    -0.526286  
      25Au    -0.522430    25Bg    -0.522331    26Au    -0.519335  
      34Bu    -0.511704    35Bu    -0.506353    26Bg    -0.505984  
      27Au    -0.505800    34Ag    -0.505800    35Ag    -0.491442  
      27Bg    -0.486927    36Bu    -0.476448    36Ag    -0.476067  
      28Au    -0.475913    28Bg    -0.475764    29Au    -0.459899  
      29Bg    -0.459788    37Ag    -0.459564    37Bu    -0.459475  
      30Au    -0.459427    30Bg    -0.459123    38Ag    -0.450169  
      31Bg    -0.448272    38Bu    -0.430194    31Au    -0.428533  
      39Ag    -0.426495    32Bg    -0.411252    32Au    -0.411062  
      40Ag    -0.411039    39Bu    -0.410905    40Bu    -0.409073  
      33Au    -0.374766    41Bu    -0.363097    33Bg    -0.360268  
      41Ag    -0.353976    34Au    -0.348367    42Ag    -0.338358  
      42Bu    -0.337450    34Bg    -0.330928    43Ag    -0.284170  
      35Au    -0.277881    35Bg    -0.273091    43Bu    -0.268465  

    Virtual:                                                              

      36Au     0.003364    44Ag     0.003758    36Bg     0.011179  
      44Bu     0.011752    45Ag     0.025446    37Au     0.025941  
      45Bu     0.026172    37Bg     0.032997    46Ag     0.033492  
      46Bu     0.036620    38Bg     0.041500    47Ag     0.041673  
      47Bu     0.043723    38Au     0.044610    48Bu     0.047793  
      39Au     0.049429    39Bg     0.049599    48Ag     0.052428  
      49Bu     0.057720    49Ag     0.057806    40Bg     0.058844  
      50Ag     0.060956    40Au     0.061928    51Ag     0.064917  
      41Bg     0.066429    50Bu     0.072822    51Bu     0.073789  
      41Au     0.074656    52Ag     0.074704    52Bu     0.075513  
      42Au     0.075747    53Bu     0.080456    54Bu     0.084214  
      43Au     0.084336    44Au     0.090614    53Ag     0.092362  
      55Bu     0.092780    42Bg     0.093143    43Bg     0.093983  
      54Ag     0.096639    44Bg     0.096808    55Ag     0.098982  
      56Ag     0.099255    45Bg     0.100439    57Ag     0.102303  
      46Bg     0.103940    56Bu     0.104068    45Au     0.104185  
      47Bg     0.107131    57Bu     0.110607    58Ag     0.111215  
      46Au     0.111556    48Bg     0.114176    59Ag     0.114365  
      58Bu     0.114379    47Au     0.117136    59Bu     0.119371  
      48Au     0.120090    49Au     0.120922    60Bu     0.122069  
      50Au     0.122922    60Ag     0.124213    61Ag     0.126417  
      61Bu     0.126554    51Au     0.127706    49Bg     0.127712  
      62Bu     0.129329    50Bg     0.139024    62Ag     0.140705  
      63Ag     0.143200    63Bu     0.145500    52Au     0.146738  
      64Bu     0.148363    51Bg     0.149914    64Ag     0.151256  
      65Bu     0.152948    52Bg     0.153855    65Ag     0.155963  
      53Au     0.157485    53Bg     0.157560    66Bu     0.158958  
      54Bg     0.159659    54Au     0.161654    66Ag     0.162015  
      67Ag     0.164163    68Ag     0.164878    55Bg     0.166980  
      67Bu     0.168749    69Ag     0.170590    55Au     0.174140  
      68Bu     0.175496    70Ag     0.176679    69Bu     0.179044  
      56Au     0.180046    71Ag     0.180466    70Bu     0.182452  
      57Au     0.183195    56Bg     0.183418    71Bu     0.183984  
      57Bg     0.187688    72Ag     0.188372    58Au     0.191130  
      58Bg     0.193072    72Bu     0.194196    59Au     0.194596  
      73Bu     0.196391    73Ag     0.197541    74Bu     0.199351  
      60Au     0.201847    59Bg     0.201949    75Bu     0.204742  
      61Au     0.204852    62Au     0.205585    60Bg     0.207052  
      74Ag     0.209045    61Bg     0.211258    76Bu     0.212469  
      75Ag     0.214490    76Ag     0.217629    77Bu     0.218550  
      62Bg     0.220301    77Ag     0.220928    63Au     0.221971  
      63Bg     0.222180    78Ag     0.223642    78Bu     0.224516  
      64Bg     0.227253    79Bu     0.228828    64Au     0.232289  
      65Au     0.232831    79Ag     0.232851    80Bu     0.233061  
      65Bg     0.233501    80Ag     0.235385    81Ag     0.240051  
      66Bg     0.241029    82Ag     0.241444    67Bg     0.242127  
      66Au     0.242216    83Ag     0.243917    81Bu     0.244495  
      82Bu     0.245046    68Bg     0.247835    67Au     0.248242  
      83Bu     0.249362    68Au     0.252636    69Bg     0.252767  
      69Au     0.252970    84Bu     0.253545    84Ag     0.253834  
      85Ag     0.254134    85Bu     0.256275    86Ag     0.256766  
      86Bu     0.260124    70Bg     0.260523    87Ag     0.260776  
      70Au     0.261857    88Ag     0.262496    71Bg     0.263750  
      71Au     0.264378    87Bu     0.264652    89Ag     0.265726  
      72Au     0.266171    88Bu     0.268415    89Bu     0.270329  
      72Bg     0.271936    73Au     0.272002    90Ag     0.272388  
      73Bg     0.272594    90Bu     0.276980    74Au     0.277077  
      74Bg     0.277983    91Ag     0.280287    75Bg     0.280402  
      75Au     0.281346    91Bu     0.284112    92Ag     0.284495  
      76Au     0.289014    92Bu     0.291544    93Ag     0.292796  
      76Bg     0.292874    77Au     0.293514    94Ag     0.296181  
      93Bu     0.296198    77Bg     0.297033    95Ag     0.297295  
      94Bu     0.300186    78Au     0.301183    96Ag     0.303455  
      78Bg     0.304305    97Ag     0.304735    79Bg     0.306784  
      79Au     0.308658    80Bg     0.309200    98Ag     0.309464  
      80Au     0.310742    95Bu     0.311371    96Bu     0.313466  
      99Ag     0.315473    81Au     0.315618    97Bu     0.316184  
      98Bu     0.318956    81Bg     0.320700    82Au     0.321076  
     100Ag     0.321898    83Au     0.322083    82Bg     0.325574  
      99Bu     0.326946   100Bu     0.327773   101Ag     0.329500  
      83Bg     0.331926    84Au     0.333499   101Bu     0.334795  
      84Bg     0.336607   102Ag     0.339185   102Bu     0.339632  
     103Ag     0.341505    85Au     0.342037   103Bu     0.343705  
      85Bg     0.344706   104Bu     0.345860   104Ag     0.347270  
     105Bu     0.348543    86Au     0.348838    86Bg     0.351023  
      87Au     0.352505   105Ag     0.353094   106Bu     0.353560  
     107Bu     0.354982    88Au     0.355150   106Ag     0.356955  
      89Au     0.358997    87Bg     0.359087   108Bu     0.361400  
     107Ag     0.361834    90Au     0.365726    88Bg     0.366358  
      89Bg     0.368670   108Ag     0.369445    91Au     0.371088  
     109Ag     0.371327    90Bg     0.372748   109Bu     0.374623  
      92Au     0.375504   110Bu     0.375757   110Ag     0.376730  
      91Bg     0.378243   111Ag     0.380912   111Bu     0.381563  
     112Bu     0.384329    93Au     0.384707    92Bg     0.385710  
      94Au     0.387519    93Bg     0.388261   112Ag     0.388278  
     113Bu     0.388749   113Ag     0.389392    94Bg     0.389875  
     114Ag     0.392802    95Au     0.393913   114Bu     0.396069  
     115Ag     0.397662   115Bu     0.399194    96Au     0.400729  
     116Bu     0.402369   116Ag     0.402671    95Bg     0.402875  
     117Ag     0.405308   117Bu     0.406841    97Au     0.407840  
      96Bg     0.411734    98Au     0.412167   118Ag     0.413837  
     118Bu     0.415454    97Bg     0.416487    98Bg     0.420442  
     119Ag     0.421286    99Au     0.421905   119Bu     0.422095  
     120Ag     0.422874    99Bg     0.423480   100Bg     0.426413  
     120Bu     0.427295   121Ag     0.428151   101Bg     0.430016  
     121Bu     0.431100   100Au     0.433317   122Bu     0.436839  
     102Bg     0.437849   101Au     0.439248   122Ag     0.440412  
     123Ag     0.443162   123Bu     0.443526   124Bu     0.446034  
     102Au     0.447211   124Ag     0.450980   103Au     0.452995  
     103Bg     0.453401   125Ag     0.457130   125Bu     0.458967  
     104Bg     0.460950   105Bg     0.461481   126Ag     0.462560  
     127Ag     0.464979   106Bg     0.468778   104Au     0.470294  
     126Bu     0.470460   128Ag     0.471078   127Bu     0.472191  
     105Au     0.475133   107Bg     0.475566   128Bu     0.476036  
     129Ag     0.477604   106Au     0.480001   130Ag     0.481208  
     108Bg     0.483266   107Au     0.484617   109Bg     0.485594  
     129Bu     0.486094   131Ag     0.486340   130Bu     0.487364  
     132Ag     0.488803   108Au     0.489555   133Ag     0.493066  
     110Bg     0.494448   109Au     0.498031   134Ag     0.498444  
     131Bu     0.499457   132Bu     0.499869   135Ag     0.499870  
     111Bg     0.500159   133Bu     0.500279   110Au     0.501216  
     136Ag     0.506122   111Au     0.506510   134Bu     0.507032  
     112Au     0.507223   137Ag     0.508208   135Bu     0.511255  
     112Bg     0.511513   113Au     0.512836   136Bu     0.515120  
     138Ag     0.515158   113Bg     0.515393   139Ag     0.516961  
     114Au     0.518086   114Bg     0.520457   115Au     0.521212  
     137Bu     0.521952   115Bg     0.522980   140Ag     0.523572  
     116Au     0.525799   138Bu     0.527090   141Ag     0.527636  
     116Bg     0.527978   139Bu     0.528838   117Au     0.530654  
     140Bu     0.530826   117Bg     0.532424   141Bu     0.533159  
     142Ag     0.534925   142Bu     0.535940   118Bg     0.536113  
     118Au     0.536194   143Ag     0.538126   119Bg     0.538471  
     119Au     0.538864   144Ag     0.541693   143Bu     0.542161  
     120Au     0.543117   120Bg     0.543269   145Ag     0.548592  
     144Bu     0.548622   121Au     0.549126   145Bu     0.550953  
     146Ag     0.551466   121Bg     0.551914   146Bu     0.552965  
     147Ag     0.554951   122Bg     0.557163   122Au     0.559168  
     147Bu     0.559384   123Au     0.563190   123Bg     0.563339  
     148Bu     0.564222   148Ag     0.564572   124Bg     0.565802  
     149Ag     0.566657   124Au     0.569552   125Bg     0.569898  
     150Ag     0.571624   149Bu     0.572158   125Au     0.572323  
     150Bu     0.572996   151Ag     0.575163   126Au     0.576078  
     151Bu     0.578070   126Bg     0.579426   152Ag     0.579797  
     127Bg     0.583396   127Au     0.583424   128Au     0.587341  
     153Ag     0.588619   152Bu     0.590842   153Bu     0.592509  
     129Au     0.592795   128Bg     0.593672   129Bg     0.595584  
     154Ag     0.595745   154Bu     0.596214   155Ag     0.598524  
     155Bu     0.601760   130Au     0.602415   130Bg     0.604681  
     156Ag     0.605053   156Bu     0.605268   131Au     0.606878  
     131Bg     0.609596   157Bu     0.612152   132Bg     0.616462  
     132Au     0.617215   157Ag     0.617936   133Au     0.620567  
     158Ag     0.623080   158Bu     0.623430   133Bg     0.624298  
     134Au     0.631455   134Bg     0.634137   159Ag     0.635079  
     135Au     0.635388   135Bg     0.637895   159Bu     0.640052  
     136Au     0.640897   160Bu     0.646746   160Ag     0.648129  
     161Bu     0.651602   136Bg     0.651663   161Ag     0.652096  
     137Bg     0.653890   162Ag     0.655339   137Au     0.656608  
     162Bu     0.660412   138Au     0.662991   138Bg     0.663596  
     163Bu     0.663789   163Ag     0.664864   139Au     0.667805  
     164Bu     0.672474   164Ag     0.673392   139Bg     0.674261  
     165Bu     0.674397   140Au     0.675707   165Ag     0.683099  
     141Au     0.683374   166Bu     0.684602   166Ag     0.686466  
     167Bu     0.688175   142Au     0.688710   167Ag     0.690484  
     168Ag     0.691680   140Bg     0.692578   141Bg     0.697790  
     143Au     0.698132   142Bg     0.699468   168Bu     0.701513  
     169Ag     0.702329   143Bg     0.704612   169Bu     0.706598  
     170Ag     0.706621   144Au     0.710358   144Bg     0.710496  
     145Au     0.712039   145Bg     0.712108   170Bu     0.713393  
     171Ag     0.713615   146Au     0.718005   146Bg     0.718972  
     147Au     0.720967   172Ag     0.722892   171Bu     0.722956  
     173Ag     0.724478   147Bg     0.726104   148Au     0.727604  
     172Bu     0.728646   173Bu     0.730661   148Bg     0.731010  
     174Ag     0.734479   149Au     0.734780   174Bu     0.736567  
     175Ag     0.739163   149Bg     0.741345   175Bu     0.742514  
     176Ag     0.743131   176Bu     0.747955   150Bg     0.749206  
     177Bu     0.750321   150Au     0.752228   177Ag     0.752780  
     151Bg     0.755359   151Au     0.756384   152Au     0.759130  
     152Bg     0.759199   178Ag     0.761470   153Bg     0.762915  
     178Bu     0.762971   179Bu     0.763381   179Ag     0.764379  
     153Au     0.766406   180Ag     0.769171   181Ag     0.770954  
     154Bg     0.774736   154Au     0.776896   180Bu     0.777020  
     155Au     0.777684   155Bg     0.779834   182Ag     0.781613  
     181Bu     0.783697   156Au     0.784268   156Bg     0.785480  
     182Bu     0.785950   183Ag     0.787847   184Ag     0.790742  
     157Bg     0.793021   157Au     0.794407   183Bu     0.794727  
     184Bu     0.795415   185Ag     0.796160   158Au     0.799442  
     185Bu     0.802485   158Bg     0.802631   186Ag     0.803279  
     186Bu     0.805649   159Bg     0.806139   159Au     0.807256  
     160Bg     0.810268   160Au     0.810621   187Ag     0.810742  
     187Bu     0.812397   161Bg     0.815096   188Bu     0.818893  
     188Ag     0.819737   161Au     0.819821   189Bu     0.821037  
     189Ag     0.822397   162Au     0.825300   162Bg     0.825530  
     163Bg     0.831349   190Ag     0.832858   191Ag     0.833598  
     190Bu     0.838210   163Au     0.839145   164Bg     0.841789  
     192Ag     0.842161   193Ag     0.845821   165Bg     0.846340  
     164Au     0.847020   191Bu     0.850130   165Au     0.850466  
     192Bu     0.852155   166Au     0.855891   193Bu     0.856697  
     194Ag     0.858957   166Bg     0.860483   194Bu     0.861630  
     167Au     0.862671   195Ag     0.863285   195Bu     0.865426  
     167Bg     0.865468   196Ag     0.867738   168Bg     0.868131  
     168Au     0.870465   196Bu     0.872415   169Bg     0.874697  
     197Ag     0.875593   169Au     0.876843   198Ag     0.877109  
     170Bg     0.879103   197Bu     0.879879   170Au     0.883594  
     199Ag     0.885039   198Bu     0.886500   171Au     0.887531  
     200Ag     0.888236   171Bg     0.890742   172Au     0.890828  
     201Ag     0.892574   172Bg     0.894290   199Bu     0.895529  
     173Au     0.896158   200Bu     0.896560   202Ag     0.896738  
     201Bu     0.900541   173Bg     0.901196   202Bu     0.902203  
     174Bg     0.903689   174Au     0.903925   203Ag     0.906846  
     203Bu     0.908697   175Au     0.908883   204Ag     0.909344  
     176Au     0.913434   205Ag     0.913771   175Bg     0.914859  
     204Bu     0.916131   206Ag     0.917070   205Bu     0.917568  
     176Bg     0.918865   177Au     0.919288   207Ag     0.920091  
     178Au     0.921153   206Bu     0.922072   177Bg     0.923066  
     207Bu     0.924455   208Ag     0.924568   179Au     0.927345  
     208Bu     0.929238   178Bg     0.930123   179Bg     0.932403  
     180Au     0.932648   209Ag     0.933740   209Bu     0.936778  
     181Au     0.938805   210Ag     0.939101   180Bg     0.939496  
     210Bu     0.941367   211Ag     0.941629   211Bu     0.943564  
     182Au     0.945612   212Ag     0.945787   181Bg     0.948507  
     212Bu     0.948700   182Bg     0.951177   213Bu     0.951637  
     214Bu     0.951774   213Ag     0.952509   183Au     0.954113  
     183Bg     0.954192   214Ag     0.957648   184Au     0.959792  
     185Au     0.962517   184Bg     0.964355   215Bu     0.965874  
     215Ag     0.967336   185Bg     0.968508   216Ag     0.968986  
     186Au     0.971388   216Bu     0.972301   217Ag     0.974947  
     186Bg     0.975345   187Bg     0.978619   187Au     0.979303  
     188Bg     0.981136   217Bu     0.983758   218Ag     0.984437  
     189Bg     0.984930   219Ag     0.986202   188Au     0.987008  
     218Bu     0.988635   220Ag     0.993652   190Bg     0.994467  
     219Bu     0.996275   220Bu     0.998195   221Ag     1.000234  
     189Au     1.001137   190Au     1.004099   191Au     1.005525  
     221Bu     1.009547   191Bg     1.012218   222Ag     1.013161  
     192Bg     1.013732   192Au     1.017771   222Bu     1.018113  
     193Au     1.019941   223Ag     1.020480   223Bu     1.020690  
     193Bg     1.021255   224Ag     1.023165   225Ag     1.025441  
     194Au     1.028674   224Bu     1.033924   194Bg     1.034424  
     195Au     1.035801   195Bg     1.038422   226Ag     1.039982  
     225Bu     1.041653   227Ag     1.048832   226Bu     1.049506  
     196Bg     1.050751   196Au     1.051357   228Ag     1.052082  
     197Bg     1.053560   197Au     1.055086   198Bg     1.056102  
     198Au     1.056423   227Bu     1.057119   229Ag     1.060383  
     199Au     1.063229   230Ag     1.063379   228Bu     1.064644  
     199Bg     1.065797   229Bu     1.067099   200Au     1.068215  
     200Bg     1.070492   231Ag     1.071161   230Bu     1.073714  
     232Ag     1.073768   233Ag     1.075075   201Au     1.077714  
     201Bg     1.080366   231Bu     1.081058   202Au     1.081198  
     202Bg     1.084125   232Bu     1.088451   203Au     1.089958  
     233Bu     1.092496   234Ag     1.093934   204Au     1.097548  
     234Bu     1.097796   203Bg     1.097952   235Ag     1.098690  
     204Bg     1.101587   235Bu     1.102306   236Ag     1.105468  
     205Bg     1.109065   205Au     1.109402   237Ag     1.109518  
     236Bu     1.111169   206Au     1.113795   237Bu     1.115281  
     207Au     1.117160   206Bg     1.119095   238Ag     1.119323  
     207Bg     1.120776   208Au     1.125024   208Bg     1.125275  
     239Ag     1.127024   238Bu     1.128193   240Ag     1.130036  
     239Bu     1.130079   209Bg     1.131861   209Au     1.132477  
     240Bu     1.136407   210Au     1.137976   210Bg     1.138427  
     211Bg     1.139236   241Bu     1.143465   241Ag     1.145125  
     242Ag     1.145382   212Bg     1.146731   211Au     1.147395  
     242Bu     1.150578   212Au     1.153068   243Bu     1.153633  
     243Ag     1.158715   244Bu     1.160705   213Au     1.163386  
     244Ag     1.163420   213Bg     1.163460   214Bg     1.167327  
     245Bu     1.169571   245Ag     1.170161   214Au     1.170881  
     246Bu     1.173494   246Ag     1.175789   215Au     1.176531  
     247Bu     1.179088   215Bg     1.181069   247Ag     1.182157  
     248Bu     1.184385   216Bg     1.184402   216Au     1.188347  
     249Bu     1.189686   248Ag     1.191486   217Bg     1.192416  
     217Au     1.193737   249Ag     1.194379   250Bu     1.198862  
     218Bg     1.200110   250Ag     1.202721   218Au     1.202748  
     251Bu     1.206716   251Ag     1.206753   219Bg     1.208685  
     220Bg     1.211079   252Ag     1.212039   252Bu     1.214076  
     219Au     1.214758   253Ag     1.219024   220Au     1.220272  
     253Bu     1.221548   221Au     1.222216   254Bu     1.223031  
     255Bu     1.230194   254Ag     1.230199   221Bg     1.230236  
     222Au     1.231686   222Bg     1.232533   256Bu     1.234179  
     255Ag     1.235768   257Bu     1.240482   256Ag     1.240749  
     223Au     1.240994   223Bg     1.241716   257Ag     1.248629  
     258Bu     1.250259   224Bg     1.251119   258Ag     1.251722  
     225Bg     1.254182   259Ag     1.255984   224Au     1.256477  
     225Au     1.257905   260Ag     1.258562   226Bg     1.262937  
     259Bu     1.264040   261Ag     1.267079   260Bu     1.267534  
     227Bg     1.268394   226Au     1.268917   261Bu     1.272081  
     262Bu     1.272863   227Au     1.278278   262Ag     1.280143  
     228Bg     1.281296   263Ag     1.281871   229Bg     1.281988  
     263Bu     1.282392   228Au     1.282467   264Ag     1.286415  
     229Au     1.289379   264Bu     1.291653   230Bg     1.291743  
     230Au     1.293593   231Bg     1.298109   265Ag     1.301075  
     265Bu     1.302744   266Bu     1.306326   231Au     1.306414  
     232Au     1.308505   266Ag     1.308638   232Bg     1.311240  
     267Bu     1.313481   267Ag     1.319563   268Bu     1.319889  
     233Au     1.320765   233Bg     1.321110   234Bg     1.325132  
     268Ag     1.327193   234Au     1.329702   269Ag     1.330169  
     235Bg     1.330918   269Bu     1.331965   270Ag     1.332875  
     236Bg     1.337198   270Bu     1.340354   235Au     1.342748  
     237Bg     1.346536   236Au     1.347464   271Ag     1.348030  
     271Bu     1.348853   272Bu     1.350830   237Au     1.354742  
     273Bu     1.355632   238Bg     1.355934   238Au     1.357215  
     272Ag     1.357334   273Ag     1.358133   239Bg     1.362412  
     274Bu     1.362475   274Ag     1.365995   275Bu     1.368306  
     239Au     1.369794   240Bg     1.370538   276Bu     1.374725  
     241Bg     1.375300   275Ag     1.378847   242Bg     1.380839  
     277Bu     1.383585   276Ag     1.384441   240Au     1.386283  
     277Ag     1.387426   241Au     1.390637   243Bg     1.391387  
     278Ag     1.393813   242Au     1.394531   278Bu     1.395894  
     243Au     1.400260   279Bu     1.404297   244Au     1.404742  
     279Ag     1.406229   244Bg     1.407185   245Bg     1.408747  
     246Bg     1.413493   280Bu     1.417202   280Ag     1.417791  
     281Ag     1.419019   245Au     1.419678   247Bg     1.419726  
     281Bu     1.423771   246Au     1.425331   282Bu     1.426858  
     282Ag     1.427175   248Bg     1.427834   283Ag     1.430865  
     247Au     1.431273   283Bu     1.432985   284Bu     1.435545  
     248Au     1.437003   284Ag     1.441184   249Bg     1.443773  
     250Bg     1.445522   249Au     1.446401   285Ag     1.447289  
     250Au     1.449484   285Bu     1.451063   251Au     1.454367  
     251Bg     1.454634   286Bu     1.454636   286Ag     1.454954  
     287Ag     1.460430   287Bu     1.460581   288Ag     1.462575  
     252Bg     1.462646   252Au     1.462744   253Au     1.470542  
     253Bg     1.472023   288Bu     1.473149   254Bg     1.473522  
     289Ag     1.474744   289Bu     1.476403   254Au     1.477487  
     255Bg     1.477912   255Au     1.480844   290Bu     1.480918  
     256Bg     1.483109   290Ag     1.484315   257Bg     1.485742  
     291Ag     1.487135   291Bu     1.491752   292Ag     1.494675  
     256Au     1.495579   258Bg     1.496624   292Bu     1.496753  
     257Au     1.497026   293Ag     1.502956   259Bg     1.504302  
     258Au     1.505805   294Ag     1.506695   293Bu     1.508648  
     259Au     1.509782   294Bu     1.512448   295Ag     1.516591  
     260Bg     1.516648   260Au     1.517066   295Bu     1.523328  
     296Ag     1.523431   261Bg     1.526428   296Bu     1.527413  
     261Au     1.531679   262Bg     1.532026   262Au     1.535680  
     297Bu     1.535759   263Bg     1.538544   297Ag     1.539704  
     298Bu     1.540255   263Au     1.541280   298Ag     1.541686  
     264Au     1.543134   299Bu     1.544467   299Ag     1.546813  
     300Ag     1.552297   300Bu     1.554222   265Au     1.554278  
     264Bg     1.554294   266Au     1.556555   301Ag     1.559796  
     301Bu     1.561166   265Bg     1.564783   302Bu     1.565640  
     302Ag     1.565759   266Bg     1.567133   267Bg     1.567689  
     267Au     1.567827   303Ag     1.568487   303Bu     1.571505  
     268Au     1.573345   304Ag     1.574158   268Bg     1.574575  
     304Bu     1.576833   269Bg     1.579060   269Au     1.580190  
     305Ag     1.584607   306Ag     1.586822   270Bg     1.587975  
     270Au     1.589227   307Ag     1.590556   305Bu     1.590571  
     271Au     1.594693   306Bu     1.598457   271Bg     1.599313  
     308Ag     1.599678   272Bg     1.602229   307Bu     1.602464  
     309Ag     1.602849   272Au     1.604937   273Bg     1.609102  
     273Au     1.610757   310Ag     1.611816   274Bg     1.612244  
     274Au     1.612837   308Bu     1.613513   309Bu     1.614375  
     311Ag     1.617205   310Bu     1.618456   275Au     1.618887  
     275Bg     1.619704   311Bu     1.625324   312Ag     1.625605  
     276Au     1.626139   277Au     1.629471   312Bu     1.631895  
     276Bg     1.633922   313Ag     1.633925   314Ag     1.634682  
     313Bu     1.637440   278Au     1.639300   315Ag     1.641425  
     277Bg     1.642784   278Bg     1.644133   279Au     1.646471  
     316Ag     1.646611   314Bu     1.647265   279Bg     1.655373  
     315Bu     1.655801   280Au     1.655834   317Ag     1.656176  
     280Bg     1.660947   316Bu     1.662472   281Au     1.662607  
     317Bu     1.665717   318Bu     1.666172   318Ag     1.666173  
     281Bg     1.666384   282Au     1.667446   282Bg     1.671198  
     319Ag     1.673997   283Au     1.674242   283Bg     1.674844  
     284Bg     1.679756   320Ag     1.680680   319Bu     1.680761  
     320Bu     1.684409   284Au     1.686541   285Au     1.690236  
     321Ag     1.691823   285Bg     1.692727   321Bu     1.692757  
     286Au     1.694944   322Ag     1.696870   322Bu     1.698957  
     323Ag     1.702584   286Bg     1.703809   287Bg     1.707934  
     323Bu     1.708198   287Au     1.709934   324Ag     1.710510  
     288Bg     1.714315   324Bu     1.716936   289Bg     1.717449  
     325Ag     1.718921   288Au     1.720376   325Bu     1.721948  
     326Bu     1.722271   289Au     1.722960   290Bg     1.725597  
     326Ag     1.729102   327Ag     1.733999   290Au     1.734001  
     327Bu     1.735949   328Ag     1.736138   291Au     1.737686  
     291Bg     1.740719   328Bu     1.741309   292Au     1.743757  
     329Bu     1.744025   292Bg     1.745217   330Bu     1.746877  
     329Ag     1.747395   330Ag     1.748396   293Bg     1.752492  
     331Ag     1.755842   293Au     1.756295   331Bu     1.757804  
     332Ag     1.760970   294Au     1.761745   294Bg     1.763089  
     295Bg     1.764692   295Au     1.765714   333Ag     1.766606  
     332Bu     1.770720   296Bg     1.773459   333Bu     1.779034  
     334Ag     1.780388   334Bu     1.781867   296Au     1.784328  
     335Ag     1.786436   335Bu     1.788951   297Au     1.789308  
     297Bg     1.789478   298Bg     1.795057   336Bu     1.795392  
     298Au     1.795999   299Au     1.799114   299Bg     1.801461  
     300Au     1.801613   336Ag     1.803383   337Ag     1.803613  
     301Au     1.805865   338Ag     1.810513   337Bu     1.811199  
     300Bg     1.812426   339Ag     1.816955   338Bu     1.817998  
     301Bg     1.818791   339Bu     1.819530   340Ag     1.819720  
     302Bg     1.827059   340Bu     1.828093   303Bg     1.829158  
     341Ag     1.829680   302Au     1.830002   303Au     1.833153  
     342Ag     1.834187   304Bg     1.834254   341Bu     1.837391  
     342Bu     1.838924   304Au     1.842899   343Ag     1.844954  
     305Bg     1.844965   344Ag     1.848465   343Bu     1.849316  
     305Au     1.855590   306Bg     1.856462   307Bg     1.858186  
     344Bu     1.860228   345Ag     1.862794   306Au     1.864066  
     346Ag     1.871503   307Au     1.871756   345Bu     1.871818  
     346Bu     1.874669   308Bg     1.877149   308Au     1.878570  
     347Ag     1.883111   347Bu     1.888209   309Bg     1.889718  
     348Ag     1.891590   309Au     1.892177   310Bg     1.895091  
     311Bg     1.896743   348Bu     1.899091   312Bg     1.905507  
     349Bu     1.906364   310Au     1.907954   349Ag     1.908864  
     350Ag     1.916448   350Bu     1.917067   311Au     1.918967  
     312Au     1.920431   351Bu     1.922059   351Ag     1.925465  
     352Bu     1.929986   313Bg     1.930579   352Ag     1.931407  
     314Bg     1.932395   353Bu     1.942448   313Au     1.944599  
     353Ag     1.947693   315Bg     1.950551   314Au     1.953817  
     315Au     1.961898   354Ag     1.963718   316Bg     1.964771  
     355Ag     1.966964   316Au     1.967278   354Bu     1.967971  
     355Bu     1.973041   356Bu     1.974655   317Au     1.976453  
     356Ag     1.981968   317Bg     1.982359   318Au     1.983997  
     318Bg     1.985886   357Bu     1.987393   319Au     1.989407  
     357Ag     1.990201   319Bg     1.990883   320Bg     2.000151  
     320Au     2.000617   358Bu     2.009209   321Au     2.011423  
     358Ag     2.013199   359Ag     2.020702   322Au     2.022330  
     321Bg     2.022531   360Ag     2.026166   359Bu     2.027128  
     323Au     2.027957   322Bg     2.030784   324Au     2.032694  
     361Ag     2.037722   360Bu     2.038224   323Bg     2.038742  
     361Bu     2.041047   362Ag     2.041753   324Bg     2.043834  
     362Bu     2.043948   325Au     2.048256   325Bg     2.051891  
     363Ag     2.052758   364Ag     2.056371   326Au     2.057278  
     363Bu     2.057992   326Bg     2.060959   365Ag     2.066372  
     327Au     2.068115   364Bu     2.071995   327Bg     2.075133  
     365Bu     2.075946   366Ag     2.077538   328Bg     2.079870  
     366Bu     2.080389   328Au     2.083432   367Ag     2.085883  
     329Au     2.089413   368Ag     2.092451   367Bu     2.093579  
     329Bg     2.094830   369Ag     2.097882   368Bu     2.098508  
     330Au     2.098681   369Bu     2.102605   330Bg     2.103046  
     331Au     2.113344   370Ag     2.114575   370Bu     2.115166  
     331Bg     2.115710   332Au     2.116336   332Bg     2.120370  
     371Ag     2.121893   333Au     2.123857   372Ag     2.126296  
     371Bu     2.129566   333Bg     2.131715   373Ag     2.131753  
     372Bu     2.134893   374Ag     2.136487   334Bg     2.140963  
     373Bu     2.141412   334Au     2.143802   374Bu     2.145412  
     375Ag     2.147810   375Bu     2.148165   335Bg     2.150428  
     335Au     2.150448   376Ag     2.155088   336Au     2.156010  
     336Bg     2.157336   337Au     2.161799   338Au     2.163960  
     377Ag     2.165060   337Bg     2.167020   376Bu     2.167528  
     377Bu     2.170212   378Ag     2.171861   338Bg     2.175069  
     339Au     2.179102   340Au     2.181862   378Bu     2.185723  
     339Bg     2.186467   341Au     2.187040   379Ag     2.191383  
     340Bg     2.198768   379Bu     2.199669   380Ag     2.200575  
     342Au     2.202558   380Bu     2.202756   341Bg     2.206445  
     342Bg     2.209564   343Au     2.211191   381Ag     2.212523  
     382Ag     2.216001   343Bg     2.216958   381Bu     2.218038  
     344Au     2.219368   344Bg     2.220342   383Ag     2.224688  
     384Ag     2.228584   345Bg     2.231452   382Bu     2.235315  
     346Bg     2.240805   345Au     2.242529   346Au     2.243429  
     385Ag     2.248770   347Au     2.249006   383Bu     2.249074  
     384Bu     2.253080   347Bg     2.254011   385Bu     2.257241  
     386Ag     2.262189   348Bg     2.264251   386Bu     2.268293  
     387Ag     2.270873   348Au     2.271238   388Ag     2.274768  
     349Au     2.276167   349Bg     2.278551   389Ag     2.282547  
     350Bg     2.284426   387Bu     2.285240   350Au     2.286050  
     388Bu     2.290320   390Ag     2.293289   351Bg     2.295299  
     389Bu     2.299522   391Ag     2.305184   390Bu     2.308763  
     352Bg     2.313470   351Au     2.317177   392Ag     2.317805  
     393Ag     2.319640   391Bu     2.320957   352Au     2.321937  
     353Bg     2.323973   353Au     2.329274   392Bu     2.333687  
     354Bg     2.334856   394Ag     2.336350   393Bu     2.340821  
     354Au     2.342419   355Au     2.345158   395Ag     2.346482  
     355Bg     2.351281   394Bu     2.351850   356Au     2.352797  
     395Bu     2.357741   396Ag     2.358628   356Bg     2.361273  
     357Au     2.365809   357Bg     2.368486   397Ag     2.369374  
     396Bu     2.371143   358Au     2.376815   358Bg     2.381136  
     398Ag     2.381147   397Bu     2.381281   399Ag     2.382460  
     359Au     2.385167   360Au     2.386406   359Bg     2.390203  
     398Bu     2.394004   400Ag     2.395253   360Bg     2.396990  
     399Bu     2.403572   361Au     2.404665   401Ag     2.409199  
     361Bg     2.412070   402Ag     2.413678   400Bu     2.417164  
     362Bg     2.418720   401Bu     2.421996   363Bg     2.423946  
     403Ag     2.424470   362Au     2.425426   402Bu     2.427165  
     364Bg     2.429161   363Au     2.432102   403Bu     2.432329  
     404Ag     2.434206   404Bu     2.435872   364Au     2.438146  
     405Ag     2.442840   365Au     2.450303   365Bg     2.454470  
     366Au     2.454750   405Bu     2.456248   406Ag     2.459718  
     366Bg     2.467289   407Ag     2.467915   367Au     2.468602  
     406Bu     2.472063   367Bg     2.478779   408Ag     2.479395  
     368Bg     2.482323   368Au     2.484270   407Bu     2.490986  
     409Ag     2.491252   369Bg     2.493810   408Bu     2.495826  
     410Ag     2.509294   369Au     2.511433   370Bg     2.513084  
     409Bu     2.513963   411Ag     2.514573   370Au     2.515152  
     410Bu     2.518615   371Au     2.527313   412Ag     2.528212  
     371Bg     2.529783   372Bg     2.534848   372Au     2.534852  
     411Bu     2.536268   413Ag     2.542222   412Bu     2.549203  
     414Ag     2.549696   373Bg     2.553685   373Au     2.555436  
     413Bu     2.555838   414Bu     2.559255   415Ag     2.559433  
     374Bg     2.560515   416Ag     2.566390   375Bg     2.569248  
     374Au     2.572359   375Au     2.574811   376Bg     2.575606  
     415Bu     2.582201   417Ag     2.585675   418Ag     2.586717  
     376Au     2.589437   377Bg     2.590244   416Bu     2.590887  
     417Bu     2.594042   418Bu     2.606446   378Bg     2.609619  
     377Au     2.610658   419Ag     2.612133   419Bu     2.616619  
     420Ag     2.621348   378Au     2.623679   379Bg     2.626862  
     420Bu     2.633730   379Au     2.633852   421Ag     2.634181  
     380Bg     2.639221   422Ag     2.641392   421Bu     2.652515  
     380Au     2.652769   381Bg     2.654311   422Bu     2.656275  
     423Ag     2.658875   382Bg     2.659508   381Au     2.659958  
     423Bu     2.661220   424Bu     2.666112   382Au     2.666433  
     383Bg     2.669109   424Ag     2.669387   425Ag     2.676234  
     425Bu     2.683009   426Bu     2.685846   383Au     2.687689  
     426Ag     2.691055   384Bg     2.694142   384Au     2.701528  
     427Ag     2.702442   385Bg     2.705666   386Bg     2.706218  
     385Au     2.707233   427Bu     2.712126   428Ag     2.722766  
     428Bu     2.724458   386Au     2.725279   387Bg     2.725918  
     388Bg     2.733573   429Bu     2.735537   387Au     2.735679  
     429Ag     2.739636   430Bu     2.740325   430Ag     2.743901  
     388Au     2.745378   389Au     2.748525   389Bg     2.750000  
     431Ag     2.756594   431Bu     2.762167   390Au     2.769143  
     390Bg     2.770073   391Au     2.770424   432Ag     2.772386  
     433Ag     2.773603   391Bg     2.774059   434Ag     2.781136  
     392Bg     2.781898   392Au     2.783394   432Bu     2.788310  
     433Bu     2.790421   435Ag     2.791835   393Bg     2.792008  
     434Bu     2.799235   394Bg     2.800475   393Au     2.807100  
     395Bg     2.812596   436Ag     2.814359   394Au     2.815805  
     396Bg     2.824917   435Bu     2.826765   437Ag     2.832004  
     395Au     2.832259   436Bu     2.837613   438Ag     2.841231  
     396Au     2.843406   397Bg     2.849679   397Au     2.856658  
     398Bg     2.857422   439Ag     2.860381   437Bu     2.866780  
     399Bg     2.868122   438Bu     2.871844   440Ag     2.873462  
     398Au     2.875402   439Bu     2.881952   440Bu     2.889132  
     399Au     2.892233   441Ag     2.907821   400Au     2.910786  
     400Bg     2.916453   442Ag     2.922321   401Bg     2.924474  
     441Bu     2.935150   442Bu     2.946605   401Au     2.948842  
     443Ag     2.948998   402Bg     2.949399   402Au     2.982066  
     443Bu     2.985226   403Bg     2.986164   404Bg     2.993471  
     403Au     3.003544   444Bu     3.029530   444Ag     3.029848  
     445Bu     3.035378   404Au     3.043943   405Bg     3.048146  
     445Ag     3.054437   405Au     3.059575   406Bg     3.061668  
     446Bu     3.071182   406Au     3.072918   407Au     3.081862  
     446Ag     3.085822   407Bg     3.095515   447Bu     3.097052  
     448Bu     3.105163   408Au     3.106337   447Ag     3.106921  
     409Au     3.114655   448Ag     3.119094   408Bg     3.122040  
     449Bu     3.128850   409Bg     3.132765   449Ag     3.134085  
     410Au     3.134970   450Ag     3.140688   451Ag     3.149084  
     410Bg     3.149715   411Au     3.154508   411Bg     3.155217  
     450Bu     3.158048   452Ag     3.162450   451Bu     3.164656  
     412Au     3.165774   412Bg     3.172618   452Bu     3.174964  
     413Au     3.182943   453Ag     3.184113   453Bu     3.186862  
     454Ag     3.191484   454Bu     3.193082   413Bg     3.195132  
     414Au     3.199742   414Bg     3.200364   455Ag     3.202746  
     415Au     3.206068   456Ag     3.209188   457Ag     3.222127  
     455Bu     3.223431   415Bg     3.231695   416Bg     3.241681  
     456Bu     3.243576   458Ag     3.244191   416Au     3.245170  
     457Bu     3.247011   417Au     3.247418   459Ag     3.248886  
     417Bg     3.253953   458Bu     3.262594   418Au     3.263557  
     459Bu     3.267133   418Bg     3.269419   460Bu     3.277165  
     419Au     3.281158   419Bg     3.282113   460Ag     3.282494  
     420Au     3.286509   461Bu     3.291574   461Ag     3.299462  
     421Au     3.300256   420Bg     3.301082   462Bu     3.304349  
     421Bg     3.304727   462Ag     3.307716   422Au     3.315962  
     463Bu     3.322988   463Ag     3.325837   422Bg     3.328013  
     464Ag     3.330637   465Ag     3.337931   464Bu     3.339498  
     466Ag     3.341968   423Au     3.344483   423Bg     3.350528  
     465Bu     3.352737   467Ag     3.353701   466Bu     3.361973  
     424Au     3.362409   468Ag     3.368605   467Bu     3.368975  
     424Bg     3.369420   425Au     3.371105   425Bg     3.374135  
     468Bu     3.376309   469Ag     3.377698   426Bg     3.379235  
     469Bu     3.382334   470Bu     3.389272   470Ag     3.389434  
     426Au     3.390149   471Ag     3.393735   427Bg     3.398467  
     472Ag     3.401413   471Bu     3.401667   427Au     3.404335  
     428Au     3.407428   472Bu     3.408471   428Bg     3.413548  
     473Bu     3.418325   473Ag     3.419538   429Au     3.421597  
     429Bg     3.421623   430Bg     3.426048   474Bu     3.429001  
     430Au     3.431104   431Au     3.434687   431Bg     3.435170  
     474Ag     3.437663   475Bu     3.438846   432Au     3.441031  
     475Ag     3.444014   432Bg     3.450973   476Ag     3.451010  
     477Ag     3.454539   433Bg     3.455071   476Bu     3.455384  
     477Bu     3.456647   433Au     3.461700   478Bu     3.462047  
     478Ag     3.463237   434Bg     3.469469   479Bu     3.470788  
     479Ag     3.476326   435Bg     3.476478   434Au     3.480636  
     436Bg     3.482429   480Ag     3.482689   481Ag     3.487340  
     480Bu     3.487460   435Au     3.490546   481Bu     3.492410  
     482Ag     3.494304   436Au     3.494565   437Bg     3.496209  
     437Au     3.502069   483Ag     3.504157   482Bu     3.507558  
     438Au     3.510401   438Bg     3.511443   483Bu     3.513149  
     439Bg     3.514555   439Au     3.517126   484Ag     3.517522  
     485Ag     3.520181   484Bu     3.521832   485Bu     3.522310  
     486Ag     3.524505   487Ag     3.529973   440Bg     3.530018  
     440Au     3.534570   441Bg     3.538079   486Bu     3.538598  
     441Au     3.541537   487Bu     3.551011   442Au     3.552485  
     488Ag     3.553511   442Bg     3.557534   443Bg     3.560868  
     488Bu     3.561584   489Ag     3.563473   444Bg     3.566728  
     443Au     3.567637   489Bu     3.569047   490Ag     3.569709  
     444Au     3.573908   445Bg     3.577458   491Ag     3.578721  
     445Au     3.581686   446Bg     3.585112   490Bu     3.586495  
     492Ag     3.588622   491Bu     3.592919   446Au     3.593280  
     447Bg     3.595079   493Ag     3.595731   447Au     3.601344  
     494Ag     3.604820   492Bu     3.607223   448Au     3.607459  
     493Bu     3.610731   448Bg     3.612148   449Bg     3.615562  
     495Ag     3.616828   449Au     3.621344   450Bg     3.623871  
     494Bu     3.625630   496Ag     3.627297   451Bg     3.628628  
     495Bu     3.633379   450Au     3.634805   451Au     3.640764  
     497Ag     3.641277   496Bu     3.643066   452Bg     3.643450  
     497Bu     3.646601   452Au     3.648285   498Bu     3.648476  
     453Bg     3.650099   498Ag     3.650907   453Au     3.657377  
     499Ag     3.659623   454Bg     3.664243   454Au     3.665398  
     500Ag     3.668332   499Bu     3.668498   455Au     3.673467  
     456Au     3.680223   501Ag     3.681310   500Bu     3.682040  
     455Bg     3.682946   501Bu     3.686980   502Ag     3.688591  
     457Au     3.690279   456Bg     3.693859   502Bu     3.694240  
     503Ag     3.694855   503Bu     3.696375   458Au     3.696930  
     457Bg     3.703791   504Bu     3.704277   458Bg     3.706885  
     504Ag     3.708823   459Au     3.711931   460Au     3.718778  
     505Ag     3.719177   506Ag     3.721094   505Bu     3.721354  
     459Bg     3.721705   460Bg     3.727480   506Bu     3.730022  
     507Ag     3.732593   507Bu     3.734078   461Bg     3.735095  
     508Ag     3.737150   461Au     3.739476   462Bg     3.743616  
     508Bu     3.744410   462Au     3.746806   509Ag     3.747032  
     463Bg     3.749636   510Ag     3.751401   509Bu     3.755521  
     463Au     3.762624   510Bu     3.762651   464Bg     3.763437  
     511Bu     3.767490   511Ag     3.767555   464Au     3.767925  
     465Bg     3.769792   512Ag     3.770452   512Bu     3.772514  
     465Au     3.779069   466Bg     3.779659   467Bg     3.785110  
     513Ag     3.787581   466Au     3.787701   514Ag     3.789288  
     467Au     3.789842   513Bu     3.796532   514Bu     3.803343  
     468Bg     3.807432   515Ag     3.809318   469Bg     3.809619  
     516Ag     3.813877   515Bu     3.815946   468Au     3.820187  
     516Bu     3.821615   470Bg     3.827000   517Bu     3.830080  
     517Ag     3.832797   469Au     3.835851   471Bg     3.836296  
     518Bu     3.841156   470Au     3.841648   518Ag     3.843362  
     472Bg     3.844306   519Ag     3.846334   471Au     3.850087  
     520Ag     3.853322   519Bu     3.853921   472Au     3.856623  
     520Bu     3.859319   521Ag     3.862074   521Bu     3.863157  
     522Ag     3.868468   473Au     3.868592   473Bg     3.869524  
     522Bu     3.873166   474Bg     3.873855   474Au     3.874512  
     523Ag     3.877995   475Bg     3.883274   523Bu     3.883988  
     524Ag     3.888628   476Bg     3.888920   475Au     3.891316  
     524Bu     3.895040   477Bg     3.895950   476Au     3.896988  
     525Ag     3.901634   525Bu     3.903651   478Bg     3.905673  
     526Ag     3.906933   477Au     3.909067   479Bg     3.909623  
     526Bu     3.912063   527Ag     3.912882   478Au     3.912962  
     527Bu     3.916038   528Ag     3.920677   529Ag     3.925309  
     528Bu     3.928201   479Au     3.928739   480Au     3.930385  
     529Bu     3.931621   530Bu     3.932382   530Ag     3.934365  
     480Bg     3.935008   481Bg     3.938560   531Bu     3.944256  
     531Ag     3.946131   482Bg     3.946247   481Au     3.946801  
     482Au     3.950401   532Bu     3.952209   483Bg     3.953530  
     483Au     3.955754   532Ag     3.956613   533Bu     3.959693  
     484Bg     3.965634   533Ag     3.966872   534Bu     3.969056  
     485Bg     3.969984   535Bu     3.970522   484Au     3.973614  
     486Bg     3.974633   536Bu     3.975147   485Au     3.978586  
     534Ag     3.980777   486Au     3.983423   487Bg     3.984544  
     535Ag     3.986577   487Au     3.990388   536Ag     3.991183  
     537Bu     3.993379   488Au     3.995365   488Bg     4.001580  
     538Bu     4.001744   537Ag     4.005807   539Bu     4.006411  
     489Bg     4.012852   538Ag     4.014043   489Au     4.016924  
     490Bg     4.018087   539Ag     4.021682   540Bu     4.023269  
     491Bg     4.023685   540Ag     4.025176   490Au     4.026631  
     491Au     4.029355   541Ag     4.029861   492Bg     4.032162  
     541Bu     4.037547   542Ag     4.040033   492Au     4.042390  
     543Ag     4.050210   493Bg     4.050931   493Au     4.055682  
     542Bu     4.056146   494Bg     4.056728   543Bu     4.060710  
     495Bg     4.065368   494Au     4.065466   544Ag     4.068811  
     545Ag     4.072504   544Bu     4.073531   495Au     4.074230  
     545Bu     4.076007   546Ag     4.077340   496Bg     4.078222  
     546Bu     4.080471   496Au     4.082252   497Bg     4.085129  
     547Ag     4.091792   547Bu     4.096695   498Bg     4.097532  
     497Au     4.099052   548Bu     4.101174   548Ag     4.104244  
     499Bg     4.105530   549Ag     4.106467   498Au     4.109188  
     499Au     4.112459   500Bg     4.114580   550Ag     4.116715  
     500Au     4.122105   549Bu     4.122194   551Ag     4.125156  
     552Ag     4.128587   501Au     4.133714   550Bu     4.135526  
     501Bg     4.137391   551Bu     4.145190   502Au     4.147656  
     553Ag     4.148362   502Bg     4.149151   552Bu     4.154162  
     503Au     4.155399   503Bg     4.158574   554Ag     4.162361  
     504Au     4.167257   553Bu     4.167759   554Bu     4.169885  
     504Bg     4.173351   555Ag     4.175422   555Bu     4.176900  
     505Au     4.178612   506Au     4.182521   556Ag     4.185000  
     556Bu     4.186613   557Ag     4.188049   505Bg     4.188250  
     506Bg     4.193527   507Au     4.193586   558Ag     4.194113  
     559Ag     4.198506   557Bu     4.199101   508Au     4.203329  
     507Bg     4.205414   509Au     4.207222   508Bg     4.207543  
     509Bg     4.209036   558Bu     4.211737   559Bu     4.216187  
     560Ag     4.216276   510Au     4.219455   560Bu     4.225339  
     561Ag     4.225393   510Bg     4.228228   561Bu     4.229989  
     511Au     4.233545   562Bu     4.233800   511Bg     4.234228  
     562Ag     4.234873   563Ag     4.238128   512Bg     4.241160  
     512Au     4.244628   564Ag     4.247215   513Au     4.248793  
     565Ag     4.250882   563Bu     4.254972   514Au     4.255692  
     513Bg     4.256940   564Bu     4.259162   514Bg     4.259778  
     565Bu     4.263458   515Bg     4.266884   566Ag     4.267415  
     515Au     4.267430   516Au     4.272866   566Bu     4.275501  
     567Ag     4.275538   516Bg     4.276862   567Bu     4.280895  
     517Bg     4.283368   518Bg     4.284894   517Au     4.286652  
     568Ag     4.289973   568Bu     4.291871   569Ag     4.295433  
     518Au     4.298007   519Bg     4.302154   569Bu     4.303849  
     570Ag     4.304089   520Bg     4.307141   519Au     4.307696  
     570Bu     4.311232   521Bg     4.314317   520Au     4.317123  
     571Bu     4.318493   571Ag     4.320281   522Bg     4.321621  
     572Bu     4.326442   521Au     4.327133   572Ag     4.328594  
     523Bg     4.329008   573Ag     4.331090   573Bu     4.335092  
     522Au     4.335353   524Bg     4.337998   574Bu     4.345277  
     523Au     4.346484   575Bu     4.350206   574Ag     4.352798  
     525Bg     4.357491   576Bu     4.358807   575Ag     4.360208  
     526Bg     4.362202   524Au     4.364189   576Ag     4.369922  
     577Ag     4.373555   577Bu     4.373691   525Au     4.381232  
     578Bu     4.381746   526Au     4.383781   527Bg     4.384922  
     578Ag     4.388028   528Bg     4.391729   579Bu     4.393185  
     527Au     4.396400   528Au     4.399190   579Ag     4.400053  
     529Bg     4.400520   580Bu     4.402143   529Au     4.404692  
     530Au     4.406543   530Bg     4.408964   580Ag     4.411860  
     581Bu     4.412273   531Bg     4.413244   532Bg     4.416472  
     581Ag     4.416809   582Ag     4.421847   531Au     4.424378  
     533Bg     4.425317   583Ag     4.426917   582Bu     4.429807  
     584Ag     4.430860   583Bu     4.433362   532Au     4.435058  
     585Ag     4.436448   534Bg     4.438185   533Au     4.440660  
     584Bu     4.446188   534Au     4.449137   585Bu     4.453580  
     586Ag     4.456850   535Bg     4.457786   587Ag     4.460855  
     535Au     4.462858   586Bu     4.463923   536Bg     4.465683  
     536Au     4.471892   587Bu     4.475261   537Bg     4.476020  
     588Ag     4.476754   538Bg     4.478694   589Ag     4.480678  
     537Au     4.482130   588Bu     4.485005   590Ag     4.492011  
     589Bu     4.492110   539Bg     4.498529   591Ag     4.502038  
     538Au     4.502404   590Bu     4.506188   591Bu     4.508948  
     539Au     4.515042   592Bu     4.518464   540Bg     4.518867  
     592Ag     4.519699   540Au     4.521584   541Bg     4.521679  
     593Ag     4.528773   593Bu     4.531845   541Au     4.533329  
     542Bg     4.534625   594Bu     4.539133   594Ag     4.541324  
     543Bg     4.547930   542Au     4.548034   595Bu     4.548330  
     595Ag     4.551736   543Au     4.554619   544Bg     4.555472  
     596Bu     4.557095   596Ag     4.557419   545Bg     4.557492  
     597Ag     4.562754   544Au     4.563794   597Bu     4.564999  
     545Au     4.568539   546Bg     4.570944   546Au     4.571647  
     547Au     4.575576   598Ag     4.578029   548Au     4.578935  
     598Bu     4.580500   599Ag     4.583039   547Bg     4.585880  
     599Bu     4.586289   548Bg     4.592685   600Bu     4.594639  
     600Ag     4.599160   601Bu     4.599661   549Au     4.601144  
     549Bg     4.603809   550Bg     4.607078   601Ag     4.608341  
     550Au     4.608869   551Bg     4.611933   602Bu     4.621377  
     602Ag     4.621667   551Au     4.622842   552Bg     4.624879  
     603Bu     4.625756   603Ag     4.630748   552Au     4.643345  
     604Bu     4.650128   604Ag     4.650851   605Ag     4.655104  
     553Au     4.661772   606Ag     4.662489   553Bg     4.663863  
     605Bu     4.667596   554Bg     4.667698   555Bg     4.671414  
     554Au     4.673180   606Bu     4.673906   607Bu     4.676666  
     607Ag     4.679552   555Au     4.680049   556Bg     4.680096  
     608Ag     4.688996   608Bu     4.689784   609Bu     4.697274  
     609Ag     4.699634   557Bg     4.699919   558Bg     4.700715  
     556Au     4.701188   610Bu     4.702120   610Ag     4.707699  
     557Au     4.714001   559Bg     4.719335   558Au     4.720541  
     611Bu     4.722177   611Ag     4.722723   560Bg     4.726921  
     559Au     4.733208   612Ag     4.735219   561Bg     4.738541  
     612Bu     4.739519   613Ag     4.740755   560Au     4.742291  
     613Bu     4.747605   561Au     4.750928   562Bg     4.752352  
     614Bu     4.753121   614Ag     4.754463   563Bg     4.763112  
     615Bu     4.766633   615Ag     4.771737   562Au     4.775918  
     616Ag     4.778813   564Bg     4.780040   616Bu     4.781688  
     563Au     4.785793   617Ag     4.786436   618Ag     4.789357  
     565Bg     4.794329   617Bu     4.796340   564Au     4.796448  
     566Bg     4.800319   565Au     4.803154   566Au     4.808557  
     618Bu     4.810623   567Bg     4.816396   619Ag     4.826272  
     567Au     4.829232   619Bu     4.831872   568Au     4.832464  
     568Bg     4.836032   620Ag     4.840947   569Bg     4.842492  
     569Au     4.847479   570Au     4.850513   620Bu     4.851081  
     621Bu     4.860949   570Bg     4.863128   621Ag     4.867153  
     571Bg     4.867812   571Au     4.875148   622Bu     4.876371  
     622Ag     4.885346   572Au     4.887728   623Bu     4.890322  
     573Au     4.892460   572Bg     4.892788   573Bg     4.893562  
     623Ag     4.894492   624Bu     4.895636   624Ag     4.898166  
     625Ag     4.899949   574Bg     4.900695   574Au     4.904304  
     575Bg     4.909383   626Ag     4.915049   625Bu     4.915957  
     576Bg     4.916856   627Ag     4.925106   575Au     4.930441  
     577Bg     4.932543   628Ag     4.934505   629Ag     4.936557  
     626Bu     4.938410   627Bu     4.939662   576Au     4.941421  
     628Bu     4.943604   577Au     4.949148   629Bu     4.950306  
     578Bg     4.951079   579Bg     4.965391   578Au     4.966653  
     630Ag     4.971299   630Bu     4.972075   631Bu     4.984537  
     579Au     4.984595   631Ag     4.989451   580Au     4.994361  
     580Bg     4.994649   632Bu     5.004085   581Bg     5.005482  
     633Bu     5.010973   632Ag     5.012392   581Au     5.015274  
     633Ag     5.015726   582Bg     5.019026   634Ag     5.020451  
     635Ag     5.022588   582Au     5.026736   634Bu     5.027693  
     583Bg     5.030418   635Bu     5.034806   584Bg     5.037624  
     583Au     5.038143   585Bg     5.042384   636Ag     5.043016  
     636Bu     5.045992   637Ag     5.050464   584Au     5.051048  
     586Bg     5.055549   585Au     5.061242   637Bu     5.061613  
     638Ag     5.065061   587Bg     5.068018   638Bu     5.068116  
     639Ag     5.069439   586Au     5.079732   588Bg     5.082523  
     639Bu     5.085157   640Ag     5.087328   587Au     5.092982  
     640Bu     5.093315   641Ag     5.095690   641Bu     5.098523  
     588Au     5.103087   589Bg     5.107208   589Au     5.115482  
     642Ag     5.126856   642Bu     5.127094   643Ag     5.130467  
     590Bg     5.131758   590Au     5.134511   643Bu     5.137665  
     591Au     5.138591   591Bg     5.140273   644Ag     5.140453  
     592Bg     5.145969   593Bg     5.151594   592Au     5.152246  
     644Bu     5.160325   593Au     5.165985   645Bu     5.169676  
     594Bg     5.171053   645Ag     5.186494   594Au     5.189976  
     646Bu     5.196435   646Ag     5.200148   595Bg     5.205033  
     647Bu     5.206586   595Au     5.214866   647Ag     5.222752  
     596Bg     5.225010   648Ag     5.227678   648Bu     5.230950  
     596Au     5.232739   649Ag     5.235412   649Bu     5.237048  
     597Au     5.241233   597Bg     5.241988   650Bu     5.242908  
     598Bg     5.247262   650Ag     5.249345   598Au     5.252007  
     651Ag     5.254673   651Bu     5.255623   599Bg     5.256524  
     599Au     5.272653   652Bu     5.277152   652Ag     5.279349  
     653Ag     5.289306   600Bg     5.294356   653Bu     5.301723  
     654Bu     5.313297   600Au     5.314049   654Ag     5.314124  
     601Bg     5.327883   655Ag     5.362157   655Bu     5.362194  
     601Au     5.369093   602Bg     5.369528   603Bg     5.372189  
     602Au     5.380702   656Ag     5.393258   657Ag     5.402859  
     603Au     5.403940   656Bu     5.404033   604Bg     5.405624  
     657Bu     5.409916   605Bg     5.415037   604Au     5.421100  
     658Bu     5.426962   659Bu     5.441498   658Ag     5.442859  
     605Au     5.443779   606Bg     5.446108   660Bu     5.446417  
     659Ag     5.450077   607Bg     5.454691   606Au     5.454959  
     660Ag     5.455779   661Ag     5.506683   607Au     5.516297  
     661Bu     5.521254   608Bg     5.522159   609Bg     5.543685  
     608Au     5.549426   662Ag     5.552967   662Bu     5.556655  
     610Bg     5.564121   663Ag     5.566098   663Bu     5.569303  
     611Bg     5.569908   609Au     5.571868   610Au     5.576885  
     664Bu     5.582220   664Ag     5.587197   611Au     5.596925  
     612Bg     5.597173   613Bg     5.612491   665Bu     5.613735  
     612Au     5.616034   665Ag     5.616763   666Ag     5.652067  
     614Bg     5.658340   666Bu     5.661163   613Au     5.663285  
     667Ag     5.667093   667Bu     5.668374   614Au     5.674995  
     615Bg     5.687061   615Au     5.687383   616Bg     5.696323  
     668Ag     5.731022   668Bu     5.745009   669Bu     5.750542  
     669Ag     5.757996   617Bg     5.761510   616Au     5.765646  
     670Bu     5.801563   617Au     5.805975   670Ag     5.811604  
     618Bg     5.820434   671Bu     5.827330   671Ag     5.828961  
     672Ag     5.878093   672Bu     5.878305   618Au     5.881472  
     619Bg     5.881591   619Au     5.935909   620Au     5.937488  
     620Bg     5.941181   673Bu     5.943033   673Ag     5.949604  
     621Bg     5.957730   621Au     5.968090   622Bg     5.968448  
     674Ag     5.977480   674Bu     5.985542   623Bg     6.024957  
     675Bu     6.036296   675Ag     6.044019   622Au     6.057304  
     676Bu     6.212039   623Au     6.219531   677Bu     6.227340  
     676Ag     6.232286   624Bg     6.244493   677Ag     6.251443  
     624Au     6.301088   625Bg     6.304730   625Au     6.307114  
     678Bu     6.307851   626Bg     6.310688   678Ag     6.312767  
     679Bu     6.320188   626Au     6.322989   679Ag     6.328167  
     627Au     6.329076   627Bg     6.333333   680Bu     6.337142  
     628Bg     6.344268   680Ag     6.349125   681Bu     6.357068  
     681Ag     6.361962   629Bg     6.363544   630Bg     6.395419  
     682Ag     6.401314   631Bg     6.404460   628Au     6.406336  
     682Bu     6.413192   683Ag     6.418506   632Bg     6.422109  
     683Bu     6.424099   629Au     6.427287   630Au     6.431394  
     631Au     6.438159   684Ag     6.440010   684Bu     6.445653  
     633Bg     6.452235   632Au     6.452903   633Au     6.523157  
     685Bu     6.530120   685Ag     6.535845   686Ag     6.545810  
     634Au     6.551774   686Bu     6.553896   634Bg     6.557331  
     687Bu     6.566378   635Bg     6.566564   687Ag     6.569721  
     636Bg     6.589945   635Au     6.591142   688Bu     6.593936  
     688Ag     6.596384   636Au     6.690945   689Ag     6.696770  
     689Bu     6.696943   637Bg     6.708724   690Ag     6.717929  
     690Bu     6.725150   638Bg     6.727458   637Au     6.731607  
     691Ag     6.749633   639Bg     6.755537   691Bu     6.759793  
     638Au     6.766617   692Ag     6.794120   692Bu     6.799587  
     639Au     6.802477   640Bg     6.811585   693Ag     6.814599  
     693Bu     6.823264   640Au     6.823609   641Bg     6.850349  
     641Au     6.855544   694Bu     6.859552   694Ag     6.875067  
     642Bg     6.895509   695Bu     6.969869   642Au     6.976940  
     643Bg     6.978724   695Ag     6.979669   696Ag     6.988283  
     644Bg     7.006214   696Bu     7.007098   643Au     7.009598  
     645Bg     7.331609   644Au     7.334124   697Ag    15.146418  
     697Bu    15.236931   646Bg    15.952964   698Bu    15.965724  
     698Ag    16.073138   645Au    16.075204   699Bu    17.164324  
     699Ag    17.245335   647Bg    17.250941   646Au    17.291167  
     700Bu    17.620209   700Ag    17.627904   648Bg    17.673916  
     647Au    17.679467   649Bg    18.319883   701Ag    18.327369  
     701Bu    18.351305   648Au    18.376725   649Au    19.864656  
     702Bu    19.899742   702Ag    19.968428   650Bg    20.026318  
     703Bu    20.222874   703Ag    20.656879   651Bg    20.754319  
     650Au    20.837573   704Ag    21.069548   704Bu    21.101460  
     652Bg    21.146486   651Au    21.206750   705Ag    21.232798  
     653Bg    21.279294   705Bu    21.369017   652Au    21.558493  
     706Bu    21.866610   706Ag    21.878816   707Bu    21.950665  
     707Ag    22.218876   708Bu    22.724007   653Au    22.807595  
     708Ag    22.821584   654Bg    22.849564   709Bu    23.247345  
     709Ag    23.302742   710Bu    23.368650   710Ag    23.464616  
     654Au    23.480396   655Bg    23.521486  

    Final Occupation by Irrep:
             Ag    Bg    Au    Bu 
    DOCC [    43,   35,   35,   43 ]
    NA   [    43,   35,   35,   43 ]
    NB   [    43,   35,   35,   43 ]

  @DF-RKS Final Energy: -1843.91344319437462

   => Energetics <=

    Nuclear Repulsion Energy =           6088.1700676651344111
    One-Electron Energy =              -14618.8911892467258440
    Two-Electron Energy =                6872.8746807426978194
    DFT Exchange-Correlation Energy =    -187.1570575048275487
    Empirical Dispersion Energy =           0.0000000000000000
    VV10 Nonlocal Energy =                  1.0900551493461854
    Total Energy =                      -1843.9134431943750769

Computation Completed


Properties will be evaluated at   0.000000,   0.000000,   0.000000 [a0]

Properties computed using the SCF density matrix


 Multipole Moments:

 ------------------------------------------------------------------------------------
     Multipole            Electronic (a.u.)      Nuclear  (a.u.)        Total (a.u.)
 ------------------------------------------------------------------------------------

 L = 1.  Multiply by 2.5417464519 to convert [e a0] to [Debye]
 Dipole X            :          0.0000000            0.0000000            0.0000000
 Dipole Y            :          0.0000000           -0.0000000           -0.0000000
 Dipole Z            :          0.0000000           -0.0000000           -0.0000000
 Magnitude           :                                                    0.0000000

 ------------------------------------------------------------------------------------

*** tstop() called on atl1-1-03-004-8-2.pace.gatech.edu at Sat Jun 13 16:22:19 2026
Module time:
	user time   =   70200.81 seconds =    1170.01 minutes
	system time =    4260.89 seconds =      71.01 minutes
	total time  =      10720 seconds =     178.67 minutes
Total time:
	user time   =   70200.81 seconds =    1170.01 minutes
	system time =    4260.89 seconds =      71.01 minutes
	total time  =      10720 seconds =     178.67 minutes

    Psi4 stopped on: Saturday, 13 June 2026 04:22PM
    Psi4 wall time for execution: 2:58:53.72

*** Psi4 exiting successfully. Buy a developer a beer!
