
    -----------------------------------------------------------------------
          Psi4: An Open-Source Ab Initio Electronic Structure Package
                               Psi4 1.9.1 release

                         Git: Rev {} zzzzzzz 


    D. G. A. Smith, L. A. Burns, A. C. Simmonett, R. M. Parrish,
    M. C. Schieber, R. Galvelis, P. Kraus, H. Kruse, R. Di Remigio,
    A. Alenaizan, A. M. James, S. Lehtola, J. P. Misiewicz, M. Scheurer,
    R. A. Shaw, J. B. Schriber, Y. Xie, Z. L. Glick, D. A. Sirianni,
    J. S. O'Brien, J. M. Waldrop, A. Kumar, E. G. Hohenstein,
    B. P. Pritchard, B. R. Brooks, H. F. Schaefer III, A. Yu. Sokolov,
    K. Patkowski, A. E. DePrince III, U. Bozkaya, R. A. King,
    F. A. Evangelista, J. M. Turney, T. D. Crawford, C. D. Sherrill,
    J. Chem. Phys. 152(18) 184108 (2020). https://doi.org/10.1063/5.0006002

                            Additional Code Authors
    E. T. Seidl, C. L. Janssen, E. F. Valeev, M. L. Leininger,
    J. F. Gonthier, R. M. Richard, H. R. McAlexander, M. Saitow, X. Wang,
    P. Verma, M. H. Lechner, A. Jiang, S. Behnle, A. G. Heide,
    M. F. Herbst, and D. L. Poole

             Previous Authors, Complete List of Code Contributors,
                       and Citations for Specific Modules
    https://github.com/psi4/psi4/blob/master/codemeta.json
    https://github.com/psi4/psi4/graphs/contributors
    http://psicode.org/psi4manual/master/introduction.html#citing-psifour

    -----------------------------------------------------------------------


    Psi4 started on: Saturday, 13 June 2026 03:53PM

    Process ID: 540019
    Host:       atl1-1-03-004-6-1.pace.gatech.edu
    PSIDATADIR: /storage/home/hcoda1/5/vlita3/.conda/envs/p4_qcml/share/psi4
    Memory:     250.0 GiB
    Threads:    10
    
  ==> Input QCSchema <==

--------------------------------------------------------------------------
{'driver': 'energy',
 'extras': {},
 'id': '260',
 'keywords': {},
 'model': {'basis': 'aug-cc-pvtz', 'method': 'wb97x-v'},
 'molecule': {'extras': {},
              'fix_com': True,
              'fix_orientation': True,
              'fragment_charges': [0.0, 0.0],
              'fragment_multiplicities': [1, 1],
              'fragments': [[0, 1, 2, 3, 4, 5, 6, 7, 8, 9, 10, 11, 12, 13, 14, 15, 16, 17, 18, 19, 20, 21, 22, 23, 24,
                             25, 26, 27, 28, 29, 30, 31, 32, 33, 34, 35, 36, 37, 38, 39, 40, 41, 42, 43, 44, 45, 46, 47,
                             48, 49, 50, 51, 52, 53, 54, 55, 56, 57, 58, 59, 60, 61, 62, 63, 64, 65, 66, 67],
                            [68, 69, 70, 71, 72, 73, 74, 75, 76, 77, 78, 79, 80, 81, 82, 83]],
              'geometry': [-5.34620642, -4.85206741, -0.42040662, -6.29696543, -3.97249137, -2.73196591, -7.16652857,
                           -1.39360971, -2.91024059, -7.07225732, 0.1478346, -0.75712917, -6.06055521, -0.70522859,
                           1.52779916, -5.14660825, -3.28275871, 1.6937689, -8.00940954, -0.47795161, -5.29622845,
                           -8.00389532, -2.01265111, -7.39175445, -7.1739962, -4.55869367, -7.20967896, -6.3482405,
                           -5.51081404, -4.93971915, -5.79174545, 0.94432733, 3.66064233, -4.5983628, 0.0799819,
                           5.76970066, -3.62293398, -2.4551662, 5.90550866, -3.92400421, -4.11631993, 3.96419018,
                           -2.16569152, -2.61945029, 8.3885177, 0.07636213, -0.84617571, 7.95116799, -0.9078112,
                           1.61784783, 7.8674416, -3.76570071, 1.39135281, 8.20497635, -3.85671125, -0.88804523,
                           10.06281411, 2.58001171, -1.3655127, 7.31184057, 4.1057488, 0.7110172, 6.7716308, 3.12911434,
                           3.1826792, 6.68292857, 0.58226752, 3.66820181, 7.1546987, 5.22477035, 4.85680231, 5.5947568,
                           5.45773257, 3.95265056, 2.86034162, 6.48712479, 1.44012834, 2.99187034, 6.82098554,
                           0.8515344, 5.79382301, 7.56885523, 3.52377684, 6.77238443, 6.80325367, 0.01007923,
                           0.87853632, 6.01230407, 0.99764822, -1.51581981, 4.9476594, 3.51769873, -1.64633715,
                           4.72513697, 4.9862546, 0.62058001, 6.12205861, -0.46131862, -3.71310038, 5.15756848,
                           0.40687221, -6.02295948, 4.08395781, 2.91056166, -6.14884699, 4.05329983, 4.41018879,
                           -3.96462935, 5.13306837, -1.12454068, -8.23614739, 4.07851898, -0.25961114, -10.44460058,
                           2.99478619, 2.19392857, -10.56107574, 3.00851807, 3.73807424, -8.47334713, 3.50361025,
                           -3.823107, 7.21233591, -0.52564981, 6.01194181, 6.93361699, 5.05829719, 6.89567715,
                           5.87089814, 8.0356414, -0.74107273, 6.26352729, 7.58901842, 3.63875572, 8.83518962,
                           9.35421802, 4.19783591, 5.97522954, -5.76611566, -1.64188193, 10.31542343, -2.98864212,
                           -0.45542891, 11.88758146, -4.77253092, 3.11242428, 8.71181923, -1.70891184, -4.50721847,
                           9.0671295, 7.55489696, -1.89976737, 0.96862939, 3.89947197, 6.86430373, 0.5027639,
                           -6.46680418, 2.87873678, 3.51311765, -3.18323648, -6.03153223, 4.04964208, 3.22722344,
                           6.29110633, -4.05969977, 6.91726822, -2.35617478, -3.61337858, 2.17488807, 5.6139636,
                           -8.5558299, 2.15939666, 2.84829877, -12.31851423, 4.06363758, -1.45295543, -12.11512622,
                           5.94772646, -3.00842661, -8.1365677, -4.65219392, -6.78410677, -0.29846731, -7.72607119,
                           2.09308409, -0.89347536, -5.69192784, -7.45269585, -4.79824367, -8.63836085, 1.47325902,
                           -5.4323305, -8.64382367, -1.28398557, -9.20131008, -7.19028923, -5.75067773, -8.88116704,
                           0.69471926, 7.16657411, 6.19908801, 3.21943853, -4.43255237, 5.4924338, -1.01804176,
                           -2.06721752, -6.41424693, -0.04006805, -3.69463605, -4.59993014, 0.29508244, -2.88730801,
                           -2.09508758, -0.32679714, -0.42272984, -1.41690966, -1.32071561, 1.15392876, -3.24915277,
                           -1.68814035, 0.37514049, -5.74325186, 0.62349756, -6.02367305, -5.33266218, 1.25684872,
                           -4.55988854, -0.10878832, -2.01790096, 3.74535177, -2.52671085, -2.46962752, 1.68011751,
                           -7.10722613, -0.06092458, 0.2181685, 0.50639917, -1.23619836, -2.74752497, -8.33105453,
                           2.06085935, -3.52195874, 1.83306118, 1.18336559, -6.86024705, -0.44470452, -2.90698951,
                           5.11929396, -4.19647021, -1.67462389, 4.39177019, -0.3135118],
              'id': 18,
              'identifiers': {'molecular_formula': 'C46FH29N2O6',
                              'molecule_hash': '8bccfcee32ad0571285e1e50b558eedd7c431b17'},
              'masses': [12.0, 12.0, 12.0, 12.0, 12.0, 12.0, 12.0, 12.0, 12.0, 12.0, 12.0, 12.0, 12.0, 12.0, 12.0, 12.0,
                         12.0, 12.0, 12.0, 12.0, 12.0, 12.0, 12.0, 12.0, 12.0, 12.0, 12.0, 12.0, 12.0, 12.0, 12.0, 12.0,
                         12.0, 12.0, 12.0, 12.0, 12.0, 12.0, 12.0, 12.0, 15.99491461957, 15.99491461957, 1.00782503223,
                         1.00782503223, 1.00782503223, 1.00782503223, 1.00782503223, 1.00782503223, 1.00782503223,
                         1.00782503223, 1.00782503223, 1.00782503223, 1.00782503223, 1.00782503223, 1.00782503223,
                         1.00782503223, 1.00782503223, 1.00782503223, 1.00782503223, 1.00782503223, 1.00782503223,
                         1.00782503223, 1.00782503223, 1.00782503223, 1.00782503223, 1.00782503223, 1.00782503223,
                         1.00782503223, 12.0, 12.0, 12.0, 12.0, 12.0, 12.0, 18.99840316273, 14.00307400443,
                         14.00307400443, 1.00782503223, 1.00782503223, 1.00782503223, 15.99491461957, 15.99491461957,
                         15.99491461957, 15.99491461957],
              'molecular_charge': 0.0,
              'molecular_multiplicity': 1,
              'name': 'C46FH29N2O6 ([0],[1])',
              'provenance': {'creator': 'QCElemental',
                             'routine': 'qcelemental.molparse.from_schema',
                             'version': '0.29.0'},
              'real': [True, True, True, True, True, True, True, True, True, True, True, True, True, True, True, True,
                       True, True, True, True, True, True, True, True, True, True, True, True, True, True, True, True,
                       True, True, True, True, True, True, True, True, True, True, True, True, True, True, True, True,
                       True, True, True, True, True, True, True, True, True, True, True, True, True, True, True, True,
                       True, True, True, True, False, False, False, False, False, False, False, False, False, False,
                       False, False, False, False, False, False],
              'schema_name': 'qcschema_molecule',
              'schema_version': 2,
              'symbols': ['C', 'C', 'C', 'C', 'C', 'C', 'C', 'C', 'C', 'C', 'C', 'C', 'C', 'C', 'C', 'C', 'C', 'C', 'C',
                          'C', 'C', 'C', 'C', 'C', 'C', 'C', 'C', 'C', 'C', 'C', 'C', 'C', 'C', 'C', 'C', 'C', 'C', 'C',
                          'C', 'C', 'O', 'O', 'H', 'H', 'H', 'H', 'H', 'H', 'H', 'H', 'H', 'H', 'H', 'H', 'H', 'H', 'H',
                          'H', 'H', 'H', 'H', 'H', 'H', 'H', 'H', 'H', 'H', 'H', 'C', 'C', 'C', 'C', 'C', 'C', 'F', 'N',
                          'N', 'H', 'H', 'H', 'O', 'O', 'O', 'O'],
              'validated': True},
 'protocols': {},
 'provenance': {'creator': 'QCElemental', 'routine': 'qcelemental.models.results', 'version': '0.29.0'},
 'schema_name': 'qcschema_input',
 'schema_version': 1}
--------------------------------------------------------------------------

Scratch directory: /tmp/tmpmt6qnz4k_psi_scratch/
   => Libint2 <=

    Primary   basis highest AM E, G, H:  6, 6, 3
    Auxiliary basis highest AM E, G, H:  7, 7, 4
    Onebody   basis highest AM E, G, H:  -, -, -
    Solid Harmonics ordering:            Gaussian

*** tstart() called on atl1-1-03-004-6-1.pace.gatech.edu
*** at Sat Jun 13 15:53:32 2026

   => Loading Basis Set <=

    Name: AUG-CC-PVTZ
    Role: ORBITAL
    Keyword: BASIS
    atoms 1-40, 69-74  entry C          line   239 file /storage/home/hcoda1/5/vlita3/.conda/envs/p4_qcml/share/psi4/basis/aug-cc-pvtz.gbs 
    atoms 41-42, 81-84 entry O          line   331 file /storage/home/hcoda1/5/vlita3/.conda/envs/p4_qcml/share/psi4/basis/aug-cc-pvtz.gbs 
    atoms 43-68, 78-80 entry H          line    40 file /storage/home/hcoda1/5/vlita3/.conda/envs/p4_qcml/share/psi4/basis/aug-cc-pvtz.gbs 
    atoms 75           entry F          line   377 file /storage/home/hcoda1/5/vlita3/.conda/envs/p4_qcml/share/psi4/basis/aug-cc-pvtz.gbs 
    atoms 76-77        entry N          line   285 file /storage/home/hcoda1/5/vlita3/.conda/envs/p4_qcml/share/psi4/basis/aug-cc-pvtz.gbs 


         ---------------------------------------------------------
                                   SCF
               by Justin Turney, Rob Parrish, Andy Simmonett
                          and Daniel G. A. Smith
                              RKS Reference
                       10 Threads, 256000 MiB Core
         ---------------------------------------------------------

  ==> Geometry <==

    Molecular point group: c1
    Full point group: C1

    Geometry (in Bohr), charge = 0, multiplicity = 1:

       Center              X                  Y                   Z               Mass       
    ------------   -----------------  -----------------  -----------------  -----------------
         C           -5.346206420000    -4.852067410000    -0.420406620000    12.000000000000
         C           -6.296965430000    -3.972491370000    -2.731965910000    12.000000000000
         C           -7.166528570000    -1.393609710000    -2.910240590000    12.000000000000
         C           -7.072257320000     0.147834600000    -0.757129170000    12.000000000000
         C           -6.060555210000    -0.705228590000     1.527799160000    12.000000000000
         C           -5.146608250000    -3.282758710000     1.693768900000    12.000000000000
         C           -8.009409540000    -0.477951610000    -5.296228450000    12.000000000000
         C           -8.003895320000    -2.012651110000    -7.391754450000    12.000000000000
         C           -7.173996200000    -4.558693670000    -7.209678960000    12.000000000000
         C           -6.348240500000    -5.510814040000    -4.939719150000    12.000000000000
         C           -5.791745450000     0.944327330000     3.660642330000    12.000000000000
         C           -4.598362800000     0.079981900000     5.769700660000    12.000000000000
         C           -3.622933980000    -2.455166200000     5.905508660000    12.000000000000
         C           -3.924004210000    -4.116319930000     3.964190180000    12.000000000000
         C           -2.165691520000    -2.619450290000     8.388517700000    12.000000000000
         C            0.076362130000    -0.846175710000     7.951167990000    12.000000000000
         C           -0.907811200000     1.617847830000     7.867441600000    12.000000000000
         C           -3.765700710000     1.391352810000     8.204976350000    12.000000000000
         C           -3.856711250000    -0.888045230000    10.062814110000    12.000000000000
         C            2.580011710000    -1.365512700000     7.311840570000    12.000000000000
         C            4.105748800000     0.711017200000     6.771630800000    12.000000000000
         C            3.129114340000     3.182679200000     6.682928570000    12.000000000000
         C            0.582267520000     3.668201810000     7.154698700000    12.000000000000
         C            5.224770350000     4.856802310000     5.594756800000    12.000000000000
         C            5.457732570000     3.952650560000     2.860341620000    12.000000000000
         C            6.487124790000     1.440128340000     2.991870340000    12.000000000000
         C            6.820985540000     0.851534400000     5.793823010000    12.000000000000
         C            7.568855230000     3.523776840000     6.772384430000    12.000000000000
         C            6.803253670000     0.010079230000     0.878536320000    12.000000000000
         C            6.012304070000     0.997648220000    -1.515819810000    12.000000000000
         C            4.947659400000     3.517698730000    -1.646337150000    12.000000000000
         C            4.725136970000     4.986254600000     0.620580010000    12.000000000000
         C            6.122058610000    -0.461318620000    -3.713100380000    12.000000000000
         C            5.157568480000     0.406872210000    -6.022959480000    12.000000000000
         C            4.083957810000     2.910561660000    -6.148846990000    12.000000000000
         C            4.053299830000     4.410188790000    -3.964629350000    12.000000000000
         C            5.133068370000    -1.124540680000    -8.236147390000    12.000000000000
         C            4.078518980000    -0.259611140000   -10.444600580000    12.000000000000
         C            2.994786190000     2.193928570000   -10.561075740000    12.000000000000
         C            3.008518070000     3.738074240000    -8.473347130000    12.000000000000
         O            3.503610250000    -3.823107000000     7.212335910000    15.994914619570
         O           -0.525649810000     6.011941810000     6.933616990000    15.994914619570
         H            5.058297190000     6.895677150000     5.870898140000     1.007825032230
         H            8.035641400000    -0.741072730000     6.263527290000     1.007825032230
         H            7.589018420000     3.638755720000     8.835189620000     1.007825032230
         H            9.354218020000     4.197835910000     5.975229540000     1.007825032230
         H           -5.766115660000    -1.641881930000    10.315423430000     1.007825032230
         H           -2.988642120000    -0.455428910000    11.887581460000     1.007825032230
         H           -4.772530920000     3.112424280000     8.711819230000     1.007825032230
         H           -1.708911840000    -4.507218470000     9.067129500000     1.007825032230
         H            7.554896960000    -1.899767370000     0.968629390000     1.007825032230
         H            3.899471970000     6.864303730000     0.502763900000     1.007825032230
         H           -6.466804180000     2.878736780000     3.513117650000     1.007825032230
         H           -3.183236480000    -6.031532230000     4.049642080000     1.007825032230
         H            3.227223440000     6.291106330000    -4.059699770000     1.007825032230
         H            6.917268220000    -2.356174780000    -3.613378580000     1.007825032230
         H            2.174888070000     5.613963600000    -8.555829900000     1.007825032230
         H            2.159396660000     2.848298770000   -12.318514230000     1.007825032230
         H            4.063637580000    -1.452955430000   -12.115126220000     1.007825032230
         H            5.947726460000    -3.008426610000    -8.136567700000     1.007825032230
         H           -4.652193920000    -6.784106770000    -0.298467310000     1.007825032230
         H           -7.726071190000     2.093084090000    -0.893475360000     1.007825032230
         H           -5.691927840000    -7.452695850000    -4.798243670000     1.007825032230
         H           -8.638360850000     1.473259020000    -5.432330500000     1.007825032230
         H           -8.643823670000    -1.283985570000    -9.201310080000     1.007825032230
         H           -7.190289230000    -5.750677730000    -8.881167040000     1.007825032230
         H            0.694719260000     7.166574110000     6.199088010000     1.007825032230
         H            3.219438530000    -4.432552370000     5.492433800000     1.007825032230
      Gh(C)          -1.018041760000    -2.067217520000    -6.414246930000    12.000000000000
      Gh(C)          -0.040068050000    -3.694636050000    -4.599930140000    12.000000000000
      Gh(C)           0.295082440000    -2.887308010000    -2.095087580000    12.000000000000
      Gh(C)          -0.326797140000    -0.422729840000    -1.416909660000    12.000000000000
      Gh(C)          -1.320715610000     1.153928760000    -3.249152770000    12.000000000000
      Gh(C)          -1.688140350000     0.375140490000    -5.743251860000    12.000000000000
      Gh(F)           0.623497560000    -6.023673050000    -5.332662180000    18.998403162730
      Gh(N)           1.256848720000    -4.559888540000    -0.108788320000    14.003074004430
      Gh(N)          -2.017900960000     3.745351770000    -2.526710850000    14.003074004430
      Gh(H)          -2.469627520000     1.680117510000    -7.107226130000     1.007825032230
      Gh(H)          -0.060924580000     0.218168500000     0.506399170000     1.007825032230
      Gh(H)          -1.236198360000    -2.747524970000    -8.331054530000     1.007825032230
      Gh(O)           2.060859350000    -3.521958740000     1.833061180000    15.994914619570
      Gh(O)           1.183365590000    -6.860247050000    -0.444704520000    15.994914619570
      Gh(O)          -2.906989510000     5.119293960000    -4.196470210000    15.994914619570
      Gh(O)          -1.674623890000     4.391770190000    -0.313511800000    15.994914619570

  Running in c1 symmetry.

  Rotational constants: A =      0.00269  B =      0.00202  C =      0.00154 [cm^-1]
  Rotational constants: A =     80.53073  B =     60.67005  C =     46.28054 [MHz]
  Nuclear repulsion = 4517.267906260053678

  Charge       = 0
  Multiplicity = 1
  Electrons    = 282
  Nalpha       = 141
  Nbeta        = 141

  ==> Algorithm <==

  SCF Algorithm Type is DF.
  DIIS enabled.
  MOM disabled.
  Fractional occupation disabled.
  Guess Type is SAD.
  Energy threshold   = 1.00e-06
  Density threshold  = 1.00e-06
  Integral threshold = 1.00e-12

  ==> Primary Basis <==

  Basis Set: AUG-CC-PVTZ
    Blend: AUG-CC-PVTZ
    Number of shells: 1031
    Number of basis functions: 3197
    Number of Cartesian functions: 3750
    Spherical Harmonics?: true
    Max angular momentum: 3

  ==> DFT Potential <==

   => LibXC <=

    Version 7.0.0
    S. Lehtola, C. Steigemann, M. J.T. Oliveira, and M. A.L. Marques.,  SoftwareX 7, 1–5 (2018) (10.1016/j.softx.2017.11.002)

   => Composite Functional: WB97X-V <= 

    wB97X-V Hyb-GGA Exchange-Correlation Functional

    N. Mardirossian and M. Head-Gordon.,  Phys. Chem. Chem. Phys. 16, 9904-9924 (2014) (10.1039/C3CP54374A)

    Deriv               =              1
    GGA                 =           TRUE
    Meta                =          FALSE

    Exchange Hybrid     =           TRUE
    MP2 Hybrid          =          FALSE

   => Exchange-Correlation Functionals <=

    1.0000   wB97X-V range-separated functional

   => Exact (HF) Exchange <=

    0.8330            HF,LR [omega = 0.3000]
    0.1670               HF 

   => LibXC Density Thresholds  <==

    XC_HYB_GGA_XC_WB97X_V:  1.00E-14 

   => VV10 Non-Local Parameters <=

    VV10 B              =     6.0000E+00
    VV10 C              =     1.0000E-02

   => Molecular Quadrature <=

    Radial Scheme          =       TREUTLER
    Pruning Scheme         =           NONE
    Nuclear Scheme         =       TREUTLER

    Blocking Scheme        =         OCTREE
    BS radius alpha        =              1
    Pruning alpha          =              1
    Radial Points          =             75
    Spherical Points       =            302
    Total Points           =        1660585
    Total Blocks           =          11397
    Max Points             =            256
    Max Functions          =           2139
    Weights Tolerance      =       1.00E-15

   => Loading Basis Set <=

    Name: (AUG-CC-PVTZ AUX)
    Role: JKFIT
    Keyword: DF_BASIS_SCF
    atoms 1-40, 69-74  entry C          line   162 file /storage/home/hcoda1/5/vlita3/.conda/envs/p4_qcml/share/psi4/basis/aug-cc-pvtz-jkfit.gbs 
    atoms 41-42, 81-84 entry O          line   286 file /storage/home/hcoda1/5/vlita3/.conda/envs/p4_qcml/share/psi4/basis/aug-cc-pvtz-jkfit.gbs 
    atoms 43-68, 78-80 entry H          line    70 file /storage/home/hcoda1/5/vlita3/.conda/envs/p4_qcml/share/psi4/basis/aug-cc-pvtz-jkfit.gbs 
    atoms 75           entry F          line   348 file /storage/home/hcoda1/5/vlita3/.conda/envs/p4_qcml/share/psi4/basis/aug-cc-pvtz-jkfit.gbs 
    atoms 76-77        entry N          line   224 file /storage/home/hcoda1/5/vlita3/.conda/envs/p4_qcml/share/psi4/basis/aug-cc-pvtz-jkfit.gbs 

  ==> Integral Setup <==

  ==> DiskDFJK: Density-Fitted J/K Matrices <==

    J tasked:                  Yes
    K tasked:                  Yes
    wK tasked:                 Yes
    Omega:               3.000E-01
    OpenMP threads:             10
    Integrals threads:          10
    Memory [MiB]:           172800
    Algorithm:                Disk
    Integral Cache:           NONE
    Schwarz Cutoff:          1E-12
    Fitting Condition:       1E-10

   => Auxiliary Basis Set <=

  Basis Set: (AUG-CC-PVTZ AUX)
    Blend: AUG-CC-PVTZ-JKFIT
    Number of shells: 2056
    Number of basis functions: 7054
    Number of Cartesian functions: 8800
    Spherical Harmonics?: true
    Max angular momentum: 4

  Minimum eigenvalue in the overlap matrix is 8.4696743678E-09.
  Reciprocal condition number of the overlap matrix is 2.5542464085E-10.
    Using canonical orthogonalization.
  Overall, 16 of 3197 possible MOs eliminated.


  ==> Pre-Iterations <==

  SCF Guess: Superposition of Atomic Densities via on-the-fly atomic UHF (no occupation information).

   -------------------------
    Irrep   Nso     Nmo    
   -------------------------
     A       3197    3181 
   -------------------------
    Total    3197    3181
   -------------------------

  ==> Iterations <==

                           Total Energy        Delta E     RMS |[F,P]|

   @DF-RKS iter SAD: -1692.27396735391721   -1.69227e+03   0.00000e+00 
   @DF-RKS iter   1: -1689.13717443107294    3.13679e+00   5.06939e-04 ADIIS/DIIS
   @DF-RKS iter   2: -1689.86627325007203   -7.29099e-01   3.65916e-04 ADIIS/DIIS
   @DF-RKS iter   3: -1690.47051111869382   -6.04238e-01   7.11289e-05 DIIS
   @DF-RKS iter   4: -1690.49080821703865   -2.02971e-02   2.73773e-05 DIIS
   @DF-RKS iter   5: -1690.49452181083916   -3.71359e-03   8.76580e-06 DIIS
   @DF-RKS iter   6: -1690.49491531581725   -3.93505e-04   2.54442e-06 DIIS
   @DF-RKS iter   7: -1690.49495616622858   -4.08504e-05   6.62509e-07 DIIS
   @DF-RKS iter   8: -1690.49496226567635   -6.09945e-06   3.78606e-07 DIIS
   @DF-RKS iter   9: -1690.49496399496729   -1.72929e-06   1.32942e-07 DIIS
   @DF-RKS iter  10: -1690.49496435688911   -3.61922e-07   6.98101e-08 DIIS
  Energy and wave function converged.


  ==> Post-Iterations <==

   Electrons on quadrature grid:
      Ntotal   =  281.9999629269 ; deviation = -3.707e-05 

    Orbital Energies [Eh]
    ---------------------

    Doubly Occupied:                                                      

       1A    -19.253751     2A    -19.238891     3A    -10.340621  
       4A    -10.328963     5A    -10.306570     6A    -10.298626  
       7A    -10.294522     8A    -10.293883     9A    -10.290790  
      10A    -10.290323    11A    -10.290152    12A    -10.288661  
      13A    -10.287677    14A    -10.287074    15A    -10.286663  
      16A    -10.286633    17A    -10.285996    18A    -10.285273  
      19A    -10.284655    20A    -10.284374    21A    -10.283669  
      22A    -10.283279    23A    -10.283223    24A    -10.282982  
      25A    -10.282762    26A    -10.281158    27A    -10.280771  
      28A    -10.280076    29A    -10.279072    30A    -10.278872  
      31A    -10.278601    32A    -10.278542    33A    -10.277857  
      34A    -10.277496    35A    -10.276877    36A    -10.275867  
      37A    -10.275793    38A    -10.275389    39A    -10.275308  
      40A    -10.275110    41A    -10.275001    42A    -10.274738  
      43A     -1.193978    44A     -1.176592    45A     -1.056596  
      46A     -1.047324    47A     -1.018369    48A     -1.014287  
      49A     -0.986467    50A     -0.978790    51A     -0.954812  
      52A     -0.927270    53A     -0.923378    54A     -0.918954  
      55A     -0.915895    56A     -0.900093    57A     -0.893799  
      58A     -0.877864    59A     -0.867995    60A     -0.860996  
      61A     -0.857638    62A     -0.839733    63A     -0.838703  
      64A     -0.819312    65A     -0.799676    66A     -0.777364  
      67A     -0.772223    68A     -0.750290    69A     -0.734289  
      70A     -0.728387    71A     -0.725259    72A     -0.723830  
      73A     -0.721302    74A     -0.717225    75A     -0.709688  
      76A     -0.693780    77A     -0.689855    78A     -0.663596  
      79A     -0.651594    80A     -0.644298    81A     -0.642037  
      82A     -0.640660    83A     -0.634338    84A     -0.623504  
      85A     -0.612487    86A     -0.606831    87A     -0.596044  
      88A     -0.588167    89A     -0.572766    90A     -0.567364  
      91A     -0.565625    92A     -0.565004    93A     -0.562038  
      94A     -0.557044    95A     -0.548168    96A     -0.539023  
      97A     -0.536771    98A     -0.532544    99A     -0.532390  
     100A     -0.529867   101A     -0.526649   102A     -0.526188  
     103A     -0.523108   104A     -0.522433   105A     -0.519131  
     106A     -0.518713   107A     -0.516489   108A     -0.504349  
     109A     -0.502370   110A     -0.495923   111A     -0.489720  
     112A     -0.483340   113A     -0.481016   114A     -0.479871  
     115A     -0.470121   116A     -0.465457   117A     -0.462897  
     118A     -0.459822   119A     -0.455170   120A     -0.453378  
     121A     -0.449368   122A     -0.445325   123A     -0.436950  
     124A     -0.436174   125A     -0.432071   126A     -0.429006  
     127A     -0.422036   128A     -0.411724   129A     -0.411253  
     130A     -0.404687   131A     -0.400355   132A     -0.398431  
     133A     -0.393618   134A     -0.354961   135A     -0.350256  
     136A     -0.332772   137A     -0.317587   138A     -0.311789  
     139A     -0.300484   140A     -0.276012   141A     -0.271996  

    Virtual:                                                              

     142A      0.000112   143A      0.006986   144A      0.020962  
     145A      0.023256   146A      0.026334   147A      0.030852  
     148A      0.033765   149A      0.034065   150A      0.036017  
     151A      0.036808   152A      0.038531   153A      0.041366  
     154A      0.045631   155A      0.046323   156A      0.047431  
     157A      0.047904   158A      0.049251   159A      0.051656  
     160A      0.056421   161A      0.057180   162A      0.058584  
     163A      0.059259   164A      0.059898   165A      0.064165  
     166A      0.065055   167A      0.067764   168A      0.069002  
     169A      0.071136   170A      0.073484   171A      0.074558  
     172A      0.077507   173A      0.078169   174A      0.079483  
     175A      0.079521   176A      0.080853   177A      0.082314  
     178A      0.087230   179A      0.087900   180A      0.092007  
     181A      0.092583   182A      0.093886   183A      0.095163  
     184A      0.097167   185A      0.097760   186A      0.098605  
     187A      0.100602   188A      0.101830   189A      0.103075  
     190A      0.104177   191A      0.104372   192A      0.104791  
     193A      0.105981   194A      0.106769   195A      0.109752  
     196A      0.111741   197A      0.113992   198A      0.114649  
     199A      0.115695   200A      0.116258   201A      0.117395  
     202A      0.117735   203A      0.119574   204A      0.120331  
     205A      0.122407   206A      0.124451   207A      0.125117  
     208A      0.127003   209A      0.129243   210A      0.131015  
     211A      0.132100   212A      0.132920   213A      0.134076  
     214A      0.134673   215A      0.136629   216A      0.137325  
     217A      0.138347   218A      0.140020   219A      0.142603  
     220A      0.144372   221A      0.144529   222A      0.146434  
     223A      0.147291   224A      0.147926   225A      0.148757  
     226A      0.153516   227A      0.155070   228A      0.156572  
     229A      0.157234   230A      0.157865   231A      0.158474  
     232A      0.159460   233A      0.159554   234A      0.162362  
     235A      0.164363   236A      0.165050   237A      0.167320  
     238A      0.168598   239A      0.171265   240A      0.172090  
     241A      0.172276   242A      0.174222   243A      0.176736  
     244A      0.177707   245A      0.178743   246A      0.180805  
     247A      0.181190   248A      0.182726   249A      0.185149  
     250A      0.186518   251A      0.188272   252A      0.191446  
     253A      0.192023   254A      0.193061   255A      0.194031  
     256A      0.194225   257A      0.195044   258A      0.198704  
     259A      0.199008   260A      0.199805   261A      0.202124  
     262A      0.203196   263A      0.204671   264A      0.205115  
     265A      0.205257   266A      0.207426   267A      0.208464  
     268A      0.209396   269A      0.212111   270A      0.212646  
     271A      0.214320   272A      0.216994   273A      0.217518  
     274A      0.219076   275A      0.219691   276A      0.220837  
     277A      0.222586   278A      0.223392   279A      0.224053  
     280A      0.224699   281A      0.225494   282A      0.227164  
     283A      0.228562   284A      0.229070   285A      0.229801  
     286A      0.231115   287A      0.232838   288A      0.233768  
     289A      0.234982   290A      0.235685   291A      0.236100  
     292A      0.237136   293A      0.237871   294A      0.238555  
     295A      0.239303   296A      0.240435   297A      0.241313  
     298A      0.242614   299A      0.243395   300A      0.244257  
     301A      0.245887   302A      0.247266   303A      0.248695  
     304A      0.249033   305A      0.250039   306A      0.251138  
     307A      0.251867   308A      0.252334   309A      0.253307  
     310A      0.254052   311A      0.254834   312A      0.255589  
     313A      0.256388   314A      0.257335   315A      0.258739  
     316A      0.259371   317A      0.260545   318A      0.262588  
     319A      0.263233   320A      0.264228   321A      0.266358  
     322A      0.267667   323A      0.268184   324A      0.269148  
     325A      0.270732   326A      0.271665   327A      0.273256  
     328A      0.274277   329A      0.274863   330A      0.274958  
     331A      0.276700   332A      0.277065   333A      0.278110  
     334A      0.279857   335A      0.281193   336A      0.281860  
     337A      0.283257   338A      0.283303   339A      0.285072  
     340A      0.285788   341A      0.287968   342A      0.288501  
     343A      0.289568   344A      0.290023   345A      0.291608  
     346A      0.294091   347A      0.295267   348A      0.296176  
     349A      0.296366   350A      0.298489   351A      0.300369  
     352A      0.302059   353A      0.303273   354A      0.304926  
     355A      0.307001   356A      0.307331   357A      0.307972  
     358A      0.310581   359A      0.311933   360A      0.314670  
     361A      0.315220   362A      0.317112   363A      0.317199  
     364A      0.318164   365A      0.320419   366A      0.320820  
     367A      0.321636   368A      0.322434   369A      0.323554  
     370A      0.325057   371A      0.326094   372A      0.327648  
     373A      0.328307   374A      0.329829   375A      0.330217  
     376A      0.332376   377A      0.333683   378A      0.335267  
     379A      0.336066   380A      0.336905   381A      0.339689  
     382A      0.340957   383A      0.341470   384A      0.343168  
     385A      0.344303   386A      0.345313   387A      0.347733  
     388A      0.349191   389A      0.349730   390A      0.350976  
     391A      0.353120   392A      0.354651   393A      0.354887  
     394A      0.356502   395A      0.357356   396A      0.358371  
     397A      0.359188   398A      0.359746   399A      0.362006  
     400A      0.364578   401A      0.364648   402A      0.364927  
     403A      0.366456   404A      0.368390   405A      0.369030  
     406A      0.370072   407A      0.371044   408A      0.372575  
     409A      0.372992   410A      0.375531   411A      0.376811  
     412A      0.379094   413A      0.381262   414A      0.382976  
     415A      0.385227   416A      0.385713   417A      0.387325  
     418A      0.387576   419A      0.389494   420A      0.390069  
     421A      0.392955   422A      0.394946   423A      0.395642  
     424A      0.397351   425A      0.398636   426A      0.400136  
     427A      0.401260   428A      0.401580   429A      0.403707  
     430A      0.405951   431A      0.406902   432A      0.407982  
     433A      0.409520   434A      0.410205   435A      0.412705  
     436A      0.413456   437A      0.414262   438A      0.414536  
     439A      0.415933   440A      0.417577   441A      0.417928  
     442A      0.419463   443A      0.420166   444A      0.421562  
     445A      0.423191   446A      0.423586   447A      0.425388  
     448A      0.425859   449A      0.430208   450A      0.430498  
     451A      0.430949   452A      0.433005   453A      0.434659  
     454A      0.435566   455A      0.436945   456A      0.439024  
     457A      0.439620   458A      0.441303   459A      0.443121  
     460A      0.443290   461A      0.445584   462A      0.448196  
     463A      0.449168   464A      0.449486   465A      0.450113  
     466A      0.451931   467A      0.452760   468A      0.453812  
     469A      0.455800   470A      0.456708   471A      0.458076  
     472A      0.458489   473A      0.460205   474A      0.460439  
     475A      0.461980   476A      0.463256   477A      0.465712  
     478A      0.466435   479A      0.468151   480A      0.468509  
     481A      0.469503   482A      0.471139   483A      0.472840  
     484A      0.474347   485A      0.474913   486A      0.475224  
     487A      0.475936   488A      0.479425   489A      0.480551  
     490A      0.480955   491A      0.481988   492A      0.482682  
     493A      0.483740   494A      0.484525   495A      0.486091  
     496A      0.486579   497A      0.486982   498A      0.488773  
     499A      0.489205   500A      0.490736   501A      0.492423  
     502A      0.494182   503A      0.494532   504A      0.495768  
     505A      0.496400   506A      0.498808   507A      0.500329  
     508A      0.500962   509A      0.502559   510A      0.503385  
     511A      0.505071   512A      0.505419   513A      0.507096  
     514A      0.508590   515A      0.509480   516A      0.509725  
     517A      0.510610   518A      0.511482   519A      0.513129  
     520A      0.513593   521A      0.514977   522A      0.516238  
     523A      0.516891   524A      0.519764   525A      0.520099  
     526A      0.521824   527A      0.523304   528A      0.524076  
     529A      0.524696   530A      0.525071   531A      0.527756  
     532A      0.528019   533A      0.529068   534A      0.530747  
     535A      0.531940   536A      0.533011   537A      0.533521  
     538A      0.534598   539A      0.536650   540A      0.537013  
     541A      0.538016   542A      0.540551   543A      0.540954  
     544A      0.541791   545A      0.542142   546A      0.543681  
     547A      0.545619   548A      0.546340   549A      0.547002  
     550A      0.548834   551A      0.549498   552A      0.551511  
     553A      0.553288   554A      0.554207   555A      0.555027  
     556A      0.556539   557A      0.558251   558A      0.560073  
     559A      0.560541   560A      0.561415   561A      0.562057  
     562A      0.563157   563A      0.565506   564A      0.566403  
     565A      0.566987   566A      0.568947   567A      0.569380  
     568A      0.569810   569A      0.571891   570A      0.572925  
     571A      0.574774   572A      0.575146   573A      0.576499  
     574A      0.577714   575A      0.579925   576A      0.580856  
     577A      0.583654   578A      0.584767   579A      0.585786  
     580A      0.586414   581A      0.586599   582A      0.589518  
     583A      0.590266   584A      0.591216   585A      0.591709  
     586A      0.594772   587A      0.595877   588A      0.596963  
     589A      0.597751   590A      0.599798   591A      0.600656  
     592A      0.602267   593A      0.603072   594A      0.604321  
     595A      0.604384   596A      0.606023   597A      0.607918  
     598A      0.608805   599A      0.610345   600A      0.612356  
     601A      0.615238   602A      0.616557   603A      0.617160  
     604A      0.619425   605A      0.620251   606A      0.621064  
     607A      0.622882   608A      0.623775   609A      0.625443  
     610A      0.626486   611A      0.628442   612A      0.631091  
     613A      0.632886   614A      0.633484   615A      0.635867  
     616A      0.636894   617A      0.639854   618A      0.640059  
     619A      0.640225   620A      0.642582   621A      0.644255  
     622A      0.645011   623A      0.645982   624A      0.647335  
     625A      0.648629   626A      0.650268   627A      0.651352  
     628A      0.652768   629A      0.653488   630A      0.655958  
     631A      0.656328   632A      0.659037   633A      0.660974  
     634A      0.661674   635A      0.663962   636A      0.665525  
     637A      0.666650   638A      0.668845   639A      0.669967  
     640A      0.670699   641A      0.672981   642A      0.674004  
     643A      0.675015   644A      0.676885   645A      0.677921  
     646A      0.679933   647A      0.681474   648A      0.684070  
     649A      0.684637   650A      0.688524   651A      0.688807  
     652A      0.689489   653A      0.692299   654A      0.693593  
     655A      0.695752   656A      0.697523   657A      0.698818  
     658A      0.699685   659A      0.699920   660A      0.702246  
     661A      0.703496   662A      0.703998   663A      0.705561  
     664A      0.705739   665A      0.708302   666A      0.710351  
     667A      0.711641   668A      0.713770   669A      0.716218  
     670A      0.717095   671A      0.717654   672A      0.721084  
     673A      0.723275   674A      0.724776   675A      0.725055  
     676A      0.726602   677A      0.727586   678A      0.729564  
     679A      0.731046   680A      0.733075   681A      0.733582  
     682A      0.735523   683A      0.736153   684A      0.738376  
     685A      0.741536   686A      0.742146   687A      0.744922  
     688A      0.746364   689A      0.747215   690A      0.749297  
     691A      0.751350   692A      0.752093   693A      0.752662  
     694A      0.754455   695A      0.754710   696A      0.757577  
     697A      0.758166   698A      0.760776   699A      0.762235  
     700A      0.762689   701A      0.765159   702A      0.766171  
     703A      0.767017   704A      0.767743   705A      0.769912  
     706A      0.770403   707A      0.773102   708A      0.774268  
     709A      0.775216   710A      0.775963   711A      0.777862  
     712A      0.778960   713A      0.780053   714A      0.780802  
     715A      0.785018   716A      0.787305   717A      0.788232  
     718A      0.788990   719A      0.789467   720A      0.791337  
     721A      0.792334   722A      0.794637   723A      0.796326  
     724A      0.797116   725A      0.798160   726A      0.800407  
     727A      0.802075   728A      0.803388   729A      0.804725  
     730A      0.805862   731A      0.808685   732A      0.809457  
     733A      0.811372   734A      0.812528   735A      0.813269  
     736A      0.814518   737A      0.816500   738A      0.819658  
     739A      0.821454   740A      0.821725   741A      0.823740  
     742A      0.825215   743A      0.826030   744A      0.827441  
     745A      0.829139   746A      0.830766   747A      0.831702  
     748A      0.834167   749A      0.835737   750A      0.837597  
     751A      0.838850   752A      0.841020   753A      0.841603  
     754A      0.843216   755A      0.845831   756A      0.846581  
     757A      0.848047   758A      0.848729   759A      0.850035  
     760A      0.851121   761A      0.853363   762A      0.855006  
     763A      0.857239   764A      0.858668   765A      0.859326  
     766A      0.860559   767A      0.861639   768A      0.863621  
     769A      0.864768   770A      0.866732   771A      0.867093  
     772A      0.869639   773A      0.870794   774A      0.872909  
     775A      0.874580   776A      0.876835   777A      0.876854  
     778A      0.877959   779A      0.878735   780A      0.879167  
     781A      0.881066   782A      0.882994   783A      0.883448  
     784A      0.885838   785A      0.886515   786A      0.887226  
     787A      0.888376   788A      0.889770   789A      0.890774  
     790A      0.892438   791A      0.893414   792A      0.895216  
     793A      0.897367   794A      0.899871   795A      0.900607  
     796A      0.901629   797A      0.903372   798A      0.904389  
     799A      0.905038   800A      0.907133   801A      0.907981  
     802A      0.910166   803A      0.910630   804A      0.911208  
     805A      0.912927   806A      0.914661   807A      0.915376  
     808A      0.915542   809A      0.917666   810A      0.918990  
     811A      0.920284   812A      0.923533   813A      0.923820  
     814A      0.925757   815A      0.927358   816A      0.927645  
     817A      0.928734   818A      0.929871   819A      0.931697  
     820A      0.934035   821A      0.935250   822A      0.936851  
     823A      0.937575   824A      0.938258   825A      0.939462  
     826A      0.940699   827A      0.941621   828A      0.942586  
     829A      0.943325   830A      0.944912   831A      0.947072  
     832A      0.948543   833A      0.949101   834A      0.951437  
     835A      0.952222   836A      0.954189   837A      0.956338  
     838A      0.957053   839A      0.958837   840A      0.959779  
     841A      0.962018   842A      0.964398   843A      0.965956  
     844A      0.966887   845A      0.967338   846A      0.968154  
     847A      0.970729   848A      0.972792   849A      0.973465  
     850A      0.975893   851A      0.976531   852A      0.977701  
     853A      0.979173   854A      0.980763   855A      0.981860  
     856A      0.982947   857A      0.984053   858A      0.985525  
     859A      0.986774   860A      0.987452   861A      0.988829  
     862A      0.991816   863A      0.992948   864A      0.994314  
     865A      0.996740   866A      0.997493   867A      0.999374  
     868A      0.999928   869A      1.003043   870A      1.003700  
     871A      1.004463   872A      1.007838   873A      1.008971  
     874A      1.011321   875A      1.012067   876A      1.013441  
     877A      1.015102   878A      1.017491   879A      1.017952  
     880A      1.018712   881A      1.020962   882A      1.021811  
     883A      1.023156   884A      1.023807   885A      1.024465  
     886A      1.028036   887A      1.029343   888A      1.029608  
     889A      1.031572   890A      1.034511   891A      1.035215  
     892A      1.035958   893A      1.038226   894A      1.041296  
     895A      1.042080   896A      1.042993   897A      1.044896  
     898A      1.048766   899A      1.049545   900A      1.051346  
     901A      1.052185   902A      1.054394   903A      1.055353  
     904A      1.057053   905A      1.058692   906A      1.059704  
     907A      1.062086   908A      1.064130   909A      1.065344  
     910A      1.066743   911A      1.068613   912A      1.070533  
     913A      1.072343   914A      1.072589   915A      1.073007  
     916A      1.074440   917A      1.076162   918A      1.077774  
     919A      1.079240   920A      1.080535   921A      1.082651  
     922A      1.083274   923A      1.086025   924A      1.087306  
     925A      1.089704   926A      1.090406   927A      1.091654  
     928A      1.093656   929A      1.094109   930A      1.095966  
     931A      1.097368   932A      1.099198   933A      1.100589  
     934A      1.101865   935A      1.104277   936A      1.105071  
     937A      1.107227   938A      1.108793   939A      1.110768  
     940A      1.111814   941A      1.112158   942A      1.112653  
     943A      1.115602   944A      1.116889   945A      1.118211  
     946A      1.119915   947A      1.121636   948A      1.121808  
     949A      1.123775   950A      1.127202   951A      1.127491  
     952A      1.128496   953A      1.131458   954A      1.134843  
     955A      1.135377   956A      1.136155   957A      1.136934  
     958A      1.138888   959A      1.141930   960A      1.142962  
     961A      1.143862   962A      1.145623   963A      1.146780  
     964A      1.147489   965A      1.148365   966A      1.150680  
     967A      1.151922   968A      1.152616   969A      1.154776  
     970A      1.155001   971A      1.155667   972A      1.158733  
     973A      1.159545   974A      1.161088   975A      1.162513  
     976A      1.166969   977A      1.167570   978A      1.168629  
     979A      1.169186   980A      1.170420   981A      1.173884  
     982A      1.176324   983A      1.178468   984A      1.179550  
     985A      1.182181   986A      1.183681   987A      1.184105  
     988A      1.187249   989A      1.187421   990A      1.188289  
     991A      1.189170   992A      1.191408   993A      1.192065  
     994A      1.194517   995A      1.195588   996A      1.196738  
     997A      1.198374   998A      1.199540   999A      1.201437  
    1000A      1.203588  1001A      1.204273  1002A      1.206461  
    1003A      1.210234  1004A      1.211478  1005A      1.212604  
    1006A      1.213862  1007A      1.215700  1008A      1.217495  
    1009A      1.218615  1010A      1.220207  1011A      1.221855  
    1012A      1.223666  1013A      1.225813  1014A      1.227959  
    1015A      1.228923  1016A      1.229259  1017A      1.231278  
    1018A      1.232925  1019A      1.233889  1020A      1.235073  
    1021A      1.237140  1022A      1.237915  1023A      1.241952  
    1024A      1.243145  1025A      1.244909  1026A      1.245668  
    1027A      1.246452  1028A      1.248409  1029A      1.249710  
    1030A      1.251824  1031A      1.253951  1032A      1.254691  
    1033A      1.257707  1034A      1.259368  1035A      1.261962  
    1036A      1.262198  1037A      1.264300  1038A      1.266377  
    1039A      1.266878  1040A      1.268726  1041A      1.271104  
    1042A      1.272371  1043A      1.274112  1044A      1.274772  
    1045A      1.274887  1046A      1.277479  1047A      1.278904  
    1048A      1.280312  1049A      1.281152  1050A      1.283751  
    1051A      1.284356  1052A      1.286230  1053A      1.286473  
    1054A      1.288557  1055A      1.291053  1056A      1.293169  
    1057A      1.294163  1058A      1.295153  1059A      1.297272  
    1060A      1.297861  1061A      1.301162  1062A      1.301554  
    1063A      1.303943  1064A      1.304600  1065A      1.308673  
    1066A      1.309258  1067A      1.312315  1068A      1.313908  
    1069A      1.315720  1070A      1.316610  1071A      1.317073  
    1072A      1.318260  1073A      1.320924  1074A      1.324071  
    1075A      1.325880  1076A      1.327091  1077A      1.328612  
    1078A      1.329455  1079A      1.329868  1080A      1.334641  
    1081A      1.335493  1082A      1.336900  1083A      1.338037  
    1084A      1.341218  1085A      1.342080  1086A      1.344105  
    1087A      1.344284  1088A      1.345215  1089A      1.347680  
    1090A      1.348839  1091A      1.350297  1092A      1.351438  
    1093A      1.353964  1094A      1.355467  1095A      1.356489  
    1096A      1.357449  1097A      1.360091  1098A      1.364174  
    1099A      1.364378  1100A      1.368089  1101A      1.369242  
    1102A      1.371119  1103A      1.372703  1104A      1.373112  
    1105A      1.376237  1106A      1.379236  1107A      1.380202  
    1108A      1.381085  1109A      1.382947  1110A      1.385251  
    1111A      1.386307  1112A      1.387028  1113A      1.388805  
    1114A      1.391145  1115A      1.391766  1116A      1.394297  
    1117A      1.396049  1118A      1.396762  1119A      1.398253  
    1120A      1.400701  1121A      1.401828  1122A      1.402203  
    1123A      1.403236  1124A      1.404921  1125A      1.407011  
    1126A      1.408263  1127A      1.409108  1128A      1.409221  
    1129A      1.411389  1130A      1.414022  1131A      1.414551  
    1132A      1.417417  1133A      1.417989  1134A      1.418752  
    1135A      1.420959  1136A      1.425058  1137A      1.426184  
    1138A      1.427718  1139A      1.428748  1140A      1.430410  
    1141A      1.433069  1142A      1.434309  1143A      1.435067  
    1144A      1.436527  1145A      1.437557  1146A      1.440217  
    1147A      1.440668  1148A      1.442243  1149A      1.443006  
    1150A      1.443790  1151A      1.446341  1152A      1.448415  
    1153A      1.449970  1154A      1.450387  1155A      1.451239  
    1156A      1.453903  1157A      1.455266  1158A      1.456631  
    1159A      1.457541  1160A      1.459982  1161A      1.461125  
    1162A      1.463203  1163A      1.465641  1164A      1.466715  
    1165A      1.469830  1166A      1.470310  1167A      1.471796  
    1168A      1.473265  1169A      1.475041  1170A      1.477026  
    1171A      1.478401  1172A      1.478823  1173A      1.480344  
    1174A      1.482107  1175A      1.482667  1176A      1.485855  
    1177A      1.488319  1178A      1.489283  1179A      1.490133  
    1180A      1.492314  1181A      1.494747  1182A      1.495364  
    1183A      1.498683  1184A      1.500669  1185A      1.500819  
    1186A      1.502011  1187A      1.503591  1188A      1.504830  
    1189A      1.508575  1190A      1.510310  1191A      1.513066  
    1192A      1.514372  1193A      1.514388  1194A      1.517875  
    1195A      1.519205  1196A      1.519627  1197A      1.520876  
    1198A      1.521341  1199A      1.523388  1200A      1.524476  
    1201A      1.527656  1202A      1.529204  1203A      1.531212  
    1204A      1.532622  1205A      1.533532  1206A      1.534838  
    1207A      1.536096  1208A      1.537985  1209A      1.539891  
    1210A      1.542732  1211A      1.543746  1212A      1.546729  
    1213A      1.548585  1214A      1.551098  1215A      1.551671  
    1216A      1.553178  1217A      1.553863  1218A      1.554074  
    1219A      1.557884  1220A      1.558565  1221A      1.559995  
    1222A      1.561316  1223A      1.563194  1224A      1.565142  
    1225A      1.568466  1226A      1.570130  1227A      1.571851  
    1228A      1.573453  1229A      1.575774  1230A      1.576056  
    1231A      1.577071  1232A      1.578456  1233A      1.581581  
    1234A      1.583454  1235A      1.584032  1236A      1.587004  
    1237A      1.587633  1238A      1.589289  1239A      1.590765  
    1240A      1.592124  1241A      1.593064  1242A      1.594967  
    1243A      1.596156  1244A      1.598209  1245A      1.598729  
    1246A      1.599658  1247A      1.602940  1248A      1.604904  
    1249A      1.605427  1250A      1.607729  1251A      1.609340  
    1252A      1.611371  1253A      1.613473  1254A      1.614039  
    1255A      1.614369  1256A      1.616630  1257A      1.618362  
    1258A      1.620318  1259A      1.622339  1260A      1.625275  
    1261A      1.625461  1262A      1.626867  1263A      1.627592  
    1264A      1.629982  1265A      1.630794  1266A      1.632739  
    1267A      1.635877  1268A      1.636543  1269A      1.638216  
    1270A      1.639991  1271A      1.641563  1272A      1.642169  
    1273A      1.643491  1274A      1.645086  1275A      1.647020  
    1276A      1.648630  1277A      1.650258  1278A      1.650587  
    1279A      1.652199  1280A      1.653082  1281A      1.656031  
    1282A      1.656872  1283A      1.658233  1284A      1.660082  
    1285A      1.660848  1286A      1.662802  1287A      1.664285  
    1288A      1.665536  1289A      1.665966  1290A      1.670277  
    1291A      1.671302  1292A      1.674692  1293A      1.676302  
    1294A      1.678288  1295A      1.678973  1296A      1.679821  
    1297A      1.683152  1298A      1.686012  1299A      1.686301  
    1300A      1.688844  1301A      1.691169  1302A      1.693360  
    1303A      1.694590  1304A      1.696241  1305A      1.698487  
    1306A      1.699504  1307A      1.701003  1308A      1.701203  
    1309A      1.703239  1310A      1.704671  1311A      1.707050  
    1312A      1.708592  1313A      1.709021  1314A      1.710495  
    1315A      1.713202  1316A      1.713853  1317A      1.718218  
    1318A      1.719736  1319A      1.721600  1320A      1.722253  
    1321A      1.724045  1322A      1.724679  1323A      1.727343  
    1324A      1.730350  1325A      1.730745  1326A      1.732414  
    1327A      1.733954  1328A      1.736559  1329A      1.738486  
    1330A      1.739683  1331A      1.741582  1332A      1.742309  
    1333A      1.745929  1334A      1.747490  1335A      1.748847  
    1336A      1.749030  1337A      1.752060  1338A      1.753044  
    1339A      1.754388  1340A      1.755804  1341A      1.757954  
    1342A      1.760513  1343A      1.761590  1344A      1.763390  
    1345A      1.763835  1346A      1.766769  1347A      1.767420  
    1348A      1.770555  1349A      1.771244  1350A      1.773416  
    1351A      1.774426  1352A      1.774603  1353A      1.777244  
    1354A      1.780618  1355A      1.783629  1356A      1.784077  
    1357A      1.784821  1358A      1.787696  1359A      1.790294  
    1360A      1.792355  1361A      1.793750  1362A      1.795761  
    1363A      1.796342  1364A      1.796764  1365A      1.798711  
    1366A      1.800410  1367A      1.802147  1368A      1.804334  
    1369A      1.806055  1370A      1.807669  1371A      1.810788  
    1372A      1.811887  1373A      1.815622  1374A      1.815892  
    1375A      1.817987  1376A      1.818467  1377A      1.821505  
    1378A      1.823277  1379A      1.824444  1380A      1.825723  
    1381A      1.827573  1382A      1.828766  1383A      1.830341  
    1384A      1.833277  1385A      1.836960  1386A      1.837738  
    1387A      1.838751  1388A      1.840523  1389A      1.841026  
    1390A      1.841357  1391A      1.841937  1392A      1.848204  
    1393A      1.850459  1394A      1.852657  1395A      1.853442  
    1396A      1.856287  1397A      1.858232  1398A      1.861169  
    1399A      1.862498  1400A      1.865726  1401A      1.865973  
    1402A      1.867098  1403A      1.868214  1404A      1.874435  
    1405A      1.876161  1406A      1.877010  1407A      1.880269  
    1408A      1.881541  1409A      1.882346  1410A      1.882846  
    1411A      1.886588  1412A      1.888671  1413A      1.891750  
    1414A      1.892323  1415A      1.893277  1416A      1.896163  
    1417A      1.897355  1418A      1.899079  1419A      1.901002  
    1420A      1.903163  1421A      1.906641  1422A      1.907489  
    1423A      1.908726  1424A      1.909941  1425A      1.911178  
    1426A      1.914553  1427A      1.916176  1428A      1.917883  
    1429A      1.918901  1430A      1.920254  1431A      1.922950  
    1432A      1.923934  1433A      1.927785  1434A      1.928662  
    1435A      1.930657  1436A      1.933981  1437A      1.936344  
    1438A      1.936950  1439A      1.939455  1440A      1.939976  
    1441A      1.942772  1442A      1.943134  1443A      1.946935  
    1444A      1.948116  1445A      1.953132  1446A      1.954849  
    1447A      1.956021  1448A      1.957215  1449A      1.959200  
    1450A      1.962136  1451A      1.963556  1452A      1.965293  
    1453A      1.968850  1454A      1.970321  1455A      1.970955  
    1456A      1.973290  1457A      1.974260  1458A      1.976317  
    1459A      1.979709  1460A      1.981288  1461A      1.982754  
    1462A      1.983483  1463A      1.987908  1464A      1.990448  
    1465A      1.990555  1466A      1.992375  1467A      1.993902  
    1468A      1.994654  1469A      1.997315  1470A      1.998956  
    1471A      2.001915  1472A      2.003114  1473A      2.005584  
    1474A      2.006245  1475A      2.008779  1476A      2.010441  
    1477A      2.011922  1478A      2.013259  1479A      2.015327  
    1480A      2.017131  1481A      2.020677  1482A      2.022720  
    1483A      2.023672  1484A      2.025733  1485A      2.027934  
    1486A      2.028926  1487A      2.029845  1488A      2.032561  
    1489A      2.034446  1490A      2.035448  1491A      2.036727  
    1492A      2.039452  1493A      2.040875  1494A      2.042567  
    1495A      2.045535  1496A      2.045878  1497A      2.048950  
    1498A      2.051008  1499A      2.053279  1500A      2.053853  
    1501A      2.055770  1502A      2.057795  1503A      2.058836  
    1504A      2.063926  1505A      2.065152  1506A      2.066346  
    1507A      2.069600  1508A      2.070987  1509A      2.073595  
    1510A      2.076469  1511A      2.080030  1512A      2.082247  
    1513A      2.082627  1514A      2.084913  1515A      2.086685  
    1516A      2.087567  1517A      2.090301  1518A      2.091810  
    1519A      2.092670  1520A      2.094602  1521A      2.096784  
    1522A      2.098522  1523A      2.100596  1524A      2.102550  
    1525A      2.104279  1526A      2.107397  1527A      2.107857  
    1528A      2.108416  1529A      2.110531  1530A      2.112209  
    1531A      2.114380  1532A      2.117969  1533A      2.119889  
    1534A      2.120746  1535A      2.122253  1536A      2.124991  
    1537A      2.126436  1538A      2.128634  1539A      2.129517  
    1540A      2.131347  1541A      2.136959  1542A      2.138765  
    1543A      2.140515  1544A      2.142378  1545A      2.144372  
    1546A      2.144879  1547A      2.149615  1548A      2.150892  
    1549A      2.153608  1550A      2.155725  1551A      2.158226  
    1552A      2.160763  1553A      2.161678  1554A      2.162860  
    1555A      2.164770  1556A      2.167940  1557A      2.169210  
    1558A      2.170382  1559A      2.172524  1560A      2.174757  
    1561A      2.179133  1562A      2.182226  1563A      2.183023  
    1564A      2.185341  1565A      2.186725  1566A      2.187712  
    1567A      2.189188  1568A      2.195232  1569A      2.195798  
    1570A      2.196896  1571A      2.199266  1572A      2.200951  
    1573A      2.204823  1574A      2.205770  1575A      2.205903  
    1576A      2.207640  1577A      2.211942  1578A      2.212775  
    1579A      2.217063  1580A      2.219083  1581A      2.219874  
    1582A      2.220963  1583A      2.224372  1584A      2.225823  
    1585A      2.227690  1586A      2.230844  1587A      2.232842  
    1588A      2.238624  1589A      2.238826  1590A      2.241336  
    1591A      2.244216  1592A      2.245804  1593A      2.248290  
    1594A      2.250953  1595A      2.252325  1596A      2.256044  
    1597A      2.258712  1598A      2.260125  1599A      2.262081  
    1600A      2.263908  1601A      2.265936  1602A      2.268492  
    1603A      2.269526  1604A      2.273110  1605A      2.274517  
    1606A      2.276548  1607A      2.277532  1608A      2.281932  
    1609A      2.285231  1610A      2.286356  1611A      2.288097  
    1612A      2.290502  1613A      2.293289  1614A      2.294746  
    1615A      2.297045  1616A      2.299118  1617A      2.301175  
    1618A      2.303482  1619A      2.305867  1620A      2.307780  
    1621A      2.308870  1622A      2.312565  1623A      2.314092  
    1624A      2.315736  1625A      2.317006  1626A      2.321045  
    1627A      2.323331  1628A      2.324612  1629A      2.325539  
    1630A      2.329821  1631A      2.332755  1632A      2.334054  
    1633A      2.335237  1634A      2.335908  1635A      2.339140  
    1636A      2.340413  1637A      2.342538  1638A      2.345573  
    1639A      2.347935  1640A      2.349603  1641A      2.350132  
    1642A      2.353163  1643A      2.354784  1644A      2.356342  
    1645A      2.359193  1646A      2.361150  1647A      2.364904  
    1648A      2.366391  1649A      2.367378  1650A      2.368647  
    1651A      2.370177  1652A      2.373179  1653A      2.374251  
    1654A      2.377419  1655A      2.379307  1656A      2.379635  
    1657A      2.382645  1658A      2.383412  1659A      2.386472  
    1660A      2.388127  1661A      2.388575  1662A      2.390707  
    1663A      2.393840  1664A      2.396429  1665A      2.398682  
    1666A      2.403492  1667A      2.406180  1668A      2.407350  
    1669A      2.409014  1670A      2.413646  1671A      2.415030  
    1672A      2.418325  1673A      2.421256  1674A      2.422541  
    1675A      2.423357  1676A      2.426052  1677A      2.429625  
    1678A      2.431495  1679A      2.432347  1680A      2.438034  
    1681A      2.439639  1682A      2.441024  1683A      2.441510  
    1684A      2.445631  1685A      2.447773  1686A      2.451886  
    1687A      2.452920  1688A      2.459643  1689A      2.460113  
    1690A      2.461474  1691A      2.462942  1692A      2.465893  
    1693A      2.468897  1694A      2.471175  1695A      2.473076  
    1696A      2.475249  1697A      2.476917  1698A      2.477432  
    1699A      2.480614  1700A      2.484188  1701A      2.485806  
    1702A      2.489748  1703A      2.492756  1704A      2.497210  
    1705A      2.499015  1706A      2.500868  1707A      2.503531  
    1708A      2.506693  1709A      2.510072  1710A      2.514318  
    1711A      2.515635  1712A      2.518239  1713A      2.519078  
    1714A      2.523503  1715A      2.524379  1716A      2.525182  
    1717A      2.527251  1718A      2.531293  1719A      2.534064  
    1720A      2.535596  1721A      2.535805  1722A      2.537339  
    1723A      2.539407  1724A      2.543225  1725A      2.546944  
    1726A      2.549350  1727A      2.551065  1728A      2.554139  
    1729A      2.555470  1730A      2.557765  1731A      2.560135  
    1732A      2.564403  1733A      2.565888  1734A      2.569077  
    1735A      2.572633  1736A      2.573443  1737A      2.575233  
    1738A      2.581213  1739A      2.582517  1740A      2.586685  
    1741A      2.589412  1742A      2.592399  1743A      2.593483  
    1744A      2.597708  1745A      2.602631  1746A      2.604499  
    1747A      2.606189  1748A      2.607363  1749A      2.610000  
    1750A      2.613149  1751A      2.617260  1752A      2.619142  
    1753A      2.623023  1754A      2.623628  1755A      2.629313  
    1756A      2.630950  1757A      2.633769  1758A      2.636832  
    1759A      2.638620  1760A      2.640418  1761A      2.643950  
    1762A      2.645693  1763A      2.651180  1764A      2.654386  
    1765A      2.655990  1766A      2.658425  1767A      2.661521  
    1768A      2.663757  1769A      2.665995  1770A      2.667352  
    1771A      2.668538  1772A      2.670637  1773A      2.674348  
    1774A      2.677054  1775A      2.679132  1776A      2.683371  
    1777A      2.685735  1778A      2.686543  1779A      2.689200  
    1780A      2.692870  1781A      2.694140  1782A      2.695524  
    1783A      2.699765  1784A      2.701138  1785A      2.703640  
    1786A      2.707035  1787A      2.709494  1788A      2.712398  
    1789A      2.713851  1790A      2.715820  1791A      2.719208  
    1792A      2.721345  1793A      2.723878  1794A      2.728606  
    1795A      2.731414  1796A      2.733957  1797A      2.735863  
    1798A      2.739500  1799A      2.743370  1800A      2.744567  
    1801A      2.746362  1802A      2.751074  1803A      2.751800  
    1804A      2.754847  1805A      2.759425  1806A      2.762439  
    1807A      2.766012  1808A      2.767921  1809A      2.770989  
    1810A      2.774376  1811A      2.778500  1812A      2.782397  
    1813A      2.783307  1814A      2.785423  1815A      2.789948  
    1816A      2.790625  1817A      2.797321  1818A      2.802190  
    1819A      2.803559  1820A      2.805620  1821A      2.807944  
    1822A      2.808505  1823A      2.808790  1824A      2.812700  
    1825A      2.816503  1826A      2.819111  1827A      2.820235  
    1828A      2.824000  1829A      2.826709  1830A      2.830701  
    1831A      2.833278  1832A      2.835453  1833A      2.837889  
    1834A      2.840386  1835A      2.843471  1836A      2.846410  
    1837A      2.847089  1838A      2.853919  1839A      2.856327  
    1840A      2.858377  1841A      2.862531  1842A      2.865223  
    1843A      2.869668  1844A      2.874633  1845A      2.879219  
    1846A      2.881619  1847A      2.887413  1848A      2.888972  
    1849A      2.892928  1850A      2.895232  1851A      2.896501  
    1852A      2.903771  1853A      2.905383  1854A      2.908534  
    1855A      2.910769  1856A      2.911842  1857A      2.914831  
    1858A      2.918843  1859A      2.921339  1860A      2.924568  
    1861A      2.928486  1862A      2.937234  1863A      2.939427  
    1864A      2.942395  1865A      2.945901  1866A      2.950461  
    1867A      2.952356  1868A      2.955683  1869A      2.957986  
    1870A      2.960816  1871A      2.969694  1872A      2.970993  
    1873A      2.975665  1874A      2.979479  1875A      2.982185  
    1876A      2.988050  1877A      2.990983  1878A      2.994497  
    1879A      2.998932  1880A      3.001797  1881A      3.012039  
    1882A      3.013964  1883A      3.018601  1884A      3.025352  
    1885A      3.026806  1886A      3.027733  1887A      3.034792  
    1888A      3.036361  1889A      3.039209  1890A      3.041924  
    1891A      3.043283  1892A      3.046350  1893A      3.051116  
    1894A      3.054603  1895A      3.058321  1896A      3.061284  
    1897A      3.065179  1898A      3.069709  1899A      3.075861  
    1900A      3.080154  1901A      3.084287  1902A      3.087561  
    1903A      3.088698  1904A      3.093858  1905A      3.096699  
    1906A      3.102997  1907A      3.108065  1908A      3.110633  
    1909A      3.113889  1910A      3.117466  1911A      3.122334  
    1912A      3.127003  1913A      3.128694  1914A      3.133945  
    1915A      3.136140  1916A      3.140342  1917A      3.144961  
    1918A      3.149982  1919A      3.152780  1920A      3.157319  
    1921A      3.159302  1922A      3.164122  1923A      3.166160  
    1924A      3.169925  1925A      3.171079  1926A      3.175726  
    1927A      3.177433  1928A      3.182091  1929A      3.186000  
    1930A      3.190579  1931A      3.195753  1932A      3.196481  
    1933A      3.202855  1934A      3.203868  1935A      3.208197  
    1936A      3.212256  1937A      3.213381  1938A      3.215849  
    1939A      3.218787  1940A      3.222819  1941A      3.227233  
    1942A      3.227837  1943A      3.231473  1944A      3.239038  
    1945A      3.240470  1946A      3.241894  1947A      3.243564  
    1948A      3.251855  1949A      3.253973  1950A      3.256793  
    1951A      3.262138  1952A      3.267436  1953A      3.269059  
    1954A      3.275678  1955A      3.277141  1956A      3.279585  
    1957A      3.282634  1958A      3.284108  1959A      3.289011  
    1960A      3.292189  1961A      3.295138  1962A      3.296726  
    1963A      3.303381  1964A      3.306452  1965A      3.308730  
    1966A      3.314123  1967A      3.315639  1968A      3.319710  
    1969A      3.321038  1970A      3.321528  1971A      3.324846  
    1972A      3.328977  1973A      3.332717  1974A      3.334319  
    1975A      3.337105  1976A      3.340981  1977A      3.346591  
    1978A      3.347954  1979A      3.350394  1980A      3.352068  
    1981A      3.356039  1982A      3.357142  1983A      3.359552  
    1984A      3.361720  1985A      3.365237  1986A      3.367506  
    1987A      3.369472  1988A      3.375199  1989A      3.375992  
    1990A      3.378708  1991A      3.379263  1992A      3.382666  
    1993A      3.385020  1994A      3.388088  1995A      3.390475  
    1996A      3.391796  1997A      3.395974  1998A      3.398288  
    1999A      3.401146  2000A      3.405113  2001A      3.406456  
    2002A      3.408885  2003A      3.410917  2004A      3.412591  
    2005A      3.415667  2006A      3.419113  2007A      3.422284  
    2008A      3.426648  2009A      3.428312  2010A      3.433000  
    2011A      3.433587  2012A      3.436120  2013A      3.441174  
    2014A      3.442490  2015A      3.445543  2016A      3.447744  
    2017A      3.449675  2018A      3.452573  2019A      3.456471  
    2020A      3.459082  2021A      3.459176  2022A      3.464463  
    2023A      3.466894  2024A      3.470802  2025A      3.471161  
    2026A      3.471799  2027A      3.475184  2028A      3.477089  
    2029A      3.479827  2030A      3.481237  2031A      3.486173  
    2032A      3.487256  2033A      3.490983  2034A      3.493114  
    2035A      3.493747  2036A      3.495230  2037A      3.496976  
    2038A      3.498662  2039A      3.500705  2040A      3.506288  
    2041A      3.508211  2042A      3.510272  2043A      3.511911  
    2044A      3.513268  2045A      3.515020  2046A      3.516323  
    2047A      3.518058  2048A      3.520245  2049A      3.523273  
    2050A      3.526688  2051A      3.527287  2052A      3.530333  
    2053A      3.533249  2054A      3.535302  2055A      3.538087  
    2056A      3.540164  2057A      3.543874  2058A      3.544835  
    2059A      3.549090  2060A      3.551167  2061A      3.553480  
    2062A      3.556650  2063A      3.558518  2064A      3.559540  
    2065A      3.560691  2066A      3.565694  2067A      3.567170  
    2068A      3.569584  2069A      3.570720  2070A      3.574100  
    2071A      3.575626  2072A      3.577686  2073A      3.579689  
    2074A      3.581765  2075A      3.584767  2076A      3.587504  
    2077A      3.590826  2078A      3.591740  2079A      3.593471  
    2080A      3.596253  2081A      3.598397  2082A      3.598632  
    2083A      3.602567  2084A      3.604848  2085A      3.605546  
    2086A      3.609687  2087A      3.611533  2088A      3.616151  
    2089A      3.617795  2090A      3.622713  2091A      3.623304  
    2092A      3.625370  2093A      3.625939  2094A      3.627247  
    2095A      3.627980  2096A      3.631746  2097A      3.636598  
    2098A      3.638241  2099A      3.639167  2100A      3.642451  
    2101A      3.644313  2102A      3.645219  2103A      3.647249  
    2104A      3.654140  2105A      3.656089  2106A      3.657229  
    2107A      3.659871  2108A      3.660377  2109A      3.661841  
    2110A      3.669449  2111A      3.672429  2112A      3.675001  
    2113A      3.676768  2114A      3.677119  2115A      3.678191  
    2116A      3.679350  2117A      3.683102  2118A      3.683903  
    2119A      3.686358  2120A      3.689390  2121A      3.690248  
    2122A      3.692847  2123A      3.694809  2124A      3.696637  
    2125A      3.698172  2126A      3.700282  2127A      3.702368  
    2128A      3.705717  2129A      3.708877  2130A      3.711544  
    2131A      3.712533  2132A      3.714263  2133A      3.716886  
    2134A      3.721602  2135A      3.722159  2136A      3.723870  
    2137A      3.726148  2138A      3.728154  2139A      3.730455  
    2140A      3.732068  2141A      3.733991  2142A      3.737379  
    2143A      3.738171  2144A      3.741829  2145A      3.742528  
    2146A      3.744494  2147A      3.746189  2148A      3.749936  
    2149A      3.751445  2150A      3.752653  2151A      3.754574  
    2152A      3.755772  2153A      3.757867  2154A      3.760725  
    2155A      3.762765  2156A      3.765662  2157A      3.767323  
    2158A      3.771065  2159A      3.772848  2160A      3.774737  
    2161A      3.777890  2162A      3.779487  2163A      3.781942  
    2164A      3.785147  2165A      3.789114  2166A      3.789889  
    2167A      3.791477  2168A      3.795035  2169A      3.796101  
    2170A      3.798972  2171A      3.801162  2172A      3.803512  
    2173A      3.804274  2174A      3.807241  2175A      3.809448  
    2176A      3.811119  2177A      3.813487  2178A      3.817232  
    2179A      3.818477  2180A      3.820860  2181A      3.823485  
    2182A      3.825334  2183A      3.826569  2184A      3.829676  
    2185A      3.831801  2186A      3.833772  2187A      3.836201  
    2188A      3.839270  2189A      3.840428  2190A      3.842449  
    2191A      3.843816  2192A      3.847399  2193A      3.850040  
    2194A      3.851433  2195A      3.852884  2196A      3.854315  
    2197A      3.855384  2198A      3.860651  2199A      3.862302  
    2200A      3.864325  2201A      3.866932  2202A      3.868938  
    2203A      3.872080  2204A      3.874644  2205A      3.876983  
    2206A      3.878568  2207A      3.880962  2208A      3.884058  
    2209A      3.885204  2210A      3.888135  2211A      3.891487  
    2212A      3.892343  2213A      3.896966  2214A      3.898400  
    2215A      3.901112  2216A      3.902322  2217A      3.904147  
    2218A      3.905024  2219A      3.908829  2220A      3.910324  
    2221A      3.911791  2222A      3.913147  2223A      3.915913  
    2224A      3.919006  2225A      3.919840  2226A      3.921478  
    2227A      3.922564  2228A      3.925283  2229A      3.926377  
    2230A      3.928616  2231A      3.930590  2232A      3.933358  
    2233A      3.937050  2234A      3.938165  2235A      3.942945  
    2236A      3.945108  2237A      3.946354  2238A      3.947696  
    2239A      3.952098  2240A      3.954477  2241A      3.957390  
    2242A      3.958202  2243A      3.960510  2244A      3.962875  
    2245A      3.965328  2246A      3.968188  2247A      3.973658  
    2248A      3.974616  2249A      3.974903  2250A      3.978360  
    2251A      3.980023  2252A      3.982221  2253A      3.983817  
    2254A      3.986598  2255A      3.990304  2256A      3.990904  
    2257A      3.993125  2258A      3.994190  2259A      3.997375  
    2260A      4.002545  2261A      4.005426  2262A      4.006423  
    2263A      4.009117  2264A      4.011611  2265A      4.014471  
    2266A      4.017257  2267A      4.020101  2268A      4.023084  
    2269A      4.025118  2270A      4.027396  2271A      4.029834  
    2272A      4.031550  2273A      4.032543  2274A      4.035616  
    2275A      4.037607  2276A      4.039387  2277A      4.040737  
    2278A      4.044802  2279A      4.049549  2280A      4.049931  
    2281A      4.052594  2282A      4.054103  2283A      4.055559  
    2284A      4.057195  2285A      4.060367  2286A      4.064436  
    2287A      4.064808  2288A      4.069124  2289A      4.073204  
    2290A      4.075226  2291A      4.076070  2292A      4.077922  
    2293A      4.078900  2294A      4.080553  2295A      4.085477  
    2296A      4.088142  2297A      4.089156  2298A      4.092410  
    2299A      4.093779  2300A      4.096394  2301A      4.097761  
    2302A      4.098979  2303A      4.100463  2304A      4.107251  
    2305A      4.109864  2306A      4.110514  2307A      4.111592  
    2308A      4.116715  2309A      4.119113  2310A      4.122023  
    2311A      4.123445  2312A      4.125865  2313A      4.128172  
    2314A      4.129776  2315A      4.133276  2316A      4.136618  
    2317A      4.138028  2318A      4.142459  2319A      4.143058  
    2320A      4.146546  2321A      4.149580  2322A      4.153113  
    2323A      4.156002  2324A      4.158167  2325A      4.160145  
    2326A      4.162967  2327A      4.166550  2328A      4.167994  
    2329A      4.169454  2330A      4.172198  2331A      4.176198  
    2332A      4.178902  2333A      4.181921  2334A      4.182562  
    2335A      4.186222  2336A      4.188637  2337A      4.188965  
    2338A      4.193574  2339A      4.193870  2340A      4.196464  
    2341A      4.198141  2342A      4.199238  2343A      4.202185  
    2344A      4.204303  2345A      4.206268  2346A      4.208896  
    2347A      4.211333  2348A      4.213072  2349A      4.213681  
    2350A      4.215987  2351A      4.220000  2352A      4.221354  
    2353A      4.225214  2354A      4.228574  2355A      4.230435  
    2356A      4.231503  2357A      4.236017  2358A      4.236202  
    2359A      4.237220  2360A      4.240796  2361A      4.241951  
    2362A      4.243705  2363A      4.246259  2364A      4.248300  
    2365A      4.249268  2366A      4.252431  2367A      4.254282  
    2368A      4.258746  2369A      4.260665  2370A      4.262140  
    2371A      4.263906  2372A      4.267349  2373A      4.270359  
    2374A      4.272187  2375A      4.277802  2376A      4.278583  
    2377A      4.280902  2378A      4.282638  2379A      4.284942  
    2380A      4.287417  2381A      4.288152  2382A      4.290846  
    2383A      4.293551  2384A      4.295742  2385A      4.296173  
    2386A      4.299796  2387A      4.303721  2388A      4.306419  
    2389A      4.308210  2390A      4.310968  2391A      4.312295  
    2392A      4.314078  2393A      4.314662  2394A      4.318043  
    2395A      4.320868  2396A      4.322281  2397A      4.323783  
    2398A      4.328053  2399A      4.330524  2400A      4.332753  
    2401A      4.334558  2402A      4.335699  2403A      4.338955  
    2404A      4.339170  2405A      4.342832  2406A      4.345158  
    2407A      4.347063  2408A      4.348421  2409A      4.354150  
    2410A      4.356734  2411A      4.358676  2412A      4.363039  
    2413A      4.365479  2414A      4.365962  2415A      4.368145  
    2416A      4.372849  2417A      4.374320  2418A      4.374823  
    2419A      4.378383  2420A      4.380799  2421A      4.385433  
    2422A      4.386705  2423A      4.387096  2424A      4.391302  
    2425A      4.397484  2426A      4.397780  2427A      4.401017  
    2428A      4.401830  2429A      4.405646  2430A      4.407547  
    2431A      4.416335  2432A      4.417882  2433A      4.419155  
    2434A      4.421430  2435A      4.424176  2436A      4.428488  
    2437A      4.430417  2438A      4.432144  2439A      4.434639  
    2440A      4.435073  2441A      4.439700  2442A      4.439982  
    2443A      4.442858  2444A      4.446290  2445A      4.448889  
    2446A      4.451905  2447A      4.452916  2448A      4.453946  
    2449A      4.457535  2450A      4.458748  2451A      4.463170  
    2452A      4.465080  2453A      4.468940  2454A      4.469568  
    2455A      4.471913  2456A      4.473030  2457A      4.477116  
    2458A      4.479155  2459A      4.483585  2460A      4.484175  
    2461A      4.487187  2462A      4.489694  2463A      4.491116  
    2464A      4.495410  2465A      4.497871  2466A      4.500615  
    2467A      4.503497  2468A      4.505239  2469A      4.506276  
    2470A      4.509886  2471A      4.512837  2472A      4.515657  
    2473A      4.519711  2474A      4.519856  2475A      4.521753  
    2476A      4.525644  2477A      4.526762  2478A      4.530240  
    2479A      4.532794  2480A      4.533082  2481A      4.534992  
    2482A      4.538047  2483A      4.540128  2484A      4.542850  
    2485A      4.546855  2486A      4.547466  2487A      4.550574  
    2488A      4.551801  2489A      4.554228  2490A      4.557452  
    2491A      4.559164  2492A      4.564342  2493A      4.567480  
    2494A      4.568591  2495A      4.569922  2496A      4.571075  
    2497A      4.574938  2498A      4.578606  2499A      4.581435  
    2500A      4.583346  2501A      4.586893  2502A      4.588411  
    2503A      4.591003  2504A      4.593307  2505A      4.597983  
    2506A      4.602125  2507A      4.605086  2508A      4.605582  
    2509A      4.607494  2510A      4.613481  2511A      4.615324  
    2512A      4.619117  2513A      4.622442  2514A      4.623730  
    2515A      4.628220  2516A      4.630301  2517A      4.632076  
    2518A      4.633771  2519A      4.634657  2520A      4.638414  
    2521A      4.640028  2522A      4.645039  2523A      4.645761  
    2524A      4.647489  2525A      4.650185  2526A      4.654473  
    2527A      4.659301  2528A      4.659514  2529A      4.662663  
    2530A      4.664928  2531A      4.669631  2532A      4.675027  
    2533A      4.677029  2534A      4.682326  2535A      4.683682  
    2536A      4.684567  2537A      4.686770  2538A      4.688144  
    2539A      4.692381  2540A      4.695495  2541A      4.698964  
    2542A      4.701332  2543A      4.705594  2544A      4.707937  
    2545A      4.711230  2546A      4.713248  2547A      4.716835  
    2548A      4.718182  2549A      4.724363  2550A      4.724836  
    2551A      4.730667  2552A      4.731946  2553A      4.734488  
    2554A      4.738551  2555A      4.742536  2556A      4.742886  
    2557A      4.747110  2558A      4.747646  2559A      4.753864  
    2560A      4.754198  2561A      4.758251  2562A      4.759157  
    2563A      4.763756  2564A      4.766840  2565A      4.768340  
    2566A      4.769005  2567A      4.772601  2568A      4.776060  
    2569A      4.778680  2570A      4.782223  2571A      4.784071  
    2572A      4.787074  2573A      4.792914  2574A      4.793224  
    2575A      4.796852  2576A      4.798093  2577A      4.801326  
    2578A      4.804627  2579A      4.806238  2580A      4.810568  
    2581A      4.813996  2582A      4.815792  2583A      4.817385  
    2584A      4.823147  2585A      4.824224  2586A      4.825235  
    2587A      4.826295  2588A      4.828347  2589A      4.832459  
    2590A      4.836485  2591A      4.838321  2592A      4.841165  
    2593A      4.845198  2594A      4.847251  2595A      4.853474  
    2596A      4.855183  2597A      4.857459  2598A      4.859790  
    2599A      4.862036  2600A      4.864424  2601A      4.868901  
    2602A      4.871431  2603A      4.875116  2604A      4.878214  
    2605A      4.883080  2606A      4.885910  2607A      4.886887  
    2608A      4.890021  2609A      4.892621  2610A      4.894468  
    2611A      4.896246  2612A      4.899042  2613A      4.903832  
    2614A      4.906205  2615A      4.911815  2616A      4.913082  
    2617A      4.922039  2618A      4.925225  2619A      4.929062  
    2620A      4.932225  2621A      4.936758  2622A      4.940257  
    2623A      4.945885  2624A      4.949598  2625A      4.950093  
    2626A      4.953889  2627A      4.956820  2628A      4.958443  
    2629A      4.960796  2630A      4.966197  2631A      4.970549  
    2632A      4.971909  2633A      4.977032  2634A      4.980692  
    2635A      4.980991  2636A      4.986413  2637A      4.988583  
    2638A      4.992173  2639A      4.995317  2640A      4.999048  
    2641A      5.004669  2642A      5.008420  2643A      5.009802  
    2644A      5.013205  2645A      5.016472  2646A      5.018419  
    2647A      5.018809  2648A      5.024513  2649A      5.027241  
    2650A      5.028672  2651A      5.031577  2652A      5.037158  
    2653A      5.039223  2654A      5.040786  2655A      5.042729  
    2656A      5.044728  2657A      5.048017  2658A      5.051319  
    2659A      5.061005  2660A      5.062977  2661A      5.065938  
    2662A      5.068375  2663A      5.072237  2664A      5.073087  
    2665A      5.076750  2666A      5.078714  2667A      5.079512  
    2668A      5.083646  2669A      5.085352  2670A      5.095281  
    2671A      5.102646  2672A      5.104313  2673A      5.105499  
    2674A      5.111070  2675A      5.113150  2676A      5.116888  
    2677A      5.119963  2678A      5.121157  2679A      5.124004  
    2680A      5.130361  2681A      5.134735  2682A      5.139787  
    2683A      5.141256  2684A      5.143114  2685A      5.146230  
    2686A      5.150763  2687A      5.152506  2688A      5.154555  
    2689A      5.160145  2690A      5.163099  2691A      5.168501  
    2692A      5.170179  2693A      5.176947  2694A      5.180256  
    2695A      5.183213  2696A      5.185486  2697A      5.191444  
    2698A      5.192319  2699A      5.194412  2700A      5.200226  
    2701A      5.201584  2702A      5.203896  2703A      5.205655  
    2704A      5.211004  2705A      5.216094  2706A      5.218013  
    2707A      5.219183  2708A      5.223283  2709A      5.224292  
    2710A      5.230094  2711A      5.233897  2712A      5.239529  
    2713A      5.244652  2714A      5.247680  2715A      5.249177  
    2716A      5.254636  2717A      5.256998  2718A      5.264827  
    2719A      5.268195  2720A      5.269276  2721A      5.275030  
    2722A      5.281239  2723A      5.284492  2724A      5.289500  
    2725A      5.290473  2726A      5.293437  2727A      5.297729  
    2728A      5.301586  2729A      5.307514  2730A      5.309823  
    2731A      5.315044  2732A      5.321951  2733A      5.328329  
    2734A      5.328816  2735A      5.331705  2736A      5.333666  
    2737A      5.335203  2738A      5.340555  2739A      5.344787  
    2740A      5.346754  2741A      5.349418  2742A      5.354033  
    2743A      5.355522  2744A      5.356983  2745A      5.360521  
    2746A      5.361828  2747A      5.369712  2748A      5.375920  
    2749A      5.381072  2750A      5.386723  2751A      5.394335  
    2752A      5.396219  2753A      5.398656  2754A      5.405494  
    2755A      5.412655  2756A      5.414426  2757A      5.422847  
    2758A      5.427749  2759A      5.429126  2760A      5.437039  
    2761A      5.441126  2762A      5.443275  2763A      5.445703  
    2764A      5.450496  2765A      5.453925  2766A      5.457402  
    2767A      5.459829  2768A      5.464474  2769A      5.467166  
    2770A      5.472862  2771A      5.476880  2772A      5.477614  
    2773A      5.479644  2774A      5.483768  2775A      5.490081  
    2776A      5.491647  2777A      5.494064  2778A      5.498605  
    2779A      5.503793  2780A      5.510609  2781A      5.511369  
    2782A      5.515718  2783A      5.518088  2784A      5.520320  
    2785A      5.528248  2786A      5.533622  2787A      5.536450  
    2788A      5.541569  2789A      5.542783  2790A      5.548447  
    2791A      5.551442  2792A      5.556866  2793A      5.569699  
    2794A      5.573326  2795A      5.574369  2796A      5.577300  
    2797A      5.581174  2798A      5.582063  2799A      5.595994  
    2800A      5.598427  2801A      5.601853  2802A      5.609965  
    2803A      5.614283  2804A      5.619116  2805A      5.623905  
    2806A      5.627570  2807A      5.632313  2808A      5.641716  
    2809A      5.647582  2810A      5.653828  2811A      5.663111  
    2812A      5.671799  2813A      5.672457  2814A      5.681355  
    2815A      5.684973  2816A      5.690060  2817A      5.694767  
    2818A      5.699580  2819A      5.708259  2820A      5.712918  
    2821A      5.714997  2822A      5.721509  2823A      5.725906  
    2824A      5.730204  2825A      5.741452  2826A      5.752887  
    2827A      5.754568  2828A      5.756652  2829A      5.761522  
    2830A      5.766877  2831A      5.772966  2832A      5.776619  
    2833A      5.784152  2834A      5.792483  2835A      5.795570  
    2836A      5.801171  2837A      5.822684  2838A      5.823983  
    2839A      5.831513  2840A      5.841301  2841A      5.846907  
    2842A      5.856682  2843A      5.863862  2844A      5.865821  
    2845A      5.870904  2846A      5.877866  2847A      5.891886  
    2848A      5.897398  2849A      5.907994  2850A      5.912054  
    2851A      5.919550  2852A      5.929640  2853A      5.933165  
    2854A      5.944432  2855A      5.952991  2856A      5.969095  
    2857A      5.986918  2858A      5.993805  2859A      5.994434  
    2860A      6.001989  2861A      6.005795  2862A      6.016258  
    2863A      6.019765  2864A      6.025824  2865A      6.028618  
    2866A      6.032911  2867A      6.035465  2868A      6.046841  
    2869A      6.054405  2870A      6.063170  2871A      6.076295  
    2872A      6.084843  2873A      6.092362  2874A      6.113994  
    2875A      6.116100  2876A      6.120618  2877A      6.130435  
    2878A      6.152275  2879A      6.159015  2880A      6.163291  
    2881A      6.182997  2882A      6.198306  2883A      6.211952  
    2884A      6.220864  2885A      6.228329  2886A      6.235736  
    2887A      6.247354  2888A      6.259161  2889A      6.261731  
    2890A      6.268620  2891A      6.276961  2892A      6.287222  
    2893A      6.293672  2894A      6.299106  2895A      6.321313  
    2896A      6.324641  2897A      6.334071  2898A      6.337311  
    2899A      6.338617  2900A      6.353642  2901A      6.354308  
    2902A      6.361263  2903A      6.368778  2904A      6.371049  
    2905A      6.378065  2906A      6.380503  2907A      6.386388  
    2908A      6.388007  2909A      6.401253  2910A      6.411555  
    2911A      6.419300  2912A      6.427928  2913A      6.429316  
    2914A      6.438831  2915A      6.450928  2916A      6.461177  
    2917A      6.470476  2918A      6.477775  2919A      6.480478  
    2920A      6.486050  2921A      6.493810  2922A      6.497590  
    2923A      6.499409  2924A      6.516731  2925A      6.532323  
    2926A      6.538004  2927A      6.547691  2928A      6.552007  
    2929A      6.561578  2930A      6.593361  2931A      6.600060  
    2932A      6.627209  2933A      6.634259  2934A      6.637427  
    2935A      6.644493  2936A      6.655100  2937A      6.659426  
    2938A      6.666110  2939A      6.677548  2940A      6.684626  
    2941A      6.689762  2942A      6.694739  2943A      6.696984  
    2944A      6.705210  2945A      6.706424  2946A      6.723720  
    2947A      6.730063  2948A      6.733536  2949A      6.754705  
    2950A      6.776440  2951A      6.786683  2952A      6.796662  
    2953A      6.804891  2954A      6.808321  2955A      6.817668  
    2956A      6.821721  2957A      6.835366  2958A      6.844225  
    2959A      6.844963  2960A      6.847370  2961A      6.862866  
    2962A      6.873219  2963A      6.891040  2964A      6.897522  
    2965A      6.912870  2966A      6.924893  2967A      6.933620  
    2968A      6.950702  2969A      6.955935  2970A      7.017296  
    2971A      7.038497  2972A      7.059127  2973A      7.088058  
    2974A      7.112253  2975A      7.121626  2976A      7.135324  
    2977A      7.137002  2978A      7.148989  2979A      7.153568  
    2980A      7.164275  2981A      7.187750  2982A      7.195718  
    2983A      7.219497  2984A      7.222805  2985A      7.285647  
    2986A      7.307899  2987A      7.324211  2988A      7.339606  
    2989A      7.356371  2990A      7.357277  2991A      7.367551  
    2992A      7.387834  2993A      7.410159  2994A      7.431839  
    2995A      7.451868  2996A      7.456079  2997A      7.470222  
    2998A      7.471964  2999A      7.546473  3000A      7.562601  
    3001A      7.581225  3002A      7.614532  3003A      7.635564  
    3004A      7.669220  3005A      7.683478  3006A      7.702637  
    3007A      7.706489  3008A      7.713998  3009A      7.725542  
    3010A      7.755660  3011A      7.765446  3012A      7.772545  
    3013A      7.793409  3014A      7.803326  3015A      7.821503  
    3016A      7.842175  3017A      7.849839  3018A      7.853403  
    3019A      7.889921  3020A      7.919490  3021A      7.926756  
    3022A      7.951135  3023A      7.962386  3024A      7.966842  
    3025A      7.998791  3026A      8.005322  3027A      8.024895  
    3028A      8.040929  3029A      8.068864  3030A      8.113495  
    3031A      8.126915  3032A      8.136723  3033A      8.139062  
    3034A      8.177690  3035A      8.245374  3036A      8.332446  
    3037A      8.341304  3038A      8.363707  3039A      8.385991  
    3040A      8.420744  3041A      8.426126  3042A      8.507707  
    3043A      8.554307  3044A      8.575967  3045A      8.686697  
    3046A      8.705621  3047A      8.721374  3048A      8.766326  
    3049A      8.973864  3050A      9.014776  3051A      9.114985  
    3052A      9.137571  3053A      9.260873  3054A      9.366424  
    3055A      9.488872  3056A      9.543213  3057A      9.653467  
    3058A      9.956352  3059A     10.007296  3060A     10.020699  
    3061A     10.030910  3062A     10.047390  3063A     10.091761  
    3064A     10.114987  3065A     10.127663  3066A     10.131966  
    3067A     10.169854  3068A     10.189399  3069A     10.199332  
    3070A     10.225372  3071A     10.290922  3072A     10.346357  
    3073A     10.360539  3074A     10.393971  3075A     10.398605  
    3076A     10.418203  3077A     10.495611  3078A     10.536002  
    3079A     10.553506  3080A     10.597775  3081A     10.619225  
    3082A     10.662283  3083A     10.740286  3084A     10.755471  
    3085A     10.765534  3086A     10.789038  3087A     10.807539  
    3088A     10.948532  3089A     11.002372  3090A     11.078214  
    3091A     11.143573  3092A     11.297162  3093A     11.324981  
    3094A     11.395721  3095A     11.430395  3096A     11.446793  
    3097A     11.920725  3098A     12.125400  3099A     12.204894  
    3100A     12.265146  3101A     12.316484  3102A     12.325832  
    3103A     12.371843  3104A     12.391266  3105A     12.420496  
    3106A     12.462861  3107A     12.565390  3108A     12.607045  
    3109A     12.706236  3110A     13.255619  3111A     13.348924  
    3112A     13.428963  3113A     13.448717  3114A     13.472427  
    3115A     13.510890  3116A     13.716819  3117A     14.665272  
    3118A     14.709408  3119A     14.771516  3120A     15.140800  
    3121A     15.157407  3122A     15.188135  3123A     15.313015  
    3124A     15.391415  3125A     15.435072  3126A     15.474150  
    3127A     15.497993  3128A     16.108868  3129A     16.286956  
    3130A     16.329300  3131A     16.391766  3132A     16.436540  
    3133A     16.809891  3134A     16.902470  3135A     17.375004  
    3136A     17.609988  3137A     17.629230  3138A     17.682136  
    3139A     17.916007  3140A     18.001575  3141A     18.117920  
    3142A     18.286383  3143A     18.343506  3144A     18.879866  
    3145A     19.080504  3146A     19.100373  3147A     19.408777  
    3148A     19.656882  3149A     19.681511  3150A     20.374091  
    3151A     20.653887  3152A     20.692993  3153A     20.815777  
    3154A     20.952417  3155A     21.283181  3156A     21.296064  
    3157A     21.320893  3158A     21.422057  3159A     21.491584  
    3160A     21.606047  3161A     21.732733  3162A     21.800113  
    3163A     21.888849  3164A     21.964242  3165A     22.209161  
    3166A     22.295244  3167A     22.600164  3168A     22.611784  
    3169A     51.880191  3170A     52.609628  3171A     57.872195  
    3172A     60.002317  3173A     61.086628  3174A     62.071299  
    3175A     65.003793  3176A     65.177985  3177A     69.143919  
    3178A     69.681614  3179A     76.124451  3180A     76.264310  
    3181A     81.639637  

    Final Occupation by Irrep:
              A 
    DOCC [   141 ]
    NA   [   141 ]
    NB   [   141 ]

  @DF-RKS Final Energy: -1690.49496435688911

   => Energetics <=

    Nuclear Repulsion Energy =           4517.2679062600536781
    One-Electron Energy =              -11279.3696055003329093
    Two-Electron Energy =                5239.8642654475079325
    DFT Exchange-Correlation Energy =    -169.2775414502251294
    Empirical Dispersion Energy =           0.0000000000000000
    VV10 Nonlocal Energy =                  1.0200108861070685
    Total Energy =                      -1690.4949643568893407

Computation Completed


Properties will be evaluated at   0.000000,   0.000000,   0.000000 [a0]

Properties computed using the SCF density matrix


 Multipole Moments:

 ------------------------------------------------------------------------------------
     Multipole            Electronic (a.u.)      Nuclear  (a.u.)        Total (a.u.)
 ------------------------------------------------------------------------------------

 L = 1.  Multiply by 2.5417464519 to convert [e a0] to [Debye]
 Dipole X            :        -49.2698496           49.6634951            0.3936455
 Dipole Y            :        -74.2218930           74.6084292            0.3865361
 Dipole Z            :       -278.9753592          278.7915749           -0.1837842
 Magnitude           :                                                    0.5815012

 ------------------------------------------------------------------------------------

*** tstop() called on atl1-1-03-004-6-1.pace.gatech.edu at Sat Jun 13 20:18:37 2026
Module time:
	user time   =  107328.65 seconds =    1788.81 minutes
	system time =    5675.91 seconds =      94.60 minutes
	total time  =      15905 seconds =     265.08 minutes
Total time:
	user time   =  107328.65 seconds =    1788.81 minutes
	system time =    5675.91 seconds =      94.60 minutes
	total time  =      15905 seconds =     265.08 minutes

    Psi4 stopped on: Saturday, 13 June 2026 08:18PM
    Psi4 wall time for execution: 4:25:19.83

*** Psi4 exiting successfully. Buy a developer a beer!
