
    -----------------------------------------------------------------------
          Psi4: An Open-Source Ab Initio Electronic Structure Package
                               Psi4 1.9.1 release

                         Git: Rev {} zzzzzzz 


    D. G. A. Smith, L. A. Burns, A. C. Simmonett, R. M. Parrish,
    M. C. Schieber, R. Galvelis, P. Kraus, H. Kruse, R. Di Remigio,
    A. Alenaizan, A. M. James, S. Lehtola, J. P. Misiewicz, M. Scheurer,
    R. A. Shaw, J. B. Schriber, Y. Xie, Z. L. Glick, D. A. Sirianni,
    J. S. O'Brien, J. M. Waldrop, A. Kumar, E. G. Hohenstein,
    B. P. Pritchard, B. R. Brooks, H. F. Schaefer III, A. Yu. Sokolov,
    K. Patkowski, A. E. DePrince III, U. Bozkaya, R. A. King,
    F. A. Evangelista, J. M. Turney, T. D. Crawford, C. D. Sherrill,
    J. Chem. Phys. 152(18) 184108 (2020). https://doi.org/10.1063/5.0006002

                            Additional Code Authors
    E. T. Seidl, C. L. Janssen, E. F. Valeev, M. L. Leininger,
    J. F. Gonthier, R. M. Richard, H. R. McAlexander, M. Saitow, X. Wang,
    P. Verma, M. H. Lechner, A. Jiang, S. Behnle, A. G. Heide,
    M. F. Herbst, and D. L. Poole

             Previous Authors, Complete List of Code Contributors,
                       and Citations for Specific Modules
    https://github.com/psi4/psi4/blob/master/codemeta.json
    https://github.com/psi4/psi4/graphs/contributors
    http://psicode.org/psi4manual/master/introduction.html#citing-psifour

    -----------------------------------------------------------------------


    Psi4 started on: Saturday, 13 June 2026 12:29PM

    Process ID: 3190420
    Host:       atl1-1-03-004-10-2.pace.gatech.edu
    PSIDATADIR: /storage/home/hcoda1/5/vlita3/.conda/envs/p4_qcml/share/psi4
    Memory:     250.0 GiB
    Threads:    10
    
  ==> Input QCSchema <==

--------------------------------------------------------------------------
{'driver': 'energy',
 'extras': {},
 'id': '240',
 'keywords': {},
 'model': {'basis': 'aug-cc-pvtz', 'method': 'wb97x-d'},
 'molecule': {'extras': {},
              'fix_com': True,
              'fix_orientation': True,
              'fragment_charges': [0.0, 0.0],
              'fragment_multiplicities': [1, 1],
              'fragments': [[0, 1, 2, 3, 4, 5, 6, 7, 8, 9, 10, 11, 12, 13, 14, 15, 16, 17, 18, 19, 20, 21, 22, 23, 24,
                             25, 26, 27, 28, 29, 30, 31, 32, 33, 34, 35, 36, 37, 38, 39, 40, 41, 42, 43],
                            [44, 45, 46, 47, 48, 49, 50, 51, 52, 53, 54, 55, 56, 57, 58, 59, 60, 61, 62, 63, 64, 65, 66,
                             67, 68, 69, 70, 71, 72, 73, 74, 75, 76, 77, 78, 79, 80, 81, 82, 83, 84, 85, 86, 87]],
              'geometry': [25.47963781, 23.08351049, 43.1296896, 24.89690954, 20.52012331, 43.887087, 25.07057198,
                           18.48699404, 42.07353641, 25.8424877, 19.04880944, 39.52013663, 26.46903607, 21.61452675,
                           38.85199593, 26.30318821, 23.59330066, 40.54460103, 24.46577176, 15.9279092, 42.77036087,
                           23.76811717, 15.37695629, 45.40838081, 23.59859476, 17.38880058, 47.22265844, 24.1081018,
                           20.02007671, 46.44346413, 22.96694077, 16.77267612, 49.77192758, 22.51062738, 14.29130626,
                           50.58597185, 22.67427055, 12.32177999, 48.76231557, 23.27971306, 12.86309326, 46.25226043,
                           25.97467497, 17.0727052, 37.71068154, 25.34789586, 14.59123463, 38.39437083, 24.59969708,
                           14.0277518, 40.88784347, 25.20039992, 25.0588727, 44.92111126, 24.35321071, 24.59525103,
                           47.39946073, 23.84084877, 22.08099208, 48.12795237, 21.86046838, 13.69556932, 53.32235171,
                           24.04555383, 26.76370654, 49.27889773, 26.50915633, 27.41178979, 50.73375129, 26.93108599,
                           26.27094839, 39.72356046, 27.10311578, 21.98163565, 36.89906984, 22.32265299, 10.34583799,
                           49.33666834, 23.39372081, 11.28300305, 44.90489504, 26.57612038, 17.51973959, 35.76596134,
                           25.43664936, 13.06203906, 36.97800898, 24.12002947, 12.05854919, 41.3527408, 25.62817825,
                           27.01761767, 44.36171793, 23.18724332, 21.75219607, 50.07608394, 23.27013145, 12.38510294,
                           54.17857328, 21.79629273, 15.42803966, 54.50687769, 19.98705402, 12.74487252, 53.47527914,
                           22.53167906, 26.28198386, 50.6619148, 23.38069793, 28.48102898, 48.25612267, 27.19569266,
                           25.7565067, 51.83310019, 28.04156267, 27.96965392, 49.40821263, 28.39145441, 27.1428651,
                           40.95513515, 25.23456206, 27.51897461, 39.79892028, 27.66207922, 26.29954115, 37.75755015,
                           26.2022166, 29.00071195, 52.0780899, 22.83611537, 18.29134925, 51.1881473, 30.81342193,
                           18.71017989, 45.99359029, 31.5788239, 19.74555973, 43.58027113, 32.18922921, 22.39746574,
                           43.36009841, 32.04731473, 23.98056161, 45.57578145, 31.25562095, 22.88485355, 47.94186375,
                           30.64065655, 20.36296812, 48.19759324, 32.96098858, 23.46875558, 40.98068543, 32.9776879,
                           21.8498177, 38.71563215, 32.39688051, 19.20754673, 38.92783428, 31.75108262, 18.1119644,
                           41.41040042, 32.38510148, 17.70859001, 36.6883681, 32.89884869, 18.70388423, 34.28627015,
                           33.46045747, 21.32787429, 34.10603582, 33.50020544, 22.84413785, 36.26471359, 32.71084168,
                           26.57519902, 45.39430813, 33.51746054, 27.59229626, 43.0833912, 33.64071365, 26.05933156,
                           40.9078722, 30.26834315, 16.09166271, 46.16720061, 30.49746548, 14.47431826, 44.06910385,
                           31.23964841, 15.50757785, 41.72580743, 32.85245858, 17.05660123, 31.93007182, 30.0352396,
                           11.64386798, 44.33912194, 32.45644731, 10.16276856, 45.08627623, 29.83741229, 19.30937345,
                           50.74453249, 31.15944353, 24.13692378, 49.60598037, 33.86115259, 22.17547238, 32.24063318,
                           33.92403613, 24.86828461, 36.03931452, 32.60693264, 27.77144276, 47.1004289, 34.05705016,
                           29.60331272, 42.95688301, 34.27807476, 26.92308174, 39.12655219, 29.64722791, 15.28713696,
                           47.98302787, 31.38145507, 14.21615321, 40.10268471, 34.735737, 17.01308892, 30.98680081,
                           32.31443775, 15.0754773, 32.37170495, 31.48589123, 17.79122297, 30.50534659, 29.28049933,
                           10.88478084, 42.52649407, 28.54357618, 11.31799443, 45.78690148, 33.97269455, 10.41059171,
                           43.64975571, 33.2192207, 10.84125701, 46.92494523, 31.18221652, 17.84465276, 51.44063809,
                           27.94896357, 18.39273342, 50.64394079, 29.74125873, 20.82714016, 52.19033882, 32.06613232,
                           8.10297733, 45.26704002, 31.91846208, 15.68652669, 36.81860417],
              'id': 5,
              'identifiers': {'molecular_formula': 'C48H40',
                              'molecule_hash': '15b64246f541ee1ce312b171a08939958d334f77'},
              'molecular_charge': 0.0,
              'molecular_multiplicity': 1,
              'name': 'C48H40',
              'provenance': {'creator': 'QCElemental',
                             'routine': 'qcelemental.molparse.from_string',
                             'version': '0.29.0'},
              'schema_name': 'qcschema_molecule',
              'schema_version': 2,
              'symbols': ['C', 'C', 'C', 'C', 'C', 'C', 'C', 'C', 'C', 'C', 'C', 'C', 'C', 'C', 'C', 'C', 'C', 'C', 'C',
                          'C', 'C', 'C', 'C', 'C', 'H', 'H', 'H', 'H', 'H', 'H', 'H', 'H', 'H', 'H', 'H', 'H', 'H', 'H',
                          'H', 'H', 'H', 'H', 'H', 'H', 'C', 'C', 'C', 'C', 'C', 'C', 'C', 'C', 'C', 'C', 'C', 'C', 'C',
                          'C', 'C', 'C', 'C', 'C', 'C', 'C', 'C', 'C', 'C', 'C', 'H', 'H', 'H', 'H', 'H', 'H', 'H', 'H',
                          'H', 'H', 'H', 'H', 'H', 'H', 'H', 'H', 'H', 'H', 'H', 'H'],
              'validated': True},
 'protocols': {},
 'provenance': {'creator': 'QCElemental', 'routine': 'qcelemental.models.results', 'version': '0.29.0'},
 'schema_name': 'qcschema_input',
 'schema_version': 1}
--------------------------------------------------------------------------

Scratch directory: /tmp/tmp7regl9xb_psi_scratch/
   => Libint2 <=

    Primary   basis highest AM E, G, H:  6, 6, 3
    Auxiliary basis highest AM E, G, H:  7, 7, 4
    Onebody   basis highest AM E, G, H:  -, -, -
    Solid Harmonics ordering:            Gaussian

*** tstart() called on atl1-1-03-004-10-2.pace.gatech.edu
*** at Sat Jun 13 12:29:24 2026

   => Loading Basis Set <=

    Name: AUG-CC-PVTZ
    Role: ORBITAL
    Keyword: BASIS
    atoms 1-24, 45-68  entry C          line   239 file /storage/home/hcoda1/5/vlita3/.conda/envs/p4_qcml/share/psi4/basis/aug-cc-pvtz.gbs 
    atoms 25-44, 69-88 entry H          line    40 file /storage/home/hcoda1/5/vlita3/.conda/envs/p4_qcml/share/psi4/basis/aug-cc-pvtz.gbs 

   => WB97X-D: Empirical Dispersion <=

    Chai and Head-Gordon Dispersion Correction
    Chai, J.-D.; Head-Gordon, M. (2010), J. Chem. Phys., 132: 6615-6620

        s6 =       1.000000


         ---------------------------------------------------------
                                   SCF
               by Justin Turney, Rob Parrish, Andy Simmonett
                          and Daniel G. A. Smith
                              RKS Reference
                       10 Threads, 256000 MiB Core
         ---------------------------------------------------------

  ==> Geometry <==

    Molecular point group: c1
    Full point group: C1

    Geometry (in Bohr), charge = 0, multiplicity = 1:

       Center              X                  Y                   Z               Mass       
    ------------   -----------------  -----------------  -----------------  -----------------
         C           25.479637810000    23.083510490000    43.129689600000    12.000000000000
         C           24.896909540000    20.520123310000    43.887087000000    12.000000000000
         C           25.070571980000    18.486994040000    42.073536410000    12.000000000000
         C           25.842487700000    19.048809440000    39.520136630000    12.000000000000
         C           26.469036070000    21.614526750000    38.851995930000    12.000000000000
         C           26.303188210000    23.593300660000    40.544601030000    12.000000000000
         C           24.465771760000    15.927909200000    42.770360870000    12.000000000000
         C           23.768117170000    15.376956290000    45.408380810000    12.000000000000
         C           23.598594760000    17.388800580000    47.222658440000    12.000000000000
         C           24.108101800000    20.020076710000    46.443464130000    12.000000000000
         C           22.966940770000    16.772676120000    49.771927580000    12.000000000000
         C           22.510627380000    14.291306260000    50.585971850000    12.000000000000
         C           22.674270550000    12.321779990000    48.762315570000    12.000000000000
         C           23.279713060000    12.863093260000    46.252260430000    12.000000000000
         C           25.974674970000    17.072705200000    37.710681540000    12.000000000000
         C           25.347895860000    14.591234630000    38.394370830000    12.000000000000
         C           24.599697080000    14.027751800000    40.887843470000    12.000000000000
         C           25.200399920000    25.058872700000    44.921111260000    12.000000000000
         C           24.353210710000    24.595251030000    47.399460730000    12.000000000000
         C           23.840848770000    22.080992080000    48.127952370000    12.000000000000
         C           21.860468380000    13.695569320000    53.322351710000    12.000000000000
         C           24.045553830000    26.763706540000    49.278897730000    12.000000000000
         C           26.509156330000    27.411789790000    50.733751290000    12.000000000000
         C           26.931085990000    26.270948390000    39.723560460000    12.000000000000
         H           27.103115780000    21.981635650000    36.899069840000     1.007825032230
         H           22.322652990000    10.345837990000    49.336668340000     1.007825032230
         H           23.393720810000    11.283003050000    44.904895040000     1.007825032230
         H           26.576120380000    17.519739590000    35.765961340000     1.007825032230
         H           25.436649360000    13.062039060000    36.978008980000     1.007825032230
         H           24.120029470000    12.058549190000    41.352740800000     1.007825032230
         H           25.628178250000    27.017617670000    44.361717930000     1.007825032230
         H           23.187243320000    21.752196070000    50.076083940000     1.007825032230
         H           23.270131450000    12.385102940000    54.178573280000     1.007825032230
         H           21.796292730000    15.428039660000    54.506877690000     1.007825032230
         H           19.987054020000    12.744872520000    53.475279140000     1.007825032230
         H           22.531679060000    26.281983860000    50.661914800000     1.007825032230
         H           23.380697930000    28.481028980000    48.256122670000     1.007825032230
         H           27.195692660000    25.756506700000    51.833100190000     1.007825032230
         H           28.041562670000    27.969653920000    49.408212630000     1.007825032230
         H           28.391454410000    27.142865100000    40.955135150000     1.007825032230
         H           25.234562060000    27.518974610000    39.798920280000     1.007825032230
         H           27.662079220000    26.299541150000    37.757550150000     1.007825032230
         H           26.202216600000    29.000711950000    52.078089900000     1.007825032230
         H           22.836115370000    18.291349250000    51.188147300000     1.007825032230
         C           30.813421930000    18.710179890000    45.993590290000    12.000000000000
         C           31.578823900000    19.745559730000    43.580271130000    12.000000000000
         C           32.189229210000    22.397465740000    43.360098410000    12.000000000000
         C           32.047314730000    23.980561610000    45.575781450000    12.000000000000
         C           31.255620950000    22.884853550000    47.941863750000    12.000000000000
         C           30.640656550000    20.362968120000    48.197593240000    12.000000000000
         C           32.960988580000    23.468755580000    40.980685430000    12.000000000000
         C           32.977687900000    21.849817700000    38.715632150000    12.000000000000
         C           32.396880510000    19.207546730000    38.927834280000    12.000000000000
         C           31.751082620000    18.111964400000    41.410400420000    12.000000000000
         C           32.385101480000    17.708590010000    36.688368100000    12.000000000000
         C           32.898848690000    18.703884230000    34.286270150000    12.000000000000
         C           33.460457470000    21.327874290000    34.106035820000    12.000000000000
         C           33.500205440000    22.844137850000    36.264713590000    12.000000000000
         C           32.710841680000    26.575199020000    45.394308130000    12.000000000000
         C           33.517460540000    27.592296260000    43.083391200000    12.000000000000
         C           33.640713650000    26.059331560000    40.907872200000    12.000000000000
         C           30.268343150000    16.091662710000    46.167200610000    12.000000000000
         C           30.497465480000    14.474318260000    44.069103850000    12.000000000000
         C           31.239648410000    15.507577850000    41.725807430000    12.000000000000
         C           32.852458580000    17.056601230000    31.930071820000    12.000000000000
         C           30.035239600000    11.643867980000    44.339121940000    12.000000000000
         C           32.456447310000    10.162768560000    45.086276230000    12.000000000000
         C           29.837412290000    19.309373450000    50.744532490000    12.000000000000
         H           31.159443530000    24.136923780000    49.605980370000     1.007825032230
         H           33.861152590000    22.175472380000    32.240633180000     1.007825032230
         H           33.924036130000    24.868284610000    36.039314520000     1.007825032230
         H           32.606932640000    27.771442760000    47.100428900000     1.007825032230
         H           34.057050160000    29.603312720000    42.956883010000     1.007825032230
         H           34.278074760000    26.923081740000    39.126552190000     1.007825032230
         H           29.647227910000    15.287136960000    47.983027870000     1.007825032230
         H           31.381455070000    14.216153210000    40.102684710000     1.007825032230
         H           34.735737000000    17.013088920000    30.986800810000     1.007825032230
         H           32.314437750000    15.075477300000    32.371704950000     1.007825032230
         H           31.485891230000    17.791222970000    30.505346590000     1.007825032230
         H           29.280499330000    10.884780840000    42.526494070000     1.007825032230
         H           28.543576180000    11.317994430000    45.786901480000     1.007825032230
         H           33.972694550000    10.410591710000    43.649755710000     1.007825032230
         H           33.219220700000    10.841257010000    46.924945230000     1.007825032230
         H           31.182216520000    17.844652760000    51.440638090000     1.007825032230
         H           27.948963570000    18.392733420000    50.643940790000     1.007825032230
         H           29.741258730000    20.827140160000    52.190338820000     1.007825032230
         H           32.066132320000     8.102977330000    45.267040020000     1.007825032230
         H           31.918462080000    15.686526690000    36.818604170000     1.007825032230

  Running in c1 symmetry.

  Rotational constants: A =      0.00210  B =      0.00003  C =      0.00003 [cm^-1]
  Rotational constants: A =     62.96897  B =      0.94325  C =      0.93874 [MHz]
  Nuclear repulsion = 6199.614502676580742

  Charge       = 0
  Multiplicity = 1
  Electrons    = 328
  Nalpha       = 164
  Nbeta        = 164

  ==> Algorithm <==

  SCF Algorithm Type is DF.
  DIIS enabled.
  MOM disabled.
  Fractional occupation disabled.
  Guess Type is SAD.
  Energy threshold   = 1.00e-06
  Density threshold  = 1.00e-06
  Integral threshold = 1.00e-12

  ==> Primary Basis <==

  Basis Set: AUG-CC-PVTZ
    Blend: AUG-CC-PVTZ
    Number of shells: 1032
    Number of basis functions: 3128
    Number of Cartesian functions: 3640
    Spherical Harmonics?: true
    Max angular momentum: 3

  ==> DFT Potential <==

   => LibXC <=

    Version 7.0.0
    S. Lehtola, C. Steigemann, M. J.T. Oliveira, and M. A.L. Marques.,  SoftwareX 7, 1–5 (2018) (10.1016/j.softx.2017.11.002)

   => Composite Functional: WB97X-D <= 

    wB97X-D Hyb-GGA Exchange-Correlation Functional

    J.-D. Chai and M. Head-Gordon.,  Phys. Chem. Chem. Phys. 10, 6615-6620 (2008) (10.1039/B810189B)

    Deriv               =              1
    GGA                 =           TRUE
    Meta                =          FALSE

    Exchange Hybrid     =           TRUE
    MP2 Hybrid          =          FALSE

   => Exchange-Correlation Functionals <=

    1.0000   wB97X-D range-separated functional

   => Exact (HF) Exchange <=

    0.7780            HF,LR [omega = 0.2000]
    0.2220               HF 

   => LibXC Density Thresholds  <==

    XC_HYB_GGA_XC_WB97X_D:  1.00E-14 

   => Molecular Quadrature <=

    Radial Scheme          =       TREUTLER
    Pruning Scheme         =           NONE
    Nuclear Scheme         =       TREUTLER

    Blocking Scheme        =         OCTREE
    BS radius alpha        =              1
    Pruning alpha          =              1
    Radial Points          =             75
    Spherical Points       =            302
    Total Points           =        1755895
    Total Blocks           =          12038
    Max Points             =            256
    Max Functions          =           2202
    Weights Tolerance      =       1.00E-15

   => Loading Basis Set <=

    Name: (AUG-CC-PVTZ AUX)
    Role: JKFIT
    Keyword: DF_BASIS_SCF
    atoms 1-24, 45-68  entry C          line   162 file /storage/home/hcoda1/5/vlita3/.conda/envs/p4_qcml/share/psi4/basis/aug-cc-pvtz-jkfit.gbs 
    atoms 25-44, 69-88 entry H          line    70 file /storage/home/hcoda1/5/vlita3/.conda/envs/p4_qcml/share/psi4/basis/aug-cc-pvtz-jkfit.gbs 

  ==> Integral Setup <==

  ==> DiskDFJK: Density-Fitted J/K Matrices <==

    J tasked:                  Yes
    K tasked:                  Yes
    wK tasked:                 Yes
    Omega:               2.000E-01
    OpenMP threads:             10
    Integrals threads:          10
    Memory [MiB]:           172800
    Algorithm:                Disk
    Integral Cache:           NONE
    Schwarz Cutoff:          1E-12
    Fitting Condition:       1E-10

   => Auxiliary Basis Set <=

  Basis Set: (AUG-CC-PVTZ AUX)
    Blend: AUG-CC-PVTZ-JKFIT
    Number of shells: 2000
    Number of basis functions: 6832
    Number of Cartesian functions: 8488
    Spherical Harmonics?: true
    Max angular momentum: 4

  Minimum eigenvalue in the overlap matrix is 6.3711160731E-10.
  Reciprocal condition number of the overlap matrix is 1.7895063395E-11.
    Using canonical orthogonalization.
  Overall, 29 of 3128 possible MOs eliminated.


  ==> Pre-Iterations <==

  SCF Guess: Superposition of Atomic Densities via on-the-fly atomic UHF (no occupation information).

   -------------------------
    Irrep   Nso     Nmo    
   -------------------------
     A       3128    3099 
   -------------------------
    Total    3128    3099
   -------------------------

  ==> Iterations <==

                           Total Energy        Delta E     RMS |[F,P]|

   @DF-RKS iter SAD: -1853.03244400646145   -1.85303e+03   0.00000e+00 
   @DF-RKS iter   1: -1851.41523952049261    1.61720e+00   6.02850e-04 DIIS/ADIIS
   @DF-RKS iter   2: -1852.36230682333780   -9.47067e-01   4.41156e-04 DIIS/ADIIS
   @DF-RKS iter   3: -1853.29378378150932   -9.31477e-01   8.74919e-05 DIIS
   @DF-RKS iter   4: -1853.32212726215494   -2.83435e-02   4.55714e-05 DIIS
   @DF-RKS iter   5: -1853.33191326362385   -9.78600e-03   1.18832e-05 DIIS
   @DF-RKS iter   6: -1853.33257221071244   -6.58947e-04   4.13872e-06 DIIS
   @DF-RKS iter   7: -1853.33266097900650   -8.87683e-05   1.04889e-06 DIIS
   @DF-RKS iter   8: -1853.33266805959420   -7.08059e-06   4.63321e-07 DIIS
   @DF-RKS iter   9: -1853.33266986511330   -1.80552e-06   1.64810e-07 DIIS
   @DF-RKS iter  10: -1853.33267019289792   -3.27785e-07   9.00837e-08 DIIS
  Energy and wave function converged.


  ==> Post-Iterations <==

   Electrons on quadrature grid:
      Ntotal   =  328.0004979246 ; deviation = 4.979e-04 

    Orbital Energies [Eh]
    ---------------------

    Doubly Occupied:                                                      

       1A    -10.311585     2A    -10.309631     3A    -10.309225  
       4A    -10.308606     5A    -10.307913     6A    -10.307880  
       7A    -10.307457     8A    -10.307202     9A    -10.307023  
      10A    -10.304993    11A    -10.303795    12A    -10.303454  
      13A    -10.303318    14A    -10.302773    15A    -10.302763  
      16A    -10.302461    17A    -10.302035    18A    -10.301929  
      19A    -10.301449    20A    -10.300952    21A    -10.300867  
      22A    -10.299402    23A    -10.297574    24A    -10.297343  
      25A    -10.297062    26A    -10.296781    27A    -10.296340  
      28A    -10.295811    29A    -10.295048    30A    -10.295019  
      31A    -10.294468    32A    -10.294373    33A    -10.294145  
      34A    -10.293782    35A    -10.293101    36A    -10.293090  
      37A    -10.292014    38A    -10.291748    39A    -10.291208  
      40A    -10.289367    41A    -10.287997    42A    -10.287924  
      43A    -10.286878    44A    -10.286631    45A    -10.286151  
      46A    -10.285231    47A    -10.281588    48A    -10.281240  
      49A     -0.988223    50A     -0.983953    51A     -0.955578  
      52A     -0.954180    53A     -0.946253    54A     -0.943416  
      55A     -0.914422    56A     -0.913048    57A     -0.898349  
      58A     -0.896519    59A     -0.877071    60A     -0.875410  
      61A     -0.858134    62A     -0.856419    63A     -0.853593  
      64A     -0.852547    65A     -0.839106    66A     -0.837757  
      67A     -0.812249    68A     -0.810515    69A     -0.806976  
      70A     -0.804770    71A     -0.778866    72A     -0.777596  
      73A     -0.775942    74A     -0.773821    75A     -0.732103  
      76A     -0.729240    77A     -0.720864    78A     -0.719013  
      79A     -0.703516    80A     -0.702767    81A     -0.698185  
      82A     -0.697554    83A     -0.687972    84A     -0.685750  
      85A     -0.665070    86A     -0.664121    87A     -0.629001  
      88A     -0.627179    89A     -0.616821    90A     -0.615944  
      91A     -0.606010    92A     -0.603453    93A     -0.585149  
      94A     -0.584230    95A     -0.576086    96A     -0.574611  
      97A     -0.551864    98A     -0.551111    99A     -0.548936  
     100A     -0.547484   101A     -0.542288   102A     -0.540577  
     103A     -0.530714   104A     -0.528915   105A     -0.527591  
     106A     -0.525914   107A     -0.523278   108A     -0.514299  
     109A     -0.511661   110A     -0.507721   111A     -0.505495  
     112A     -0.504120   113A     -0.502637   114A     -0.498720  
     115A     -0.498062   116A     -0.496423   117A     -0.495686  
     118A     -0.494253   119A     -0.488241   120A     -0.484908  
     121A     -0.484100   122A     -0.483690   123A     -0.478190  
     124A     -0.476268   125A     -0.466202   126A     -0.464952  
     127A     -0.464255   128A     -0.462277   129A     -0.460996  
     130A     -0.457728   131A     -0.453389   132A     -0.451566  
     133A     -0.449948   134A     -0.445948   135A     -0.443793  
     136A     -0.443537   137A     -0.439922   138A     -0.438737  
     139A     -0.431990   140A     -0.428205   141A     -0.427299  
     142A     -0.426440   143A     -0.424325   144A     -0.420861  
     145A     -0.419398   146A     -0.415462   147A     -0.392771  
     148A     -0.391205   149A     -0.390526   150A     -0.390378  
     151A     -0.388466   152A     -0.384094   153A     -0.369689  
     154A     -0.359831   155A     -0.358614   156A     -0.351309  
     157A     -0.321258   158A     -0.317655   159A     -0.311931  
     160A     -0.307521   161A     -0.281132   162A     -0.278737  
     163A     -0.261528   164A     -0.259661  

    Virtual:                                                              

     165A     -0.002495   166A      0.000320   167A      0.016695  
     168A      0.020285   169A      0.023874   170A      0.025621  
     171A      0.026751   172A      0.032178   173A      0.032512  
     174A      0.033692   175A      0.037069   176A      0.037761  
     177A      0.038840   178A      0.042016   179A      0.042523  
     180A      0.043215   181A      0.047327   182A      0.048428  
     183A      0.049924   184A      0.051208   185A      0.052373  
     186A      0.053430   187A      0.056401   188A      0.058830  
     189A      0.059648   190A      0.063057   191A      0.064002  
     192A      0.066407   193A      0.067691   194A      0.070182  
     195A      0.071644   196A      0.072805   197A      0.073969  
     198A      0.079335   199A      0.080263   200A      0.081170  
     201A      0.083867   202A      0.084773   203A      0.085904  
     204A      0.088828   205A      0.090977   206A      0.091664  
     207A      0.092752   208A      0.094150   209A      0.094276  
     210A      0.094534   211A      0.096395   212A      0.098498  
     213A      0.099068   214A      0.102651   215A      0.103861  
     216A      0.104784   217A      0.104898   218A      0.106537  
     219A      0.107875   220A      0.108675   221A      0.110875  
     222A      0.110908   223A      0.112886   224A      0.115192  
     225A      0.117196   226A      0.117672   227A      0.118396  
     228A      0.119551   229A      0.120244   230A      0.121274  
     231A      0.122262   232A      0.124642   233A      0.125814  
     234A      0.127741   235A      0.130423   236A      0.130659  
     237A      0.132639   238A      0.133047   239A      0.136006  
     240A      0.136781   241A      0.137214   242A      0.139376  
     243A      0.139764   244A      0.142135   245A      0.142239  
     246A      0.143717   247A      0.144807   248A      0.145957  
     249A      0.146520   250A      0.149169   251A      0.150079  
     252A      0.150846   253A      0.152697   254A      0.154365  
     255A      0.154715   256A      0.156663   257A      0.157753  
     258A      0.159756   259A      0.161280   260A      0.162040  
     261A      0.162974   262A      0.164336   263A      0.165246  
     264A      0.167435   265A      0.169736   266A      0.170224  
     267A      0.171206   268A      0.172827   269A      0.173532  
     270A      0.174720   271A      0.175479   272A      0.176935  
     273A      0.179393   274A      0.180230   275A      0.181316  
     276A      0.182016   277A      0.183065   278A      0.184719  
     279A      0.186952   280A      0.188623   281A      0.189570  
     282A      0.191374   283A      0.193638   284A      0.194731  
     285A      0.195102   286A      0.195901   287A      0.196387  
     288A      0.197529   289A      0.199722   290A      0.200395  
     291A      0.201676   292A      0.202461   293A      0.204751  
     294A      0.205896   295A      0.207637   296A      0.209910  
     297A      0.211875   298A      0.212627   299A      0.213859  
     300A      0.215133   301A      0.216162   302A      0.217660  
     303A      0.218538   304A      0.219187   305A      0.220328  
     306A      0.221788   307A      0.222570   308A      0.224499  
     309A      0.225836   310A      0.226985   311A      0.227179  
     312A      0.228550   313A      0.230404   314A      0.231145  
     315A      0.231953   316A      0.233705   317A      0.234168  
     318A      0.235734   319A      0.236408   320A      0.238561  
     321A      0.239189   322A      0.239648   323A      0.241187  
     324A      0.242293   325A      0.243393   326A      0.244442  
     327A      0.244996   328A      0.246159   329A      0.247549  
     330A      0.248668   331A      0.249275   332A      0.250715  
     333A      0.252032   334A      0.252721   335A      0.253888  
     336A      0.254548   337A      0.255464   338A      0.256735  
     339A      0.257537   340A      0.258571   341A      0.260134  
     342A      0.261733   343A      0.263113   344A      0.263705  
     345A      0.264607   346A      0.265826   347A      0.266977  
     348A      0.267521   349A      0.268028   350A      0.269706  
     351A      0.271474   352A      0.272182   353A      0.273784  
     354A      0.274373   355A      0.275276   356A      0.276210  
     357A      0.276408   358A      0.279210   359A      0.280941  
     360A      0.281083   361A      0.282662   362A      0.283909  
     363A      0.285228   364A      0.285649   365A      0.286915  
     366A      0.288411   367A      0.288721   368A      0.289810  
     369A      0.291151   370A      0.292675   371A      0.293674  
     372A      0.293984   373A      0.295176   374A      0.295468  
     375A      0.296892   376A      0.299255   377A      0.301014  
     378A      0.301996   379A      0.302133   380A      0.303462  
     381A      0.304181   382A      0.304704   383A      0.304839  
     384A      0.307034   385A      0.308867   386A      0.309601  
     387A      0.310635   388A      0.311817   389A      0.313073  
     390A      0.313747   391A      0.315565   392A      0.316452  
     393A      0.316864   394A      0.317191   395A      0.320060  
     396A      0.320922   397A      0.321326   398A      0.321994  
     399A      0.323877   400A      0.324396   401A      0.325524  
     402A      0.326566   403A      0.327789   404A      0.328417  
     405A      0.328860   406A      0.330104   407A      0.331897  
     408A      0.332554   409A      0.333393   410A      0.335258  
     411A      0.336304   412A      0.337364   413A      0.337637  
     414A      0.338480   415A      0.341009   416A      0.341632  
     417A      0.342908   418A      0.344713   419A      0.345437  
     420A      0.346437   421A      0.347351   422A      0.349364  
     423A      0.349938   424A      0.351366   425A      0.352021  
     426A      0.352781   427A      0.354064   428A      0.354909  
     429A      0.357373   430A      0.358519   431A      0.359817  
     432A      0.361153   433A      0.361571   434A      0.363025  
     435A      0.365497   436A      0.367050   437A      0.367663  
     438A      0.368492   439A      0.369236   440A      0.370242  
     441A      0.370812   442A      0.373080   443A      0.373788  
     444A      0.374908   445A      0.375424   446A      0.377180  
     447A      0.378211   448A      0.380524   449A      0.381809  
     450A      0.382816   451A      0.384087   452A      0.385671  
     453A      0.387268   454A      0.387606   455A      0.389180  
     456A      0.389855   457A      0.390013   458A      0.390719  
     459A      0.391941   460A      0.393691   461A      0.394699  
     462A      0.395804   463A      0.397743   464A      0.399038  
     465A      0.401632   466A      0.402818   467A      0.403387  
     468A      0.404631   469A      0.406493   470A      0.407568  
     471A      0.408629   472A      0.409985   473A      0.411223  
     474A      0.413410   475A      0.415240   476A      0.416319  
     477A      0.417908   478A      0.419390   479A      0.420535  
     480A      0.422017   481A      0.423901   482A      0.424811  
     483A      0.426171   484A      0.427445   485A      0.428442  
     486A      0.430129   487A      0.431014   488A      0.433494  
     489A      0.434794   490A      0.435297   491A      0.436247  
     492A      0.438569   493A      0.439461   494A      0.440317  
     495A      0.440554   496A      0.441990   497A      0.443473  
     498A      0.446573   499A      0.448160   500A      0.449522  
     501A      0.451206   502A      0.451850   503A      0.453010  
     504A      0.453133   505A      0.455885   506A      0.456427  
     507A      0.457877   508A      0.459012   509A      0.461372  
     510A      0.461753   511A      0.463889   512A      0.465134  
     513A      0.466018   514A      0.466643   515A      0.470263  
     516A      0.470551   517A      0.471719   518A      0.472732  
     519A      0.473749   520A      0.474014   521A      0.475658  
     522A      0.476081   523A      0.476660   524A      0.477947  
     525A      0.481256   526A      0.481908   527A      0.482695  
     528A      0.483852   529A      0.484349   530A      0.486893  
     531A      0.487521   532A      0.488857   533A      0.489572  
     534A      0.490170   535A      0.490523   536A      0.492064  
     537A      0.493639   538A      0.494643   539A      0.496274  
     540A      0.497168   541A      0.497996   542A      0.498308  
     543A      0.499348   544A      0.499685   545A      0.500283  
     546A      0.500644   547A      0.503038   548A      0.505208  
     549A      0.505527   550A      0.506910   551A      0.508907  
     552A      0.509317   553A      0.510297   554A      0.510399  
     555A      0.511613   556A      0.512033   557A      0.512892  
     558A      0.514839   559A      0.515046   560A      0.516367  
     561A      0.517150   562A      0.517754   563A      0.519982  
     564A      0.521208   565A      0.522131   566A      0.522241  
     567A      0.523118   568A      0.525094   569A      0.526731  
     570A      0.526902   571A      0.527844   572A      0.528199  
     573A      0.529321   574A      0.531159   575A      0.532083  
     576A      0.532512   577A      0.534145   578A      0.534868  
     579A      0.536259   580A      0.538043   581A      0.538445  
     582A      0.539039   583A      0.540274   584A      0.543070  
     585A      0.544311   586A      0.544583   587A      0.544930  
     588A      0.546240   589A      0.548258   590A      0.549249  
     591A      0.550498   592A      0.551448   593A      0.552086  
     594A      0.553560   595A      0.554705   596A      0.555820  
     597A      0.557421   598A      0.558405   599A      0.560083  
     600A      0.560714   601A      0.561419   602A      0.562203  
     603A      0.562883   604A      0.563903   605A      0.564231  
     606A      0.567297   607A      0.567768   608A      0.568320  
     609A      0.568765   610A      0.571293   611A      0.572452  
     612A      0.574016   613A      0.574597   614A      0.576205  
     615A      0.578072   616A      0.578975   617A      0.579630  
     618A      0.581353   619A      0.582493   620A      0.582749  
     621A      0.584101   622A      0.586216   623A      0.589147  
     624A      0.589770   625A      0.591153   626A      0.591515  
     627A      0.591840   628A      0.594315   629A      0.596410  
     630A      0.596921   631A      0.597435   632A      0.598500  
     633A      0.599775   634A      0.601134   635A      0.602155  
     636A      0.604753   637A      0.606021   638A      0.607673  
     639A      0.609438   640A      0.612160   641A      0.612673  
     642A      0.613067   643A      0.614059   644A      0.616643  
     645A      0.617534   646A      0.619329   647A      0.620125  
     648A      0.622157   649A      0.623313   650A      0.625031  
     651A      0.625468   652A      0.626814   653A      0.628255  
     654A      0.629508   655A      0.632278   656A      0.632936  
     657A      0.635267   658A      0.635942   659A      0.637675  
     660A      0.639074   661A      0.640352   662A      0.642806  
     663A      0.643588   664A      0.644293   665A      0.646495  
     666A      0.646945   667A      0.648270   668A      0.650386  
     669A      0.652140   670A      0.653089   671A      0.655469  
     672A      0.657804   673A      0.658441   674A      0.660617  
     675A      0.660678   676A      0.662367   677A      0.662535  
     678A      0.665377   679A      0.665877   680A      0.669783  
     681A      0.670225   682A      0.670895   683A      0.674371  
     684A      0.675201   685A      0.677451   686A      0.677809  
     687A      0.678628   688A      0.682102   689A      0.682440  
     690A      0.683335   691A      0.686106   692A      0.687913  
     693A      0.688794   694A      0.689585   695A      0.692804  
     696A      0.694314   697A      0.694922   698A      0.696745  
     699A      0.698172   700A      0.699579   701A      0.700407  
     702A      0.702177   703A      0.703219   704A      0.705144  
     705A      0.708035   706A      0.708728   707A      0.709284  
     708A      0.711346   709A      0.712252   710A      0.713841  
     711A      0.715514   712A      0.716189   713A      0.720476  
     714A      0.721429   715A      0.722809   716A      0.725244  
     717A      0.725582   718A      0.726669   719A      0.727402  
     720A      0.728530   721A      0.729707   722A      0.730068  
     723A      0.733631   724A      0.735002   725A      0.735860  
     726A      0.737245   727A      0.738393   728A      0.739814  
     729A      0.743891   730A      0.744846   731A      0.747020  
     732A      0.748272   733A      0.749619   734A      0.749771  
     735A      0.751196   736A      0.752059   737A      0.754057  
     738A      0.757177   739A      0.758617   740A      0.759402  
     741A      0.759959   742A      0.762747   743A      0.764251  
     744A      0.765842   745A      0.766919   746A      0.769034  
     747A      0.770342   748A      0.771814   749A      0.773763  
     750A      0.774881   751A      0.775944   752A      0.777020  
     753A      0.778236   754A      0.780311   755A      0.781116  
     756A      0.784048   757A      0.784668   758A      0.787402  
     759A      0.788814   760A      0.789753   761A      0.791717  
     762A      0.794173   763A      0.794825   764A      0.795494  
     765A      0.797246   766A      0.798004   767A      0.798578  
     768A      0.798986   769A      0.801215   770A      0.801545  
     771A      0.803949   772A      0.805754   773A      0.806050  
     774A      0.807286   775A      0.809314   776A      0.811249  
     777A      0.811679   778A      0.813084   779A      0.815195  
     780A      0.817264   781A      0.818083   782A      0.818850  
     783A      0.821396   784A      0.822233   785A      0.822910  
     786A      0.824849   787A      0.826189   788A      0.828054  
     789A      0.828638   790A      0.830057   791A      0.833639  
     792A      0.833955   793A      0.834530   794A      0.835348  
     795A      0.836407   796A      0.839020   797A      0.839463  
     798A      0.840999   799A      0.841963   800A      0.843292  
     801A      0.846117   802A      0.846828   803A      0.847725  
     804A      0.849159   805A      0.850344   806A      0.851617  
     807A      0.852338   808A      0.853003   809A      0.854418  
     810A      0.855831   811A      0.857206   812A      0.859525  
     813A      0.859982   814A      0.862962   815A      0.863602  
     816A      0.864794   817A      0.865630   818A      0.867057  
     819A      0.867495   820A      0.870323   821A      0.871520  
     822A      0.872064   823A      0.873303   824A      0.875446  
     825A      0.876389   826A      0.877102   827A      0.878835  
     828A      0.880510   829A      0.881091   830A      0.883218  
     831A      0.883879   832A      0.885990   833A      0.887786  
     834A      0.889230   835A      0.890220   836A      0.892402  
     837A      0.893265   838A      0.895616   839A      0.896953  
     840A      0.897128   841A      0.898266   842A      0.901772  
     843A      0.903044   844A      0.903460   845A      0.904283  
     846A      0.905088   847A      0.906489   848A      0.907006  
     849A      0.908733   850A      0.909594   851A      0.910071  
     852A      0.911063   853A      0.915423   854A      0.915836  
     855A      0.916553   856A      0.918585   857A      0.920129  
     858A      0.921171   859A      0.922526   860A      0.923114  
     861A      0.924842   862A      0.925169   863A      0.926095  
     864A      0.926938   865A      0.928502   866A      0.929671  
     867A      0.930496   868A      0.932675   869A      0.933102  
     870A      0.934620   871A      0.936027   872A      0.937074  
     873A      0.939239   874A      0.940227   875A      0.941263  
     876A      0.942401   877A      0.943438   878A      0.944144  
     879A      0.947632   880A      0.947735   881A      0.949456  
     882A      0.950997   883A      0.951097   884A      0.952948  
     885A      0.953295   886A      0.954330   887A      0.955993  
     888A      0.957267   889A      0.959116   890A      0.960117  
     891A      0.961576   892A      0.962484   893A      0.964457  
     894A      0.966036   895A      0.968009   896A      0.969225  
     897A      0.970557   898A      0.971937   899A      0.972606  
     900A      0.973901   901A      0.974821   902A      0.975088  
     903A      0.977632   904A      0.978015   905A      0.979160  
     906A      0.981007   907A      0.982348   908A      0.984048  
     909A      0.985327   910A      0.986949   911A      0.988029  
     912A      0.988719   913A      0.991011   914A      0.991195  
     915A      0.992565   916A      0.993253   917A      0.997097  
     918A      0.998345   919A      0.998812   920A      1.001177  
     921A      1.001863   922A      1.003784   923A      1.005883  
     924A      1.006778   925A      1.007838   926A      1.008654  
     927A      1.010329   928A      1.011047   929A      1.012026  
     930A      1.014605   931A      1.016354   932A      1.016873  
     933A      1.019983   934A      1.020961   935A      1.023035  
     936A      1.023086   937A      1.024020   938A      1.026680  
     939A      1.027391   940A      1.029271   941A      1.030171  
     942A      1.033707   943A      1.034028   944A      1.035657  
     945A      1.036878   946A      1.037334   947A      1.038743  
     948A      1.041768   949A      1.043844   950A      1.044252  
     951A      1.044992   952A      1.046855   953A      1.048077  
     954A      1.048613   955A      1.050514   956A      1.051895  
     957A      1.052437   958A      1.053423   959A      1.054928  
     960A      1.055339   961A      1.058004   962A      1.059737  
     963A      1.060156   964A      1.062579   965A      1.063673  
     966A      1.064855   967A      1.067191   968A      1.068707  
     969A      1.069579   970A      1.070447   971A      1.072935  
     972A      1.075756   973A      1.076322   974A      1.078088  
     975A      1.078872   976A      1.080020   977A      1.081791  
     978A      1.082039   979A      1.083234   980A      1.085395  
     981A      1.085834   982A      1.089289   983A      1.090872  
     984A      1.092272   985A      1.093326   986A      1.094428  
     987A      1.096220   988A      1.097842   989A      1.098150  
     990A      1.100429   991A      1.101588   992A      1.102474  
     993A      1.104135   994A      1.106811   995A      1.107453  
     996A      1.108851   997A      1.109885   998A      1.111593  
     999A      1.112087  1000A      1.115011  1001A      1.115525  
    1002A      1.117223  1003A      1.118267  1004A      1.119761  
    1005A      1.121772  1006A      1.123186  1007A      1.125741  
    1008A      1.126314  1009A      1.127587  1010A      1.127740  
    1011A      1.129804  1012A      1.130856  1013A      1.132529  
    1014A      1.135014  1015A      1.135275  1016A      1.136878  
    1017A      1.138151  1018A      1.139971  1019A      1.141785  
    1020A      1.144148  1021A      1.144856  1022A      1.147753  
    1023A      1.148926  1024A      1.150220  1025A      1.151492  
    1026A      1.152395  1027A      1.154144  1028A      1.155835  
    1029A      1.156947  1030A      1.157765  1031A      1.161313  
    1032A      1.162165  1033A      1.162996  1034A      1.165246  
    1035A      1.167317  1036A      1.167668  1037A      1.168817  
    1038A      1.169421  1039A      1.170304  1040A      1.171953  
    1041A      1.172175  1042A      1.174774  1043A      1.176968  
    1044A      1.179919  1045A      1.180148  1046A      1.182470  
    1047A      1.184556  1048A      1.185057  1049A      1.186427  
    1050A      1.187637  1051A      1.188779  1052A      1.191055  
    1053A      1.192557  1054A      1.194496  1055A      1.196991  
    1056A      1.197532  1057A      1.198227  1058A      1.199023  
    1059A      1.200461  1060A      1.202677  1061A      1.203535  
    1062A      1.205915  1063A      1.206927  1064A      1.209712  
    1065A      1.212015  1066A      1.213392  1067A      1.214205  
    1068A      1.216677  1069A      1.219346  1070A      1.220892  
    1071A      1.221518  1072A      1.223807  1073A      1.225486  
    1074A      1.226709  1075A      1.228206  1076A      1.229867  
    1077A      1.230279  1078A      1.233090  1079A      1.234581  
    1080A      1.236158  1081A      1.237267  1082A      1.238250  
    1083A      1.239116  1084A      1.242998  1085A      1.244119  
    1086A      1.244773  1087A      1.246118  1088A      1.248055  
    1089A      1.250273  1090A      1.251462  1091A      1.254680  
    1092A      1.256382  1093A      1.257463  1094A      1.260573  
    1095A      1.261978  1096A      1.263072  1097A      1.264538  
    1098A      1.265218  1099A      1.266778  1100A      1.267382  
    1101A      1.269150  1102A      1.270781  1103A      1.272967  
    1104A      1.275234  1105A      1.276543  1106A      1.278902  
    1107A      1.281484  1108A      1.281896  1109A      1.283158  
    1110A      1.284910  1111A      1.285799  1112A      1.287670  
    1113A      1.289751  1114A      1.290798  1115A      1.292670  
    1116A      1.293786  1117A      1.296041  1118A      1.296235  
    1119A      1.298050  1120A      1.299056  1121A      1.301483  
    1122A      1.304468  1123A      1.305327  1124A      1.307450  
    1125A      1.308277  1126A      1.310414  1127A      1.313028  
    1128A      1.313473  1129A      1.315092  1130A      1.317604  
    1131A      1.320083  1132A      1.320427  1133A      1.322364  
    1134A      1.323521  1135A      1.324387  1136A      1.325618  
    1137A      1.326141  1138A      1.330943  1139A      1.332572  
    1140A      1.332917  1141A      1.334338  1142A      1.336272  
    1143A      1.338469  1144A      1.338631  1145A      1.340357  
    1146A      1.343068  1147A      1.345513  1148A      1.346047  
    1149A      1.349976  1150A      1.350946  1151A      1.352644  
    1152A      1.355330  1153A      1.356282  1154A      1.356508  
    1155A      1.357597  1156A      1.359208  1157A      1.361845  
    1158A      1.362078  1159A      1.363516  1160A      1.364467  
    1161A      1.366311  1162A      1.367858  1163A      1.368353  
    1164A      1.370905  1165A      1.371287  1166A      1.373479  
    1167A      1.376078  1168A      1.376146  1169A      1.379069  
    1170A      1.381452  1171A      1.382855  1172A      1.384161  
    1173A      1.386789  1174A      1.388499  1175A      1.389236  
    1176A      1.389855  1177A      1.392299  1178A      1.394445  
    1179A      1.396329  1180A      1.398034  1181A      1.398527  
    1182A      1.399730  1183A      1.403280  1184A      1.403629  
    1185A      1.406569  1186A      1.406634  1187A      1.409066  
    1188A      1.410982  1189A      1.411644  1190A      1.414072  
    1191A      1.415160  1192A      1.416227  1193A      1.418481  
    1194A      1.420151  1195A      1.420649  1196A      1.423084  
    1197A      1.424580  1198A      1.425387  1199A      1.426094  
    1200A      1.427946  1201A      1.428889  1202A      1.430782  
    1203A      1.431408  1204A      1.434775  1205A      1.437111  
    1206A      1.437894  1207A      1.439474  1208A      1.439989  
    1209A      1.442102  1210A      1.443468  1211A      1.444949  
    1212A      1.446676  1213A      1.448218  1214A      1.449541  
    1215A      1.450186  1216A      1.453157  1217A      1.453469  
    1218A      1.454578  1219A      1.458482  1220A      1.459564  
    1221A      1.462816  1222A      1.463836  1223A      1.465047  
    1224A      1.466642  1225A      1.468926  1226A      1.470555  
    1227A      1.471295  1228A      1.472549  1229A      1.473414  
    1230A      1.476859  1231A      1.477647  1232A      1.480230  
    1233A      1.480288  1234A      1.481497  1235A      1.484075  
    1236A      1.484197  1237A      1.485066  1238A      1.487753  
    1239A      1.488381  1240A      1.490521  1241A      1.491550  
    1242A      1.494041  1243A      1.496363  1244A      1.496906  
    1245A      1.499436  1246A      1.501370  1247A      1.502708  
    1248A      1.503044  1249A      1.504390  1250A      1.506881  
    1251A      1.508166  1252A      1.510134  1253A      1.511125  
    1254A      1.515189  1255A      1.515680  1256A      1.516386  
    1257A      1.517202  1258A      1.518051  1259A      1.520379  
    1260A      1.520867  1261A      1.522351  1262A      1.524156  
    1263A      1.526730  1264A      1.528180  1265A      1.530159  
    1266A      1.530915  1267A      1.532038  1268A      1.534706  
    1269A      1.536397  1270A      1.537026  1271A      1.538166  
    1272A      1.540551  1273A      1.541400  1274A      1.543086  
    1275A      1.544261  1276A      1.546621  1277A      1.548226  
    1278A      1.549166  1279A      1.550987  1280A      1.552344  
    1281A      1.553101  1282A      1.554116  1283A      1.554608  
    1284A      1.556735  1285A      1.557441  1286A      1.557738  
    1287A      1.559147  1288A      1.561212  1289A      1.562299  
    1290A      1.563137  1291A      1.564970  1292A      1.566145  
    1293A      1.568343  1294A      1.568827  1295A      1.571895  
    1296A      1.573693  1297A      1.574346  1298A      1.575020  
    1299A      1.575582  1300A      1.577334  1301A      1.580025  
    1302A      1.581311  1303A      1.583469  1304A      1.584844  
    1305A      1.585915  1306A      1.587857  1307A      1.588395  
    1308A      1.589871  1309A      1.591392  1310A      1.592972  
    1311A      1.593398  1312A      1.593471  1313A      1.596541  
    1314A      1.598202  1315A      1.599447  1316A      1.602025  
    1317A      1.603563  1318A      1.604359  1319A      1.607140  
    1320A      1.608199  1321A      1.608850  1322A      1.611727  
    1323A      1.612175  1324A      1.614030  1325A      1.614682  
    1326A      1.616279  1327A      1.618417  1328A      1.619925  
    1329A      1.622262  1330A      1.623986  1331A      1.624132  
    1332A      1.625169  1333A      1.627219  1334A      1.627497  
    1335A      1.628138  1336A      1.630313  1337A      1.632326  
    1338A      1.633215  1339A      1.633707  1340A      1.636030  
    1341A      1.638779  1342A      1.639691  1343A      1.642278  
    1344A      1.644202  1345A      1.646184  1346A      1.647319  
    1347A      1.648009  1348A      1.648872  1349A      1.650866  
    1350A      1.651667  1351A      1.652894  1352A      1.655008  
    1353A      1.656772  1354A      1.657630  1355A      1.658841  
    1356A      1.660516  1357A      1.662198  1358A      1.663676  
    1359A      1.664911  1360A      1.666846  1361A      1.668490  
    1362A      1.668675  1363A      1.671368  1364A      1.673253  
    1365A      1.673787  1366A      1.676058  1367A      1.678156  
    1368A      1.679018  1369A      1.680370  1370A      1.681235  
    1371A      1.681891  1372A      1.684581  1373A      1.686278  
    1374A      1.687079  1375A      1.688810  1376A      1.690312  
    1377A      1.691293  1378A      1.692882  1379A      1.694662  
    1380A      1.696452  1381A      1.698012  1382A      1.699318  
    1383A      1.700608  1384A      1.703060  1385A      1.703936  
    1386A      1.705357  1387A      1.705976  1388A      1.707622  
    1389A      1.710648  1390A      1.711416  1391A      1.713282  
    1392A      1.714014  1393A      1.715352  1394A      1.717938  
    1395A      1.719518  1396A      1.720144  1397A      1.721627  
    1398A      1.724035  1399A      1.724683  1400A      1.726235  
    1401A      1.728542  1402A      1.729529  1403A      1.730139  
    1404A      1.730607  1405A      1.733717  1406A      1.734595  
    1407A      1.736031  1408A      1.738945  1409A      1.739270  
    1410A      1.741347  1411A      1.742341  1412A      1.744548  
    1413A      1.745988  1414A      1.746270  1415A      1.750141  
    1416A      1.751438  1417A      1.752212  1418A      1.752942  
    1419A      1.755949  1420A      1.759432  1421A      1.760424  
    1422A      1.763434  1423A      1.765184  1424A      1.765426  
    1425A      1.768045  1426A      1.768357  1427A      1.770448  
    1428A      1.771125  1429A      1.773108  1430A      1.775127  
    1431A      1.777115  1432A      1.778194  1433A      1.780527  
    1434A      1.782476  1435A      1.784372  1436A      1.785465  
    1437A      1.787351  1438A      1.787982  1439A      1.790440  
    1440A      1.790820  1441A      1.791099  1442A      1.795564  
    1443A      1.797520  1444A      1.799390  1445A      1.801337  
    1446A      1.801922  1447A      1.803187  1448A      1.803490  
    1449A      1.805966  1450A      1.807187  1451A      1.809424  
    1452A      1.810730  1453A      1.812324  1454A      1.812883  
    1455A      1.816806  1456A      1.817042  1457A      1.819179  
    1458A      1.819357  1459A      1.822635  1460A      1.823786  
    1461A      1.826411  1462A      1.828559  1463A      1.829209  
    1464A      1.830667  1465A      1.831803  1466A      1.834477  
    1467A      1.837626  1468A      1.838190  1469A      1.841701  
    1470A      1.842016  1471A      1.844982  1472A      1.846724  
    1473A      1.847529  1474A      1.849960  1475A      1.850566  
    1476A      1.853158  1477A      1.854671  1478A      1.858006  
    1479A      1.860782  1480A      1.862243  1481A      1.863957  
    1482A      1.865237  1483A      1.866346  1484A      1.869704  
    1485A      1.871451  1486A      1.873369  1487A      1.874870  
    1488A      1.876650  1489A      1.877805  1490A      1.879554  
    1491A      1.881020  1492A      1.883103  1493A      1.885268  
    1494A      1.888455  1495A      1.891865  1496A      1.895450  
    1497A      1.898229  1498A      1.898565  1499A      1.899460  
    1500A      1.900600  1501A      1.901947  1502A      1.905424  
    1503A      1.906114  1504A      1.908762  1505A      1.912008  
    1506A      1.912665  1507A      1.913877  1508A      1.916414  
    1509A      1.917638  1510A      1.919150  1511A      1.923009  
    1512A      1.924098  1513A      1.925879  1514A      1.927119  
    1515A      1.929839  1516A      1.932911  1517A      1.933507  
    1518A      1.935019  1519A      1.936925  1520A      1.938344  
    1521A      1.940850  1522A      1.942771  1523A      1.945110  
    1524A      1.947325  1525A      1.947948  1526A      1.949818  
    1527A      1.954083  1528A      1.955582  1529A      1.956829  
    1530A      1.958236  1531A      1.960246  1532A      1.961838  
    1533A      1.965051  1534A      1.966329  1535A      1.969289  
    1536A      1.970367  1537A      1.971188  1538A      1.975439  
    1539A      1.976523  1540A      1.979010  1541A      1.979414  
    1542A      1.981150  1543A      1.981837  1544A      1.985152  
    1545A      1.986129  1546A      1.989376  1547A      1.990403  
    1548A      1.992195  1549A      1.994435  1550A      1.996076  
    1551A      1.999201  1552A      2.000359  1553A      2.001071  
    1554A      2.003833  1555A      2.008462  1556A      2.009035  
    1557A      2.010854  1558A      2.012674  1559A      2.013511  
    1560A      2.015869  1561A      2.017684  1562A      2.020241  
    1563A      2.023641  1564A      2.024648  1565A      2.027714  
    1566A      2.030285  1567A      2.032104  1568A      2.033690  
    1569A      2.034963  1570A      2.038264  1571A      2.039581  
    1572A      2.042128  1573A      2.044626  1574A      2.046671  
    1575A      2.048834  1576A      2.049476  1577A      2.050869  
    1578A      2.053362  1579A      2.055019  1580A      2.056221  
    1581A      2.059478  1582A      2.062090  1583A      2.062398  
    1584A      2.065019  1585A      2.066535  1586A      2.067907  
    1587A      2.069585  1588A      2.071973  1589A      2.072499  
    1590A      2.074816  1591A      2.077481  1592A      2.078628  
    1593A      2.080095  1594A      2.084486  1595A      2.085012  
    1596A      2.087146  1597A      2.089789  1598A      2.091287  
    1599A      2.092335  1600A      2.095790  1601A      2.099757  
    1602A      2.102144  1603A      2.103916  1604A      2.107462  
    1605A      2.108723  1606A      2.109743  1607A      2.112066  
    1608A      2.112781  1609A      2.114615  1610A      2.114958  
    1611A      2.119919  1612A      2.120653  1613A      2.123342  
    1614A      2.125582  1615A      2.126657  1616A      2.127551  
    1617A      2.128996  1618A      2.132329  1619A      2.134548  
    1620A      2.135959  1621A      2.138358  1622A      2.139254  
    1623A      2.140407  1624A      2.140966  1625A      2.142390  
    1626A      2.143187  1627A      2.145744  1628A      2.149488  
    1629A      2.150160  1630A      2.150772  1631A      2.151454  
    1632A      2.154911  1633A      2.157114  1634A      2.159634  
    1635A      2.162879  1636A      2.164079  1637A      2.165514  
    1638A      2.166585  1639A      2.170440  1640A      2.171465  
    1641A      2.172481  1642A      2.174050  1643A      2.174797  
    1644A      2.176214  1645A      2.179026  1646A      2.180852  
    1647A      2.182763  1648A      2.185719  1649A      2.186602  
    1650A      2.190708  1651A      2.192048  1652A      2.194736  
    1653A      2.197308  1654A      2.199152  1655A      2.202689  
    1656A      2.203877  1657A      2.204640  1658A      2.207170  
    1659A      2.208990  1660A      2.211655  1661A      2.213474  
    1662A      2.215471  1663A      2.217752  1664A      2.219236  
    1665A      2.221957  1666A      2.225076  1667A      2.226653  
    1668A      2.229498  1669A      2.231571  1670A      2.232171  
    1671A      2.235655  1672A      2.237040  1673A      2.238768  
    1674A      2.240768  1675A      2.245129  1676A      2.245459  
    1677A      2.246511  1678A      2.247913  1679A      2.250327  
    1680A      2.251399  1681A      2.253026  1682A      2.257605  
    1683A      2.258518  1684A      2.260529  1685A      2.265406  
    1686A      2.265951  1687A      2.267493  1688A      2.269604  
    1689A      2.272355  1690A      2.273180  1691A      2.277054  
    1692A      2.281023  1693A      2.283219  1694A      2.286368  
    1695A      2.289415  1696A      2.290667  1697A      2.293003  
    1698A      2.294706  1699A      2.295181  1700A      2.298865  
    1701A      2.302627  1702A      2.304014  1703A      2.304801  
    1704A      2.305407  1705A      2.307652  1706A      2.309969  
    1707A      2.312636  1708A      2.315278  1709A      2.316723  
    1710A      2.319438  1711A      2.320233  1712A      2.324314  
    1713A      2.327071  1714A      2.329677  1715A      2.332879  
    1716A      2.334062  1717A      2.338199  1718A      2.339229  
    1719A      2.342031  1720A      2.343377  1721A      2.344750  
    1722A      2.346577  1723A      2.350123  1724A      2.351909  
    1725A      2.353498  1726A      2.355570  1727A      2.360836  
    1728A      2.361941  1729A      2.363107  1730A      2.364530  
    1731A      2.364910  1732A      2.368999  1733A      2.371587  
    1734A      2.372537  1735A      2.374660  1736A      2.380104  
    1737A      2.381861  1738A      2.382765  1739A      2.384819  
    1740A      2.387013  1741A      2.389713  1742A      2.392363  
    1743A      2.394110  1744A      2.396191  1745A      2.400402  
    1746A      2.401374  1747A      2.404696  1748A      2.408238  
    1749A      2.410791  1750A      2.411738  1751A      2.412581  
    1752A      2.416668  1753A      2.418318  1754A      2.420436  
    1755A      2.423632  1756A      2.424759  1757A      2.426612  
    1758A      2.427797  1759A      2.432162  1760A      2.433226  
    1761A      2.435115  1762A      2.439904  1763A      2.443970  
    1764A      2.445015  1765A      2.448093  1766A      2.451278  
    1767A      2.453688  1768A      2.454311  1769A      2.455909  
    1770A      2.458384  1771A      2.458955  1772A      2.462959  
    1773A      2.465722  1774A      2.468137  1775A      2.469605  
    1776A      2.472338  1777A      2.474798  1778A      2.477253  
    1779A      2.482033  1780A      2.484686  1781A      2.486780  
    1782A      2.490147  1783A      2.492612  1784A      2.494972  
    1785A      2.496920  1786A      2.500136  1787A      2.501980  
    1788A      2.504439  1789A      2.505806  1790A      2.510748  
    1791A      2.512318  1792A      2.513833  1793A      2.519503  
    1794A      2.520344  1795A      2.520936  1796A      2.523049  
    1797A      2.529832  1798A      2.531060  1799A      2.533738  
    1800A      2.536514  1801A      2.540462  1802A      2.543029  
    1803A      2.545133  1804A      2.548173  1805A      2.550791  
    1806A      2.552530  1807A      2.555429  1808A      2.559143  
    1809A      2.562706  1810A      2.565853  1811A      2.567107  
    1812A      2.571335  1813A      2.572830  1814A      2.573851  
    1815A      2.578733  1816A      2.581308  1817A      2.586375  
    1818A      2.587778  1819A      2.590741  1820A      2.592961  
    1821A      2.595173  1822A      2.597050  1823A      2.602213  
    1824A      2.603128  1825A      2.605380  1826A      2.607933  
    1827A      2.613556  1828A      2.614532  1829A      2.618289  
    1830A      2.620213  1831A      2.627115  1832A      2.629759  
    1833A      2.630046  1834A      2.631807  1835A      2.635411  
    1836A      2.639267  1837A      2.640944  1838A      2.641671  
    1839A      2.648141  1840A      2.650976  1841A      2.654359  
    1842A      2.657916  1843A      2.660667  1844A      2.663259  
    1845A      2.666045  1846A      2.669671  1847A      2.675229  
    1848A      2.677527  1849A      2.679807  1850A      2.684577  
    1851A      2.687489  1852A      2.689814  1853A      2.691308  
    1854A      2.693139  1855A      2.697194  1856A      2.700813  
    1857A      2.705650  1858A      2.708421  1859A      2.711436  
    1860A      2.716156  1861A      2.717459  1862A      2.722173  
    1863A      2.723834  1864A      2.725952  1865A      2.731703  
    1866A      2.736621  1867A      2.737144  1868A      2.738188  
    1869A      2.745721  1870A      2.747555  1871A      2.750442  
    1872A      2.752948  1873A      2.758301  1874A      2.761879  
    1875A      2.765484  1876A      2.768174  1877A      2.772427  
    1878A      2.773121  1879A      2.776295  1880A      2.780007  
    1881A      2.782852  1882A      2.787262  1883A      2.795479  
    1884A      2.800700  1885A      2.807144  1886A      2.809156  
    1887A      2.813530  1888A      2.816977  1889A      2.819160  
    1890A      2.820038  1891A      2.826881  1892A      2.835967  
    1893A      2.838000  1894A      2.846750  1895A      2.848796  
    1896A      2.852854  1897A      2.858236  1898A      2.864971  
    1899A      2.866110  1900A      2.870192  1901A      2.872735  
    1902A      2.879109  1903A      2.881906  1904A      2.894553  
    1905A      2.899344  1906A      2.905909  1907A      2.912034  
    1908A      2.913889  1909A      2.917000  1910A      2.918989  
    1911A      2.924832  1912A      2.927077  1913A      2.929539  
    1914A      2.935362  1915A      2.941734  1916A      2.943234  
    1917A      2.949605  1918A      2.953916  1919A      2.958835  
    1920A      2.964032  1921A      2.968641  1922A      2.975054  
    1923A      2.984688  1924A      2.988639  1925A      2.993557  
    1926A      2.995625  1927A      3.000426  1928A      3.009773  
    1929A      3.011200  1930A      3.019927  1931A      3.021454  
    1932A      3.028571  1933A      3.037853  1934A      3.039541  
    1935A      3.048196  1936A      3.063936  1937A      3.070612  
    1938A      3.072540  1939A      3.078816  1940A      3.086302  
    1941A      3.098439  1942A      3.103217  1943A      3.105637  
    1944A      3.110022  1945A      3.116538  1946A      3.119044  
    1947A      3.123750  1948A      3.130547  1949A      3.134302  
    1950A      3.137284  1951A      3.144336  1952A      3.145800  
    1953A      3.150124  1954A      3.152869  1955A      3.158532  
    1956A      3.161281  1957A      3.167270  1958A      3.173281  
    1959A      3.178884  1960A      3.180826  1961A      3.183844  
    1962A      3.186364  1963A      3.194778  1964A      3.196471  
    1965A      3.202079  1966A      3.203209  1967A      3.210979  
    1968A      3.211143  1969A      3.215011  1970A      3.220849  
    1971A      3.225798  1972A      3.230709  1973A      3.236143  
    1974A      3.238112  1975A      3.242845  1976A      3.245425  
    1977A      3.248425  1978A      3.252787  1979A      3.254252  
    1980A      3.259625  1981A      3.262762  1982A      3.263287  
    1983A      3.265441  1984A      3.268589  1985A      3.272090  
    1986A      3.273626  1987A      3.277718  1988A      3.282753  
    1989A      3.289410  1990A      3.291323  1991A      3.293429  
    1992A      3.295442  1993A      3.300895  1994A      3.303794  
    1995A      3.304628  1996A      3.306133  1997A      3.308506  
    1998A      3.313618  1999A      3.318980  2000A      3.321097  
    2001A      3.324121  2002A      3.327293  2003A      3.329246  
    2004A      3.331315  2005A      3.333249  2006A      3.340203  
    2007A      3.341509  2008A      3.344834  2009A      3.344933  
    2010A      3.348508  2011A      3.350139  2012A      3.355056  
    2013A      3.355925  2014A      3.359588  2015A      3.361879  
    2016A      3.364107  2017A      3.366313  2018A      3.368472  
    2019A      3.372454  2020A      3.374390  2021A      3.376623  
    2022A      3.379270  2023A      3.381748  2024A      3.383427  
    2025A      3.386016  2026A      3.387385  2027A      3.390697  
    2028A      3.392282  2029A      3.397473  2030A      3.397989  
    2031A      3.399574  2032A      3.402040  2033A      3.406381  
    2034A      3.407270  2035A      3.407732  2036A      3.411235  
    2037A      3.412215  2038A      3.415428  2039A      3.418923  
    2040A      3.419947  2041A      3.421922  2042A      3.424779  
    2043A      3.426460  2044A      3.427993  2045A      3.430441  
    2046A      3.434614  2047A      3.436290  2048A      3.440343  
    2049A      3.442362  2050A      3.445371  2051A      3.447509  
    2052A      3.448128  2053A      3.449533  2054A      3.452214  
    2055A      3.456308  2056A      3.458970  2057A      3.459635  
    2058A      3.460491  2059A      3.461963  2060A      3.464674  
    2061A      3.468417  2062A      3.471524  2063A      3.472894  
    2064A      3.473720  2065A      3.478151  2066A      3.479245  
    2067A      3.480995  2068A      3.482245  2069A      3.483988  
    2070A      3.484966  2071A      3.486175  2072A      3.489176  
    2073A      3.492720  2074A      3.493633  2075A      3.496704  
    2076A      3.499496  2077A      3.500113  2078A      3.505840  
    2079A      3.506987  2080A      3.508602  2081A      3.509566  
    2082A      3.512652  2083A      3.513310  2084A      3.516970  
    2085A      3.518473  2086A      3.521057  2087A      3.522928  
    2088A      3.524634  2089A      3.527035  2090A      3.528396  
    2091A      3.531000  2092A      3.531980  2093A      3.532230  
    2094A      3.535614  2095A      3.536778  2096A      3.539198  
    2097A      3.540597  2098A      3.541087  2099A      3.545920  
    2100A      3.546634  2101A      3.548705  2102A      3.551173  
    2103A      3.553263  2104A      3.554614  2105A      3.556905  
    2106A      3.560447  2107A      3.561880  2108A      3.563401  
    2109A      3.565282  2110A      3.566617  2111A      3.571203  
    2112A      3.572333  2113A      3.574098  2114A      3.575305  
    2115A      3.579864  2116A      3.581086  2117A      3.583705  
    2118A      3.585019  2119A      3.585746  2120A      3.588498  
    2121A      3.593093  2122A      3.594448  2123A      3.595437  
    2124A      3.597880  2125A      3.599877  2126A      3.600449  
    2127A      3.602959  2128A      3.606980  2129A      3.608452  
    2130A      3.611868  2131A      3.613847  2132A      3.615104  
    2133A      3.615783  2134A      3.618370  2135A      3.619463  
    2136A      3.622703  2137A      3.625799  2138A      3.626318  
    2139A      3.627902  2140A      3.630791  2141A      3.632642  
    2142A      3.634303  2143A      3.635718  2144A      3.638530  
    2145A      3.640539  2146A      3.642875  2147A      3.645624  
    2148A      3.646368  2149A      3.647083  2150A      3.648891  
    2151A      3.652005  2152A      3.655459  2153A      3.656764  
    2154A      3.657609  2155A      3.660905  2156A      3.664187  
    2157A      3.666410  2158A      3.668104  2159A      3.668939  
    2160A      3.671598  2161A      3.674862  2162A      3.677033  
    2163A      3.679518  2164A      3.680911  2165A      3.681192  
    2166A      3.681930  2167A      3.685633  2168A      3.687780  
    2169A      3.689459  2170A      3.692289  2171A      3.693877  
    2172A      3.696354  2173A      3.699671  2174A      3.700913  
    2175A      3.702667  2176A      3.707488  2177A      3.709322  
    2178A      3.710340  2179A      3.711272  2180A      3.712676  
    2181A      3.714873  2182A      3.717603  2183A      3.719134  
    2184A      3.720522  2185A      3.721141  2186A      3.724930  
    2187A      3.725618  2188A      3.727751  2189A      3.728639  
    2190A      3.732595  2191A      3.734008  2192A      3.737096  
    2193A      3.738204  2194A      3.741928  2195A      3.744331  
    2196A      3.747512  2197A      3.747816  2198A      3.749446  
    2199A      3.750981  2200A      3.753540  2201A      3.753984  
    2202A      3.756616  2203A      3.758932  2204A      3.760411  
    2205A      3.762338  2206A      3.765514  2207A      3.770134  
    2208A      3.771668  2209A      3.773188  2210A      3.776619  
    2211A      3.778228  2212A      3.780296  2213A      3.781829  
    2214A      3.784035  2215A      3.785239  2216A      3.789848  
    2217A      3.791175  2218A      3.794142  2219A      3.796725  
    2220A      3.797195  2221A      3.800872  2222A      3.803257  
    2223A      3.805715  2224A      3.807087  2225A      3.807991  
    2226A      3.809317  2227A      3.814291  2228A      3.814642  
    2229A      3.815327  2230A      3.818875  2231A      3.821481  
    2232A      3.823020  2233A      3.823934  2234A      3.826703  
    2235A      3.828382  2236A      3.832575  2237A      3.833671  
    2238A      3.835909  2239A      3.838529  2240A      3.839076  
    2241A      3.842782  2242A      3.843243  2243A      3.845688  
    2244A      3.848753  2245A      3.850697  2246A      3.851387  
    2247A      3.853518  2248A      3.854378  2249A      3.855769  
    2250A      3.858105  2251A      3.861159  2252A      3.862843  
    2253A      3.864320  2254A      3.866765  2255A      3.868748  
    2256A      3.868956  2257A      3.871394  2258A      3.873465  
    2259A      3.878409  2260A      3.879216  2261A      3.881083  
    2262A      3.881844  2263A      3.886519  2264A      3.887110  
    2265A      3.887284  2266A      3.890212  2267A      3.892676  
    2268A      3.893637  2269A      3.896445  2270A      3.898584  
    2271A      3.899151  2272A      3.900407  2273A      3.902546  
    2274A      3.905374  2275A      3.908042  2276A      3.909511  
    2277A      3.912596  2278A      3.913620  2279A      3.915779  
    2280A      3.918431  2281A      3.919274  2282A      3.922541  
    2283A      3.923211  2284A      3.925628  2285A      3.926762  
    2286A      3.929529  2287A      3.930958  2288A      3.933454  
    2289A      3.934141  2290A      3.938965  2291A      3.942160  
    2292A      3.942918  2293A      3.943497  2294A      3.945070  
    2295A      3.947356  2296A      3.948157  2297A      3.952129  
    2298A      3.952833  2299A      3.956494  2300A      3.960625  
    2301A      3.961733  2302A      3.963194  2303A      3.964837  
    2304A      3.965744  2305A      3.969267  2306A      3.970067  
    2307A      3.971566  2308A      3.973805  2309A      3.975168  
    2310A      3.977579  2311A      3.978384  2312A      3.981435  
    2313A      3.983215  2314A      3.983656  2315A      3.988262  
    2316A      3.992413  2317A      3.994080  2318A      3.994421  
    2319A      3.998278  2320A      4.000222  2321A      4.002504  
    2322A      4.003790  2323A      4.006010  2324A      4.007977  
    2325A      4.011332  2326A      4.013236  2327A      4.014178  
    2328A      4.016573  2329A      4.019262  2330A      4.020108  
    2331A      4.021360  2332A      4.023259  2333A      4.026332  
    2334A      4.027754  2335A      4.031232  2336A      4.032550  
    2337A      4.035178  2338A      4.036208  2339A      4.039139  
    2340A      4.040968  2341A      4.042394  2342A      4.043953  
    2343A      4.047849  2344A      4.049548  2345A      4.052990  
    2346A      4.054380  2347A      4.056029  2348A      4.058587  
    2349A      4.059885  2350A      4.062847  2351A      4.067441  
    2352A      4.069174  2353A      4.070515  2354A      4.071589  
    2355A      4.073365  2356A      4.077067  2357A      4.078353  
    2358A      4.080769  2359A      4.081837  2360A      4.083110  
    2361A      4.086983  2362A      4.088648  2363A      4.090592  
    2364A      4.093365  2365A      4.094714  2366A      4.096658  
    2367A      4.097438  2368A      4.100158  2369A      4.103664  
    2370A      4.103746  2371A      4.104570  2372A      4.107269  
    2373A      4.109740  2374A      4.112439  2375A      4.114907  
    2376A      4.117532  2377A      4.119264  2378A      4.120553  
    2379A      4.123442  2380A      4.124918  2381A      4.125909  
    2382A      4.128442  2383A      4.130089  2384A      4.133020  
    2385A      4.135420  2386A      4.137163  2387A      4.139269  
    2388A      4.142582  2389A      4.144129  2390A      4.145139  
    2391A      4.147581  2392A      4.149921  2393A      4.153384  
    2394A      4.154207  2395A      4.155283  2396A      4.156967  
    2397A      4.162205  2398A      4.163896  2399A      4.165573  
    2400A      4.166966  2401A      4.168481  2402A      4.172291  
    2403A      4.174500  2404A      4.175762  2405A      4.178533  
    2406A      4.181122  2407A      4.182062  2408A      4.187142  
    2409A      4.188217  2410A      4.189481  2411A      4.190572  
    2412A      4.192431  2413A      4.194039  2414A      4.196429  
    2415A      4.201436  2416A      4.202581  2417A      4.203777  
    2418A      4.207386  2419A      4.208140  2420A      4.209583  
    2421A      4.211208  2422A      4.211493  2423A      4.214662  
    2424A      4.217769  2425A      4.220315  2426A      4.222925  
    2427A      4.223466  2428A      4.225165  2429A      4.226905  
    2430A      4.229652  2431A      4.232302  2432A      4.234661  
    2433A      4.237471  2434A      4.238677  2435A      4.240459  
    2436A      4.241144  2437A      4.245073  2438A      4.246898  
    2439A      4.248214  2440A      4.248681  2441A      4.251209  
    2442A      4.253452  2443A      4.256403  2444A      4.257463  
    2445A      4.259658  2446A      4.261538  2447A      4.262319  
    2448A      4.265757  2449A      4.269391  2450A      4.269522  
    2451A      4.273675  2452A      4.274100  2453A      4.278348  
    2454A      4.281966  2455A      4.282378  2456A      4.285327  
    2457A      4.285777  2458A      4.289888  2459A      4.292001  
    2460A      4.293909  2461A      4.294565  2462A      4.297905  
    2463A      4.300830  2464A      4.303165  2465A      4.304538  
    2466A      4.306083  2467A      4.310157  2468A      4.311726  
    2469A      4.312971  2470A      4.313667  2471A      4.317873  
    2472A      4.319810  2473A      4.321256  2474A      4.323130  
    2475A      4.326737  2476A      4.327825  2477A      4.331468  
    2478A      4.332667  2479A      4.334256  2480A      4.337592  
    2481A      4.338348  2482A      4.340077  2483A      4.343013  
    2484A      4.345582  2485A      4.346802  2486A      4.348407  
    2487A      4.354896  2488A      4.356231  2489A      4.357107  
    2490A      4.358873  2491A      4.363112  2492A      4.364931  
    2493A      4.366381  2494A      4.367353  2495A      4.371853  
    2496A      4.374716  2497A      4.377018  2498A      4.378507  
    2499A      4.379505  2500A      4.383582  2501A      4.384138  
    2502A      4.386350  2503A      4.389719  2504A      4.391530  
    2505A      4.394938  2506A      4.396701  2507A      4.398177  
    2508A      4.401210  2509A      4.403376  2510A      4.405421  
    2511A      4.407185  2512A      4.411170  2513A      4.413488  
    2514A      4.413841  2515A      4.417024  2516A      4.420048  
    2517A      4.422846  2518A      4.424586  2519A      4.426222  
    2520A      4.429994  2521A      4.431320  2522A      4.433271  
    2523A      4.434398  2524A      4.437520  2525A      4.440908  
    2526A      4.442303  2527A      4.444541  2528A      4.448754  
    2529A      4.449970  2530A      4.452401  2531A      4.455179  
    2532A      4.456246  2533A      4.459808  2534A      4.460438  
    2535A      4.463228  2536A      4.466792  2537A      4.467760  
    2538A      4.469129  2539A      4.471090  2540A      4.474083  
    2541A      4.478551  2542A      4.480413  2543A      4.481206  
    2544A      4.482460  2545A      4.485208  2546A      4.488163  
    2547A      4.489094  2548A      4.495059  2549A      4.496068  
    2550A      4.497184  2551A      4.500631  2552A      4.502877  
    2553A      4.504518  2554A      4.508006  2555A      4.511091  
    2556A      4.513040  2557A      4.513342  2558A      4.515289  
    2559A      4.517789  2560A      4.520908  2561A      4.522504  
    2562A      4.524422  2563A      4.526236  2564A      4.528651  
    2565A      4.531735  2566A      4.532559  2567A      4.537315  
    2568A      4.538676  2569A      4.539795  2570A      4.540795  
    2571A      4.544385  2572A      4.544694  2573A      4.547297  
    2574A      4.550336  2575A      4.553096  2576A      4.554700  
    2577A      4.557744  2578A      4.559323  2579A      4.562319  
    2580A      4.564239  2581A      4.564557  2582A      4.570983  
    2583A      4.571566  2584A      4.574761  2585A      4.577790  
    2586A      4.579192  2587A      4.582270  2588A      4.583128  
    2589A      4.584800  2590A      4.586924  2591A      4.589984  
    2592A      4.592526  2593A      4.595792  2594A      4.598504  
    2595A      4.600575  2596A      4.603564  2597A      4.605628  
    2598A      4.606627  2599A      4.609086  2600A      4.611982  
    2601A      4.615498  2602A      4.618136  2603A      4.619545  
    2604A      4.623006  2605A      4.624981  2606A      4.627972  
    2607A      4.629875  2608A      4.631483  2609A      4.634348  
    2610A      4.638210  2611A      4.640311  2612A      4.641476  
    2613A      4.641800  2614A      4.645622  2615A      4.647790  
    2616A      4.648487  2617A      4.653854  2618A      4.654571  
    2619A      4.657271  2620A      4.657985  2621A      4.661656  
    2622A      4.663380  2623A      4.665171  2624A      4.667472  
    2625A      4.669329  2626A      4.672409  2627A      4.673828  
    2628A      4.678525  2629A      4.679302  2630A      4.682444  
    2631A      4.683553  2632A      4.688561  2633A      4.692850  
    2634A      4.693417  2635A      4.696872  2636A      4.698797  
    2637A      4.701515  2638A      4.702105  2639A      4.703411  
    2640A      4.705310  2641A      4.705745  2642A      4.709649  
    2643A      4.714559  2644A      4.717929  2645A      4.719769  
    2646A      4.722741  2647A      4.723546  2648A      4.725929  
    2649A      4.730251  2650A      4.731427  2651A      4.736690  
    2652A      4.738153  2653A      4.740740  2654A      4.742680  
    2655A      4.746002  2656A      4.749512  2657A      4.752171  
    2658A      4.757170  2659A      4.757774  2660A      4.759432  
    2661A      4.761427  2662A      4.764445  2663A      4.769046  
    2664A      4.771421  2665A      4.774831  2666A      4.775865  
    2667A      4.780690  2668A      4.784998  2669A      4.787392  
    2670A      4.790743  2671A      4.791641  2672A      4.794468  
    2673A      4.796431  2674A      4.800968  2675A      4.802859  
    2676A      4.806150  2677A      4.808196  2678A      4.813274  
    2679A      4.815428  2680A      4.818027  2681A      4.821761  
    2682A      4.824490  2683A      4.825268  2684A      4.828246  
    2685A      4.834442  2686A      4.835019  2687A      4.838471  
    2688A      4.841038  2689A      4.841422  2690A      4.847043  
    2691A      4.847949  2692A      4.852187  2693A      4.854644  
    2694A      4.855928  2695A      4.858610  2696A      4.861304  
    2697A      4.864224  2698A      4.865481  2699A      4.870650  
    2700A      4.871858  2701A      4.873295  2702A      4.876230  
    2703A      4.882555  2704A      4.883143  2705A      4.885963  
    2706A      4.892060  2707A      4.892543  2708A      4.895682  
    2709A      4.897235  2710A      4.900320  2711A      4.903732  
    2712A      4.904455  2713A      4.909941  2714A      4.912337  
    2715A      4.912408  2716A      4.914443  2717A      4.917882  
    2718A      4.920187  2719A      4.921220  2720A      4.923797  
    2721A      4.927790  2722A      4.930106  2723A      4.933732  
    2724A      4.939649  2725A      4.943143  2726A      4.946411  
    2727A      4.947706  2728A      4.950434  2729A      4.955080  
    2730A      4.955953  2731A      4.960231  2732A      4.963171  
    2733A      4.964217  2734A      4.969179  2735A      4.971788  
    2736A      4.974036  2737A      4.975183  2738A      4.981348  
    2739A      4.983561  2740A      4.984219  2741A      4.988777  
    2742A      4.989775  2743A      4.993499  2744A      4.998591  
    2745A      5.000711  2746A      5.004435  2747A      5.005521  
    2748A      5.011057  2749A      5.013282  2750A      5.017141  
    2751A      5.020570  2752A      5.021652  2753A      5.024119  
    2754A      5.029669  2755A      5.032166  2756A      5.034554  
    2757A      5.037591  2758A      5.038606  2759A      5.042520  
    2760A      5.049218  2761A      5.049980  2762A      5.053705  
    2763A      5.058036  2764A      5.060170  2765A      5.064535  
    2766A      5.067735  2767A      5.071416  2768A      5.073662  
    2769A      5.076686  2770A      5.078636  2771A      5.081026  
    2772A      5.083792  2773A      5.091041  2774A      5.094091  
    2775A      5.096091  2776A      5.097398  2777A      5.100489  
    2778A      5.105090  2779A      5.106070  2780A      5.109755  
    2781A      5.114059  2782A      5.118986  2783A      5.121192  
    2784A      5.123997  2785A      5.127576  2786A      5.133507  
    2787A      5.135466  2788A      5.139068  2789A      5.140667  
    2790A      5.143185  2791A      5.143881  2792A      5.148650  
    2793A      5.152284  2794A      5.154610  2795A      5.162945  
    2796A      5.165014  2797A      5.171807  2798A      5.174243  
    2799A      5.176320  2800A      5.177873  2801A      5.183782  
    2802A      5.188044  2803A      5.190856  2804A      5.195812  
    2805A      5.198747  2806A      5.203330  2807A      5.205776  
    2808A      5.212655  2809A      5.215389  2810A      5.217811  
    2811A      5.223519  2812A      5.225191  2813A      5.228664  
    2814A      5.231305  2815A      5.237127  2816A      5.240841  
    2817A      5.243903  2818A      5.244127  2819A      5.248430  
    2820A      5.255133  2821A      5.260693  2822A      5.261364  
    2823A      5.266789  2824A      5.267058  2825A      5.273379  
    2826A      5.274903  2827A      5.278800  2828A      5.283944  
    2829A      5.287365  2830A      5.289683  2831A      5.293348  
    2832A      5.298112  2833A      5.302545  2834A      5.303855  
    2835A      5.310471  2836A      5.313407  2837A      5.317568  
    2838A      5.320134  2839A      5.323828  2840A      5.328662  
    2841A      5.331921  2842A      5.334178  2843A      5.341512  
    2844A      5.343463  2845A      5.346133  2846A      5.355783  
    2847A      5.358784  2848A      5.362290  2849A      5.363856  
    2850A      5.366379  2851A      5.372261  2852A      5.373991  
    2853A      5.378918  2854A      5.382681  2855A      5.388879  
    2856A      5.398126  2857A      5.399325  2858A      5.403510  
    2859A      5.411584  2860A      5.414993  2861A      5.419935  
    2862A      5.427410  2863A      5.429405  2864A      5.433336  
    2865A      5.435038  2866A      5.440060  2867A      5.442748  
    2868A      5.444438  2869A      5.448237  2870A      5.452553  
    2871A      5.453579  2872A      5.455257  2873A      5.458644  
    2874A      5.461984  2875A      5.468151  2876A      5.468866  
    2877A      5.474266  2878A      5.479266  2879A      5.486486  
    2880A      5.488236  2881A      5.494549  2882A      5.496178  
    2883A      5.510248  2884A      5.516009  2885A      5.521541  
    2886A      5.524360  2887A      5.529478  2888A      5.533814  
    2889A      5.538166  2890A      5.541951  2891A      5.552194  
    2892A      5.552702  2893A      5.564632  2894A      5.569255  
    2895A      5.576569  2896A      5.583279  2897A      5.589572  
    2898A      5.593607  2899A      5.599424  2900A      5.608189  
    2901A      5.612240  2902A      5.616217  2903A      5.625142  
    2904A      5.638177  2905A      5.646434  2906A      5.655395  
    2907A      5.661755  2908A      5.665827  2909A      5.668687  
    2910A      5.684633  2911A      5.688951  2912A      5.697687  
    2913A      5.703544  2914A      5.711034  2915A      5.722231  
    2916A      5.726502  2917A      5.732672  2918A      5.747938  
    2919A      5.755428  2920A      5.765266  2921A      5.771832  
    2922A      5.775099  2923A      5.780671  2924A      5.800731  
    2925A      5.802437  2926A      5.812004  2927A      5.812612  
    2928A      5.817578  2929A      5.823657  2930A      5.829913  
    2931A      5.835426  2932A      5.851992  2933A      5.857854  
    2934A      5.877613  2935A      5.886121  2936A      5.890489  
    2937A      5.895701  2938A      5.906211  2939A      5.911060  
    2940A      5.918602  2941A      5.928665  2942A      5.931615  
    2943A      5.938235  2944A      5.943978  2945A      5.952455  
    2946A      5.958607  2947A      5.966034  2948A      5.970893  
    2949A      5.978976  2950A      5.980049  2951A      5.987596  
    2952A      5.990301  2953A      6.003086  2954A      6.016025  
    2955A      6.025147  2956A      6.027457  2957A      6.044880  
    2958A      6.053751  2959A      6.065251  2960A      6.069631  
    2961A      6.076155  2962A      6.085520  2963A      6.086355  
    2964A      6.092679  2965A      6.109192  2966A      6.121624  
    2967A      6.129025  2968A      6.139475  2969A      6.158096  
    2970A      6.172200  2971A      6.176203  2972A      6.180774  
    2973A      6.191253  2974A      6.210525  2975A      6.227372  
    2976A      6.230463  2977A      6.240341  2978A      6.255181  
    2979A      6.263085  2980A      6.280544  2981A      6.287181  
    2982A      6.293290  2983A      6.299625  2984A      6.307529  
    2985A      6.311074  2986A      6.326626  2987A      6.329860  
    2988A      6.338715  2989A      6.348355  2990A      6.353665  
    2991A      6.359171  2992A      6.364232  2993A      6.388476  
    2994A      6.399009  2995A      6.403099  2996A      6.409929  
    2997A      6.419458  2998A      6.425719  2999A      6.433867  
    3000A      6.443470  3001A      6.460677  3002A      6.476597  
    3003A      6.481962  3004A      6.486951  3005A      6.514275  
    3006A      6.524900  3007A      6.534654  3008A      6.543907  
    3009A      6.558374  3010A      6.565921  3011A      6.572575  
    3012A      6.588665  3013A      6.592937  3014A      6.597692  
    3015A      6.610027  3016A      6.614023  3017A      6.616618  
    3018A      6.620073  3019A      6.623478  3020A      6.627613  
    3021A      6.632714  3022A      6.656299  3023A      6.664076  
    3024A      6.666555  3025A      6.676790  3026A      6.680126  
    3027A      6.691240  3028A      6.695037  3029A      6.697870  
    3030A      6.725429  3031A      6.731433  3032A      6.743836  
    3033A      6.750839  3034A      6.753081  3035A      6.758029  
    3036A      6.760960  3037A      6.770674  3038A      6.785548  
    3039A      6.787788  3040A      6.796898  3041A      6.803604  
    3042A      6.813631  3043A      6.830333  3044A      6.832185  
    3045A      6.866128  3046A      6.875084  3047A      6.893807  
    3048A      6.943751  3049A      6.946664  3050A      7.029898  
    3051A      7.030787  3052A     15.184100  3053A     15.269401  
    3054A     15.591170  3055A     15.659706  3056A     15.989884  
    3057A     16.033654  3058A     16.440561  3059A     16.484156  
    3060A     16.734662  3061A     16.802044  3062A     17.019543  
    3063A     17.066228  3064A     17.171624  3065A     17.321214  
    3066A     17.545480  3067A     17.662455  3068A     18.023461  
    3069A     18.061484  3070A     18.326032  3071A     18.411014  
    3072A     18.768002  3073A     18.864915  3074A     19.135268  
    3075A     19.207940  3076A     19.525739  3077A     19.597057  
    3078A     20.091558  3079A     20.165646  3080A     20.609390  
    3081A     20.701749  3082A     20.969251  3083A     21.210122  
    3084A     21.333094  3085A     21.466552  3086A     21.627835  
    3087A     21.692493  3088A     21.732495  3089A     21.737775  
    3090A     21.970705  3091A     22.049756  3092A     22.127042  
    3093A     22.197646  3094A     22.697900  3095A     22.747671  
    3096A     22.898803  3097A     23.005661  3098A     23.080391  
    3099A     23.130232  

    Final Occupation by Irrep:
              A 
    DOCC [   164 ]
    NA   [   164 ]
    NB   [   164 ]

  @DF-RKS Final Energy: -1853.33267019289792

   => Energetics <=

    Nuclear Repulsion Energy =           6199.6145026765807415
    One-Electron Energy =              -14854.8061842383722251
    Two-Electron Energy =                6990.5460219181604771
    DFT Exchange-Correlation Energy =    -188.5789038612143145
    Empirical Dispersion Energy =          -0.1081066880525367
    VV10 Nonlocal Energy =                  0.0000000000000000
    Total Energy =                      -1853.3326701928976945

Computation Completed


Properties will be evaluated at   0.000000,   0.000000,   0.000000 [a0]

Properties computed using the SCF density matrix


 Multipole Moments:

 ------------------------------------------------------------------------------------
     Multipole            Electronic (a.u.)      Nuclear  (a.u.)        Total (a.u.)
 ------------------------------------------------------------------------------------

 L = 1.  Multiply by 2.5417464519 to convert [e a0] to [Debye]
 Dipole X            :      -9279.8190767         9279.6775776           -0.1414991
 Dipole Y            :      -6403.5925025         6403.4265459           -0.1659566
 Dipole Z            :     -14279.0257648        14279.2482355            0.2224708
 Magnitude           :                                                    0.3115395

 ------------------------------------------------------------------------------------

*** tstop() called on atl1-1-03-004-10-2.pace.gatech.edu at Sat Jun 13 16:41:10 2026
Module time:
	user time   =   89819.06 seconds =    1496.98 minutes
	system time =    6678.45 seconds =     111.31 minutes
	total time  =      15106 seconds =     251.77 minutes
Total time:
	user time   =   89819.06 seconds =    1496.98 minutes
	system time =    6678.45 seconds =     111.31 minutes
	total time  =      15106 seconds =     251.77 minutes

    Psi4 stopped on: Saturday, 13 June 2026 04:41PM
    Psi4 wall time for execution: 4:12:03.22

*** Psi4 exiting successfully. Buy a developer a beer!
