
    -----------------------------------------------------------------------
          Psi4: An Open-Source Ab Initio Electronic Structure Package
                               Psi4 1.9.1 release

                         Git: Rev {} zzzzzzz 


    D. G. A. Smith, L. A. Burns, A. C. Simmonett, R. M. Parrish,
    M. C. Schieber, R. Galvelis, P. Kraus, H. Kruse, R. Di Remigio,
    A. Alenaizan, A. M. James, S. Lehtola, J. P. Misiewicz, M. Scheurer,
    R. A. Shaw, J. B. Schriber, Y. Xie, Z. L. Glick, D. A. Sirianni,
    J. S. O'Brien, J. M. Waldrop, A. Kumar, E. G. Hohenstein,
    B. P. Pritchard, B. R. Brooks, H. F. Schaefer III, A. Yu. Sokolov,
    K. Patkowski, A. E. DePrince III, U. Bozkaya, R. A. King,
    F. A. Evangelista, J. M. Turney, T. D. Crawford, C. D. Sherrill,
    J. Chem. Phys. 152(18) 184108 (2020). https://doi.org/10.1063/5.0006002

                            Additional Code Authors
    E. T. Seidl, C. L. Janssen, E. F. Valeev, M. L. Leininger,
    J. F. Gonthier, R. M. Richard, H. R. McAlexander, M. Saitow, X. Wang,
    P. Verma, M. H. Lechner, A. Jiang, S. Behnle, A. G. Heide,
    M. F. Herbst, and D. L. Poole

             Previous Authors, Complete List of Code Contributors,
                       and Citations for Specific Modules
    https://github.com/psi4/psi4/blob/master/codemeta.json
    https://github.com/psi4/psi4/graphs/contributors
    http://psicode.org/psi4manual/master/introduction.html#citing-psifour

    -----------------------------------------------------------------------


    Psi4 started on: Saturday, 13 June 2026 12:47PM

    Process ID: 2157409
    Host:       atl1-1-02-003-20-2.pace.gatech.edu
    PSIDATADIR: /storage/home/hcoda1/5/vlita3/.conda/envs/p4_qcml/share/psi4
    Memory:     250.0 GiB
    Threads:    10
    
  ==> Input QCSchema <==

--------------------------------------------------------------------------
{'driver': 'energy',
 'extras': {},
 'id': '242',
 'keywords': {},
 'model': {'basis': 'aug-cc-pvtz', 'method': 'wb97x-d'},
 'molecule': {'extras': {},
              'fix_com': True,
              'fix_orientation': True,
              'fragment_charges': [0.0, 0.0],
              'fragment_multiplicities': [1, 1],
              'fragments': [[0, 1, 2, 3, 4, 5, 6, 7, 8, 9, 10, 11, 12, 13, 14, 15, 16, 17, 18, 19, 20, 21, 22, 23, 24,
                             25, 26, 27, 28, 29, 30, 31, 32, 33, 34, 35, 36, 37, 38, 39, 40, 41, 42, 43, 44, 45, 46, 47,
                             48, 49, 50, 51, 52, 53, 54, 55, 56, 57, 58, 59, 60, 61, 62, 63, 64, 65, 66, 67],
                            [68, 69, 70, 71, 72, 73, 74, 75, 76, 77, 78, 79, 80, 81, 82, 83]],
              'geometry': [-5.34620642, -4.85206741, -0.42040662, -6.29696543, -3.97249137, -2.73196591, -7.16652857,
                           -1.39360971, -2.91024059, -7.07225732, 0.1478346, -0.75712917, -6.06055521, -0.70522859,
                           1.52779916, -5.14660825, -3.28275871, 1.6937689, -8.00940954, -0.47795161, -5.29622845,
                           -8.00389532, -2.01265111, -7.39175445, -7.1739962, -4.55869367, -7.20967896, -6.3482405,
                           -5.51081404, -4.93971915, -5.79174545, 0.94432733, 3.66064233, -4.5983628, 0.0799819,
                           5.76970066, -3.62293398, -2.4551662, 5.90550866, -3.92400421, -4.11631993, 3.96419018,
                           -2.16569152, -2.61945029, 8.3885177, 0.07636213, -0.84617571, 7.95116799, -0.9078112,
                           1.61784783, 7.8674416, -3.76570071, 1.39135281, 8.20497635, -3.85671125, -0.88804523,
                           10.06281411, 2.58001171, -1.3655127, 7.31184057, 4.1057488, 0.7110172, 6.7716308, 3.12911434,
                           3.1826792, 6.68292857, 0.58226752, 3.66820181, 7.1546987, 5.22477035, 4.85680231, 5.5947568,
                           5.45773257, 3.95265056, 2.86034162, 6.48712479, 1.44012834, 2.99187034, 6.82098554,
                           0.8515344, 5.79382301, 7.56885523, 3.52377684, 6.77238443, 6.80325367, 0.01007923,
                           0.87853632, 6.01230407, 0.99764822, -1.51581981, 4.9476594, 3.51769873, -1.64633715,
                           4.72513697, 4.9862546, 0.62058001, 6.12205861, -0.46131862, -3.71310038, 5.15756848,
                           0.40687221, -6.02295948, 4.08395781, 2.91056166, -6.14884699, 4.05329983, 4.41018879,
                           -3.96462935, 5.13306837, -1.12454068, -8.23614739, 4.07851898, -0.25961114, -10.44460058,
                           2.99478619, 2.19392857, -10.56107574, 3.00851807, 3.73807424, -8.47334713, 3.50361025,
                           -3.823107, 7.21233591, -0.52564981, 6.01194181, 6.93361699, 5.05829719, 6.89567715,
                           5.87089814, 8.0356414, -0.74107273, 6.26352729, 7.58901842, 3.63875572, 8.83518962,
                           9.35421802, 4.19783591, 5.97522954, -5.76611566, -1.64188193, 10.31542343, -2.98864212,
                           -0.45542891, 11.88758146, -4.77253092, 3.11242428, 8.71181923, -1.70891184, -4.50721847,
                           9.0671295, 7.55489696, -1.89976737, 0.96862939, 3.89947197, 6.86430373, 0.5027639,
                           -6.46680418, 2.87873678, 3.51311765, -3.18323648, -6.03153223, 4.04964208, 3.22722344,
                           6.29110633, -4.05969977, 6.91726822, -2.35617478, -3.61337858, 2.17488807, 5.6139636,
                           -8.5558299, 2.15939666, 2.84829877, -12.31851423, 4.06363758, -1.45295543, -12.11512622,
                           5.94772646, -3.00842661, -8.1365677, -4.65219392, -6.78410677, -0.29846731, -7.72607119,
                           2.09308409, -0.89347536, -5.69192784, -7.45269585, -4.79824367, -8.63836085, 1.47325902,
                           -5.4323305, -8.64382367, -1.28398557, -9.20131008, -7.19028923, -5.75067773, -8.88116704,
                           0.69471926, 7.16657411, 6.19908801, 3.21943853, -4.43255237, 5.4924338, -1.01804176,
                           -2.06721752, -6.41424693, -0.04006805, -3.69463605, -4.59993014, 0.29508244, -2.88730801,
                           -2.09508758, -0.32679714, -0.42272984, -1.41690966, -1.32071561, 1.15392876, -3.24915277,
                           -1.68814035, 0.37514049, -5.74325186, 0.62349756, -6.02367305, -5.33266218, 1.25684872,
                           -4.55988854, -0.10878832, -2.01790096, 3.74535177, -2.52671085, -2.46962752, 1.68011751,
                           -7.10722613, -0.06092458, 0.2181685, 0.50639917, -1.23619836, -2.74752497, -8.33105453,
                           2.06085935, -3.52195874, 1.83306118, 1.18336559, -6.86024705, -0.44470452, -2.90698951,
                           5.11929396, -4.19647021, -1.67462389, 4.39177019, -0.3135118],
              'id': 18,
              'identifiers': {'molecular_formula': 'C46FH29N2O6',
                              'molecule_hash': '8bccfcee32ad0571285e1e50b558eedd7c431b17'},
              'masses': [12.0, 12.0, 12.0, 12.0, 12.0, 12.0, 12.0, 12.0, 12.0, 12.0, 12.0, 12.0, 12.0, 12.0, 12.0, 12.0,
                         12.0, 12.0, 12.0, 12.0, 12.0, 12.0, 12.0, 12.0, 12.0, 12.0, 12.0, 12.0, 12.0, 12.0, 12.0, 12.0,
                         12.0, 12.0, 12.0, 12.0, 12.0, 12.0, 12.0, 12.0, 15.99491461957, 15.99491461957, 1.00782503223,
                         1.00782503223, 1.00782503223, 1.00782503223, 1.00782503223, 1.00782503223, 1.00782503223,
                         1.00782503223, 1.00782503223, 1.00782503223, 1.00782503223, 1.00782503223, 1.00782503223,
                         1.00782503223, 1.00782503223, 1.00782503223, 1.00782503223, 1.00782503223, 1.00782503223,
                         1.00782503223, 1.00782503223, 1.00782503223, 1.00782503223, 1.00782503223, 1.00782503223,
                         1.00782503223, 12.0, 12.0, 12.0, 12.0, 12.0, 12.0, 18.99840316273, 14.00307400443,
                         14.00307400443, 1.00782503223, 1.00782503223, 1.00782503223, 15.99491461957, 15.99491461957,
                         15.99491461957, 15.99491461957],
              'molecular_charge': 0.0,
              'molecular_multiplicity': 1,
              'name': 'C46FH29N2O6 ([0],[1])',
              'provenance': {'creator': 'QCElemental',
                             'routine': 'qcelemental.molparse.from_schema',
                             'version': '0.29.0'},
              'real': [True, True, True, True, True, True, True, True, True, True, True, True, True, True, True, True,
                       True, True, True, True, True, True, True, True, True, True, True, True, True, True, True, True,
                       True, True, True, True, True, True, True, True, True, True, True, True, True, True, True, True,
                       True, True, True, True, True, True, True, True, True, True, True, True, True, True, True, True,
                       True, True, True, True, False, False, False, False, False, False, False, False, False, False,
                       False, False, False, False, False, False],
              'schema_name': 'qcschema_molecule',
              'schema_version': 2,
              'symbols': ['C', 'C', 'C', 'C', 'C', 'C', 'C', 'C', 'C', 'C', 'C', 'C', 'C', 'C', 'C', 'C', 'C', 'C', 'C',
                          'C', 'C', 'C', 'C', 'C', 'C', 'C', 'C', 'C', 'C', 'C', 'C', 'C', 'C', 'C', 'C', 'C', 'C', 'C',
                          'C', 'C', 'O', 'O', 'H', 'H', 'H', 'H', 'H', 'H', 'H', 'H', 'H', 'H', 'H', 'H', 'H', 'H', 'H',
                          'H', 'H', 'H', 'H', 'H', 'H', 'H', 'H', 'H', 'H', 'H', 'C', 'C', 'C', 'C', 'C', 'C', 'F', 'N',
                          'N', 'H', 'H', 'H', 'O', 'O', 'O', 'O'],
              'validated': True},
 'protocols': {},
 'provenance': {'creator': 'QCElemental', 'routine': 'qcelemental.models.results', 'version': '0.29.0'},
 'schema_name': 'qcschema_input',
 'schema_version': 1}
--------------------------------------------------------------------------

Scratch directory: /tmp/tmpdb7x2l4q_psi_scratch/
   => Libint2 <=

    Primary   basis highest AM E, G, H:  6, 6, 3
    Auxiliary basis highest AM E, G, H:  7, 7, 4
    Onebody   basis highest AM E, G, H:  -, -, -
    Solid Harmonics ordering:            Gaussian

*** tstart() called on atl1-1-02-003-20-2.pace.gatech.edu
*** at Sat Jun 13 12:47:42 2026

   => Loading Basis Set <=

    Name: AUG-CC-PVTZ
    Role: ORBITAL
    Keyword: BASIS
    atoms 1-40, 69-74  entry C          line   239 file /storage/home/hcoda1/5/vlita3/.conda/envs/p4_qcml/share/psi4/basis/aug-cc-pvtz.gbs 
    atoms 41-42, 81-84 entry O          line   331 file /storage/home/hcoda1/5/vlita3/.conda/envs/p4_qcml/share/psi4/basis/aug-cc-pvtz.gbs 
    atoms 43-68, 78-80 entry H          line    40 file /storage/home/hcoda1/5/vlita3/.conda/envs/p4_qcml/share/psi4/basis/aug-cc-pvtz.gbs 
    atoms 75           entry F          line   377 file /storage/home/hcoda1/5/vlita3/.conda/envs/p4_qcml/share/psi4/basis/aug-cc-pvtz.gbs 
    atoms 76-77        entry N          line   285 file /storage/home/hcoda1/5/vlita3/.conda/envs/p4_qcml/share/psi4/basis/aug-cc-pvtz.gbs 

   => WB97X-D: Empirical Dispersion <=

    Chai and Head-Gordon Dispersion Correction
    Chai, J.-D.; Head-Gordon, M. (2010), J. Chem. Phys., 132: 6615-6620

        s6 =       1.000000


         ---------------------------------------------------------
                                   SCF
               by Justin Turney, Rob Parrish, Andy Simmonett
                          and Daniel G. A. Smith
                              RKS Reference
                       10 Threads, 256000 MiB Core
         ---------------------------------------------------------

  ==> Geometry <==

    Molecular point group: c1
    Full point group: C1

    Geometry (in Bohr), charge = 0, multiplicity = 1:

       Center              X                  Y                   Z               Mass       
    ------------   -----------------  -----------------  -----------------  -----------------
         C           -5.346206420000    -4.852067410000    -0.420406620000    12.000000000000
         C           -6.296965430000    -3.972491370000    -2.731965910000    12.000000000000
         C           -7.166528570000    -1.393609710000    -2.910240590000    12.000000000000
         C           -7.072257320000     0.147834600000    -0.757129170000    12.000000000000
         C           -6.060555210000    -0.705228590000     1.527799160000    12.000000000000
         C           -5.146608250000    -3.282758710000     1.693768900000    12.000000000000
         C           -8.009409540000    -0.477951610000    -5.296228450000    12.000000000000
         C           -8.003895320000    -2.012651110000    -7.391754450000    12.000000000000
         C           -7.173996200000    -4.558693670000    -7.209678960000    12.000000000000
         C           -6.348240500000    -5.510814040000    -4.939719150000    12.000000000000
         C           -5.791745450000     0.944327330000     3.660642330000    12.000000000000
         C           -4.598362800000     0.079981900000     5.769700660000    12.000000000000
         C           -3.622933980000    -2.455166200000     5.905508660000    12.000000000000
         C           -3.924004210000    -4.116319930000     3.964190180000    12.000000000000
         C           -2.165691520000    -2.619450290000     8.388517700000    12.000000000000
         C            0.076362130000    -0.846175710000     7.951167990000    12.000000000000
         C           -0.907811200000     1.617847830000     7.867441600000    12.000000000000
         C           -3.765700710000     1.391352810000     8.204976350000    12.000000000000
         C           -3.856711250000    -0.888045230000    10.062814110000    12.000000000000
         C            2.580011710000    -1.365512700000     7.311840570000    12.000000000000
         C            4.105748800000     0.711017200000     6.771630800000    12.000000000000
         C            3.129114340000     3.182679200000     6.682928570000    12.000000000000
         C            0.582267520000     3.668201810000     7.154698700000    12.000000000000
         C            5.224770350000     4.856802310000     5.594756800000    12.000000000000
         C            5.457732570000     3.952650560000     2.860341620000    12.000000000000
         C            6.487124790000     1.440128340000     2.991870340000    12.000000000000
         C            6.820985540000     0.851534400000     5.793823010000    12.000000000000
         C            7.568855230000     3.523776840000     6.772384430000    12.000000000000
         C            6.803253670000     0.010079230000     0.878536320000    12.000000000000
         C            6.012304070000     0.997648220000    -1.515819810000    12.000000000000
         C            4.947659400000     3.517698730000    -1.646337150000    12.000000000000
         C            4.725136970000     4.986254600000     0.620580010000    12.000000000000
         C            6.122058610000    -0.461318620000    -3.713100380000    12.000000000000
         C            5.157568480000     0.406872210000    -6.022959480000    12.000000000000
         C            4.083957810000     2.910561660000    -6.148846990000    12.000000000000
         C            4.053299830000     4.410188790000    -3.964629350000    12.000000000000
         C            5.133068370000    -1.124540680000    -8.236147390000    12.000000000000
         C            4.078518980000    -0.259611140000   -10.444600580000    12.000000000000
         C            2.994786190000     2.193928570000   -10.561075740000    12.000000000000
         C            3.008518070000     3.738074240000    -8.473347130000    12.000000000000
         O            3.503610250000    -3.823107000000     7.212335910000    15.994914619570
         O           -0.525649810000     6.011941810000     6.933616990000    15.994914619570
         H            5.058297190000     6.895677150000     5.870898140000     1.007825032230
         H            8.035641400000    -0.741072730000     6.263527290000     1.007825032230
         H            7.589018420000     3.638755720000     8.835189620000     1.007825032230
         H            9.354218020000     4.197835910000     5.975229540000     1.007825032230
         H           -5.766115660000    -1.641881930000    10.315423430000     1.007825032230
         H           -2.988642120000    -0.455428910000    11.887581460000     1.007825032230
         H           -4.772530920000     3.112424280000     8.711819230000     1.007825032230
         H           -1.708911840000    -4.507218470000     9.067129500000     1.007825032230
         H            7.554896960000    -1.899767370000     0.968629390000     1.007825032230
         H            3.899471970000     6.864303730000     0.502763900000     1.007825032230
         H           -6.466804180000     2.878736780000     3.513117650000     1.007825032230
         H           -3.183236480000    -6.031532230000     4.049642080000     1.007825032230
         H            3.227223440000     6.291106330000    -4.059699770000     1.007825032230
         H            6.917268220000    -2.356174780000    -3.613378580000     1.007825032230
         H            2.174888070000     5.613963600000    -8.555829900000     1.007825032230
         H            2.159396660000     2.848298770000   -12.318514230000     1.007825032230
         H            4.063637580000    -1.452955430000   -12.115126220000     1.007825032230
         H            5.947726460000    -3.008426610000    -8.136567700000     1.007825032230
         H           -4.652193920000    -6.784106770000    -0.298467310000     1.007825032230
         H           -7.726071190000     2.093084090000    -0.893475360000     1.007825032230
         H           -5.691927840000    -7.452695850000    -4.798243670000     1.007825032230
         H           -8.638360850000     1.473259020000    -5.432330500000     1.007825032230
         H           -8.643823670000    -1.283985570000    -9.201310080000     1.007825032230
         H           -7.190289230000    -5.750677730000    -8.881167040000     1.007825032230
         H            0.694719260000     7.166574110000     6.199088010000     1.007825032230
         H            3.219438530000    -4.432552370000     5.492433800000     1.007825032230
      Gh(C)          -1.018041760000    -2.067217520000    -6.414246930000    12.000000000000
      Gh(C)          -0.040068050000    -3.694636050000    -4.599930140000    12.000000000000
      Gh(C)           0.295082440000    -2.887308010000    -2.095087580000    12.000000000000
      Gh(C)          -0.326797140000    -0.422729840000    -1.416909660000    12.000000000000
      Gh(C)          -1.320715610000     1.153928760000    -3.249152770000    12.000000000000
      Gh(C)          -1.688140350000     0.375140490000    -5.743251860000    12.000000000000
      Gh(F)           0.623497560000    -6.023673050000    -5.332662180000    18.998403162730
      Gh(N)           1.256848720000    -4.559888540000    -0.108788320000    14.003074004430
      Gh(N)          -2.017900960000     3.745351770000    -2.526710850000    14.003074004430
      Gh(H)          -2.469627520000     1.680117510000    -7.107226130000     1.007825032230
      Gh(H)          -0.060924580000     0.218168500000     0.506399170000     1.007825032230
      Gh(H)          -1.236198360000    -2.747524970000    -8.331054530000     1.007825032230
      Gh(O)           2.060859350000    -3.521958740000     1.833061180000    15.994914619570
      Gh(O)           1.183365590000    -6.860247050000    -0.444704520000    15.994914619570
      Gh(O)          -2.906989510000     5.119293960000    -4.196470210000    15.994914619570
      Gh(O)          -1.674623890000     4.391770190000    -0.313511800000    15.994914619570

  Running in c1 symmetry.

  Rotational constants: A =      0.00269  B =      0.00202  C =      0.00154 [cm^-1]
  Rotational constants: A =     80.53073  B =     60.67005  C =     46.28054 [MHz]
  Nuclear repulsion = 4517.267906260053678

  Charge       = 0
  Multiplicity = 1
  Electrons    = 282
  Nalpha       = 141
  Nbeta        = 141

  ==> Algorithm <==

  SCF Algorithm Type is DF.
  DIIS enabled.
  MOM disabled.
  Fractional occupation disabled.
  Guess Type is SAD.
  Energy threshold   = 1.00e-06
  Density threshold  = 1.00e-06
  Integral threshold = 1.00e-12

  ==> Primary Basis <==

  Basis Set: AUG-CC-PVTZ
    Blend: AUG-CC-PVTZ
    Number of shells: 1031
    Number of basis functions: 3197
    Number of Cartesian functions: 3750
    Spherical Harmonics?: true
    Max angular momentum: 3

  ==> DFT Potential <==

   => LibXC <=

    Version 7.0.0
    S. Lehtola, C. Steigemann, M. J.T. Oliveira, and M. A.L. Marques.,  SoftwareX 7, 1–5 (2018) (10.1016/j.softx.2017.11.002)

   => Composite Functional: WB97X-D <= 

    wB97X-D Hyb-GGA Exchange-Correlation Functional

    J.-D. Chai and M. Head-Gordon.,  Phys. Chem. Chem. Phys. 10, 6615-6620 (2008) (10.1039/B810189B)

    Deriv               =              1
    GGA                 =           TRUE
    Meta                =          FALSE

    Exchange Hybrid     =           TRUE
    MP2 Hybrid          =          FALSE

   => Exchange-Correlation Functionals <=

    1.0000   wB97X-D range-separated functional

   => Exact (HF) Exchange <=

    0.7780            HF,LR [omega = 0.2000]
    0.2220               HF 

   => LibXC Density Thresholds  <==

    XC_HYB_GGA_XC_WB97X_D:  1.00E-14 

   => Molecular Quadrature <=

    Radial Scheme          =       TREUTLER
    Pruning Scheme         =           NONE
    Nuclear Scheme         =       TREUTLER

    Blocking Scheme        =         OCTREE
    BS radius alpha        =              1
    Pruning alpha          =              1
    Radial Points          =             75
    Spherical Points       =            302
    Total Points           =        1660585
    Total Blocks           =          11397
    Max Points             =            256
    Max Functions          =           2139
    Weights Tolerance      =       1.00E-15

   => Loading Basis Set <=

    Name: (AUG-CC-PVTZ AUX)
    Role: JKFIT
    Keyword: DF_BASIS_SCF
    atoms 1-40, 69-74  entry C          line   162 file /storage/home/hcoda1/5/vlita3/.conda/envs/p4_qcml/share/psi4/basis/aug-cc-pvtz-jkfit.gbs 
    atoms 41-42, 81-84 entry O          line   286 file /storage/home/hcoda1/5/vlita3/.conda/envs/p4_qcml/share/psi4/basis/aug-cc-pvtz-jkfit.gbs 
    atoms 43-68, 78-80 entry H          line    70 file /storage/home/hcoda1/5/vlita3/.conda/envs/p4_qcml/share/psi4/basis/aug-cc-pvtz-jkfit.gbs 
    atoms 75           entry F          line   348 file /storage/home/hcoda1/5/vlita3/.conda/envs/p4_qcml/share/psi4/basis/aug-cc-pvtz-jkfit.gbs 
    atoms 76-77        entry N          line   224 file /storage/home/hcoda1/5/vlita3/.conda/envs/p4_qcml/share/psi4/basis/aug-cc-pvtz-jkfit.gbs 

  ==> Integral Setup <==

  ==> DiskDFJK: Density-Fitted J/K Matrices <==

    J tasked:                  Yes
    K tasked:                  Yes
    wK tasked:                 Yes
    Omega:               2.000E-01
    OpenMP threads:             10
    Integrals threads:          10
    Memory [MiB]:           172800
    Algorithm:                Disk
    Integral Cache:           NONE
    Schwarz Cutoff:          1E-12
    Fitting Condition:       1E-10

   => Auxiliary Basis Set <=

  Basis Set: (AUG-CC-PVTZ AUX)
    Blend: AUG-CC-PVTZ-JKFIT
    Number of shells: 2056
    Number of basis functions: 7054
    Number of Cartesian functions: 8800
    Spherical Harmonics?: true
    Max angular momentum: 4

  Minimum eigenvalue in the overlap matrix is 8.4696743678E-09.
  Reciprocal condition number of the overlap matrix is 2.5542464085E-10.
    Using canonical orthogonalization.
  Overall, 16 of 3197 possible MOs eliminated.


  ==> Pre-Iterations <==

  SCF Guess: Superposition of Atomic Densities via on-the-fly atomic UHF (no occupation information).

   -------------------------
    Irrep   Nso     Nmo    
   -------------------------
     A       3197    3181 
   -------------------------
    Total    3197    3181
   -------------------------

  ==> Iterations <==

                           Total Energy        Delta E     RMS |[F,P]|

   @DF-RKS iter SAD: -1691.76958899469014   -1.69177e+03   0.00000e+00 
   @DF-RKS iter   1: -1688.78310828177337    2.98648e+00   5.46522e-04 DIIS/ADIIS
   @DF-RKS iter   2: -1689.45119712266865   -6.68089e-01   4.38931e-04 DIIS/ADIIS
   @DF-RKS iter   3: -1690.32928829043999   -8.78091e-01   8.52361e-05 DIIS
   @DF-RKS iter   4: -1690.35782993124303   -2.85416e-02   3.13310e-05 DIIS
   @DF-RKS iter   5: -1690.36239913676241   -4.56921e-03   1.05984e-05 DIIS
   @DF-RKS iter   6: -1690.36292951872338   -5.30382e-04   3.11479e-06 DIIS
   @DF-RKS iter   7: -1690.36297880252937   -4.92838e-05   6.92137e-07 DIIS
   @DF-RKS iter   8: -1690.36298247646869   -3.67394e-06   3.71896e-07 DIIS
   @DF-RKS iter   9: -1690.36298358880686   -1.11234e-06   1.14438e-07 DIIS
   @DF-RKS iter  10: -1690.36298376889272   -1.80086e-07   6.50653e-08 DIIS
  Energy and wave function converged.


  ==> Post-Iterations <==

   Electrons on quadrature grid:
      Ntotal   =  281.9999693421 ; deviation = -3.066e-05 

    Orbital Energies [Eh]
    ---------------------

    Doubly Occupied:                                                      

       1A    -19.289704     2A    -19.274691     3A    -10.355371  
       4A    -10.344101     5A    -10.321877     6A    -10.313943  
       7A    -10.309846     8A    -10.309281     9A    -10.306039  
      10A    -10.305542    11A    -10.305360    12A    -10.303866  
      13A    -10.302437    14A    -10.302340    15A    -10.301994  
      16A    -10.301887    17A    -10.301240    18A    -10.300442  
      19A    -10.299877    20A    -10.299587    21A    -10.299042  
      22A    -10.298569    23A    -10.298343    24A    -10.298272  
      25A    -10.297395    26A    -10.295819    27A    -10.295498  
      28A    -10.295470    29A    -10.293742    30A    -10.293556  
      31A    -10.293421    32A    -10.293345    33A    -10.292644  
      34A    -10.292255    35A    -10.291582    36A    -10.290672  
      37A    -10.290581    38A    -10.290124    39A    -10.290004  
      40A    -10.289886    41A    -10.289695    42A    -10.289488  
      43A     -1.164652    44A     -1.147124    45A     -1.020393  
      46A     -1.011049    47A     -0.982379    48A     -0.978321  
      49A     -0.951057    50A     -0.943446    51A     -0.920125  
      52A     -0.893044    53A     -0.889233    54A     -0.884847  
      55A     -0.881859    56A     -0.866494    57A     -0.860204  
      58A     -0.845250    59A     -0.835366    60A     -0.827994  
      61A     -0.825116    62A     -0.807746    63A     -0.806261  
      64A     -0.787848    65A     -0.768629    66A     -0.746589  
      67A     -0.741568    68A     -0.721466    69A     -0.705299  
      70A     -0.698719    71A     -0.696529    72A     -0.694225  
      73A     -0.692433    74A     -0.688792    75A     -0.681212  
      76A     -0.665240    77A     -0.661729    78A     -0.637061  
      79A     -0.625963    80A     -0.618541    81A     -0.615681  
      82A     -0.613918    83A     -0.608264    84A     -0.597840  
      85A     -0.586718    86A     -0.581154    87A     -0.570977  
      88A     -0.563333    89A     -0.548209    90A     -0.542837  
      91A     -0.541011    92A     -0.539035    93A     -0.537366  
      94A     -0.532288    95A     -0.524662    96A     -0.515195  
      97A     -0.512742    98A     -0.508960    99A     -0.508377  
     100A     -0.506748   101A     -0.503371   102A     -0.503013  
     103A     -0.500147   104A     -0.497283   105A     -0.496353  
     106A     -0.492754   107A     -0.491489   108A     -0.481490  
     109A     -0.478117   110A     -0.472585   111A     -0.467979  
     112A     -0.461903   113A     -0.459738   114A     -0.458249  
     115A     -0.447942   116A     -0.442858   117A     -0.441760  
     118A     -0.438869   119A     -0.434176   120A     -0.432159  
     121A     -0.428900   122A     -0.424282   123A     -0.417343  
     124A     -0.416368   125A     -0.412594   126A     -0.408870  
     127A     -0.402501   128A     -0.391304   129A     -0.389671  
     130A     -0.384336   131A     -0.380188   132A     -0.378689  
     133A     -0.374100   134A     -0.338597   135A     -0.334001  
     136A     -0.318036   137A     -0.304777   138A     -0.296906  
     139A     -0.287149   140A     -0.264746   141A     -0.260752  

    Virtual:                                                              

     142A     -0.008708   143A     -0.002179   144A      0.022442  
     145A      0.024678   146A      0.027239   147A      0.027465  
     148A      0.031715   149A      0.034654   150A      0.034913  
     151A      0.036942   152A      0.037982   153A      0.040207  
     154A      0.042293   155A      0.045923   156A      0.046600  
     157A      0.047566   158A      0.048198   159A      0.051816  
     160A      0.055177   161A      0.057340   162A      0.057957  
     163A      0.058764   164A      0.059672   165A      0.063621  
     166A      0.063722   167A      0.064713   168A      0.067699  
     169A      0.067981   170A      0.070950   171A      0.072367  
     172A      0.075023   173A      0.076911   174A      0.078860  
     175A      0.079211   176A      0.081338   177A      0.082335  
     178A      0.085971   179A      0.087861   180A      0.090666  
     181A      0.091695   182A      0.094754   183A      0.095318  
     184A      0.098170   185A      0.098354   186A      0.099833  
     187A      0.100901   188A      0.101845   189A      0.102253  
     190A      0.103982   191A      0.104630   192A      0.105493  
     193A      0.106123   194A      0.107519   195A      0.110075  
     196A      0.113563   197A      0.114583   198A      0.115836  
     199A      0.116303   200A      0.117010   201A      0.118716  
     202A      0.119498   203A      0.120147   204A      0.121615  
     205A      0.123185   206A      0.125794   207A      0.126558  
     208A      0.128367   209A      0.128828   210A      0.130467  
     211A      0.131967   212A      0.133173   213A      0.133852  
     214A      0.136065   215A      0.136927   216A      0.137689  
     217A      0.139295   218A      0.141264   219A      0.141874  
     220A      0.143774   221A      0.144677   222A      0.146024  
     223A      0.147073   224A      0.149153   225A      0.150109  
     226A      0.152692   227A      0.155382   228A      0.157608  
     229A      0.158205   230A      0.158799   231A      0.159937  
     232A      0.161392   233A      0.161515   234A      0.163193  
     235A      0.164527   236A      0.166991   237A      0.168372  
     238A      0.170045   239A      0.172513   240A      0.173037  
     241A      0.173798   242A      0.175570   243A      0.177873  
     244A      0.179059   245A      0.180003   246A      0.180996  
     247A      0.182323   248A      0.184423   249A      0.187212  
     250A      0.188549   251A      0.189263   252A      0.192154  
     253A      0.193142   254A      0.193909   255A      0.195037  
     256A      0.195571   257A      0.196543   258A      0.197133  
     259A      0.200382   260A      0.200592   261A      0.202757  
     262A      0.203684   263A      0.204243   264A      0.204739  
     265A      0.205559   266A      0.208072   267A      0.209605  
     268A      0.210164   269A      0.211582   270A      0.213037  
     271A      0.214425   272A      0.214546   273A      0.216057  
     274A      0.218197   275A      0.219046   276A      0.220050  
     277A      0.220547   278A      0.222014   279A      0.223588  
     280A      0.223766   281A      0.224736   282A      0.225159  
     283A      0.226100   284A      0.227108   285A      0.228082  
     286A      0.228624   287A      0.230154   288A      0.230605  
     289A      0.231936   290A      0.232536   291A      0.234089  
     292A      0.234788   293A      0.236129   294A      0.236745  
     295A      0.238112   296A      0.239396   297A      0.240463  
     298A      0.241199   299A      0.241433   300A      0.243340  
     301A      0.243801   302A      0.245740   303A      0.246389  
     304A      0.247616   305A      0.248500   306A      0.249650  
     307A      0.250805   308A      0.251944   309A      0.252364  
     310A      0.253357   311A      0.254042   312A      0.254851  
     313A      0.255742   314A      0.256594   315A      0.257071  
     316A      0.258233   317A      0.259354   318A      0.260993  
     319A      0.261309   320A      0.263554   321A      0.264055  
     322A      0.265947   323A      0.266252   324A      0.266968  
     325A      0.269460   326A      0.269841   327A      0.271113  
     328A      0.272088   329A      0.272380   330A      0.274328  
     331A      0.274635   332A      0.275036   333A      0.277508  
     334A      0.278472   335A      0.280068   336A      0.280652  
     337A      0.281407   338A      0.281978   339A      0.283496  
     340A      0.284126   341A      0.284924   342A      0.286127  
     343A      0.286763   344A      0.289384   345A      0.289875  
     346A      0.291209   347A      0.294164   348A      0.295038  
     349A      0.295835   350A      0.296267   351A      0.298049  
     352A      0.299495   353A      0.299685   354A      0.302352  
     355A      0.304458   356A      0.305418   357A      0.305612  
     358A      0.307428   359A      0.311310   360A      0.312425  
     361A      0.313784   362A      0.314804   363A      0.315843  
     364A      0.317529   365A      0.317897   366A      0.318147  
     367A      0.319128   368A      0.320338   369A      0.322394  
     370A      0.323458   371A      0.324435   372A      0.325572  
     373A      0.325991   374A      0.326494   375A      0.327600  
     376A      0.328322   377A      0.330679   378A      0.332800  
     379A      0.333377   380A      0.333662   381A      0.335952  
     382A      0.336409   383A      0.337704   384A      0.339542  
     385A      0.340340   386A      0.341882   387A      0.344008  
     388A      0.344749   389A      0.346679   390A      0.348871  
     391A      0.349368   392A      0.350369   393A      0.350628  
     394A      0.352065   395A      0.353255   396A      0.354086  
     397A      0.354891   398A      0.356082   399A      0.358142  
     400A      0.361567   401A      0.361863   402A      0.362507  
     403A      0.363463   404A      0.364080   405A      0.366397  
     406A      0.366930   407A      0.367563   408A      0.369006  
     409A      0.370174   410A      0.371109   411A      0.374541  
     412A      0.375740   413A      0.375950   414A      0.380058  
     415A      0.381603   416A      0.382297   417A      0.383782  
     418A      0.384278   419A      0.384801   420A      0.387082  
     421A      0.389172   422A      0.389797   423A      0.389947  
     424A      0.394050   425A      0.395561   426A      0.396568  
     427A      0.397803   428A      0.398803   429A      0.400642  
     430A      0.401737   431A      0.402416   432A      0.403432  
     433A      0.405090   434A      0.405941   435A      0.407408  
     436A      0.409466   437A      0.411080   438A      0.411907  
     439A      0.413303   440A      0.414063   441A      0.414524  
     442A      0.414628   443A      0.415272   444A      0.417776  
     445A      0.418388   446A      0.419661   447A      0.420358  
     448A      0.422393   449A      0.425434   450A      0.426987  
     451A      0.427165   452A      0.429709   453A      0.430608  
     454A      0.432596   455A      0.434155   456A      0.435824  
     457A      0.436482   458A      0.437163   459A      0.440103  
     460A      0.440336   461A      0.441347   462A      0.445005  
     463A      0.445667   464A      0.446688   465A      0.447044  
     466A      0.448481   467A      0.449352   468A      0.449946  
     469A      0.451570   470A      0.453485   471A      0.454015  
     472A      0.456459   473A      0.457085   474A      0.457973  
     475A      0.458446   476A      0.460887   477A      0.462326  
     478A      0.463175   479A      0.464124   480A      0.465477  
     481A      0.466596   482A      0.468685   483A      0.469322  
     484A      0.469575   485A      0.470992   486A      0.472400  
     487A      0.473577   488A      0.475623   489A      0.477412  
     490A      0.478481   491A      0.479424   492A      0.480837  
     493A      0.481363   494A      0.481942   495A      0.482575  
     496A      0.483370   497A      0.484235   498A      0.485549  
     499A      0.487257   500A      0.489060   501A      0.490132  
     502A      0.490695   503A      0.491619   504A      0.493397  
     505A      0.494167   506A      0.495386   507A      0.496016  
     508A      0.498057   509A      0.499421   510A      0.500644  
     511A      0.501560   512A      0.502063   513A      0.503790  
     514A      0.503977   515A      0.505356   516A      0.506014  
     517A      0.508969   518A      0.509117   519A      0.509830  
     520A      0.510006   521A      0.512182   522A      0.513304  
     523A      0.514137   524A      0.517131   525A      0.517551  
     526A      0.518994   527A      0.519614   528A      0.521462  
     529A      0.521905   530A      0.522515   531A      0.523942  
     532A      0.525636   533A      0.526358   534A      0.528100  
     535A      0.529099   536A      0.529790   537A      0.530523  
     538A      0.531793   539A      0.533499   540A      0.534934  
     541A      0.535909   542A      0.536487   543A      0.537055  
     544A      0.537954   545A      0.538979   546A      0.540639  
     547A      0.541460   548A      0.542809   549A      0.544503  
     550A      0.545085   551A      0.546380   552A      0.547014  
     553A      0.549001   554A      0.550435   555A      0.551608  
     556A      0.552937   557A      0.554919   558A      0.555901  
     559A      0.556931   560A      0.558424   561A      0.559031  
     562A      0.559508   563A      0.560095   564A      0.562727  
     565A      0.564730   566A      0.565476   567A      0.566514  
     568A      0.567608   569A      0.569575   570A      0.570004  
     571A      0.570994   572A      0.572358   573A      0.573475  
     574A      0.573740   575A      0.576471   576A      0.577494  
     577A      0.579249   578A      0.580227   579A      0.582440  
     580A      0.582664   581A      0.584684   582A      0.584785  
     583A      0.587594   584A      0.587915   585A      0.589898  
     586A      0.590758   587A      0.591742   588A      0.593020  
     589A      0.594009   590A      0.594794   591A      0.597234  
     592A      0.598746   593A      0.600800   594A      0.601761  
     595A      0.602594   596A      0.603986   597A      0.604749  
     598A      0.606647   599A      0.607827   600A      0.610806  
     601A      0.612660   602A      0.614146   603A      0.614694  
     604A      0.615735   605A      0.618070   606A      0.618510  
     607A      0.619084   608A      0.619993   609A      0.622215  
     610A      0.623933   611A      0.626599   612A      0.627614  
     613A      0.629595   614A      0.631027   615A      0.632503  
     616A      0.634996   617A      0.635297   618A      0.637028  
     619A      0.638294   620A      0.639045   621A      0.640638  
     622A      0.642748   623A      0.643408   624A      0.644631  
     625A      0.645966   626A      0.647902   627A      0.648442  
     628A      0.650064   629A      0.650564   630A      0.652508  
     631A      0.653436   632A      0.655167   633A      0.656888  
     634A      0.658544   635A      0.660362   636A      0.662105  
     637A      0.663337   638A      0.665449   639A      0.666879  
     640A      0.667482   641A      0.668796   642A      0.670648  
     643A      0.671802   644A      0.673583   645A      0.674721  
     646A      0.676274   647A      0.678716   648A      0.679745  
     649A      0.681605   650A      0.684111   651A      0.686195  
     652A      0.687855   653A      0.689349   654A      0.691411  
     655A      0.692259   656A      0.694381   657A      0.695414  
     658A      0.696950   659A      0.697491   660A      0.698676  
     661A      0.699802   662A      0.701526   663A      0.702695  
     664A      0.704157   665A      0.705331   666A      0.707354  
     667A      0.709604   668A      0.711399   669A      0.713521  
     670A      0.713742   671A      0.715500   672A      0.717387  
     673A      0.718192   674A      0.721131   675A      0.721992  
     676A      0.722617   677A      0.724940   678A      0.725673  
     679A      0.727056   680A      0.729079   681A      0.730077  
     682A      0.730846   683A      0.733009   684A      0.735179  
     685A      0.737913   686A      0.738950   687A      0.742094  
     688A      0.742502   689A      0.744077   690A      0.745888  
     691A      0.747067   692A      0.747812   693A      0.749170  
     694A      0.750161   695A      0.750871   696A      0.752437  
     697A      0.753086   698A      0.754854   699A      0.755969  
     700A      0.759012   701A      0.760276   702A      0.761822  
     703A      0.763432   704A      0.763574   705A      0.765568  
     706A      0.767019   707A      0.768658   708A      0.769709  
     709A      0.770779   710A      0.771432   711A      0.773679  
     712A      0.774950   713A      0.775893   714A      0.776819  
     715A      0.778349   716A      0.781853   717A      0.783758  
     718A      0.784133   719A      0.785120   720A      0.785910  
     721A      0.787943   722A      0.790478   723A      0.791272  
     724A      0.792935   725A      0.794075   726A      0.795204  
     727A      0.799132   728A      0.799266   729A      0.800308  
     730A      0.801032   731A      0.803699   732A      0.806085  
     733A      0.806531   734A      0.807242   735A      0.808684  
     736A      0.809832   737A      0.812018   738A      0.815830  
     739A      0.816129   740A      0.817124   741A      0.818996  
     742A      0.820168   743A      0.821116   744A      0.822965  
     745A      0.824458   746A      0.825274   747A      0.825780  
     748A      0.827476   749A      0.831069   750A      0.833074  
     751A      0.833336   752A      0.835584   753A      0.837642  
     754A      0.837978   755A      0.839704   756A      0.840950  
     757A      0.843958   758A      0.844758   759A      0.845287  
     760A      0.846980   761A      0.848922   762A      0.851235  
     763A      0.852433   764A      0.854363   765A      0.854894  
     766A      0.855616   767A      0.856911   768A      0.859012  
     769A      0.859936   770A      0.860908   771A      0.862175  
     772A      0.864924   773A      0.866006   774A      0.867095  
     775A      0.869069   776A      0.870003   777A      0.871387  
     778A      0.872040   779A      0.873535   780A      0.873934  
     781A      0.875266   782A      0.876842   783A      0.877771  
     784A      0.879620   785A      0.880523   786A      0.881635  
     787A      0.882695   788A      0.883841   789A      0.884075  
     790A      0.886227   791A      0.886841   792A      0.889528  
     793A      0.890700   794A      0.893253   795A      0.894541  
     796A      0.895435   797A      0.895837   798A      0.898104  
     799A      0.899972   800A      0.900383   801A      0.901096  
     802A      0.903032   803A      0.905101   804A      0.905822  
     805A      0.906790   806A      0.908929   807A      0.910332  
     808A      0.911026   809A      0.912250   810A      0.913334  
     811A      0.915286   812A      0.917314   813A      0.918071  
     814A      0.918832   815A      0.920985   816A      0.921323  
     817A      0.921734   818A      0.923138   819A      0.925057  
     820A      0.927019   821A      0.929192   822A      0.930284  
     823A      0.931467   824A      0.933087   825A      0.933549  
     826A      0.935370   827A      0.936394   828A      0.936764  
     829A      0.938344   830A      0.939380   831A      0.942173  
     832A      0.942947   833A      0.943856   834A      0.945637  
     835A      0.946341   836A      0.948298   837A      0.951024  
     838A      0.952031   839A      0.953605   840A      0.955593  
     841A      0.956652   842A      0.958837   843A      0.960556  
     844A      0.961735   845A      0.963241   846A      0.963877  
     847A      0.965393   848A      0.967112   849A      0.967587  
     850A      0.970162   851A      0.970375   852A      0.972738  
     853A      0.972953   854A      0.975022   855A      0.975925  
     856A      0.977196   857A      0.978900   858A      0.979814  
     859A      0.981045   860A      0.982104   861A      0.983160  
     862A      0.985443   863A      0.987026   864A      0.988793  
     865A      0.990670   866A      0.992515   867A      0.992881  
     868A      0.995289   869A      0.996894   870A      0.997452  
     871A      0.999978   872A      1.002170   873A      1.003403  
     874A      1.005348   875A      1.006890   876A      1.007987  
     877A      1.009306   878A      1.011241   879A      1.011675  
     880A      1.012850   881A      1.013474   882A      1.016004  
     883A      1.016999   884A      1.018057   885A      1.019082  
     886A      1.020923   887A      1.022753   888A      1.023530  
     889A      1.024862   890A      1.028745   891A      1.030464  
     892A      1.031593   893A      1.032624   894A      1.034674  
     895A      1.036074   896A      1.036376   897A      1.039165  
     898A      1.042268   899A      1.043511   900A      1.045328  
     901A      1.046405   902A      1.046876   903A      1.049662  
     904A      1.051511   905A      1.052429   906A      1.053942  
     907A      1.055117   908A      1.058417   909A      1.059488  
     910A      1.061590   911A      1.062121   912A      1.063916  
     913A      1.064951   914A      1.065484   915A      1.067167  
     916A      1.068792   917A      1.070562   918A      1.071187  
     919A      1.072695   920A      1.074507   921A      1.076375  
     922A      1.077398   923A      1.078914   924A      1.080218  
     925A      1.083488   926A      1.083873   927A      1.085306  
     928A      1.087128   929A      1.088520   930A      1.089289  
     931A      1.090837   932A      1.092812   933A      1.095825  
     934A      1.096077   935A      1.098225   936A      1.098287  
     937A      1.101476   938A      1.101666   939A      1.103971  
     940A      1.104994   941A      1.105951   942A      1.107863  
     943A      1.110000   944A      1.111048   945A      1.113484  
     946A      1.113952   947A      1.115808   948A      1.115937  
     949A      1.117525   950A      1.120356   951A      1.121534  
     952A      1.122019   953A      1.125428   954A      1.128479  
     955A      1.128856   956A      1.129297   957A      1.130461  
     958A      1.131634   959A      1.135834   960A      1.136558  
     961A      1.137093   962A      1.138876   963A      1.140327  
     964A      1.142237   965A      1.142732   966A      1.143875  
     967A      1.145034   968A      1.146818   969A      1.148262  
     970A      1.149195   971A      1.149472   972A      1.151225  
     973A      1.152584   974A      1.155675   975A      1.156982  
     976A      1.160008   977A      1.161230   978A      1.162286  
     979A      1.162789   980A      1.164547   981A      1.168624  
     982A      1.169982   983A      1.171606   984A      1.172912  
     985A      1.177192   986A      1.177357   987A      1.177970  
     988A      1.180185   989A      1.181192   990A      1.181809  
     991A      1.183876   992A      1.184856   993A      1.185728  
     994A      1.187602   995A      1.188433   996A      1.189865  
     997A      1.191711   998A      1.193300   999A      1.195587  
    1000A      1.197160  1001A      1.197834  1002A      1.200437  
    1003A      1.203769  1004A      1.204835  1005A      1.205725  
    1006A      1.207216  1007A      1.209016  1008A      1.211146  
    1009A      1.212429  1010A      1.213730  1011A      1.215434  
    1012A      1.216910  1013A      1.219394  1014A      1.221342  
    1015A      1.222118  1016A      1.222518  1017A      1.225357  
    1018A      1.226971  1019A      1.227277  1020A      1.228462  
    1021A      1.230215  1022A      1.231983  1023A      1.234767  
    1024A      1.236463  1025A      1.237772  1026A      1.238845  
    1027A      1.239887  1028A      1.241302  1029A      1.243043  
    1030A      1.244322  1031A      1.247713  1032A      1.248120  
    1033A      1.251081  1034A      1.253385  1035A      1.254947  
    1036A      1.255871  1037A      1.256988  1038A      1.258740  
    1039A      1.259894  1040A      1.262644  1041A      1.263500  
    1042A      1.265436  1043A      1.267204  1044A      1.268071  
    1045A      1.269279  1046A      1.270641  1047A      1.271870  
    1048A      1.272914  1049A      1.275270  1050A      1.277020  
    1051A      1.277326  1052A      1.279686  1053A      1.280384  
    1054A      1.281240  1055A      1.284639  1056A      1.286969  
    1057A      1.288087  1058A      1.288946  1059A      1.289747  
    1060A      1.290805  1061A      1.294518  1062A      1.294973  
    1063A      1.297884  1064A      1.298793  1065A      1.301388  
    1066A      1.303144  1067A      1.306835  1068A      1.307312  
    1069A      1.309643  1070A      1.310592  1071A      1.311426  
    1072A      1.312153  1073A      1.313475  1074A      1.317746  
    1075A      1.319516  1076A      1.321670  1077A      1.322873  
    1078A      1.323639  1079A      1.324875  1080A      1.327040  
    1081A      1.328857  1082A      1.330819  1083A      1.331750  
    1084A      1.334732  1085A      1.336171  1086A      1.337265  
    1087A      1.337734  1088A      1.339173  1089A      1.340936  
    1090A      1.342142  1091A      1.343783  1092A      1.344280  
    1093A      1.346981  1094A      1.348169  1095A      1.349718  
    1096A      1.350437  1097A      1.353331  1098A      1.356606  
    1099A      1.358088  1100A      1.361359  1101A      1.362959  
    1102A      1.364400  1103A      1.365959  1104A      1.366454  
    1105A      1.369941  1106A      1.371534  1107A      1.373129  
    1108A      1.374448  1109A      1.375842  1110A      1.377700  
    1111A      1.379768  1112A      1.380471  1113A      1.382017  
    1114A      1.383497  1115A      1.384990  1116A      1.386917  
    1117A      1.389526  1118A      1.390004  1119A      1.392085  
    1120A      1.394165  1121A      1.394562  1122A      1.396164  
    1123A      1.396910  1124A      1.397969  1125A      1.399494  
    1126A      1.400268  1127A      1.402531  1128A      1.403313  
    1129A      1.405410  1130A      1.407926  1131A      1.408594  
    1132A      1.409674  1133A      1.411213  1134A      1.412063  
    1135A      1.414026  1136A      1.417404  1137A      1.418730  
    1138A      1.421754  1139A      1.421850  1140A      1.423558  
    1141A      1.426001  1142A      1.427731  1143A      1.428283  
    1144A      1.429573  1145A      1.430203  1146A      1.432493  
    1147A      1.433358  1148A      1.434395  1149A      1.436091  
    1150A      1.436772  1151A      1.438532  1152A      1.440924  
    1153A      1.442054  1154A      1.442658  1155A      1.443906  
    1156A      1.446398  1157A      1.447835  1158A      1.449552  
    1159A      1.451681  1160A      1.453366  1161A      1.454353  
    1162A      1.455932  1163A      1.458397  1164A      1.459523  
    1165A      1.462396  1166A      1.463662  1167A      1.464973  
    1168A      1.467195  1169A      1.467768  1170A      1.468777  
    1171A      1.470250  1172A      1.471564  1173A      1.473114  
    1174A      1.474346  1175A      1.475678  1176A      1.478773  
    1177A      1.480335  1178A      1.482071  1179A      1.483082  
    1180A      1.484077  1181A      1.487033  1182A      1.489148  
    1183A      1.490063  1184A      1.492336  1185A      1.493592  
    1186A      1.495802  1187A      1.496609  1188A      1.498308  
    1189A      1.501351  1190A      1.503220  1191A      1.505231  
    1192A      1.505709  1193A      1.508274  1194A      1.510311  
    1195A      1.510979  1196A      1.511446  1197A      1.512534  
    1198A      1.513815  1199A      1.514626  1200A      1.517514  
    1201A      1.519830  1202A      1.521560  1203A      1.523003  
    1204A      1.523823  1205A      1.525814  1206A      1.526265  
    1207A      1.528668  1208A      1.530551  1209A      1.530823  
    1210A      1.535794  1211A      1.537346  1212A      1.539128  
    1213A      1.540401  1214A      1.541947  1215A      1.544155  
    1216A      1.544742  1217A      1.546017  1218A      1.546308  
    1219A      1.548976  1220A      1.550703  1221A      1.551424  
    1222A      1.553225  1223A      1.555077  1224A      1.556516  
    1225A      1.559728  1226A      1.560981  1227A      1.564108  
    1228A      1.564708  1229A      1.566459  1230A      1.567342  
    1231A      1.569037  1232A      1.570726  1233A      1.572551  
    1234A      1.573724  1235A      1.574831  1236A      1.578294  
    1237A      1.579392  1238A      1.580547  1239A      1.582264  
    1240A      1.583674  1241A      1.584938  1242A      1.586008  
    1243A      1.587018  1244A      1.589537  1245A      1.591321  
    1246A      1.591913  1247A      1.593598  1248A      1.596501  
    1249A      1.597433  1250A      1.599775  1251A      1.600428  
    1252A      1.602218  1253A      1.604602  1254A      1.605354  
    1255A      1.605929  1256A      1.607578  1257A      1.610266  
    1258A      1.612505  1259A      1.614526  1260A      1.616823  
    1261A      1.617600  1262A      1.618639  1263A      1.619048  
    1264A      1.620929  1265A      1.622164  1266A      1.625619  
    1267A      1.627266  1268A      1.627799  1269A      1.629550  
    1270A      1.631321  1271A      1.632224  1272A      1.633914  
    1273A      1.635707  1274A      1.636870  1275A      1.637322  
    1276A      1.639569  1277A      1.641567  1278A      1.641902  
    1279A      1.644235  1280A      1.645947  1281A      1.647341  
    1282A      1.648342  1283A      1.650107  1284A      1.651296  
    1285A      1.652784  1286A      1.654250  1287A      1.655807  
    1288A      1.657453  1289A      1.659113  1290A      1.662092  
    1291A      1.663291  1292A      1.666070  1293A      1.668250  
    1294A      1.668866  1295A      1.670179  1296A      1.671452  
    1297A      1.673880  1298A      1.676238  1299A      1.677267  
    1300A      1.679935  1301A      1.682269  1302A      1.684438  
    1303A      1.685947  1304A      1.687418  1305A      1.688925  
    1306A      1.690238  1307A      1.691352  1308A      1.693361  
    1309A      1.693777  1310A      1.695633  1311A      1.698555  
    1312A      1.699546  1313A      1.699846  1314A      1.703040  
    1315A      1.703604  1316A      1.707380  1317A      1.709617  
    1318A      1.710604  1319A      1.711480  1320A      1.712821  
    1321A      1.715129  1322A      1.716361  1323A      1.718045  
    1324A      1.721401  1325A      1.722180  1326A      1.724187  
    1327A      1.724993  1328A      1.726862  1329A      1.728937  
    1330A      1.731676  1331A      1.733227  1332A      1.734421  
    1333A      1.734883  1334A      1.737040  1335A      1.738669  
    1336A      1.739931  1337A      1.743610  1338A      1.744226  
    1339A      1.745688  1340A      1.747266  1341A      1.748919  
    1342A      1.750802  1343A      1.751508  1344A      1.753357  
    1345A      1.754438  1346A      1.757203  1347A      1.758250  
    1348A      1.759190  1349A      1.761973  1350A      1.764714  
    1351A      1.765283  1352A      1.766438  1353A      1.767397  
    1354A      1.773108  1355A      1.773799  1356A      1.774090  
    1357A      1.774962  1358A      1.778989  1359A      1.781780  
    1360A      1.783459  1361A      1.783933  1362A      1.784569  
    1363A      1.787253  1364A      1.787437  1365A      1.788566  
    1366A      1.791595  1367A      1.792576  1368A      1.794214  
    1369A      1.796714  1370A      1.799569  1371A      1.801891  
    1372A      1.802751  1373A      1.806096  1374A      1.807895  
    1375A      1.809312  1376A      1.810500  1377A      1.811408  
    1378A      1.812784  1379A      1.815040  1380A      1.816220  
    1381A      1.818031  1382A      1.819524  1383A      1.820812  
    1384A      1.823509  1385A      1.826290  1386A      1.827087  
    1387A      1.829752  1388A      1.830808  1389A      1.831318  
    1390A      1.833417  1391A      1.833923  1392A      1.838330  
    1393A      1.840211  1394A      1.842542  1395A      1.844297  
    1396A      1.845947  1397A      1.847341  1398A      1.850924  
    1399A      1.852637  1400A      1.854962  1401A      1.855633  
    1402A      1.856775  1403A      1.857868  1404A      1.862803  
    1405A      1.866034  1406A      1.866755  1407A      1.870298  
    1408A      1.870748  1409A      1.871735  1410A      1.873105  
    1411A      1.876322  1412A      1.877990  1413A      1.881245  
    1414A      1.882211  1415A      1.884313  1416A      1.885388  
    1417A      1.887665  1418A      1.889090  1419A      1.890437  
    1420A      1.894178  1421A      1.895849  1422A      1.896347  
    1423A      1.898897  1424A      1.899769  1425A      1.901906  
    1426A      1.905462  1427A      1.906970  1428A      1.907566  
    1429A      1.908880  1430A      1.911061  1431A      1.911878  
    1432A      1.914167  1433A      1.917799  1434A      1.919583  
    1435A      1.920067  1436A      1.923183  1437A      1.925498  
    1438A      1.925708  1439A      1.928793  1440A      1.930488  
    1441A      1.933150  1442A      1.934713  1443A      1.937543  
    1444A      1.939795  1445A      1.942441  1446A      1.945363  
    1447A      1.946466  1448A      1.946722  1449A      1.948989  
    1450A      1.951430  1451A      1.953482  1452A      1.956446  
    1453A      1.957046  1454A      1.960243  1455A      1.960598  
    1456A      1.962665  1457A      1.964800  1458A      1.966601  
    1459A      1.969446  1460A      1.970513  1461A      1.971531  
    1462A      1.972884  1463A      1.977024  1464A      1.979253  
    1465A      1.980710  1466A      1.982389  1467A      1.983108  
    1468A      1.984471  1469A      1.986907  1470A      1.988207  
    1471A      1.991641  1472A      1.992702  1473A      1.994369  
    1474A      1.996043  1475A      1.998043  1476A      1.998903  
    1477A      2.000965  1478A      2.002636  1479A      2.005257  
    1480A      2.008163  1481A      2.009507  1482A      2.010524  
    1483A      2.012048  1484A      2.015305  1485A      2.017867  
    1486A      2.019068  1487A      2.019898  1488A      2.021695  
    1489A      2.024554  1490A      2.025738  1491A      2.026330  
    1492A      2.028895  1493A      2.030203  1494A      2.032093  
    1495A      2.034260  1496A      2.034750  1497A      2.038638  
    1498A      2.039595  1499A      2.041327  1500A      2.043102  
    1501A      2.045026  1502A      2.046076  1503A      2.049068  
    1504A      2.053323  1505A      2.054777  1506A      2.056583  
    1507A      2.058825  1508A      2.059243  1509A      2.062698  
    1510A      2.063983  1511A      2.068769  1512A      2.069350  
    1513A      2.072461  1514A      2.073682  1515A      2.075458  
    1516A      2.076238  1517A      2.077906  1518A      2.078993  
    1519A      2.082333  1520A      2.084346  1521A      2.085634  
    1522A      2.087080  1523A      2.089330  1524A      2.091377  
    1525A      2.092092  1526A      2.094750  1527A      2.096284  
    1528A      2.097843  1529A      2.098339  1530A      2.100587  
    1531A      2.103369  1532A      2.106384  1533A      2.107095  
    1534A      2.110812  1535A      2.112046  1536A      2.112739  
    1537A      2.115208  1538A      2.116495  1539A      2.119365  
    1540A      2.119967  1541A      2.125326  1542A      2.128723  
    1543A      2.129838  1544A      2.131851  1545A      2.132774  
    1546A      2.133954  1547A      2.136859  1548A      2.138501  
    1549A      2.140490  1550A      2.143019  1551A      2.146831  
    1552A      2.148826  1553A      2.150539  1554A      2.150996  
    1555A      2.152799  1556A      2.156014  1557A      2.157268  
    1558A      2.160394  1559A      2.160957  1560A      2.163082  
    1561A      2.166250  1562A      2.169172  1563A      2.171983  
    1564A      2.172751  1565A      2.173497  1566A      2.175318  
    1567A      2.176646  1568A      2.182965  1569A      2.183500  
    1570A      2.185398  1571A      2.186879  1572A      2.187969  
    1573A      2.191293  1574A      2.192293  1575A      2.195259  
    1576A      2.196129  1577A      2.199513  1578A      2.202805  
    1579A      2.204059  1580A      2.206870  1581A      2.207569  
    1582A      2.208885  1583A      2.213429  1584A      2.214560  
    1585A      2.216518  1586A      2.218163  1587A      2.218673  
    1588A      2.224972  1589A      2.228043  1590A      2.229242  
    1591A      2.233196  1592A      2.234558  1593A      2.236065  
    1594A      2.238931  1595A      2.241553  1596A      2.244574  
    1597A      2.245620  1598A      2.247337  1599A      2.249991  
    1600A      2.251453  1601A      2.253723  1602A      2.256319  
    1603A      2.258228  1604A      2.260484  1605A      2.262863  
    1606A      2.265167  1607A      2.265426  1608A      2.270399  
    1609A      2.272427  1610A      2.275277  1611A      2.277558  
    1612A      2.279381  1613A      2.280557  1614A      2.283879  
    1615A      2.285176  1616A      2.287661  1617A      2.289855  
    1618A      2.292261  1619A      2.293875  1620A      2.295058  
    1621A      2.297508  1622A      2.300143  1623A      2.302734  
    1624A      2.303971  1625A      2.304456  1626A      2.307567  
    1627A      2.311682  1628A      2.312373  1629A      2.312999  
    1630A      2.317874  1631A      2.319089  1632A      2.321618  
    1633A      2.322746  1634A      2.324124  1635A      2.327498  
    1636A      2.329712  1637A      2.331557  1638A      2.332607  
    1639A      2.336140  1640A      2.337724  1641A      2.338622  
    1642A      2.342307  1643A      2.342528  1644A      2.344270  
    1645A      2.347646  1646A      2.348182  1647A      2.351969  
    1648A      2.353965  1649A      2.355174  1650A      2.356141  
    1651A      2.358308  1652A      2.359687  1653A      2.362126  
    1654A      2.364998  1655A      2.367719  1656A      2.368590  
    1657A      2.370136  1658A      2.373066  1659A      2.374243  
    1660A      2.375128  1661A      2.376757  1662A      2.379365  
    1663A      2.379746  1664A      2.384085  1665A      2.386779  
    1666A      2.389496  1667A      2.393138  1668A      2.394107  
    1669A      2.399599  1670A      2.401317  1671A      2.401622  
    1672A      2.405274  1673A      2.409442  1674A      2.410235  
    1675A      2.411497  1676A      2.412894  1677A      2.416881  
    1678A      2.418613  1679A      2.421189  1680A      2.425254  
    1681A      2.429012  1682A      2.429813  1683A      2.430352  
    1684A      2.433303  1685A      2.435386  1686A      2.437588  
    1687A      2.441240  1688A      2.446466  1689A      2.447248  
    1690A      2.449525  1691A      2.452154  1692A      2.454153  
    1693A      2.457718  1694A      2.459279  1695A      2.461004  
    1696A      2.462785  1697A      2.465209  1698A      2.466240  
    1699A      2.468534  1700A      2.471046  1701A      2.474540  
    1702A      2.476921  1703A      2.479807  1704A      2.484861  
    1705A      2.486781  1706A      2.488667  1707A      2.491582  
    1708A      2.494392  1709A      2.499815  1710A      2.501611  
    1711A      2.502832  1712A      2.506219  1713A      2.507959  
    1714A      2.509651  1715A      2.510770  1716A      2.512038  
    1717A      2.514826  1718A      2.517805  1719A      2.520261  
    1720A      2.523383  1721A      2.523618  1722A      2.525113  
    1723A      2.527576  1724A      2.531079  1725A      2.533070  
    1726A      2.537225  1727A      2.537852  1728A      2.540728  
    1729A      2.541625  1730A      2.543624  1731A      2.547801  
    1732A      2.551345  1733A      2.556640  1734A      2.557340  
    1735A      2.560179  1736A      2.561997  1737A      2.563451  
    1738A      2.570854  1739A      2.572124  1740A      2.574192  
    1741A      2.577865  1742A      2.579123  1743A      2.583321  
    1744A      2.589584  1745A      2.590823  1746A      2.591965  
    1747A      2.596966  1748A      2.598462  1749A      2.600176  
    1750A      2.601404  1751A      2.605289  1752A      2.607143  
    1753A      2.610043  1754A      2.611387  1755A      2.618060  
    1756A      2.620545  1757A      2.622932  1758A      2.624039  
    1759A      2.626694  1760A      2.630089  1761A      2.630862  
    1762A      2.632289  1763A      2.640120  1764A      2.641356  
    1765A      2.644792  1766A      2.645568  1767A      2.648803  
    1768A      2.650991  1769A      2.652058  1770A      2.654339  
    1771A      2.657148  1772A      2.657932  1773A      2.663032  
    1774A      2.664013  1775A      2.665367  1776A      2.670222  
    1777A      2.672561  1778A      2.673067  1779A      2.676672  
    1780A      2.679959  1781A      2.681491  1782A      2.685472  
    1783A      2.687180  1784A      2.691995  1785A      2.694535  
    1786A      2.695660  1787A      2.696538  1788A      2.701108  
    1789A      2.702862  1790A      2.703773  1791A      2.706931  
    1792A      2.709436  1793A      2.712599  1794A      2.717064  
    1795A      2.717260  1796A      2.721561  1797A      2.726151  
    1798A      2.726653  1799A      2.732246  1800A      2.734106  
    1801A      2.736566  1802A      2.740117  1803A      2.741308  
    1804A      2.743404  1805A      2.747570  1806A      2.751620  
    1807A      2.753678  1808A      2.755349  1809A      2.758691  
    1810A      2.764667  1811A      2.766963  1812A      2.770365  
    1813A      2.772232  1814A      2.775877  1815A      2.778921  
    1816A      2.783793  1817A      2.786781  1818A      2.789421  
    1819A      2.792608  1820A      2.793725  1821A      2.796298  
    1822A      2.799319  1823A      2.800335  1824A      2.803875  
    1825A      2.804993  1826A      2.808997  1827A      2.811609  
    1828A      2.814847  1829A      2.818226  1830A      2.819473  
    1831A      2.824141  1832A      2.826665  1833A      2.827150  
    1834A      2.829375  1835A      2.832136  1836A      2.835783  
    1837A      2.836245  1838A      2.843593  1839A      2.847962  
    1840A      2.850058  1841A      2.853495  1842A      2.857218  
    1843A      2.861471  1844A      2.863512  1845A      2.868818  
    1846A      2.874363  1847A      2.874981  1848A      2.880081  
    1849A      2.884719  1850A      2.886854  1851A      2.890437  
    1852A      2.891468  1853A      2.892387  1854A      2.895996  
    1855A      2.901326  1856A      2.904270  1857A      2.904646  
    1858A      2.910076  1859A      2.910833  1860A      2.914198  
    1861A      2.918628  1862A      2.928367  1863A      2.931947  
    1864A      2.933356  1865A      2.937492  1866A      2.940759  
    1867A      2.943922  1868A      2.946981  1869A      2.948650  
    1870A      2.953309  1871A      2.960093  1872A      2.962211  
    1873A      2.964649  1874A      2.970792  1875A      2.973622  
    1876A      2.980197  1877A      2.983009  1878A      2.985149  
    1879A      2.990441  1880A      2.993341  1881A      3.000565  
    1882A      3.006108  1883A      3.008802  1884A      3.013399  
    1885A      3.018304  1886A      3.018626  1887A      3.022684  
    1888A      3.026721  1889A      3.029051  1890A      3.032779  
    1891A      3.033459  1892A      3.036988  1893A      3.041872  
    1894A      3.044778  1895A      3.048714  1896A      3.051457  
    1897A      3.054765  1898A      3.058474  1899A      3.067734  
    1900A      3.070260  1901A      3.072108  1902A      3.078557  
    1903A      3.080311  1904A      3.082639  1905A      3.089867  
    1906A      3.092419  1907A      3.096636  1908A      3.101789  
    1909A      3.105454  1910A      3.110687  1911A      3.113552  
    1912A      3.115635  1913A      3.118277  1914A      3.123100  
    1915A      3.127382  1916A      3.129624  1917A      3.136624  
    1918A      3.140127  1919A      3.142416  1920A      3.144471  
    1921A      3.150349  1922A      3.151509  1923A      3.152019  
    1924A      3.157346  1925A      3.159023  1926A      3.164412  
    1927A      3.167060  1928A      3.172185  1929A      3.173000  
    1930A      3.179481  1931A      3.181307  1932A      3.186846  
    1933A      3.189125  1934A      3.192023  1935A      3.194686  
    1936A      3.199033  1937A      3.199227  1938A      3.204306  
    1939A      3.205837  1940A      3.209073  1941A      3.211206  
    1942A      3.216206  1943A      3.217610  1944A      3.222976  
    1945A      3.223732  1946A      3.227718  1947A      3.233366  
    1948A      3.237024  1949A      3.239967  1950A      3.244693  
    1951A      3.246851  1952A      3.253240  1953A      3.256769  
    1954A      3.260633  1955A      3.265569  1956A      3.265936  
    1957A      3.267741  1958A      3.270225  1959A      3.276164  
    1960A      3.278973  1961A      3.280576  1962A      3.283203  
    1963A      3.287326  1964A      3.288685  1965A      3.293153  
    1966A      3.298117  1967A      3.300743  1968A      3.304215  
    1969A      3.306775  1970A      3.308119  1971A      3.309328  
    1972A      3.313881  1973A      3.316250  1974A      3.318288  
    1975A      3.321755  1976A      3.327367  1977A      3.331259  
    1978A      3.332784  1979A      3.334686  1980A      3.336687  
    1981A      3.338035  1982A      3.340562  1983A      3.343517  
    1984A      3.347390  1985A      3.349655  1986A      3.350543  
    1987A      3.352270  1988A      3.357314  1989A      3.359209  
    1990A      3.362358  1991A      3.364541  1992A      3.366462  
    1993A      3.367448  1994A      3.371637  1995A      3.374941  
    1996A      3.379149  1997A      3.380891  1998A      3.384101  
    1999A      3.386414  2000A      3.389725  2001A      3.391194  
    2002A      3.393274  2003A      3.394759  2004A      3.395607  
    2005A      3.401319  2006A      3.403596  2007A      3.405988  
    2008A      3.408283  2009A      3.411595  2010A      3.414349  
    2011A      3.419053  2012A      3.419184  2013A      3.425746  
    2014A      3.426487  2015A      3.429740  2016A      3.431115  
    2017A      3.433861  2018A      3.438071  2019A      3.440062  
    2020A      3.441776  2021A      3.442583  2022A      3.447502  
    2023A      3.450173  2024A      3.452857  2025A      3.454244  
    2026A      3.455622  2027A      3.456661  2028A      3.461532  
    2029A      3.463114  2030A      3.465592  2031A      3.468185  
    2032A      3.470821  2033A      3.472915  2034A      3.475041  
    2035A      3.478265  2036A      3.478371  2037A      3.479478  
    2038A      3.481795  2039A      3.484562  2040A      3.489083  
    2041A      3.491288  2042A      3.493348  2043A      3.494627  
    2044A      3.497240  2045A      3.497384  2046A      3.500891  
    2047A      3.502012  2048A      3.503577  2049A      3.505542  
    2050A      3.508737  2051A      3.511510  2052A      3.513814  
    2053A      3.517590  2054A      3.518738  2055A      3.521143  
    2056A      3.523258  2057A      3.527317  2058A      3.530195  
    2059A      3.530820  2060A      3.534506  2061A      3.537774  
    2062A      3.539417  2063A      3.540612  2064A      3.541821  
    2065A      3.544657  2066A      3.547400  2067A      3.549898  
    2068A      3.552047  2069A      3.553580  2070A      3.556278  
    2071A      3.559838  2072A      3.560512  2073A      3.562168  
    2074A      3.563706  2075A      3.569965  2076A      3.570773  
    2077A      3.572113  2078A      3.574202  2079A      3.576159  
    2080A      3.579007  2081A      3.581907  2082A      3.582746  
    2083A      3.585159  2084A      3.587555  2085A      3.589341  
    2086A      3.591719  2087A      3.593309  2088A      3.597869  
    2089A      3.601047  2090A      3.602877  2091A      3.604175  
    2092A      3.606177  2093A      3.608237  2094A      3.608753  
    2095A      3.612100  2096A      3.614740  2097A      3.617665  
    2098A      3.619671  2099A      3.622399  2100A      3.624229  
    2101A      3.627488  2102A      3.627806  2103A      3.629932  
    2104A      3.637553  2105A      3.638395  2106A      3.640453  
    2107A      3.640867  2108A      3.642602  2109A      3.644230  
    2110A      3.651705  2111A      3.653119  2112A      3.656714  
    2113A      3.657385  2114A      3.659336  2115A      3.661712  
    2116A      3.663186  2117A      3.665545  2118A      3.666116  
    2119A      3.669215  2120A      3.670775  2121A      3.672700  
    2122A      3.673948  2123A      3.676812  2124A      3.680334  
    2125A      3.680535  2126A      3.682226  2127A      3.684829  
    2128A      3.685435  2129A      3.690851  2130A      3.693448  
    2131A      3.693961  2132A      3.696286  2133A      3.697112  
    2134A      3.702859  2135A      3.704624  2136A      3.706190  
    2137A      3.707388  2138A      3.710503  2139A      3.711567  
    2140A      3.713175  2141A      3.714812  2142A      3.718482  
    2143A      3.719520  2144A      3.722235  2145A      3.724438  
    2146A      3.726642  2147A      3.729613  2148A      3.731558  
    2149A      3.733644  2150A      3.735296  2151A      3.736284  
    2152A      3.736797  2153A      3.741664  2154A      3.741982  
    2155A      3.743896  2156A      3.747910  2157A      3.750049  
    2158A      3.751818  2159A      3.755262  2160A      3.757848  
    2161A      3.760461  2162A      3.761938  2163A      3.762243  
    2164A      3.766885  2165A      3.770478  2166A      3.771786  
    2167A      3.772277  2168A      3.776124  2169A      3.776765  
    2170A      3.780263  2171A      3.782025  2172A      3.784786  
    2173A      3.786043  2174A      3.788462  2175A      3.790526  
    2176A      3.793049  2177A      3.795010  2178A      3.798429  
    2179A      3.801066  2180A      3.804077  2181A      3.804621  
    2182A      3.806944  2183A      3.808534  2184A      3.811883  
    2185A      3.813761  2186A      3.814603  2187A      3.816862  
    2188A      3.819846  2189A      3.821531  2190A      3.823947  
    2191A      3.824663  2192A      3.829318  2193A      3.831636  
    2194A      3.833176  2195A      3.835695  2196A      3.836676  
    2197A      3.838724  2198A      3.841056  2199A      3.844499  
    2200A      3.845701  2201A      3.848090  2202A      3.852619  
    2203A      3.854980  2204A      3.856852  2205A      3.858617  
    2206A      3.860692  2207A      3.862246  2208A      3.865589  
    2209A      3.865879  2210A      3.868490  2211A      3.873642  
    2212A      3.875928  2213A      3.878550  2214A      3.879029  
    2215A      3.882305  2216A      3.884886  2217A      3.885377  
    2218A      3.886421  2219A      3.889555  2220A      3.891986  
    2221A      3.892262  2222A      3.894449  2223A      3.897483  
    2224A      3.900160  2225A      3.900415  2226A      3.901737  
    2227A      3.903259  2228A      3.904404  2229A      3.909334  
    2230A      3.910221  2231A      3.912989  2232A      3.915400  
    2233A      3.919154  2234A      3.919761  2235A      3.924102  
    2236A      3.926533  2237A      3.929365  2238A      3.929791  
    2239A      3.934365  2240A      3.935037  2241A      3.940205  
    2242A      3.940498  2243A      3.941746  2244A      3.943633  
    2245A      3.946742  2246A      3.950734  2247A      3.953227  
    2248A      3.955020  2249A      3.955456  2250A      3.961470  
    2251A      3.961931  2252A      3.964008  2253A      3.964908  
    2254A      3.968112  2255A      3.971971  2256A      3.973902  
    2257A      3.976027  2258A      3.976520  2259A      3.981346  
    2260A      3.984310  2261A      3.985257  2262A      3.987838  
    2263A      3.989657  2264A      3.994217  2265A      3.994981  
    2266A      3.998816  2267A      4.001264  2268A      4.004033  
    2269A      4.007785  2270A      4.010413  2271A      4.012519  
    2272A      4.013742  2273A      4.014552  2274A      4.015955  
    2275A      4.018312  2276A      4.020554  2277A      4.022579  
    2278A      4.025298  2279A      4.029131  2280A      4.032278  
    2281A      4.034960  2282A      4.035591  2283A      4.039360  
    2284A      4.040855  2285A      4.042256  2286A      4.044732  
    2287A      4.047493  2288A      4.052091  2289A      4.054535  
    2290A      4.055861  2291A      4.058566  2292A      4.059349  
    2293A      4.060264  2294A      4.062181  2295A      4.067051  
    2296A      4.069194  2297A      4.070193  2298A      4.073821  
    2299A      4.076375  2300A      4.077468  2301A      4.079780  
    2302A      4.081147  2303A      4.082406  2304A      4.088512  
    2305A      4.091545  2306A      4.092649  2307A      4.094721  
    2308A      4.097603  2309A      4.100254  2310A      4.103799  
    2311A      4.104689  2312A      4.107290  2313A      4.112859  
    2314A      4.113546  2315A      4.116535  2316A      4.118748  
    2317A      4.121893  2318A      4.124485  2319A      4.124660  
    2320A      4.129981  2321A      4.131418  2322A      4.135796  
    2323A      4.137576  2324A      4.139823  2325A      4.142197  
    2326A      4.145352  2327A      4.147249  2328A      4.150623  
    2329A      4.151601  2330A      4.153752  2331A      4.155526  
    2332A      4.160411  2333A      4.162639  2334A      4.164456  
    2335A      4.168299  2336A      4.169892  2337A      4.172695  
    2338A      4.174758  2339A      4.175336  2340A      4.177062  
    2341A      4.180405  2342A      4.182859  2343A      4.183820  
    2344A      4.186178  2345A      4.188011  2346A      4.190568  
    2347A      4.191706  2348A      4.194744  2349A      4.196061  
    2350A      4.197709  2351A      4.200689  2352A      4.202780  
    2353A      4.205948  2354A      4.208578  2355A      4.212517  
    2356A      4.212905  2357A      4.217408  2358A      4.218572  
    2359A      4.219648  2360A      4.222359  2361A      4.224083  
    2362A      4.226209  2363A      4.227942  2364A      4.229507  
    2365A      4.230948  2366A      4.234642  2367A      4.238125  
    2368A      4.241585  2369A      4.242929  2370A      4.245782  
    2371A      4.246431  2372A      4.249226  2373A      4.252216  
    2374A      4.254869  2375A      4.260287  2376A      4.261304  
    2377A      4.262875  2378A      4.264321  2379A      4.266892  
    2380A      4.269937  2381A      4.272443  2382A      4.273422  
    2383A      4.275933  2384A      4.278477  2385A      4.280131  
    2386A      4.281787  2387A      4.286598  2388A      4.288203  
    2389A      4.290023  2390A      4.293198  2391A      4.293395  
    2392A      4.296865  2393A      4.298259  2394A      4.300273  
    2395A      4.304239  2396A      4.305383  2397A      4.307019  
    2398A      4.310914  2399A      4.312938  2400A      4.315641  
    2401A      4.317066  2402A      4.318101  2403A      4.322738  
    2404A      4.323580  2405A      4.325288  2406A      4.327263  
    2407A      4.329596  2408A      4.330744  2409A      4.337128  
    2410A      4.339191  2411A      4.341923  2412A      4.346661  
    2413A      4.347232  2414A      4.349130  2415A      4.351344  
    2416A      4.356061  2417A      4.356714  2418A      4.360740  
    2419A      4.363452  2420A      4.364491  2421A      4.368248  
    2422A      4.369289  2423A      4.371203  2424A      4.377376  
    2425A      4.380412  2426A      4.383111  2427A      4.384984  
    2428A      4.387195  2429A      4.389714  2430A      4.395072  
    2431A      4.398575  2432A      4.400900  2433A      4.402593  
    2434A      4.403816  2435A      4.407109  2436A      4.410952  
    2437A      4.414517  2438A      4.415661  2439A      4.415846  
    2440A      4.420109  2441A      4.422454  2442A      4.424324  
    2443A      4.426276  2444A      4.429373  2445A      4.432587  
    2446A      4.434617  2447A      4.436953  2448A      4.438723  
    2449A      4.440385  2450A      4.442124  2451A      4.445751  
    2452A      4.448548  2453A      4.449424  2454A      4.451334  
    2455A      4.456382  2456A      4.456792  2457A      4.459194  
    2458A      4.463419  2459A      4.465659  2460A      4.469022  
    2461A      4.471108  2462A      4.472010  2463A      4.472666  
    2464A      4.478313  2465A      4.480988  2466A      4.482425  
    2467A      4.484790  2468A      4.488062  2469A      4.489899  
    2470A      4.491964  2471A      4.497086  2472A      4.498459  
    2473A      4.502443  2474A      4.502633  2475A      4.505327  
    2476A      4.509892  2477A      4.511915  2478A      4.513209  
    2479A      4.514854  2480A      4.517249  2481A      4.520405  
    2482A      4.522809  2483A      4.523373  2484A      4.527880  
    2485A      4.530960  2486A      4.532994  2487A      4.536372  
    2488A      4.537532  2489A      4.539732  2490A      4.540102  
    2491A      4.544547  2492A      4.547050  2493A      4.552505  
    2494A      4.553997  2495A      4.554348  2496A      4.555464  
    2497A      4.559543  2498A      4.560985  2499A      4.563993  
    2500A      4.568668  2501A      4.570510  2502A      4.573134  
    2503A      4.575310  2504A      4.576787  2505A      4.580188  
    2506A      4.586943  2507A      4.587974  2508A      4.592120  
    2509A      4.592983  2510A      4.596411  2511A      4.600155  
    2512A      4.604319  2513A      4.607171  2514A      4.608087  
    2515A      4.611856  2516A      4.615051  2517A      4.616733  
    2518A      4.617549  2519A      4.618048  2520A      4.622642  
    2521A      4.623321  2522A      4.628222  2523A      4.629296  
    2524A      4.631320  2525A      4.637458  2526A      4.640670  
    2527A      4.643537  2528A      4.645419  2529A      4.650274  
    2530A      4.653897  2531A      4.654823  2532A      4.658022  
    2533A      4.661888  2534A      4.665738  2535A      4.667584  
    2536A      4.670020  2537A      4.673244  2538A      4.675220  
    2539A      4.677306  2540A      4.680889  2541A      4.682818  
    2542A      4.684839  2543A      4.689986  2544A      4.693318  
    2545A      4.696961  2546A      4.698647  2547A      4.700365  
    2548A      4.703180  2549A      4.706879  2550A      4.711684  
    2551A      4.714625  2552A      4.716067  2553A      4.719146  
    2554A      4.722706  2555A      4.726055  2556A      4.727753  
    2557A      4.731446  2558A      4.732628  2559A      4.739580  
    2560A      4.740517  2561A      4.744005  2562A      4.745981  
    2563A      4.748015  2564A      4.750217  2565A      4.751314  
    2566A      4.755722  2567A      4.757107  2568A      4.759492  
    2569A      4.761145  2570A      4.767074  2571A      4.769111  
    2572A      4.773067  2573A      4.777983  2574A      4.779648  
    2575A      4.781715  2576A      4.784222  2577A      4.786450  
    2578A      4.789954  2579A      4.790732  2580A      4.795557  
    2581A      4.796678  2582A      4.799923  2583A      4.801339  
    2584A      4.806399  2585A      4.808692  2586A      4.810356  
    2587A      4.811387  2588A      4.815086  2589A      4.818527  
    2590A      4.819102  2591A      4.822997  2592A      4.825764  
    2593A      4.827821  2594A      4.832828  2595A      4.838540  
    2596A      4.840034  2597A      4.842474  2598A      4.842818  
    2599A      4.845318  2600A      4.846037  2601A      4.855340  
    2602A      4.855871  2603A      4.860600  2604A      4.862519  
    2605A      4.866314  2606A      4.867021  2607A      4.871230  
    2608A      4.875066  2609A      4.876203  2610A      4.878350  
    2611A      4.880404  2612A      4.882950  2613A      4.887810  
    2614A      4.891122  2615A      4.897248  2616A      4.902985  
    2617A      4.907418  2618A      4.908749  2619A      4.911406  
    2620A      4.917852  2621A      4.919533  2622A      4.924022  
    2623A      4.928950  2624A      4.932726  2625A      4.935422  
    2626A      4.937441  2627A      4.939952  2628A      4.942628  
    2629A      4.947188  2630A      4.952508  2631A      4.953814  
    2632A      4.955811  2633A      4.959711  2634A      4.963044  
    2635A      4.964884  2636A      4.971698  2637A      4.973630  
    2638A      4.975242  2639A      4.978836  2640A      4.982919  
    2641A      4.987112  2642A      4.989449  2643A      4.994229  
    2644A      4.998121  2645A      4.999380  2646A      5.002413  
    2647A      5.004367  2648A      5.006063  2649A      5.009716  
    2650A      5.012974  2651A      5.016416  2652A      5.020387  
    2653A      5.020516  2654A      5.025978  2655A      5.027931  
    2656A      5.031429  2657A      5.032039  2658A      5.033556  
    2659A      5.044484  2660A      5.045530  2661A      5.049857  
    2662A      5.053128  2663A      5.056724  2664A      5.058517  
    2665A      5.061283  2666A      5.061864  2667A      5.066445  
    2668A      5.070068  2669A      5.074067  2670A      5.081685  
    2671A      5.085047  2672A      5.087914  2673A      5.091826  
    2674A      5.095898  2675A      5.098309  2676A      5.101390  
    2677A      5.103715  2678A      5.105368  2679A      5.112242  
    2680A      5.115268  2681A      5.117946  2682A      5.121694  
    2683A      5.123333  2684A      5.125654  2685A      5.129363  
    2686A      5.132829  2687A      5.137193  2688A      5.142456  
    2689A      5.144674  2690A      5.147903  2691A      5.153976  
    2692A      5.155750  2693A      5.159620  2694A      5.162857  
    2695A      5.163556  2696A      5.169895  2697A      5.172238  
    2698A      5.174808  2699A      5.178195  2700A      5.181159  
    2701A      5.182394  2702A      5.187433  2703A      5.191380  
    2704A      5.192520  2705A      5.196889  2706A      5.201122  
    2707A      5.202905  2708A      5.208621  2709A      5.212480  
    2710A      5.215053  2711A      5.218377  2712A      5.225203  
    2713A      5.231735  2714A      5.234154  2715A      5.238091  
    2716A      5.243804  2717A      5.246774  2718A      5.249542  
    2719A      5.254662  2720A      5.255130  2721A      5.261730  
    2722A      5.267609  2723A      5.273715  2724A      5.275377  
    2725A      5.277904  2726A      5.282238  2727A      5.286460  
    2728A      5.291691  2729A      5.294668  2730A      5.296817  
    2731A      5.301772  2732A      5.311209  2733A      5.313581  
    2734A      5.315671  2735A      5.318044  2736A      5.319415  
    2737A      5.326193  2738A      5.328137  2739A      5.330237  
    2740A      5.332428  2741A      5.337323  2742A      5.339386  
    2743A      5.341344  2744A      5.346966  2745A      5.350263  
    2746A      5.353892  2747A      5.358221  2748A      5.365111  
    2749A      5.369625  2750A      5.375511  2751A      5.379154  
    2752A      5.383296  2753A      5.389855  2754A      5.392065  
    2755A      5.396908  2756A      5.400165  2757A      5.411584  
    2758A      5.412902  2759A      5.420092  2760A      5.423695  
    2761A      5.425722  2762A      5.432396  2763A      5.435843  
    2764A      5.437839  2765A      5.443296  2766A      5.446741  
    2767A      5.448408  2768A      5.452109  2769A      5.454151  
    2770A      5.458914  2771A      5.459951  2772A      5.464474  
    2773A      5.468676  2774A      5.471098  2775A      5.475947  
    2776A      5.477566  2777A      5.479062  2778A      5.486001  
    2779A      5.487352  2780A      5.495381  2781A      5.497217  
    2782A      5.500919  2783A      5.501460  2784A      5.508299  
    2785A      5.510646  2786A      5.517842  2787A      5.521004  
    2788A      5.527636  2789A      5.532660  2790A      5.534489  
    2791A      5.539741  2792A      5.541766  2793A      5.552247  
    2794A      5.557949  2795A      5.563695  2796A      5.564685  
    2797A      5.565407  2798A      5.575077  2799A      5.581556  
    2800A      5.584850  2801A      5.586710  2802A      5.594584  
    2803A      5.605437  2804A      5.608212  2805A      5.612682  
    2806A      5.618361  2807A      5.620698  2808A      5.630034  
    2809A      5.638237  2810A      5.653849  2811A      5.659069  
    2812A      5.661108  2813A      5.663965  2814A      5.671054  
    2815A      5.675069  2816A      5.680739  2817A      5.686155  
    2818A      5.690595  2819A      5.696396  2820A      5.700962  
    2821A      5.704041  2822A      5.708735  2823A      5.716950  
    2824A      5.721595  2825A      5.728738  2826A      5.733857  
    2827A      5.739031  2828A      5.741561  2829A      5.745962  
    2830A      5.749836  2831A      5.757831  2832A      5.766637  
    2833A      5.772937  2834A      5.777351  2835A      5.788960  
    2836A      5.795310  2837A      5.806493  2838A      5.809459  
    2839A      5.816552  2840A      5.825238  2841A      5.835491  
    2842A      5.847648  2843A      5.853717  2844A      5.856418  
    2845A      5.866922  2846A      5.880750  2847A      5.889057  
    2848A      5.893114  2849A      5.893771  2850A      5.901497  
    2851A      5.907812  2852A      5.913729  2853A      5.915894  
    2854A      5.924829  2855A      5.957707  2856A      5.971174  
    2857A      5.974152  2858A      5.982164  2859A      5.982683  
    2860A      5.984458  2861A      5.997642  2862A      6.000918  
    2863A      6.006294  2864A      6.009504  2865A      6.018105  
    2866A      6.023239  2867A      6.025661  2868A      6.042995  
    2869A      6.046256  2870A      6.056474  2871A      6.064320  
    2872A      6.071886  2873A      6.086240  2874A      6.097740  
    2875A      6.106481  2876A      6.109994  2877A      6.121019  
    2878A      6.140159  2879A      6.161728  2880A      6.164638  
    2881A      6.172907  2882A      6.182170  2883A      6.194530  
    2884A      6.204688  2885A      6.217615  2886A      6.227473  
    2887A      6.233474  2888A      6.242914  2889A      6.243944  
    2890A      6.249848  2891A      6.262799  2892A      6.274405  
    2893A      6.293088  2894A      6.301049  2895A      6.310001  
    2896A      6.316488  2897A      6.318750  2898A      6.326463  
    2899A      6.330069  2900A      6.338151  2901A      6.341099  
    2902A      6.346951  2903A      6.352586  2904A      6.358859  
    2905A      6.361525  2906A      6.369337  2907A      6.375423  
    2908A      6.387542  2909A      6.392491  2910A      6.401322  
    2911A      6.409141  2912A      6.416771  2913A      6.420783  
    2914A      6.423757  2915A      6.445479  2916A      6.449520  
    2917A      6.460484  2918A      6.464925  2919A      6.466699  
    2920A      6.471156  2921A      6.479373  2922A      6.494151  
    2923A      6.497722  2924A      6.501405  2925A      6.516965  
    2926A      6.526185  2927A      6.534487  2928A      6.542089  
    2929A      6.572321  2930A      6.588060  2931A      6.606782  
    2932A      6.610661  2933A      6.617890  2934A      6.633698  
    2935A      6.641848  2936A      6.646960  2937A      6.656037  
    2938A      6.658984  2939A      6.665929  2940A      6.670172  
    2941A      6.673667  2942A      6.679480  2943A      6.686524  
    2944A      6.691720  2945A      6.697962  2946A      6.706940  
    2947A      6.710220  2948A      6.721608  2949A      6.736376  
    2950A      6.758050  2951A      6.768303  2952A      6.777855  
    2953A      6.787239  2954A      6.799242  2955A      6.800982  
    2956A      6.815140  2957A      6.817526  2958A      6.826438  
    2959A      6.831406  2960A      6.838916  2961A      6.852872  
    2962A      6.867005  2963A      6.877895  2964A      6.887531  
    2965A      6.893792  2966A      6.912437  2967A      6.921205  
    2968A      6.939551  2969A      6.967433  2970A      6.998467  
    2971A      7.019538  2972A      7.039491  2973A      7.097489  
    2974A      7.099776  2975A      7.107578  2976A      7.121524  
    2977A      7.132159  2978A      7.136076  2979A      7.141290  
    2980A      7.162589  2981A      7.174148  2982A      7.197324  
    2983A      7.209732  2984A      7.233996  2985A      7.275990  
    2986A      7.318671  2987A      7.336714  2988A      7.339010  
    2989A      7.355149  2990A      7.366190  2991A      7.379627  
    2992A      7.396868  2993A      7.402496  2994A      7.421231  
    2995A      7.445385  2996A      7.467950  2997A      7.479501  
    2998A      7.486442  2999A      7.555347  3000A      7.578258  
    3001A      7.592225  3002A      7.622933  3003A      7.642433  
    3004A      7.656098  3005A      7.674617  3006A      7.711969  
    3007A      7.716696  3008A      7.725276  3009A      7.736954  
    3010A      7.745120  3011A      7.778282  3012A      7.785042  
    3013A      7.803037  3014A      7.812204  3015A      7.825182  
    3016A      7.841185  3017A      7.863567  3018A      7.866151  
    3019A      7.899800  3020A      7.933894  3021A      7.946837  
    3022A      7.960783  3023A      7.975659  3024A      7.981945  
    3025A      8.012133  3026A      8.017064  3027A      8.037653  
    3028A      8.050624  3029A      8.084656  3030A      8.115361  
    3031A      8.126981  3032A      8.146002  3033A      8.155937  
    3034A      8.186848  3035A      8.262205  3036A      8.339892  
    3037A      8.351550  3038A      8.359458  3039A      8.405576  
    3040A      8.443513  3041A      8.445687  3042A      8.517136  
    3043A      8.563703  3044A      8.587474  3045A      8.704207  
    3046A      8.714824  3047A      8.742026  3048A      8.788777  
    3049A      8.990877  3050A      9.030197  3051A      9.131208  
    3052A      9.153182  3053A      9.280508  3054A      9.384906  
    3055A      9.508777  3056A      9.564020  3057A      9.678431  
    3058A      9.975060  3059A     10.026802  3060A     10.029776  
    3061A     10.042833  3062A     10.059858  3063A     10.103173  
    3064A     10.130426  3065A     10.140263  3066A     10.152114  
    3067A     10.182806  3068A     10.209602  3069A     10.217052  
    3070A     10.243853  3071A     10.313563  3072A     10.371165  
    3073A     10.373701  3074A     10.405602  3075A     10.409349  
    3076A     10.428859  3077A     10.508125  3078A     10.547985  
    3079A     10.566533  3080A     10.610598  3081A     10.636340  
    3082A     10.683973  3083A     10.757627  3084A     10.769898  
    3085A     10.778939  3086A     10.800504  3087A     10.821783  
    3088A     10.970882  3089A     11.011918  3090A     11.095233  
    3091A     11.159318  3092A     11.315335  3093A     11.345095  
    3094A     11.419447  3095A     11.448914  3096A     11.467250  
    3097A     11.941133  3098A     12.139902  3099A     12.222580  
    3100A     12.279894  3101A     12.339758  3102A     12.342846  
    3103A     12.388816  3104A     12.405807  3105A     12.433936  
    3106A     12.479719  3107A     12.583583  3108A     12.630680  
    3109A     12.722031  3110A     13.269765  3111A     13.360455  
    3112A     13.441063  3113A     13.463348  3114A     13.492720  
    3115A     13.524569  3116A     13.734518  3117A     14.685076  
    3118A     14.724261  3119A     14.788335  3120A     15.158584  
    3121A     15.173352  3122A     15.201620  3123A     15.334377  
    3124A     15.404051  3125A     15.429841  3126A     15.486362  
    3127A     15.501024  3128A     16.104690  3129A     16.282671  
    3130A     16.325423  3131A     16.387711  3132A     16.432662  
    3133A     16.826490  3134A     16.901535  3135A     17.373300  
    3136A     17.607595  3137A     17.627533  3138A     17.679789  
    3139A     17.914441  3140A     18.000360  3141A     18.116855  
    3142A     18.285932  3143A     18.342774  3144A     18.879468  
    3145A     19.080487  3146A     19.100608  3147A     19.410255  
    3148A     19.657770  3149A     19.683238  3150A     20.376061  
    3151A     20.656649  3152A     20.695895  3153A     20.818662  
    3154A     20.955320  3155A     21.286418  3156A     21.299320  
    3157A     21.324319  3158A     21.426001  3159A     21.494890  
    3160A     21.609587  3161A     21.736447  3162A     21.803796  
    3163A     21.892498  3164A     21.968150  3165A     22.213571  
    3166A     22.299812  3167A     22.605131  3168A     22.616734  
    3169A     51.899795  3170A     52.665448  3171A     57.907438  
    3172A     60.045239  3173A     61.123828  3174A     62.108474  
    3175A     65.029847  3176A     65.197236  3177A     69.153364  
    3178A     69.692733  3179A     76.136038  3180A     76.273867  
    3181A     81.652839  

    Final Occupation by Irrep:
              A 
    DOCC [   141 ]
    NA   [   141 ]
    NB   [   141 ]

  @DF-RKS Final Energy: -1690.36298376889272

   => Energetics <=

    Nuclear Repulsion Energy =           4517.2679062600536781
    One-Electron Energy =              -11281.2622590424525697
    Two-Electron Energy =                5241.8387950174319485
    DFT Exchange-Correlation Energy =    -168.1472400374779568
    Empirical Dispersion Energy =          -0.0601859664477881
    VV10 Nonlocal Energy =                  0.0000000000000000
    Total Energy =                      -1690.3629837688927182

Computation Completed


Properties will be evaluated at   0.000000,   0.000000,   0.000000 [a0]

Properties computed using the SCF density matrix


 Multipole Moments:

 ------------------------------------------------------------------------------------
     Multipole            Electronic (a.u.)      Nuclear  (a.u.)        Total (a.u.)
 ------------------------------------------------------------------------------------

 L = 1.  Multiply by 2.5417464519 to convert [e a0] to [Debye]
 Dipole X            :        -49.2643604           49.6634951            0.3991347
 Dipole Y            :        -74.2151181           74.6084292            0.3933111
 Dipole Z            :       -278.9356387          278.7915749           -0.1440637
 Magnitude           :                                                    0.5785814

 ------------------------------------------------------------------------------------

*** tstop() called on atl1-1-02-003-20-2.pace.gatech.edu at Sat Jun 13 16:20:05 2026
Module time:
	user time   =   79987.93 seconds =    1333.13 minutes
	system time =    5326.97 seconds =      88.78 minutes
	total time  =      12743 seconds =     212.38 minutes
Total time:
	user time   =   79987.93 seconds =    1333.13 minutes
	system time =    5326.97 seconds =      88.78 minutes
	total time  =      12743 seconds =     212.38 minutes

    Psi4 stopped on: Saturday, 13 June 2026 04:20PM
    Psi4 wall time for execution: 3:32:40.87

*** Psi4 exiting successfully. Buy a developer a beer!
